NAME: lc1_6_1
TYPE: PDPTW
COMMENT: Li & Lim PDPTW benchmark converted from SINTEF format
DIMENSION: 631
VEHICLES: 150
CAPACITY: 200
EDGE_WEIGHT_TYPE: EUC_2D
NODE_COORD_SECTION
1 150 150
2 17 205
3 153 254
4 229 219
5 214 156
6 121 260
7 29 277
8 47 277
9 85 224
10 105 230
11 160 111
12 65 69
13 63 233
14 143 111
15 173 233
16 85 24
17 277 100
18 166 105
19 141 137
20 100 73
21 61 70
22 161 210
23 30 280
24 129 98
25 62 65
26 256 239
27 9 144
28 174 228
29 203 156
30 251 241
31 109 110
32 106 233
33 22 102
34 145 184
35 121 170
36 25 141
37 167 176
38 126 229
39 122 172
40 119 267
41 68 113
42 257 243
43 157 266
44 157 31
45 73 226
46 74 109
47 12 198
48 199 126
49 31 55
50 10 147
51 168 176
52 277 104
53 55 232
54 119 262
55 220 74
56 122 175
57 144 182
58 149 285
59 61 157
60 140 143
61 203 125
62 114 164
63 108 80
64 103 232
65 71 154
66 87 27
67 67 154
68 255 132
69 108 113
70 86 230
71 226 221
72 116 159
73 155 28
74 151 294
75 83 30
76 150 184
77 141 102
78 114 156
79 263 212
80 259 59
81 161 26
82 59 236
83 69 4
84 78 33
85 16 204
86 16 196
87 113 114
88 153 28
89 67 161
90 211 61
91 125 103
92 269 29
93 146 61
94 33 142
95 26 282
96 29 285
97 130 230
98 260 58
99 173 72
100 162 206
101 148 60
102 272 38
103 160 27
104 231 218
105 173 76
106 66 7
107 114 49
108 213 68
109 59 280
110 175 101
111 96 237
112 115 196
113 153 265
114 110 79
115 227 222
116 275 97
117 216 6
118 29 148
119 137 104
120 253 57
121 136 140
122 209 127
123 59 64
124 283 229
125 141 286
126 236 240
127 161 22
128 147 185
129 81 238
130 10 198
131 68 229
132 118 163
133 78 31
134 230 221
135 278 128
136 29 94
137 25 99
138 167 105
139 214 157
140 65 6
141 260 214
142 143 288
143 167 229
144 173 13
145 286 130
146 33 283
147 163 180
148 148 288
149 239 77
150 106 237
151 277 101
152 144 292
153 215 4
154 82 34
155 169 171
156 76 111
157 213 65
158 13 265
159 149 183
160 36 52
161 99 242
162 33 285
163 221 8
164 165 182
165 235 242
166 31 145
167 159 110
168 113 202
169 228 220
170 9 145
171 86 30
172 266 104
173 217 21
174 161 112
175 255 240
176 203 128
177 77 233
178 168 108
179 133 99
180 202 133
181 211 150
182 141 100
183 54 285
184 220 66
185 285 225
186 174 79
187 147 67
188 70 57
189 159 177
190 160 107
191 70 227
192 136 233
193 256 54
194 107 71
195 202 131
196 181 8
197 257 137
198 134 146
199 53 237
200 274 97
201 285 230
202 55 62
203 160 108
204 242 73
205 248 245
206 154 266
207 113 50
208 25 50
209 143 61
210 222 73
211 60 15
212 224 79
213 86 31
214 67 230
215 147 60
216 65 156
217 262 241
218 257 58
219 181 102
220 18 206
221 0 153
222 140 140
223 204 129
224 110 107
225 128 172
226 23 107
227 170 237
228 174 74
229 164 103
230 206 129
231 65 56
232 262 211
233 236 248
234 161 94
235 136 220
236 166 113
237 176 71
238 64 55
239 118 156
240 142 57
241 66 8
242 174 71
243 131 226
244 280 175
245 136 144
246 178 10
247 230 248
248 201 121
249 257 59
250 65 4
251 165 204
252 134 148
253 164 202
254 218 20
255 287 224
256 63 59
257 121 181
258 257 133
259 112 201
260 272 41
261 110 74
262 137 229
263 70 225
264 53 234
265 233 216
266 100 231
267 140 290
268 111 52
269 249 133
270 8 155
271 126 256
272 212 26
273 156 26
274 238 69
275 280 125
276 65 5
277 176 14
278 59 223
279 43 286
280 262 62
281 67 216
282 261 212
283 149 186
284 236 66
285 140 108
286 60 156
287 114 50
288 28 103
289 27 100
290 163 200
291 63 229
292 150 56
293 254 240
294 63 155
295 106 77
296 246 133
297 227 217
298 278 43
299 182 238
300 65 49
301 60 160
302 175 12
303 223 74
304 128 176
305 235 241
306 280 172
307 11 265
308 79 30
309 144 100
310 222 83
311 261 215
312 264 61
313 183 99
314 109 105
315 258 212
316 150 272
317 147 178
318 93 235
319 125 228
320 109 42
321 162 203
322 179 97
323 105 55
324 29 55
325 216 62
326 51 238
327 281 129
328 8 263
329 259 58
330 136 104
331 199 130
332 108 109
333 106 108
334 110 76
335 144 173
336 282 227
337 64 59
338 131 228
339 143 101
340 278 176
341 134 147
342 4 149
343 70 109
344 52 233
345 165 228
346 137 150
347 57 155
348 231 70
349 111 153
350 229 217
351 184 97
352 10 150
353 149 282
354 282 137
355 130 96
356 113 52
357 147 285
358 53 232
359 170 174
360 78 232
361 127 101
362 289 225
363 127 232
364 223 23
365 179 9
366 177 225
367 277 172
368 166 203
369 218 153
370 35 282
371 151 30
372 284 176
373 252 128
374 28 144
375 83 236
376 223 11
377 164 95
378 216 25
379 275 32
380 35 56
381 135 227
382 183 97
383 60 64
384 104 235
385 128 94
386 30 279
387 31 275
388 233 242
389 64 53
390 148 62
391 130 102
392 105 81
393 184 98
394 140 100
395 160 24
396 13 202
397 247 132
398 227 218
399 133 225
400 129 177
401 14 149
402 31 284
403 287 226
404 55 285
405 216 148
406 255 57
407 66 54
408 81 223
409 225 22
410 85 228
411 232 240
412 272 97
413 70 102
414 122 259
415 154 31
416 69 109
417 168 97
418 201 127
419 139 58
420 119 104
421 211 159
422 168 96
423 181 11
424 158 27
425 115 42
426 162 107
427 17 209
428 50 285
429 19 102
430 174 13
431 184 12
432 217 69
433 58 235
434 258 247
435 250 134
436 268 38
437 66 157
438 270 37
439 12 270
440 11 207
441 121 255
442 233 245
443 215 160
444 269 103
445 280 180
446 177 82
447 78 236
448 66 56
449 116 265
450 287 128
451 228 223
452 173 224
453 138 101
454 275 100
455 3 205
456 280 225
457 8 265
458 169 235
459 37 62
460 29 57
461 259 126
462 227 214
463 1 272
464 74 106
465 132 146
466 58 231
467 157 25
468 258 232
469 109 157
470 282 134
471 288 227
472 52 63
473 65 68
474 212 62
475 167 179
476 169 173
477 204 131
478 52 288
479 149 294
480 73 225
481 241 71
482 154 26
483 255 220
484 53 285
485 211 66
486 22 97
487 259 240
488 88 31
489 66 10
490 26 99
491 111 112
492 250 126
493 123 92
494 227 26
495 63 3
496 230 223
497 216 157
498 63 7
499 280 130
500 116 49
501 166 94
502 211 157
503 148 61
504 37 53
505 177 4
506 269 35
507 101 110
508 236 72
509 185 98
510 62 53
511 112 199
512 165 113
513 218 3
514 281 130
515 271 101
516 288 231
517 204 127
518 131 95
519 171 79
520 151 269
521 67 10
522 29 152
523 240 71
524 210 156
525 240 73
526 74 113
527 263 215
528 25 145
529 23 103
530 145 182
531 124 264
532 88 225
533 246 137
534 84 236
535 235 243
536 236 218
537 275 182
538 102 235
539 212 9
540 26 97
541 59 67
542 49 234
543 57 68
544 217 11
545 277 177
546 28 56
547 140 228
548 227 80
549 115 48
550 217 73
551 216 23
552 112 51
553 64 226
554 278 177
555 52 231
556 140 292
557 224 77
558 114 204
559 288 228
560 173 11
561 114 198
562 34 54
563 145 183
564 213 61
565 179 98
566 261 217
567 115 197
568 123 260
569 138 100
570 231 243
571 257 210
572 212 159
573 103 78
574 286 175
575 82 31
576 144 59
577 119 157
578 166 226
579 258 244
580 163 202
581 75 110
582 175 227
583 114 158
584 147 281
585 250 130
586 37 280
587 215 68
588 119 253
589 16 151
590 251 237
591 30 148
592 221 70
593 106 71
594 111 110
595 150 64
596 172 78
597 55 68
598 107 103
599 155 180
600 53 288
601 168 204
602 140 108
603 115 197
604 53 237
605 67 10
606 59 280
607 280 225
608 9 145
609 179 9
610 83 30
611 22 102
612 278 128
613 202 133
614 58 235
615 119 253
616 161 26
617 73 225
618 115 42
619 159 177
620 174 228
621 74 113
622 137 229
623 174 74
624 149 186
625 129 98
626 109 105
627 175 101
628 161 210
629 109 157
630 121 181
631 33 285
PICKUP_AND_DELIVERY_SECTION
1 0 0 1496 0 0 0
2 20 306 355 90 0 86
3 -20 562 629 90 43 0
4 10 253 319 90 0 134
5 -20 672 732 90 29 0
6 10 358 414 90 0 235
7 -20 233 297 90 387 0
8 20 163 210 90 0 484
9 -10 913 974 90 534 0
10 10 91 155 90 0 150
11 30 106 155 90 0 190
12 -20 1115 1184 90 25 0
13 -10 629 696 90 131 0
14 20 39 100 90 0 339
15 30 626 680 90 0 582
16 20 470 537 90 0 154
17 10 286 353 90 0 200
18 -10 551 633 90 422 0
19 -20 163 233 90 60 0
20 20 245 299 90 0 194
21 30 119 180 90 0 543
22 10 306 370 0 0 628
23 20 412 485 90 0 370
24 20 582 655 0 0 625
25 20 939 988 90 0 12
26 10 575 629 90 0 217
27 -10 569 626 90 401 0
28 20 722 775 0 0 620
29 20 53 107 90 0 5
30 10 197 265 90 0 293
31 20 390 457 90 0 224
32 10 159 211 90 0 161
33 10 837 921 0 0 611
34 10 464 527 90 0 563
35 -30 569 624 90 56 0
36 20 471 519 90 0 94
37 20 369 422 90 0 147
38 -10 701 769 90 363 0
39 -20 468 542 90 400 0
40 10 635 698 90 0 568
41 -20 698 776 90 464 0
42 -20 661 731 90 175 0
43 20 116 156 90 0 3
44 -20 1200 1260 90 371 0
45 20 174 222 90 0 291
46 40 238 294 90 0 413
47 -10 874 927 90 220 0
48 10 118 175 90 0 418
49 -30 669 755 90 460 0
50 -10 386 442 90 352 0
51 20 274 335 90 0 164
52 20 135 186 90 0 116
53 -10 176 255 90 466 0
54 20 452 505 90 0 449
55 -10 835 878 90 592 0
56 30 381 442 90 0 35
57 30 649 707 90 0 335
58 10 201 249 90 0 74
59 40 428 494 90 0 294
60 20 12 81 90 0 19
61 30 307 366 90 0 223
62 -30 104 153 90 132 0
63 20 803 863 90 0 114
64 20 252 305 90 0 538
65 -10 901 949 90 216 0
66 -10 383 438 90 488 0
67 -20 797 864 90 301 0
68 10 530 604 90 0 461
69 10 214 262 90 0 332
70 20 155 231 90 0 177
71 -10 996 1059 90 350 0
72 10 188 260 90 0 583
73 -20 368 426 90 415 0
74 -10 383 446 90 58 0
75 30 566 634 0 0 610
76 -10 194 243 90 159 0
77 10 111 167 90 0 394
78 -10 569 632 90 349 0
79 -20 559 626 90 527 0
80 10 563 639 90 0 280
81 10 926 978 0 0 616
82 -20 1026 1075 90 457 0
83 20 694 752 90 0 106
84 -10 944 992 90 133 0
85 10 396 446 90 0 455
86 -20 960 1031 90 2 0
87 20 51 120 90 0 491
88 10 276 334 90 0 127
89 10 83 151 90 0 286
90 20 629 697 90 0 485
91 20 53 131 90 0 179
92 20 520 579 90 0 438
93 -10 623 687 90 240 0
94 -20 746 806 90 36 0
95 20 507 580 90 0 402
96 20 601 674 90 0 146
97 20 519 577 90 0 399
98 -30 743 823 90 193 0
99 -20 326 377 90 596 0
100 -20 403 461 90 601 0
101 10 811 863 90 0 390
102 -20 330 383 90 298 0
103 -10 1017 1070 90 395 0
104 10 350 405 90 0 265
105 -20 237 278 90 519 0
106 -20 786 849 90 83 0
107 -10 627 690 90 552 0
108 10 103 177 90 0 157
109 20 882 951 0 0 606
110 20 55 95 0 0 627
111 -10 725 777 90 384 0
112 10 57 120 90 0 558
113 -40 464 525 90 206 0
114 -20 898 953 90 63 0
115 -10 903 971 90 496 0
116 -20 470 539 90 52 0
117 20 230 269 90 0 512
118 20 277 336 90 0 166
119 -20 840 909 90 330 0
120 10 138 186 90 0 249
121 -30 261 327 90 222 0
122 -10 771 829 90 248 0
123 10 658 703 90 0 383
124 -10 870 914 90 403 0
125 10 947 1008 90 0 584
126 -10 656 714 90 233 0
127 -10 831 886 90 88 0
128 -30 371 435 90 599 0
129 -10 452 494 90 375 0
130 -40 784 834 90 440 0
131 10 446 507 90 0 13
132 30 34 85 90 0 62
133 10 849 904 90 0 84
134 -10 631 692 90 4 0
135 10 852 908 0 0 612
136 20 561 624 90 0 486
137 -10 379 434 90 289 0
138 20 643 724 90 0 236
139 10 583 640 90 0 405
140 10 323 383 90 0 495
141 30 379 434 90 0 232
142 -10 667 726 90 479 0
143 20 242 283 90 0 227
144 -10 285 358 90 277 0
145 30 295 348 90 0 514
146 -20 881 946 90 96 0
147 -20 646 703 90 37 0
148 30 286 350 90 0 267
149 20 115 181 90 0 523
150 -10 538 574 90 10 0
151 20 196 260 90 0 515
152 -10 577 627 90 353 0
153 -30 319 363 90 539 0
154 -20 1030 1094 90 16 0
155 30 28 93 90 0 475
156 20 83 157 90 0 343
157 -10 826 869 90 108 0
158 20 178 246 90 0 328
159 10 95 159 90 0 76
160 30 864 932 90 0 504
161 -10 628 681 90 32 0
162 10 789 854 0 0 631
163 10 506 555 90 0 544
164 -20 552 613 90 51 0
165 10 561 624 90 0 388
166 -20 646 719 90 118 0
167 -10 183 262 90 174 0
168 -20 395 457 90 511 0
169 -20 1088 1152 90 462 0
170 30 475 537 0 0 608
171 -20 288 346 90 213 0
172 -30 934 1000 90 454 0
173 30 494 546 90 0 378
174 10 39 88 90 0 167
175 20 476 545 90 0 42
176 20 498 546 90 0 477
177 -20 629 690 90 70 0
178 -20 744 809 90 377 0
179 -20 692 733 90 91 0
180 20 1144 1197 0 0 613
181 -10 1055 1104 90 369 0
182 10 381 450 90 0 453
183 -20 706 752 90 600 0
184 -10 363 401 90 587 0
185 30 154 220 90 0 362
186 -20 688 760 90 242 0
187 -10 1085 1143 90 209 0
188 -30 837 902 90 448 0
189 30 736 803 0 0 619
190 -30 380 431 90 11 0
191 10 354 413 90 0 281
192 10 148 203 90 0 319
193 30 292 355 90 0 98
194 -20 427 492 90 20 0
195 -10 1045 1113 90 517 0
196 20 852 911 90 0 423
197 20 356 405 90 0 296
198 10 454 508 90 0 252
199 20 825 901 0 0 604
200 -10 568 622 90 17 0
201 10 763 837 90 0 336
202 -10 549 624 90 472 0
203 10 294 336 90 0 426
204 20 273 330 90 0 508
205 10 136 193 90 0 579
206 40 172 247 90 0 113
207 20 452 501 90 0 549
208 10 496 551 90 0 562
209 10 531 593 90 0 187
210 20 642 703 90 0 303
211 10 162 211 90 0 498
212 -20 248 326 90 310 0
213 20 200 253 90 0 171
214 10 536 600 90 0 553
215 -10 709 784 90 595 0
216 10 611 682 90 0 65
217 -10 940 1015 90 26 0
218 10 398 438 90 0 329
219 -20 773 814 90 509 0
220 10 210 267 90 0 47
221 -20 756 823 90 342 0
222 30 82 129 90 0 121
223 -30 580 647 90 61 0
224 -20 957 1017 90 31 0
225 20 31 80 90 0 304
226 -10 1044 1086 90 288 0
227 -20 422 479 90 143 0
228 30 609 649 0 0 623
229 -20 489 558 90 234 0
230 -20 868 919 90 331 0
231 10 184 253 90 0 407
232 -30 660 707 90 141 0
233 10 290 338 90 0 126
234 20 57 119 90 0 229
235 -10 1079 1142 90 6 0
236 -20 846 898 90 138 0
237 20 513 557 90 0 446
238 20 282 338 90 0 389
239 40 668 721 90 0 577
240 10 338 410 90 0 93
241 20 872 945 90 0 489
242 20 420 466 90 0 186
243 -20 886 960 90 338 0
244 30 483 534 90 0 545
245 10 358 418 90 0 346
246 -20 563 636 90 560 0
247 -10 189 248 90 570 0
248 10 207 278 90 0 122
249 -10 484 535 90 120 0
250 -20 594 665 90 276 0
251 20 209 272 90 0 290
252 -10 731 781 90 198 0
253 -30 677 737 90 368 0
254 -20 405 452 90 494 0
255 10 216 277 90 0 471
256 20 839 897 90 0 473
257 20 280 350 0 0 630
258 20 448 501 90 0 397
259 -20 306 363 90 561 0
260 20 230 297 90 0 436
261 -10 528 578 90 573 0
262 10 227 311 0 0 622
263 30 254 329 90 0 278
264 -10 555 611 90 555 0
265 -10 439 502 90 104 0
266 -20 915 969 90 318 0
267 -30 860 906 90 148 0
268 20 174 229 90 0 356
269 10 166 218 90 0 435
270 -20 858 919 90 589 0
271 -20 921 983 90 414 0
272 -40 766 830 90 409 0
273 10 545 617 90 0 467
274 20 549 605 90 0 284
275 -30 757 816 90 470 0
276 20 405 484 90 0 250
277 10 138 174 90 0 144
278 -30 914 977 90 263 0
279 10 231 296 90 0 478
280 -10 937 1003 90 80 0
281 -10 1011 1082 90 191 0
282 30 754 796 90 0 571
283 20 279 342 0 0 624
284 -20 637 705 90 274 0
285 10 937 1002 0 0 602
286 -10 342 397 90 89 0
287 10 535 600 90 0 500
288 10 130 206 90 0 226
289 10 190 258 90 0 137
290 -20 772 827 90 251 0
291 -20 724 789 90 45 0
292 20 156 212 90 0 419
293 -10 383 457 90 30 0
294 -40 518 591 90 59 0
295 -30 707 772 90 334 0
296 -20 1105 1162 90 197 0
297 -10 1231 1304 90 451 0
298 20 166 221 90 0 102
299 -30 526 580 90 578 0
300 -30 559 619 90 337 0
301 20 150 211 90 0 67
302 -20 476 536 90 430 0
303 -20 734 794 90 210 0
304 -20 100 151 90 225 0
305 30 748 804 90 0 411
306 10 563 639 90 0 554
307 10 243 299 90 0 326
308 -10 756 813 90 575 0
309 20 296 348 90 0 569
310 20 98 158 90 0 212
311 10 283 347 90 0 315
312 -10 837 920 90 406 0
313 -10 671 728 90 351 0
314 10 862 927 0 0 626
315 -10 843 894 90 311 0
316 10 261 352 90 0 317
317 -10 836 890 90 316 0
318 20 819 869 90 0 266
319 -10 803 851 90 192 0
320 -20 723 792 90 323 0
321 30 492 558 90 0 580
322 -20 218 264 90 565 0
323 20 105 177 90 0 320
324 -10 594 647 90 459 0
325 -10 447 508 90 432 0
326 -10 741 802 90 307 0
327 -10 664 720 90 499 0
328 -20 342 387 90 158 0
329 -10 663 721 90 218 0
330 20 759 808 90 0 119
331 20 52 113 90 0 230
332 -10 483 548 90 69 0
333 -10 586 630 90 594 0
334 30 611 679 90 0 295
335 -30 929 988 90 57 0
336 -10 939 1030 90 201 0
337 30 125 197 90 0 300
338 20 425 487 90 0 243
339 -20 208 254 90 14 0
340 -10 767 810 90 367 0
341 -20 631 699 90 465 0
342 20 660 729 90 0 221
343 -20 521 583 90 156 0
344 10 460 523 90 0 542
345 20 145 194 90 0 366
346 -10 818 882 90 245 0
347 20 246 307 90 0 437
348 -20 439 519 90 557 0
349 10 472 539 90 0 78
350 10 159 228 90 0 71
351 10 402 451 90 0 313
352 10 296 346 90 0 50
353 10 132 191 90 0 152
354 10 132 203 90 0 450
355 -30 495 557 90 385 0
356 -20 364 405 90 268 0
357 -10 1046 1102 90 556 0
358 20 276 339 90 0 408
359 -10 180 244 90 476 0
360 20 719 784 90 0 410
361 20 119 174 90 0 493
362 -30 308 369 90 185 0
363 10 612 672 90 0 38
364 10 297 368 90 0 551
365 30 661 720 0 0 609
366 -20 902 963 90 345 0
367 10 667 722 90 0 340
368 30 130 168 90 0 253
369 10 862 915 90 0 181
370 -20 981 1031 90 23 0
371 20 185 240 90 0 44
372 -10 288 353 90 537 0
373 10 742 781 90 0 585
374 -30 563 616 90 528 0
375 10 349 412 90 0 129
376 -30 587 660 90 513 0
377 20 129 172 90 0 178
378 -30 689 720 90 173 0
379 20 429 477 90 0 506
380 10 206 273 90 0 546
381 -20 327 396 90 547 0
382 40 312 359 90 0 393
383 -10 746 797 90 123 0
384 10 429 497 90 0 111
385 30 314 369 90 0 355
386 20 328 387 90 0 586
387 20 172 225 90 0 7
388 -10 841 896 90 165 0
389 -20 465 525 90 238 0
390 -10 994 1044 90 101 0
391 -20 764 848 90 518 0
392 20 82 154 90 0 593
393 -40 575 642 90 382 0
394 -10 472 541 90 77 0
395 10 735 797 90 0 103
396 -10 484 547 90 427 0
397 -20 1012 1072 90 258 0
398 -10 1180 1245 90 536 0
399 -20 983 1048 90 97 0
400 20 190 244 90 0 39
401 10 193 260 90 0 27
402 -20 700 759 90 95 0
403 10 391 472 90 0 124
404 -10 793 847 90 428 0
405 -10 951 1018 90 139 0
406 10 204 257 90 0 312
407 -10 658 710 90 231 0
408 -20 1009 1065 90 358 0
409 40 217 263 90 0 272
410 -20 822 877 90 360 0
411 -30 922 999 90 305 0
412 40 662 712 90 0 444
413 -40 422 488 90 46 0
414 20 261 329 90 0 271
415 20 119 182 90 0 73
416 -10 611 675 90 581 0
417 -30 393 459 90 501 0
418 -10 394 466 90 48 0
419 -20 434 500 90 292 0
420 -10 1059 1115 90 510 0
421 10 307 361 90 0 572
422 10 300 370 90 0 18
423 -20 938 1011 90 196 0
424 -20 1108 1163 90 482 0
425 30 822 884 0 0 618
426 -10 464 532 90 203 0
427 10 145 218 90 0 396
428 10 339 381 90 0 404
429 30 756 816 90 0 529
430 20 210 252 90 0 302
431 -10 1042 1094 90 505 0
432 10 260 316 90 0 325
433 10 932 985 0 0 614
434 -10 851 910 90 590 0
435 -10 250 317 90 269 0
436 -20 803 858 90 260 0
437 -20 706 769 90 347 0
438 -20 705 771 90 92 0
439 -10 624 692 90 463 0
440 40 579 642 90 0 130
441 30 169 231 90 0 531
442 10 376 441 90 0 535
443 -20 488 548 90 524 0
444 -40 846 902 90 412 0
445 20 187 261 90 0 574
446 -20 789 847 90 237 0
447 -20 535 597 90 532 0
448 30 746 806 90 0 188
449 -20 549 598 90 54 0
450 -10 384 444 90 354 0
451 10 819 871 90 0 297
452 -10 1002 1051 90 458 0
453 -10 659 720 90 182 0
454 30 375 447 90 0 172
455 -10 680 738 90 85 0
456 20 1050 1105 0 0 607
457 20 426 486 90 0 82
458 10 333 384 90 0 452
459 10 143 195 90 0 324
460 30 301 370 90 0 49
461 -10 633 695 90 68 0
462 20 100 144 90 0 169
463 10 523 589 90 0 439
464 20 323 395 90 0 41
465 20 554 593 90 0 341
466 10 122 197 90 0 53
467 -10 640 705 90 273 0
468 -10 1148 1191 90 487 0
469 20 387 436 0 0 629
470 30 192 259 90 0 275
471 -10 486 560 90 255 0
472 10 473 513 90 0 202
473 -20 1030 1087 90 256 0
474 -20 726 782 90 564 0
475 -30 461 517 90 155 0
476 10 91 150 90 0 359
477 -20 959 1014 90 176 0
478 -10 433 475 90 279 0
479 10 481 532 90 0 142
480 20 107 167 0 0 617
481 -20 359 427 90 525 0
482 20 452 527 90 0 424
483 20 126 171 90 0 566
484 -20 604 673 90 8 0
485 -20 911 968 90 90 0
486 -20 649 731 90 136 0
487 10 1038 1104 90 0 468
488 10 134 202 90 0 66
489 -20 977 1024 90 241 0
490 10 293 338 90 0 540
491 -20 118 170 90 87 0
492 -10 827 882 90 533 0
493 -20 219 272 90 361 0
494 20 145 205 90 0 254
495 -10 508 566 90 140 0
496 10 722 784 90 0 115
497 -20 761 827 90 502 0
498 -10 231 290 90 211 0
499 10 568 633 90 0 327
500 -10 1003 1078 90 287 0
501 30 211 274 90 0 417
502 20 201 282 90 0 497
503 -10 900 957 90 576 0
504 -30 956 1023 90 160 0
505 10 762 811 90 0 431
506 -20 611 681 90 379 0
507 10 674 731 90 0 598
508 -20 735 799 90 204 0
509 20 487 547 90 0 219
510 10 368 437 90 0 420
511 20 218 267 90 0 168
512 -20 941 985 90 117 0
513 30 405 464 90 0 376
514 -30 473 547 90 145 0
515 -20 750 812 90 151 0
516 -10 679 734 90 559 0
517 10 676 735 90 0 195
518 20 403 466 90 0 391
519 20 74 141 90 0 105
520 40 374 426 90 0 530
521 30 1061 1122 0 0 605
522 30 121 200 90 0 591
523 -20 458 510 90 149 0
524 20 125 176 90 0 443
525 20 178 240 90 0 481
526 20 806 860 0 0 621
527 20 471 528 90 0 79
528 30 374 429 90 0 374
529 -30 930 1011 90 429 0
530 -40 726 812 90 520 0
531 -30 731 794 90 441 0
532 20 97 146 90 0 447
533 10 96 150 90 0 492
534 10 258 321 90 0 9
535 -10 477 526 90 442 0
536 10 542 587 90 0 398
537 10 129 188 90 0 372
538 -20 340 403 90 64 0
539 30 154 222 90 0 153
540 -10 471 527 90 490 0
541 10 184 243 90 0 597
542 -10 640 713 90 344 0
543 -30 267 344 90 21 0
544 -10 699 741 90 163 0
545 -30 946 994 90 244 0
546 -10 396 459 90 380 0
547 20 78 148 90 0 381
548 30 165 223 90 0 550
549 -20 910 989 90 207 0
550 -30 918 981 90 548 0
551 -10 575 649 90 364 0
552 10 264 322 90 0 107
553 -10 817 883 90 214 0
554 -10 854 904 90 306 0
555 10 372 427 90 0 264
556 10 760 823 90 0 357
557 20 345 413 90 0 348
558 -10 493 543 90 112 0
559 10 577 651 90 0 516
560 20 385 442 90 0 246
561 20 127 173 90 0 259
562 -10 781 830 90 208 0
563 -10 558 615 90 34 0
564 20 538 604 90 0 474
565 20 113 188 90 0 322
566 -20 189 257 90 483 0
567 10 590 640 0 0 603
568 -10 826 888 90 40 0
569 -20 565 631 90 309 0
570 10 123 188 90 0 247
571 -30 925 997 90 282 0
572 -10 397 453 90 421 0
573 10 149 202 90 0 261
574 -20 384 441 90 445 0
575 10 662 722 90 0 308
576 10 255 306 90 0 503
577 -40 762 810 90 239 0
578 30 77 123 90 0 299
579 -10 749 827 90 205 0
580 -30 601 632 90 321 0
581 10 150 201 90 0 416
582 -30 815 864 90 15 0
583 -10 283 349 90 72 0
584 -10 1146 1190 90 125 0
585 -10 917 979 90 373 0
586 -20 1064 1133 90 386 0
587 10 167 223 90 0 184
588 20 107 169 0 0 615
589 20 134 192 90 0 270
590 10 301 350 90 0 434
591 -30 181 250 90 522 0
592 10 547 612 90 0 55
593 -20 335 402 90 392 0
594 10 298 366 90 0 333
595 10 86 143 90 0 215
596 20 131 200 90 0 99
597 -10 361 435 90 541 0
598 -10 768 836 90 507 0
599 30 30 90 90 0 128
600 20 512 579 90 0 183
601 20 56 115 90 0 100
602 -10 937 1002 90 285 0
603 -10 590 640 90 567 0
604 -20 825 901 90 199 0
605 -30 1061 1122 90 521 0
606 -20 882 951 90 109 0
607 -20 1050 1105 90 456 0
608 -30 475 537 90 170 0
609 -30 661 720 90 365 0
610 -30 566 634 90 75 0
611 -10 837 921 90 33 0
612 -10 852 908 90 135 0
613 -20 1144 1197 90 180 0
614 -10 932 985 90 433 0
615 -20 107 169 90 588 0
616 -10 926 978 90 81 0
617 -20 107 167 90 480 0
618 -30 822 884 90 425 0
619 -30 736 803 90 189 0
620 -20 722 775 90 28 0
621 -20 806 860 90 526 0
622 -10 227 311 90 262 0
623 -30 609 649 90 228 0
624 -20 279 342 90 283 0
625 -20 582 655 90 24 0
626 -10 862 927 90 314 0
627 -20 55 95 90 110 0
628 -10 306 370 90 22 0
629 -20 387 436 90 469 0
630 -20 280 350 90 257 0
631 -10 789 854 90 162 0
DEPOT_SECTION
1
-1
EOF
