NAME: lc1_6_9
TYPE: PDPTW
COMMENT: Li & Lim PDPTW benchmark converted from SINTEF format
DIMENSION: 633
VEHICLES: 150
CAPACITY: 200
EDGE_WEIGHT_TYPE: EUC_2D
NODE_COORD_SECTION
1 150 150
2 17 205
3 153 254
4 229 219
5 214 156
6 121 260
7 29 277
8 47 277
9 85 224
10 105 230
11 160 111
12 65 69
13 63 233
14 143 111
15 173 233
16 85 24
17 277 100
18 166 105
19 141 137
20 100 73
21 61 70
22 161 210
23 30 280
24 129 98
25 62 65
26 256 239
27 9 144
28 174 228
29 203 156
30 251 241
31 109 110
32 106 233
33 22 102
34 145 184
35 121 170
36 25 141
37 167 176
38 126 229
39 122 172
40 119 267
41 68 113
42 257 243
43 157 266
44 157 31
45 73 226
46 74 109
47 12 198
48 199 126
49 31 55
50 10 147
51 168 176
52 277 104
53 55 232
54 119 262
55 220 74
56 122 175
57 144 182
58 149 285
59 61 157
60 140 143
61 203 125
62 114 164
63 108 80
64 103 232
65 71 154
66 87 27
67 67 154
68 255 132
69 108 113
70 86 230
71 226 221
72 116 159
73 155 28
74 151 294
75 83 30
76 150 184
77 141 102
78 114 156
79 263 212
80 259 59
81 161 26
82 59 236
83 69 4
84 78 33
85 16 204
86 16 196
87 113 114
88 153 28
89 67 161
90 211 61
91 125 103
92 269 29
93 146 61
94 33 142
95 26 282
96 29 285
97 130 230
98 260 58
99 173 72
100 162 206
101 148 60
102 272 38
103 160 27
104 231 218
105 173 76
106 66 7
107 114 49
108 213 68
109 59 280
110 175 101
111 96 237
112 115 196
113 153 265
114 110 79
115 227 222
116 275 97
117 216 6
118 29 148
119 137 104
120 253 57
121 136 140
122 209 127
123 59 64
124 283 229
125 141 286
126 236 240
127 161 22
128 147 185
129 81 238
130 10 198
131 68 229
132 118 163
133 78 31
134 230 221
135 278 128
136 29 94
137 25 99
138 167 105
139 214 157
140 65 6
141 260 214
142 143 288
143 167 229
144 173 13
145 286 130
146 33 283
147 163 180
148 148 288
149 239 77
150 106 237
151 277 101
152 144 292
153 215 4
154 82 34
155 169 171
156 76 111
157 213 65
158 13 265
159 149 183
160 36 52
161 99 242
162 33 285
163 221 8
164 165 182
165 235 242
166 31 145
167 159 110
168 113 202
169 228 220
170 9 145
171 86 30
172 266 104
173 217 21
174 161 112
175 255 240
176 203 128
177 77 233
178 168 108
179 133 99
180 202 133
181 211 150
182 141 100
183 54 285
184 220 66
185 285 225
186 174 79
187 147 67
188 70 57
189 159 177
190 160 107
191 70 227
192 136 233
193 256 54
194 107 71
195 202 131
196 181 8
197 257 137
198 134 146
199 53 237
200 274 97
201 285 230
202 55 62
203 160 108
204 242 73
205 248 245
206 154 266
207 113 50
208 25 50
209 143 61
210 222 73
211 60 15
212 224 79
213 86 31
214 67 230
215 147 60
216 65 156
217 262 241
218 257 58
219 181 102
220 18 206
221 0 153
222 140 140
223 204 129
224 110 107
225 128 172
226 23 107
227 170 237
228 174 74
229 164 103
230 206 129
231 65 56
232 262 211
233 236 248
234 161 94
235 136 220
236 166 113
237 176 71
238 64 55
239 118 156
240 142 57
241 66 8
242 174 71
243 131 226
244 280 175
245 136 144
246 178 10
247 230 248
248 201 121
249 257 59
250 65 4
251 165 204
252 134 148
253 164 202
254 218 20
255 287 224
256 63 59
257 121 181
258 257 133
259 112 201
260 272 41
261 110 74
262 137 229
263 70 225
264 53 234
265 233 216
266 100 231
267 140 290
268 111 52
269 249 133
270 8 155
271 126 256
272 212 26
273 156 26
274 238 69
275 280 125
276 65 5
277 176 14
278 59 223
279 43 286
280 262 62
281 67 216
282 261 212
283 149 186
284 236 66
285 140 108
286 60 156
287 114 50
288 28 103
289 27 100
290 163 200
291 63 229
292 150 56
293 254 240
294 63 155
295 106 77
296 246 133
297 227 217
298 278 43
299 182 238
300 65 49
301 60 160
302 175 12
303 223 74
304 128 176
305 235 241
306 280 172
307 11 265
308 79 30
309 144 100
310 222 83
311 261 215
312 264 61
313 183 99
314 109 105
315 258 212
316 150 272
317 147 178
318 93 235
319 125 228
320 109 42
321 162 203
322 179 97
323 105 55
324 29 55
325 216 62
326 51 238
327 281 129
328 8 263
329 259 58
330 136 104
331 199 130
332 108 109
333 106 108
334 110 76
335 144 173
336 282 227
337 64 59
338 131 228
339 143 101
340 278 176
341 134 147
342 4 149
343 70 109
344 52 233
345 165 228
346 137 150
347 57 155
348 231 70
349 111 153
350 229 217
351 184 97
352 10 150
353 149 282
354 282 137
355 130 96
356 113 52
357 147 285
358 53 232
359 170 174
360 78 232
361 127 101
362 289 225
363 127 232
364 223 23
365 179 9
366 177 225
367 277 172
368 166 203
369 218 153
370 35 282
371 151 30
372 284 176
373 252 128
374 28 144
375 83 236
376 223 11
377 164 95
378 216 25
379 275 32
380 35 56
381 135 227
382 183 97
383 60 64
384 104 235
385 128 94
386 30 279
387 31 275
388 233 242
389 64 53
390 148 62
391 130 102
392 105 81
393 184 98
394 140 100
395 160 24
396 13 202
397 247 132
398 227 218
399 133 225
400 129 177
401 14 149
402 31 284
403 287 226
404 55 285
405 216 148
406 255 57
407 66 54
408 81 223
409 225 22
410 85 228
411 232 240
412 272 97
413 70 102
414 122 259
415 154 31
416 69 109
417 168 97
418 201 127
419 139 58
420 119 104
421 211 159
422 168 96
423 181 11
424 158 27
425 115 42
426 162 107
427 17 209
428 50 285
429 19 102
430 174 13
431 184 12
432 217 69
433 58 235
434 258 247
435 250 134
436 268 38
437 66 157
438 270 37
439 12 270
440 11 207
441 121 255
442 233 245
443 215 160
444 269 103
445 280 180
446 177 82
447 78 236
448 66 56
449 116 265
450 287 128
451 228 223
452 173 224
453 138 101
454 275 100
455 3 205
456 280 225
457 8 265
458 169 235
459 37 62
460 29 57
461 259 126
462 227 214
463 1 272
464 74 106
465 132 146
466 58 231
467 157 25
468 258 232
469 109 157
470 282 134
471 288 227
472 52 63
473 65 68
474 212 62
475 167 179
476 169 173
477 204 131
478 52 288
479 149 294
480 73 225
481 241 71
482 154 26
483 255 220
484 53 285
485 211 66
486 22 97
487 259 240
488 88 31
489 66 10
490 26 99
491 111 112
492 250 126
493 123 92
494 227 26
495 63 3
496 230 223
497 216 157
498 63 7
499 280 130
500 116 49
501 166 94
502 211 157
503 148 61
504 37 53
505 177 4
506 269 35
507 101 110
508 236 72
509 185 98
510 62 53
511 112 199
512 165 113
513 218 3
514 281 130
515 271 101
516 288 231
517 204 127
518 131 95
519 171 79
520 151 269
521 67 10
522 29 152
523 240 71
524 210 156
525 240 73
526 74 113
527 263 215
528 25 145
529 23 103
530 145 182
531 124 264
532 88 225
533 246 137
534 84 236
535 235 243
536 236 218
537 275 182
538 102 235
539 212 9
540 26 97
541 59 67
542 49 234
543 57 68
544 217 11
545 277 177
546 28 56
547 140 228
548 227 80
549 115 48
550 217 73
551 216 23
552 112 51
553 64 226
554 278 177
555 52 231
556 140 292
557 224 77
558 114 204
559 288 228
560 173 11
561 114 198
562 34 54
563 145 183
564 213 61
565 179 98
566 261 217
567 115 197
568 123 260
569 138 100
570 231 243
571 257 210
572 212 159
573 103 78
574 286 175
575 82 31
576 144 59
577 119 157
578 166 226
579 258 244
580 163 202
581 75 110
582 175 227
583 114 158
584 147 281
585 250 130
586 37 280
587 215 68
588 119 253
589 16 151
590 251 237
591 30 148
592 221 70
593 106 71
594 111 110
595 150 64
596 172 78
597 55 68
598 107 103
599 155 180
600 53 288
601 168 204
602 54 285
603 222 73
604 100 73
605 115 196
606 240 71
607 213 65
608 13 202
609 129 98
610 154 266
611 65 68
612 213 68
613 68 113
614 250 126
615 150 64
616 284 176
617 163 202
618 179 98
619 108 80
620 280 125
621 53 237
622 148 61
623 73 226
624 86 31
625 173 224
626 100 231
627 132 146
628 122 175
629 126 229
630 143 101
631 113 50
632 177 4
633 264 61
PICKUP_AND_DELIVERY_SECTION
1 0 0 1496 0 0 0
2 20 150 510 90 0 86
3 -30 415 775 90 113 0
4 10 106 466 90 0 536
5 20 522 882 90 0 181
6 10 206 566 90 0 40
7 10 175 535 90 0 162
8 -20 163 523 90 64 0
9 -10 763 1123 90 191 0
10 10 91 451 90 0 32
11 -10 40 400 90 174 0
12 -10 929 1289 90 504 0
13 -10 483 843 90 555 0
14 20 39 399 90 0 309
15 -10 473 833 90 227 0
16 20 324 684 90 0 154
17 -20 139 499 90 52 0
18 20 412 772 90 0 236
19 30 18 378 90 0 518
20 20 92 452 0 0 604
21 30 119 479 90 0 383
22 -20 158 518 90 601 0
23 20 269 629 90 0 95
24 20 438 798 0 0 609
25 -30 784 1144 90 337 0
26 10 422 782 90 0 434
27 -30 417 777 90 170 0
28 20 568 928 90 0 582
29 20 53 413 90 0 244
30 -10 135 495 90 205 0
31 -20 244 604 90 87 0
32 -10 93 453 90 10 0
33 10 699 1059 90 0 226
34 10 315 675 90 0 317
35 30 417 777 90 0 577
36 20 315 675 90 0 374
37 20 216 576 90 0 164
38 10 555 915 0 0 629
39 -20 325 685 90 400 0
40 -10 487 847 90 6 0
41 20 557 917 0 0 613
42 -20 516 876 90 247 0
43 20 116 476 90 0 142
44 -20 927 1287 90 371 0
45 20 108 468 0 0 623
46 -10 86 446 90 581 0
47 -10 721 1081 90 130 0
48 10 54 414 90 0 116
49 -10 532 892 90 208 0
50 -10 234 594 90 401 0
51 -10 125 485 90 421 0
52 20 135 495 90 0 17
53 10 125 485 90 0 344
54 20 299 659 90 0 271
55 -10 677 1037 90 303 0
56 30 232 592 0 0 628
57 30 498 858 90 0 530
58 10 135 495 90 0 584
59 40 281 641 90 0 216
60 20 12 372 90 0 507
61 30 157 517 90 0 230
62 20 38 398 90 0 89
63 20 653 1013 0 0 619
64 20 98 458 90 0 8
65 -20 745 1105 90 286 0
66 20 230 590 90 0 83
67 -20 651 1011 90 301 0
68 -20 387 747 90 197 0
69 10 58 418 90 0 594
70 20 102 462 90 0 480
71 10 848 1208 90 0 169
72 -30 44 404 90 132 0
73 10 217 577 90 0 482
74 20 235 595 90 0 267
75 30 420 780 90 0 575
76 20 39 399 90 0 341
77 10 48 408 90 0 268
78 -30 420 780 90 583 0
79 -20 412 772 90 527 0
80 10 421 781 90 0 98
81 10 772 1132 90 0 103
82 -10 870 1230 90 433 0
83 -20 543 903 90 66 0
84 -10 788 1148 90 133 0
85 -10 241 601 90 220 0
86 -20 815 1175 90 2 0
87 20 51 411 90 0 31
88 10 125 485 90 0 273
89 -20 83 443 90 62 0
90 20 483 843 90 0 474
91 20 53 413 90 0 355
92 -30 370 730 90 102 0
93 20 475 835 90 0 285
94 -30 596 956 90 166 0
95 -20 363 723 90 23 0
96 20 457 817 90 0 586
97 -20 368 728 90 547 0
98 -10 603 963 90 80 0
99 -20 172 532 90 596 0
100 30 252 612 90 0 321
101 -20 657 1017 90 242 0
102 30 176 536 90 0 92
103 -10 864 1224 90 81 0
104 10 198 558 90 0 134
105 20 78 438 90 0 390
106 -10 637 997 90 211 0
107 -10 479 839 90 287 0
108 10 103 463 0 0 612
109 -30 736 1096 90 404 0
110 20 55 415 90 0 228
111 -20 571 931 90 129 0
112 10 57 417 0 0 605
113 30 314 674 90 0 3
114 -30 745 1105 90 261 0
115 -20 757 1117 90 462 0
116 -10 324 684 90 48 0
117 -30 158 518 90 539 0
118 -20 126 486 90 347 0
119 -10 694 1054 90 576 0
120 10 138 498 90 0 406
121 10 114 474 90 0 252
122 -20 620 980 90 176 0
123 -10 501 861 90 472 0
124 -10 712 1072 90 590 0
125 -10 798 1158 90 353 0
126 -10 505 865 90 570 0
127 -20 678 1038 90 467 0
128 10 223 583 90 0 222
129 20 293 653 90 0 111
130 10 629 989 90 0 47
131 10 296 656 90 0 408
132 30 34 394 90 0 72
133 10 696 1056 90 0 84
134 -10 481 841 90 104 0
135 -10 700 1060 90 499 0
136 -10 413 773 90 543 0
137 40 226 586 90 0 529
138 -10 503 863 90 349 0
139 -10 431 791 90 443 0
140 10 173 533 90 0 250
141 -20 226 586 90 359 0
142 -20 516 876 90 43 0
143 20 82 442 90 0 299
144 -10 142 502 90 277 0
145 30 141 501 90 0 514
146 -10 734 1094 90 402 0
147 30 495 855 90 0 189
148 30 138 498 90 0 479
149 20 115 475 90 0 219
150 -10 376 736 90 384 0
151 20 136 496 90 0 200
152 20 422 782 90 0 357
153 40 161 521 90 0 163
154 -20 882 1242 90 16 0
155 30 28 388 90 0 476
156 20 83 443 90 0 526
157 20 667 1027 0 0 607
158 20 178 538 90 0 457
159 10 33 393 90 0 245
160 -20 718 1078 90 324 0
161 -30 475 835 90 538 0
162 -10 642 1002 90 7 0
163 -40 350 710 90 153 0
164 -20 402 762 90 37 0
165 10 412 772 90 0 411
166 30 503 863 90 0 94
167 20 42 402 90 0 417
168 10 246 606 90 0 558
169 -10 940 1300 90 71 0
170 30 326 686 90 0 27
171 20 137 497 90 0 308
172 10 787 1147 90 0 195
173 30 340 700 90 0 551
174 10 39 399 90 0 11
175 20 331 691 90 0 579
176 20 342 702 90 0 122
177 -20 480 840 90 532 0
178 -20 596 956 90 376 0
179 20 532 892 90 0 391
180 -20 991 1351 90 477 0
181 -20 900 1260 90 5 0
182 -10 235 595 90 426 0
183 10 549 909 0 0 602
184 20 202 562 90 0 325
185 30 154 514 90 0 255
186 -20 544 904 90 313 0
187 -20 934 1294 90 215 0
188 -10 690 1050 90 231 0
189 -30 590 950 90 147 0
190 30 226 586 90 0 394
191 10 204 564 90 0 9
192 10 84 444 90 0 243
193 30 144 504 90 0 218
194 -20 279 639 90 593 0
195 -10 899 1259 90 172 0
196 20 702 1062 90 0 423
197 20 201 561 90 0 68
198 10 301 661 90 0 346
199 20 683 1043 0 0 621
200 -20 415 775 90 151 0
201 -20 620 980 90 516 0
202 -30 407 767 90 597 0
203 10 135 495 90 0 569
204 20 121 481 90 0 508
205 10 136 496 90 0 30
206 40 116 476 0 0 610
207 20 297 657 0 0 631
208 10 344 704 90 0 49
209 10 382 742 90 0 500
210 20 492 852 0 0 603
211 10 162 522 90 0 106
212 30 107 467 90 0 550
213 20 135 495 0 0 624
214 10 388 748 90 0 360
215 20 566 926 90 0 187
216 -40 466 826 90 59 0
217 20 798 1158 90 0 468
218 -30 238 598 90 193 0
219 -20 613 973 90 149 0
220 10 143 503 90 0 85
221 20 610 970 90 0 270
222 -10 14 374 90 128 0
223 -10 433 793 90 517 0
224 -20 807 1167 90 598 0
225 20 31 391 90 0 304
226 -10 885 1245 90 33 0
227 10 271 631 90 0 15
228 -20 449 809 90 110 0
229 -20 344 704 90 469 0
230 -30 714 1074 90 61 0
231 10 126 486 90 0 188
232 10 504 864 90 0 282
233 10 134 494 90 0 293
234 20 57 417 90 0 501
235 -10 931 1291 90 568 0
236 -20 692 1052 90 18 0
237 -20 355 715 90 519 0
238 20 130 490 90 0 256
239 -20 514 874 90 257 0
240 10 194 554 90 0 419
241 -10 728 1088 90 495 0
242 20 263 623 90 0 101
243 -10 743 1103 90 192 0
244 -20 328 688 90 29 0
245 -10 208 568 90 159 0
246 -20 420 780 90 292 0
247 20 126 486 90 0 42
248 10 62 422 90 0 310
249 20 329 689 90 0 329
250 -10 449 809 90 140 0
251 -30 61 421 90 368 0
252 -10 576 936 90 121 0
253 30 527 887 90 0 290
254 -20 249 609 90 494 0
255 -30 155 515 90 185 0
256 -20 688 1048 90 238 0
257 20 135 495 90 0 239
258 20 295 655 90 0 373
259 20 154 514 90 0 563
260 20 163 523 90 0 379
261 30 373 733 90 0 114
262 10 89 449 90 0 381
263 30 112 472 90 0 455
264 20 403 763 90 0 291
265 10 291 651 90 0 297
266 20 762 1122 0 0 626
267 -20 703 1063 90 74 0
268 -10 105 465 90 77 0
269 10 100 460 90 0 435
270 -20 708 1068 90 221 0
271 -20 772 1132 90 54 0
272 -20 618 978 90 298 0
273 -10 401 761 90 88 0
274 -20 397 757 90 481 0
275 10 606 966 0 0 620
276 20 264 624 90 0 489
277 10 138 498 90 0 144
278 -20 766 1126 90 358 0
279 10 173 533 90 0 399
280 -30 790 1150 90 436 0
281 -30 867 1227 90 553 0
282 -10 595 955 90 232 0
283 20 131 491 90 0 458
284 -20 491 851 90 525 0
285 -20 789 1149 90 93 0
286 20 190 550 90 0 65
287 10 388 748 90 0 107
288 10 130 490 90 0 429
289 10 132 492 90 0 490
290 -30 620 980 90 253 0
291 -20 577 937 90 264 0
292 20 94 454 90 0 246
293 -10 240 600 90 233 0
294 10 374 734 90 0 437
295 10 560 920 90 0 420
296 -20 949 1309 90 461 0
297 -10 944 1304 90 265 0
298 20 166 526 90 0 272
299 -20 373 733 90 143 0
300 -20 409 769 90 392 0
301 20 90 450 90 0 67
302 20 326 686 90 0 365
303 10 584 944 90 0 55
304 -20 34 394 90 225 0
305 -10 596 956 90 442 0
306 -10 421 781 90 574 0
307 10 180 540 90 0 439
308 -20 605 965 90 171 0
309 -20 142 502 90 14 0
310 -10 98 458 90 248 0
311 10 135 495 90 0 315
312 20 698 1058 0 0 633
313 20 520 880 90 0 186
314 -20 715 1075 90 491 0
315 -10 688 1048 90 311 0
316 10 126 486 90 0 556
317 -10 683 1043 90 34 0
318 -20 664 1024 90 588 0
319 -10 647 1007 90 363 0
320 -10 577 937 90 552 0
321 -30 345 705 90 100 0
322 10 61 421 90 0 432
323 20 105 465 90 0 488
324 20 440 800 90 0 160
325 -20 298 658 90 184 0
326 -10 591 951 90 463 0
327 -10 512 872 90 354 0
328 30 184 544 90 0 542
329 -20 512 872 90 249 0
330 -20 603 963 90 453 0
331 20 52 412 90 0 418
332 20 335 695 90 0 333
333 -20 428 788 90 332 0
334 -20 465 825 90 493 0
335 -10 779 1139 90 567 0
336 20 804 1164 90 0 487
337 30 125 485 90 0 25
338 -30 276 636 90 599 0
339 10 51 411 0 0 630
340 -10 608 968 90 537 0
341 -20 485 845 90 76 0
342 -10 514 874 90 352 0
343 -20 372 732 90 464 0
344 -10 311 671 90 53 0
345 20 79 439 90 0 520
346 -10 670 1030 90 198 0
347 20 97 457 90 0 118
348 -30 299 659 90 548 0
349 10 326 686 90 0 138
350 10 103 463 90 0 496
351 -40 246 606 90 382 0
352 10 141 501 90 0 342
353 10 132 492 90 0 125
354 10 132 492 90 0 327
355 -20 346 706 90 91 0
356 -10 205 565 90 573 0
357 -20 894 1254 90 152 0
358 20 128 488 90 0 278
359 20 32 392 90 0 141
360 -10 571 931 90 214 0
361 20 54 414 90 0 385
362 10 159 519 90 0 559
363 10 462 822 90 0 319
364 -10 153 513 90 587 0
365 -20 511 871 90 302 0
366 -30 752 1112 90 578 0
367 10 514 874 90 0 554
368 30 55 415 90 0 251
369 -10 709 1069 90 422 0
370 -20 826 1186 90 387 0
371 20 120 480 90 0 44
372 30 140 500 0 0 616
373 -20 582 942 90 258 0
374 -20 409 769 90 36 0
375 -10 200 560 90 534 0
376 20 444 804 90 0 178
377 20 56 416 90 0 497
378 30 524 884 90 0 431
379 -20 273 633 90 260 0
380 -10 148 508 90 459 0
381 -10 182 542 90 262 0
382 40 155 515 90 0 351
383 -30 592 952 90 21 0
384 10 283 643 90 0 150
385 -20 161 521 90 361 0
386 -10 178 538 90 466 0
387 20 172 532 90 0 370
388 -20 688 1048 90 535 0
389 30 315 675 90 0 448
390 -20 839 1199 90 105 0
391 -20 626 986 90 179 0
392 20 82 442 90 0 300
393 -20 428 788 90 509 0
394 -30 326 686 90 190 0
395 -20 586 946 90 415 0
396 20 335 695 0 0 608
397 -10 862 1222 90 585 0
398 -10 944 1304 90 451 0
399 -10 835 1195 90 279 0
400 20 37 397 90 0 39
401 10 136 496 90 0 50
402 10 550 910 90 0 146
403 10 251 611 90 0 471
404 30 640 1000 90 0 109
405 -10 804 1164 90 533 0
406 -10 140 500 90 120 0
407 -10 504 864 90 510 0
408 -10 857 1217 90 131 0
409 40 148 508 90 0 513
410 -10 669 1029 90 447 0
411 -10 781 1141 90 165 0
412 40 507 867 90 0 515
413 30 275 635 90 0 416
414 20 115 475 90 0 449
415 20 119 479 90 0 395
416 -30 463 823 90 413 0
417 -20 246 606 90 167 0
418 -20 250 610 90 331 0
419 -10 287 647 90 240 0
420 -10 907 1267 90 295 0
421 10 154 514 90 0 51
422 10 155 515 90 0 369
423 -20 795 1155 90 196 0
424 -30 923 1283 90 544 0
425 30 673 1033 90 0 549
426 10 318 678 90 0 182
427 10 145 505 90 0 440
428 10 180 540 90 0 600
429 -10 606 966 90 288 0
430 20 139 499 90 0 560
431 -30 888 1248 90 378 0
432 -10 108 468 90 322 0
433 10 779 1139 90 0 82
434 -10 701 1061 90 26 0
435 -10 103 463 90 269 0
436 30 650 1010 90 0 280
437 -10 558 918 90 294 0
438 -20 558 918 90 506 0
439 -10 478 838 90 307 0
440 -10 430 790 90 427 0
441 30 108 468 90 0 531
442 10 229 589 90 0 305
443 10 338 698 90 0 139
444 -30 694 1054 90 454 0
445 20 133 493 90 0 545
446 30 638 998 90 0 512
447 10 386 746 90 0 410
448 -30 596 956 90 389 0
449 -20 393 753 90 414 0
450 -30 234 594 90 470 0
451 10 665 1025 90 0 398
452 10 847 1207 0 0 625
453 20 509 869 90 0 330
454 30 231 591 90 0 444
455 -30 529 889 90 263 0
456 -10 896 1256 90 571 0
457 -20 276 636 90 158 0
458 -20 178 538 90 283 0
459 10 143 503 90 0 380
460 30 156 516 90 0 546
461 20 484 844 90 0 296
462 20 100 460 90 0 115
463 10 376 736 90 0 326
464 20 179 539 90 0 343
465 20 393 753 0 0 627
466 10 122 482 90 0 386
467 20 493 853 90 0 127
468 -20 911 1271 90 217 0
469 20 231 591 90 0 229
470 30 132 492 90 0 450
471 -10 343 703 90 403 0
472 10 313 673 90 0 123
473 20 878 1238 0 0 611
474 -20 574 934 90 90 0
475 -20 309 669 90 572 0
476 -30 29 389 90 155 0
477 20 807 1167 90 0 180
478 20 274 634 90 0 484
479 -30 327 687 90 148 0
480 -20 107 467 90 70 0
481 20 213 573 90 0 274
482 -10 309 669 90 73 0
483 20 126 486 90 0 566
484 -20 458 818 90 478 0
485 -20 760 1120 90 564 0
486 -10 510 870 90 540 0
487 -20 891 1251 90 336 0
488 -20 134 494 90 323 0
489 -20 820 1180 90 276 0
490 -10 135 495 90 289 0
491 20 54 414 90 0 314
492 20 674 1034 0 0 614
493 20 66 426 90 0 334
494 20 145 505 90 0 254
495 10 357 717 90 0 241
496 -10 573 933 90 350 0
497 -20 614 974 90 377 0
498 20 167 527 90 0 521
499 10 421 781 90 0 135
500 -10 861 1221 90 209 0
501 -20 62 422 90 234 0
502 -20 62 422 90 524 0
503 10 748 1108 0 0 622
504 10 810 1170 90 0 12
505 10 606 966 0 0 632
506 20 466 826 90 0 438
507 -20 523 883 90 60 0
508 -20 587 947 90 204 0
509 20 337 697 90 0 393
510 10 223 583 90 0 407
511 -20 62 422 90 561 0
512 -30 783 1143 90 446 0
513 -40 254 614 90 409 0
514 -30 330 690 90 145 0
515 -40 601 961 90 412 0
516 20 527 887 90 0 201
517 10 525 885 90 0 223
518 -30 254 614 90 19 0
519 20 74 434 90 0 237
520 -20 220 580 90 345 0
521 -20 884 1244 90 498 0
522 30 121 481 90 0 528
523 30 304 664 0 0 606
524 20 60 420 90 0 502
525 20 118 478 90 0 284
526 -20 653 1013 90 156 0
527 20 319 679 90 0 79
528 -30 221 581 90 522 0
529 -40 791 1151 90 137 0
530 -30 589 949 90 57 0
531 -30 582 942 90 441 0
532 20 97 457 90 0 177
533 10 96 456 90 0 405
534 10 109 469 90 0 375
535 20 321 681 90 0 388
536 -10 384 744 90 4 0
537 10 129 489 90 0 340
538 30 191 551 90 0 161
539 30 154 514 90 0 117
540 10 319 679 90 0 486
541 10 123 483 90 0 562
542 -30 497 857 90 328 0
543 10 126 486 90 0 136
544 30 540 900 90 0 424
545 -20 790 1150 90 445 0
546 -30 247 607 90 460 0
547 20 78 438 90 0 97
548 30 104 464 90 0 348
549 -30 769 1129 90 425 0
550 -30 770 1130 90 212 0
551 -30 432 792 90 173 0
552 10 113 473 90 0 320
553 30 670 1030 90 0 281
554 -10 699 1059 90 367 0
555 10 219 579 90 0 13
556 -10 611 971 90 316 0
557 20 199 559 90 0 592
558 -10 338 698 90 168 0
559 -10 434 794 90 362 0
560 -20 234 594 90 430 0
561 20 60 420 90 0 511
562 -10 625 985 90 541 0
563 -20 406 766 90 259 0
564 20 391 751 90 0 485
565 20 59 419 0 0 618
566 -20 129 489 90 483 0
567 10 435 795 90 0 335
568 10 677 1037 90 0 235
569 -10 418 778 90 203 0
570 10 123 483 90 0 126
571 10 781 1141 90 0 456
572 20 245 605 90 0 475
573 10 85 445 90 0 356
574 10 232 592 90 0 306
575 -30 512 872 90 75 0
576 10 101 461 90 0 119
577 -30 606 966 90 35 0
578 30 77 437 90 0 366
579 -20 608 968 90 175 0
580 20 436 796 0 0 617
581 10 85 445 90 0 46
582 -20 660 1020 90 28 0
583 30 136 496 90 0 78
584 -10 915 1275 90 58 0
585 10 768 1128 90 0 397
586 -20 874 1234 90 96 0
587 10 104 464 90 0 364
588 20 107 467 90 0 318
589 -20 134 494 90 591 0
590 10 145 505 90 0 124
591 20 120 480 90 0 589
592 -20 399 759 90 557 0
593 20 188 548 90 0 194
594 -10 152 512 90 69 0
595 10 86 446 0 0 615
596 20 75 435 90 0 99
597 30 218 578 90 0 202
598 20 622 982 90 0 224
599 30 30 390 90 0 338
600 -10 365 725 90 428 0
601 20 56 416 90 0 22
602 -10 549 909 90 183 0
603 -20 492 852 90 210 0
604 -20 92 452 90 20 0
605 -10 57 417 90 112 0
606 -30 304 664 90 523 0
607 -20 667 1027 90 157 0
608 -20 335 695 90 396 0
609 -20 438 798 90 24 0
610 -40 116 476 90 206 0
611 -20 878 1238 90 473 0
612 -10 103 463 90 108 0
613 -20 557 917 90 41 0
614 -20 674 1034 90 492 0
615 -10 86 446 90 595 0
616 -30 140 500 90 372 0
617 -20 436 796 90 580 0
618 -20 59 419 90 565 0
619 -20 653 1013 90 63 0
620 -10 606 966 90 275 0
621 -20 683 1043 90 199 0
622 -10 748 1108 90 503 0
623 -20 108 468 90 45 0
624 -20 135 495 90 213 0
625 -10 847 1207 90 452 0
626 -20 762 1122 90 266 0
627 -20 393 753 90 465 0
628 -30 232 592 90 56 0
629 -10 555 915 90 38 0
630 -10 51 411 90 339 0
631 -20 297 657 90 207 0
632 -10 606 966 90 505 0
633 -20 698 1058 90 312 0
DEPOT_SECTION
1
-1
EOF
