NAME: lc1_6_2
TYPE: PDPTW
COMMENT: Li & Lim PDPTW benchmark converted from SINTEF format
DIMENSION: 629
VEHICLES: 150
CAPACITY: 200
EDGE_WEIGHT_TYPE: EUC_2D
NODE_COORD_SECTION
1 150 150
2 17 205
3 153 254
4 229 219
5 214 156
6 121 260
7 29 277
8 47 277
9 85 224
10 105 230
11 160 111
12 65 69
13 63 233
14 143 111
15 173 233
16 85 24
17 277 100
18 166 105
19 141 137
20 100 73
21 61 70
22 161 210
23 30 280
24 129 98
25 62 65
26 256 239
27 9 144
28 174 228
29 203 156
30 251 241
31 109 110
32 106 233
33 22 102
34 145 184
35 121 170
36 25 141
37 167 176
38 126 229
39 122 172
40 119 267
41 68 113
42 257 243
43 157 266
44 157 31
45 73 226
46 74 109
47 12 198
48 199 126
49 31 55
50 10 147
51 168 176
52 277 104
53 55 232
54 119 262
55 220 74
56 122 175
57 144 182
58 149 285
59 61 157
60 140 143
61 203 125
62 114 164
63 108 80
64 103 232
65 71 154
66 87 27
67 67 154
68 255 132
69 108 113
70 86 230
71 226 221
72 116 159
73 155 28
74 151 294
75 83 30
76 150 184
77 141 102
78 114 156
79 263 212
80 259 59
81 161 26
82 59 236
83 69 4
84 78 33
85 16 204
86 16 196
87 113 114
88 153 28
89 67 161
90 211 61
91 125 103
92 269 29
93 146 61
94 33 142
95 26 282
96 29 285
97 130 230
98 260 58
99 173 72
100 162 206
101 148 60
102 272 38
103 160 27
104 231 218
105 173 76
106 66 7
107 114 49
108 213 68
109 59 280
110 175 101
111 96 237
112 115 196
113 153 265
114 110 79
115 227 222
116 275 97
117 216 6
118 29 148
119 137 104
120 253 57
121 136 140
122 209 127
123 59 64
124 283 229
125 141 286
126 236 240
127 161 22
128 147 185
129 81 238
130 10 198
131 68 229
132 118 163
133 78 31
134 230 221
135 278 128
136 29 94
137 25 99
138 167 105
139 214 157
140 65 6
141 260 214
142 143 288
143 167 229
144 173 13
145 286 130
146 33 283
147 163 180
148 148 288
149 239 77
150 106 237
151 277 101
152 144 292
153 215 4
154 82 34
155 169 171
156 76 111
157 213 65
158 13 265
159 149 183
160 36 52
161 99 242
162 33 285
163 221 8
164 165 182
165 235 242
166 31 145
167 159 110
168 113 202
169 228 220
170 9 145
171 86 30
172 266 104
173 217 21
174 161 112
175 255 240
176 203 128
177 77 233
178 168 108
179 133 99
180 202 133
181 211 150
182 141 100
183 54 285
184 220 66
185 285 225
186 174 79
187 147 67
188 70 57
189 159 177
190 160 107
191 70 227
192 136 233
193 256 54
194 107 71
195 202 131
196 181 8
197 257 137
198 134 146
199 53 237
200 274 97
201 285 230
202 55 62
203 160 108
204 242 73
205 248 245
206 154 266
207 113 50
208 25 50
209 143 61
210 222 73
211 60 15
212 224 79
213 86 31
214 67 230
215 147 60
216 65 156
217 262 241
218 257 58
219 181 102
220 18 206
221 0 153
222 140 140
223 204 129
224 110 107
225 128 172
226 23 107
227 170 237
228 174 74
229 164 103
230 206 129
231 65 56
232 262 211
233 236 248
234 161 94
235 136 220
236 166 113
237 176 71
238 64 55
239 118 156
240 142 57
241 66 8
242 174 71
243 131 226
244 280 175
245 136 144
246 178 10
247 230 248
248 201 121
249 257 59
250 65 4
251 165 204
252 134 148
253 164 202
254 218 20
255 287 224
256 63 59
257 121 181
258 257 133
259 112 201
260 272 41
261 110 74
262 137 229
263 70 225
264 53 234
265 233 216
266 100 231
267 140 290
268 111 52
269 249 133
270 8 155
271 126 256
272 212 26
273 156 26
274 238 69
275 280 125
276 65 5
277 176 14
278 59 223
279 43 286
280 262 62
281 67 216
282 261 212
283 149 186
284 236 66
285 140 108
286 60 156
287 114 50
288 28 103
289 27 100
290 163 200
291 63 229
292 150 56
293 254 240
294 63 155
295 106 77
296 246 133
297 227 217
298 278 43
299 182 238
300 65 49
301 60 160
302 175 12
303 223 74
304 128 176
305 235 241
306 280 172
307 11 265
308 79 30
309 144 100
310 222 83
311 261 215
312 264 61
313 183 99
314 109 105
315 258 212
316 150 272
317 147 178
318 93 235
319 125 228
320 109 42
321 162 203
322 179 97
323 105 55
324 29 55
325 216 62
326 51 238
327 281 129
328 8 263
329 259 58
330 136 104
331 199 130
332 108 109
333 106 108
334 110 76
335 144 173
336 282 227
337 64 59
338 131 228
339 143 101
340 278 176
341 134 147
342 4 149
343 70 109
344 52 233
345 165 228
346 137 150
347 57 155
348 231 70
349 111 153
350 229 217
351 184 97
352 10 150
353 149 282
354 282 137
355 130 96
356 113 52
357 147 285
358 53 232
359 170 174
360 78 232
361 127 101
362 289 225
363 127 232
364 223 23
365 179 9
366 177 225
367 277 172
368 166 203
369 218 153
370 35 282
371 151 30
372 284 176
373 252 128
374 28 144
375 83 236
376 223 11
377 164 95
378 216 25
379 275 32
380 35 56
381 135 227
382 183 97
383 60 64
384 104 235
385 128 94
386 30 279
387 31 275
388 233 242
389 64 53
390 148 62
391 130 102
392 105 81
393 184 98
394 140 100
395 160 24
396 13 202
397 247 132
398 227 218
399 133 225
400 129 177
401 14 149
402 31 284
403 287 226
404 55 285
405 216 148
406 255 57
407 66 54
408 81 223
409 225 22
410 85 228
411 232 240
412 272 97
413 70 102
414 122 259
415 154 31
416 69 109
417 168 97
418 201 127
419 139 58
420 119 104
421 211 159
422 168 96
423 181 11
424 158 27
425 115 42
426 162 107
427 17 209
428 50 285
429 19 102
430 174 13
431 184 12
432 217 69
433 58 235
434 258 247
435 250 134
436 268 38
437 66 157
438 270 37
439 12 270
440 11 207
441 121 255
442 233 245
443 215 160
444 269 103
445 280 180
446 177 82
447 78 236
448 66 56
449 116 265
450 287 128
451 228 223
452 173 224
453 138 101
454 275 100
455 3 205
456 280 225
457 8 265
458 169 235
459 37 62
460 29 57
461 259 126
462 227 214
463 1 272
464 74 106
465 132 146
466 58 231
467 157 25
468 258 232
469 109 157
470 282 134
471 288 227
472 52 63
473 65 68
474 212 62
475 167 179
476 169 173
477 204 131
478 52 288
479 149 294
480 73 225
481 241 71
482 154 26
483 255 220
484 53 285
485 211 66
486 22 97
487 259 240
488 88 31
489 66 10
490 26 99
491 111 112
492 250 126
493 123 92
494 227 26
495 63 3
496 230 223
497 216 157
498 63 7
499 280 130
500 116 49
501 166 94
502 211 157
503 148 61
504 37 53
505 177 4
506 269 35
507 101 110
508 236 72
509 185 98
510 62 53
511 112 199
512 165 113
513 218 3
514 281 130
515 271 101
516 288 231
517 204 127
518 131 95
519 171 79
520 151 269
521 67 10
522 29 152
523 240 71
524 210 156
525 240 73
526 74 113
527 263 215
528 25 145
529 23 103
530 145 182
531 124 264
532 88 225
533 246 137
534 84 236
535 235 243
536 236 218
537 275 182
538 102 235
539 212 9
540 26 97
541 59 67
542 49 234
543 57 68
544 217 11
545 277 177
546 28 56
547 140 228
548 227 80
549 115 48
550 217 73
551 216 23
552 112 51
553 64 226
554 278 177
555 52 231
556 140 292
557 224 77
558 114 204
559 288 228
560 173 11
561 114 198
562 34 54
563 145 183
564 213 61
565 179 98
566 261 217
567 115 197
568 123 260
569 138 100
570 231 243
571 257 210
572 212 159
573 103 78
574 286 175
575 82 31
576 144 59
577 119 157
578 166 226
579 258 244
580 163 202
581 75 110
582 175 227
583 114 158
584 147 281
585 250 130
586 37 280
587 215 68
588 119 253
589 16 151
590 251 237
591 30 148
592 221 70
593 106 71
594 111 110
595 150 64
596 172 78
597 55 68
598 107 103
599 155 180
600 53 288
601 168 204
602 59 223
603 67 10
604 280 225
605 116 159
606 174 13
607 218 20
608 258 244
609 253 57
610 85 24
611 19 102
612 272 97
613 280 180
614 52 288
615 151 30
616 227 222
617 31 145
618 121 255
619 147 67
620 109 42
621 247 132
622 144 173
623 220 74
624 177 225
625 131 95
626 159 177
627 211 159
628 75 110
629 167 105
PICKUP_AND_DELIVERY_SECTION
1 0 0 1496 0 0 0
2 -10 306 355 90 220 0
3 -20 0 1302 90 43 0
4 -10 253 319 90 350 0
5 20 672 732 90 0 181
6 10 358 414 90 0 235
7 10 0 1231 90 0 96
8 20 163 210 90 0 279
9 -10 0 1308 90 146 0
10 10 91 155 90 0 32
11 30 0 1366 90 0 417
12 -20 0 1289 90 202 0
13 20 629 696 90 0 553
14 20 39 100 90 0 309
15 30 0 1320 90 0 599
16 20 470 537 0 0 610
17 10 286 353 90 0 116
18 -10 551 633 90 229 0
19 30 163 233 90 0 341
20 -10 0 1315 90 573 0
21 30 119 180 90 0 543
22 -20 0 1345 90 143 0
23 20 412 485 90 0 402
24 -20 582 655 90 355 0
25 -30 939 988 90 597 0
26 -20 575 629 90 293 0
27 -20 569 626 90 50 0
28 -20 722 775 90 37 0
29 20 53 107 90 0 524
30 10 197 265 90 0 590
31 20 390 457 90 0 333
32 -10 159 211 90 10 0
33 10 0 1270 90 0 226
34 -30 0 1372 90 319 0
35 -30 569 624 90 56 0
36 20 0 1281 90 0 374
37 20 0 1375 90 0 28
38 10 701 769 90 0 243
39 -30 468 542 90 578 0
40 -20 635 698 90 54 0
41 -20 698 776 90 416 0
42 10 661 731 90 0 468
43 20 0 1290 90 0 3
44 -10 1200 1260 90 81 0
45 20 174 222 90 0 291
46 40 238 294 90 0 343
47 -10 0 1260 90 85 0
48 10 118 175 90 0 418
49 -30 0 1254 90 460 0
50 20 0 1266 90 0 27
51 -30 0 1375 90 155 0
52 20 135 186 90 0 200
53 10 0 1281 90 0 344
54 20 0 1290 90 0 40
55 20 835 878 0 0 623
56 30 381 442 90 0 35
57 30 649 707 90 0 317
58 -10 201 249 90 353 0
59 -20 428 494 90 286 0
60 -10 0 1394 90 594 0
61 30 0 1348 90 0 230
62 20 104 153 90 0 583
63 -30 803 863 90 334 0
64 20 252 305 90 0 318
65 -10 0 1327 90 89 0
66 20 383 438 90 0 84
67 20 797 864 90 0 349
68 10 530 604 90 0 585
69 10 214 262 90 0 598
70 20 155 231 90 0 447
71 -10 0 1302 90 451 0
72 10 0 1371 0 0 605
73 10 0 1284 90 0 103
74 20 383 446 90 0 267
75 -20 0 1269 90 171 0
76 -10 194 243 90 159 0
77 -20 0 1358 90 390 0
78 20 569 632 90 0 577
79 -10 559 626 90 566 0
80 -10 563 639 90 218 0
81 10 926 978 90 0 44
82 -10 1026 1075 90 555 0
83 20 0 1240 90 0 106
84 -20 944 992 90 66 0
85 10 396 446 90 0 47
86 -20 960 1031 90 396 0
87 20 0 1355 90 0 491
88 10 0 1284 90 0 424
89 10 83 151 90 0 65
90 -10 629 697 90 432 0
91 20 53 131 90 0 179
92 -20 520 579 90 298 0
93 -20 623 687 90 419 0
94 -20 0 1289 90 589 0
95 -20 507 580 90 387 0
96 -10 601 674 90 7 0
97 20 0 1324 90 0 363
98 -20 743 823 90 249 0
99 10 0 1325 90 0 186
100 -20 403 461 90 251 0
101 -10 0 1316 90 595 0
102 -20 330 383 90 260 0
103 -10 0 1283 90 73 0
104 10 350 405 90 0 169
105 20 237 278 90 0 242
106 -20 786 849 90 83 0
107 -20 0 1299 90 323 0
108 -20 0 1303 90 565 0
109 -30 882 951 90 404 0
110 20 55 95 90 0 544
111 -10 725 777 90 384 0
112 10 57 120 90 0 168
113 -10 464 525 90 316 0
114 -10 898 953 90 295 0
115 20 903 971 0 0 616
116 -10 470 539 90 17 0
117 20 230 269 90 0 539
118 -30 277 336 90 522 0
119 -20 840 909 90 453 0
120 10 138 186 0 0 609
121 -30 261 327 90 222 0
122 -10 771 829 90 517 0
123 -10 658 703 90 541 0
124 20 870 914 90 0 336
125 -30 0 1270 90 148 0
126 30 656 714 90 0 476
127 -20 831 886 90 482 0
128 10 371 435 90 0 530
129 20 452 494 90 0 304
130 -10 784 834 90 455 0
131 -30 0 1293 90 263 0
132 30 0 1372 90 0 469
133 -20 849 904 90 213 0
134 -10 631 692 90 536 0
135 -10 852 908 90 354 0
136 -10 561 624 90 490 0
137 -10 379 434 90 288 0
138 20 643 724 0 0 629
139 -20 0 1342 90 572 0
140 10 323 383 90 0 241
141 30 379 434 90 0 232
142 30 667 726 90 0 556
143 20 0 1326 90 0 22
144 10 0 1268 90 0 423
145 30 0 1269 90 0 499
146 10 881 946 90 0 9
147 -10 646 703 90 164 0
148 30 286 350 90 0 125
149 20 115 181 90 0 204
150 20 0 1309 90 0 161
151 20 196 260 90 0 454
152 20 577 627 90 0 357
153 40 319 363 90 0 376
154 -10 1030 1094 90 575 0
155 30 28 93 90 0 51
156 20 83 157 90 0 413
157 20 826 869 90 0 509
158 20 178 246 90 0 457
159 10 95 159 90 0 76
160 30 0 1256 90 0 504
161 -20 628 681 90 150 0
162 10 0 1228 90 0 370
163 -30 0 1248 90 513 0
164 10 552 613 90 0 147
165 10 561 624 90 0 411
166 30 646 719 0 0 617
167 20 183 262 90 0 203
168 -10 395 457 90 112 0
169 -10 1088 1152 90 104 0
170 -10 0 1265 90 401 0
171 20 288 346 90 0 75
172 10 0 1282 90 0 180
173 30 494 546 90 0 322
174 10 39 88 90 0 178
175 20 476 545 90 0 487
176 -10 498 546 90 248 0
177 -10 0 1296 90 534 0
178 -10 744 809 90 174 0
179 -20 0 1353 90 91 0
180 -10 1144 1197 90 172 0
181 -20 0 1345 90 5 0
182 10 0 1356 90 0 330
183 -10 706 752 90 484 0
184 20 363 401 90 0 325
185 30 154 220 90 0 255
186 -10 0 1332 90 99 0
187 30 0 1323 0 0 619
188 20 837 902 90 0 420
189 30 736 803 0 0 626
190 -10 0 1362 90 426 0
191 -20 0 1295 90 199 0
192 10 148 203 90 0 381
193 -10 292 355 90 406 0
194 -20 427 492 90 593 0
195 -20 1045 1113 90 223 0
196 -30 852 911 90 365 0
197 20 356 405 90 0 461
198 10 454 508 90 0 346
199 20 825 901 90 0 191
200 -20 568 622 90 52 0
201 -10 763 837 90 559 0
202 20 0 1277 90 0 12
203 -20 294 336 90 167 0
204 -20 273 330 90 149 0
205 10 136 193 90 0 434
206 40 172 247 90 0 520
207 20 452 501 90 0 287
208 10 496 551 90 0 562
209 -20 531 593 90 292 0
210 -10 642 703 90 348 0
211 10 0 1244 90 0 498
212 -20 248 326 90 310 0
213 20 200 253 90 0 133
214 -20 536 600 90 225 0
215 -10 0 1316 90 576 0
216 -20 611 682 90 301 0
217 20 0 1262 90 0 265
218 10 0 1265 90 0 80
219 -10 773 814 90 393 0
220 10 210 267 90 0 2
221 -10 756 823 90 352 0
222 30 0 1392 90 0 121
223 20 580 647 90 0 195
224 -10 957 1017 90 507 0
225 20 0 1375 90 0 214
226 -10 1044 1086 90 33 0
227 -20 0 1317 90 247 0
228 30 609 649 90 0 422
229 10 0 1357 90 0 18
230 -30 0 1347 90 61 0
231 10 184 253 90 0 448
232 -30 0 1279 90 141 0
233 -10 290 338 90 442 0
234 20 57 119 90 0 382
235 -10 1079 1142 90 6 0
236 -30 846 898 90 501 0
237 20 513 557 90 0 446
238 20 282 338 90 0 300
239 -20 668 721 90 400 0
240 10 338 410 90 0 503
241 -10 872 945 90 140 0
242 -20 420 466 90 105 0
243 -10 886 960 90 38 0
244 30 483 534 90 0 306
245 10 358 418 90 0 252
246 -10 563 636 90 277 0
247 20 189 248 90 0 227
248 10 207 278 90 0 176
249 20 484 535 90 0 98
250 30 0 1238 90 0 495
251 20 209 272 90 0 100
252 -10 731 781 90 245 0
253 -30 677 737 90 321 0
254 20 405 452 0 0 607
255 -30 0 1251 90 185 0
256 20 839 897 90 0 473
257 -20 280 350 90 345 0
258 -10 448 501 90 269 0
259 -20 306 363 90 561 0
260 20 230 297 90 0 102
261 -20 528 578 90 392 0
262 -20 227 311 90 547 0
263 30 254 329 90 0 131
264 -20 555 611 90 358 0
265 -20 0 1300 90 217 0
266 -30 0 1311 90 538 0
267 -20 0 1266 90 74 0
268 20 174 229 90 0 500
269 10 166 218 90 0 258
270 -20 858 919 90 342 0
271 -20 921 983 90 414 0
272 -10 766 830 90 551 0
273 10 0 1282 90 0 395
274 -20 549 605 90 481 0
275 -30 0 1274 90 514 0
276 20 0 1238 90 0 489
277 10 138 174 90 0 246
278 20 914 977 0 0 602
279 -20 231 296 90 8 0
280 -30 937 1003 90 329 0
281 -20 1011 1082 90 439 0
282 30 754 796 90 0 571
283 20 279 342 90 0 563
284 30 637 705 90 0 508
285 -20 937 1002 90 394 0
286 20 342 397 90 0 59
287 -20 535 600 90 207 0
288 10 130 206 90 0 137
289 10 190 258 90 0 540
290 -20 772 827 90 580 0
291 -20 724 789 90 45 0
292 20 156 212 90 0 209
293 20 383 457 90 0 26
294 -20 518 591 90 347 0
295 10 707 772 90 0 114
296 -10 1105 1162 90 373 0
297 -20 1231 1304 90 398 0
298 20 166 221 90 0 92
299 -10 526 580 90 458 0
300 -20 559 619 90 238 0
301 20 0 1316 90 0 216
302 -20 0 1266 90 560 0
303 10 734 794 90 0 550
304 -20 0 1372 90 129 0
305 30 748 804 90 0 388
306 -30 563 639 90 244 0
307 10 243 299 90 0 463
308 -10 756 813 90 488 0
309 -20 296 348 90 14 0
310 20 98 158 90 0 212
311 10 0 1278 90 0 315
312 20 837 920 90 0 548
313 -20 671 728 90 377 0
314 -20 862 927 90 332 0
315 -10 843 894 90 311 0
316 10 261 352 90 0 113
317 -30 836 890 90 57 0
318 -20 819 869 90 64 0
319 30 803 851 90 0 34
320 10 723 792 0 0 620
321 30 0 1352 90 0 253
322 -30 0 1346 90 173 0
323 20 105 177 90 0 107
324 -10 0 1253 90 380 0
325 -20 0 1296 90 184 0
326 -30 741 802 90 328 0
327 -30 0 1274 90 470 0
328 30 0 1225 90 0 326
329 30 663 721 90 0 280
330 -10 759 808 90 182 0
331 -20 0 1354 90 477 0
332 20 0 1348 90 0 314
333 -20 586 630 90 31 0
334 30 611 679 90 0 63
335 20 0 1383 0 0 622
336 -20 0 1254 90 124 0
337 30 125 197 90 0 510
338 20 425 487 90 0 399
339 10 208 254 90 0 569
340 -10 767 810 90 367 0
341 -30 631 699 90 19 0
342 20 660 729 90 0 270
343 -40 521 583 90 46 0
344 -10 460 523 90 53 0
345 20 145 194 90 0 257
346 -10 0 1393 90 198 0
347 20 246 307 90 0 294
348 10 439 519 90 0 210
349 -20 0 1367 90 67 0
350 10 159 228 90 0 4
351 10 402 451 90 0 512
352 10 296 346 90 0 221
353 10 132 191 90 0 58
354 10 132 203 90 0 135
355 20 495 557 90 0 24
356 -10 364 405 90 552 0
357 -20 1046 1102 90 152 0
358 20 276 339 90 0 264
359 20 180 244 90 0 475
360 -20 719 784 90 532 0
361 20 119 174 90 0 385
362 10 0 1249 90 0 516
363 -20 612 672 90 97 0
364 -20 297 368 90 494 0
365 30 661 720 90 0 196
366 10 0 1327 0 0 624
367 10 667 722 90 0 340
368 -20 130 168 90 601 0
369 -10 862 915 90 443 0
370 -10 981 1031 90 162 0
371 20 185 240 0 0 615
372 30 288 353 90 0 545
373 10 742 781 90 0 296
374 -20 563 616 90 36 0
375 10 0 1297 90 0 408
376 -40 587 660 90 153 0
377 20 129 172 90 0 313
378 -40 689 720 90 409 0
379 20 429 477 90 0 438
380 10 206 273 90 0 324
381 -10 327 396 90 192 0
382 -20 312 359 90 234 0
383 -10 746 797 90 472 0
384 10 429 497 90 0 111
385 -20 314 369 90 361 0
386 20 328 387 90 0 586
387 20 172 225 90 0 95
388 -30 841 896 90 305 0
389 30 465 525 90 0 407
390 20 994 1044 90 0 77
391 -20 764 848 90 493 0
392 20 82 154 90 0 261
393 10 575 642 90 0 219
394 20 0 1356 90 0 285
395 -10 735 797 90 273 0
396 20 484 547 90 0 86
397 10 0 1308 0 0 621
398 20 1180 1245 90 0 297
399 -20 983 1048 90 338 0
400 20 190 244 90 0 239
401 10 193 260 90 0 170
402 -20 700 759 90 23 0
403 10 391 472 90 0 471
404 30 793 847 90 0 109
405 -20 951 1018 90 502 0
406 10 0 1266 90 0 193
407 -30 658 710 90 389 0
408 -10 1009 1065 90 375 0
409 40 217 263 90 0 378
410 10 0 1305 90 0 558
411 -10 922 999 90 165 0
412 40 0 1273 0 0 612
413 -20 422 488 90 156 0
414 20 0 1294 90 0 271
415 20 119 182 90 0 467
416 20 611 675 90 0 41
417 -30 393 459 90 11 0
418 -10 394 466 90 48 0
419 20 434 500 90 0 93
420 -20 1059 1115 90 188 0
421 10 307 361 0 0 627
422 -30 0 1350 90 228 0
423 -10 0 1264 90 144 0
424 -10 0 1283 90 88 0
425 30 822 884 90 0 549
426 10 0 1362 90 0 190
427 10 0 1261 90 0 440
428 10 0 1238 90 0 600
429 30 756 816 0 0 611
430 20 0 1267 0 0 606
431 -10 1042 1094 90 505 0
432 10 0 1301 90 0 90
433 10 932 985 90 0 480
434 -10 0 1261 90 205 0
435 30 250 317 90 0 492
436 -20 803 858 90 506 0
437 10 706 769 90 0 465
438 -20 705 771 90 379 0
439 20 624 692 90 0 281
440 -10 579 642 90 427 0
441 30 169 231 0 0 618
442 10 0 1280 90 0 233
443 10 488 548 90 0 369
444 -10 846 902 90 515 0
445 20 0 1273 0 0 613
446 -20 0 1333 90 237 0
447 -20 0 1294 90 70 0
448 -10 746 806 90 231 0
449 20 549 598 90 0 531
450 30 0 1268 90 0 533
451 10 819 871 90 0 71
452 -30 0 1329 90 582 0
453 20 659 720 90 0 119
454 -20 375 447 90 151 0
455 10 680 738 90 0 130
456 20 1050 1105 0 0 604
457 -20 0 1224 90 158 0
458 10 333 384 90 0 299
459 10 0 1263 90 0 546
460 30 0 1254 90 0 49
461 -20 633 695 90 197 0
462 20 100 144 90 0 496
463 -10 523 589 90 307 0
464 20 323 395 90 0 526
465 -10 0 1388 90 437 0
466 10 122 197 90 0 542
467 -20 640 705 90 415 0
468 -10 1148 1191 90 42 0
469 -30 387 436 90 132 0
470 30 192 259 90 0 327
471 -10 486 560 90 403 0
472 10 473 513 90 0 383
473 -20 1030 1087 90 256 0
474 -10 0 1299 90 587 0
475 -20 461 517 90 359 0
476 -30 0 1377 90 126 0
477 20 959 1014 90 0 331
478 20 433 475 0 0 614
479 10 481 532 90 0 584
480 -10 0 1299 90 433 0
481 20 359 427 90 0 274
482 20 452 527 90 0 127
483 20 126 171 90 0 527
484 10 604 673 90 0 183
485 -20 0 1303 90 564 0
486 20 649 731 90 0 529
487 -20 1038 1104 90 175 0
488 10 134 202 90 0 308
489 -20 977 1024 90 276 0
490 10 293 338 90 0 136
491 -20 118 170 90 87 0
492 -30 827 882 90 435 0
493 20 219 272 90 0 391
494 20 145 205 90 0 364
495 -30 508 566 90 250 0
496 -20 722 784 90 462 0
497 -20 0 1340 90 554 0
498 -10 231 290 90 211 0
499 -30 568 633 90 145 0
500 -20 1003 1078 90 268 0
501 30 211 274 90 0 236
502 20 201 282 90 0 405
503 -10 900 957 90 240 0
504 -30 956 1023 90 160 0
505 10 0 1258 90 0 431
506 20 0 1241 90 0 436
507 10 674 731 90 0 224
508 -30 735 799 90 284 0
509 -20 0 1344 90 157 0
510 -30 368 437 90 337 0
511 20 218 267 90 0 567
512 -10 941 985 90 351 0
513 30 0 1245 90 0 163
514 30 0 1274 90 0 275
515 10 750 812 90 0 444
516 -10 679 734 90 362 0
517 10 676 735 90 0 122
518 20 0 1348 0 0 625
519 20 74 141 90 0 596
520 -40 374 426 90 206 0
521 30 1061 1122 0 0 603
522 30 121 200 90 0 118
523 -20 458 510 90 525 0
524 -20 125 176 90 29 0
525 20 178 240 90 0 523
526 -20 806 860 90 464 0
527 -20 0 1276 90 483 0
528 -20 374 429 90 591 0
529 -20 930 1011 90 486 0
530 -10 726 812 90 128 0
531 -20 731 794 90 449 0
532 20 97 146 90 0 360
533 -30 0 1310 90 450 0
534 10 258 321 90 0 177
535 -10 477 526 90 570 0
536 10 542 587 90 0 134
537 10 129 188 90 0 574
538 30 340 403 90 0 266
539 -20 0 1252 90 117 0
540 -10 471 527 90 289 0
541 10 184 243 90 0 123
542 -10 640 713 90 466 0
543 -30 267 344 90 21 0
544 -20 0 1252 90 110 0
545 -30 946 994 90 372 0
546 -10 0 1252 90 459 0
547 20 78 148 90 0 262
548 -20 0 1302 90 312 0
549 -30 910 989 90 425 0
550 -10 0 1304 90 303 0
551 10 575 649 90 0 272
552 10 264 322 90 0 356
553 -20 0 1292 90 13 0
554 20 854 904 90 0 497
555 10 372 427 90 0 82
556 -30 760 823 90 142 0
557 20 0 1303 90 0 592
558 -10 0 1342 90 410 0
559 10 577 651 90 0 201
560 20 385 442 90 0 302
561 20 127 173 90 0 259
562 -10 781 830 90 208 0
563 -20 558 615 90 283 0
564 20 538 604 90 0 485
565 20 0 1347 90 0 108
566 10 189 257 90 0 79
567 -20 590 640 90 511 0
568 -20 826 888 90 588 0
569 -10 565 631 90 339 0
570 10 0 1283 90 0 535
571 -30 925 997 90 282 0
572 20 397 453 90 0 139
573 10 149 202 90 0 20
574 -10 0 1268 90 537 0
575 10 662 722 90 0 154
576 10 255 306 90 0 215
577 -20 762 810 90 78 0
578 30 77 123 90 0 39
579 10 749 827 0 0 608
580 20 601 632 90 0 290
581 10 150 201 0 0 628
582 30 815 864 90 0 452
583 -20 0 1370 90 62 0
584 -10 1146 1190 90 479 0
585 -10 917 979 90 68 0
586 -20 1064 1133 90 386 0
587 10 0 1302 90 0 474
588 20 107 169 90 0 568
589 20 134 192 90 0 94
590 -10 301 350 90 30 0
591 20 181 250 90 0 528
592 -20 0 1300 90 557 0
593 20 335 402 90 0 194
594 10 298 366 90 0 60
595 10 86 143 90 0 101
596 -20 131 200 90 519 0
597 30 361 435 90 0 25
598 -10 0 1343 90 69 0
599 -30 0 1376 90 15 0
600 -10 512 579 90 428 0
601 20 56 115 90 0 368
602 -20 914 977 90 278 0
603 -30 1061 1122 90 521 0
604 -20 1050 1105 90 456 0
605 -10 0 1371 90 72 0
606 -20 0 1267 90 430 0
607 -20 405 452 90 254 0
608 -10 749 827 90 579 0
609 -10 138 186 90 120 0
610 -20 470 537 90 16 0
611 -30 756 816 90 429 0
612 -40 0 1273 90 412 0
613 -20 0 1273 90 445 0
614 -20 433 475 90 478 0
615 -20 185 240 90 371 0
616 -20 903 971 90 115 0
617 -30 646 719 90 166 0
618 -30 169 231 90 441 0
619 -30 0 1323 90 187 0
620 -10 723 792 90 320 0
621 -10 0 1308 90 397 0
622 -20 0 1383 90 335 0
623 -20 835 878 90 55 0
624 -10 0 1327 90 366 0
625 -20 0 1348 90 518 0
626 -30 736 803 90 189 0
627 -10 307 361 90 421 0
628 -10 150 201 90 581 0
629 -20 643 724 90 138 0
DEPOT_SECTION
1
-1
EOF
