NAME: lc1_6_10
TYPE: PDPTW
COMMENT: Li & Lim PDPTW benchmark converted from SINTEF format
DIMENSION: 639
VEHICLES: 150
CAPACITY: 200
EDGE_WEIGHT_TYPE: EUC_2D
NODE_COORD_SECTION
1 150 150
2 17 205
3 153 254
4 229 219
5 214 156
6 121 260
7 29 277
8 47 277
9 85 224
10 105 230
11 160 111
12 65 69
13 63 233
14 143 111
15 173 233
16 85 24
17 277 100
18 166 105
19 141 137
20 100 73
21 61 70
22 161 210
23 30 280
24 129 98
25 62 65
26 256 239
27 9 144
28 174 228
29 203 156
30 251 241
31 109 110
32 106 233
33 22 102
34 145 184
35 121 170
36 25 141
37 167 176
38 126 229
39 122 172
40 119 267
41 68 113
42 257 243
43 157 266
44 157 31
45 73 226
46 74 109
47 12 198
48 199 126
49 31 55
50 10 147
51 168 176
52 277 104
53 55 232
54 119 262
55 220 74
56 122 175
57 144 182
58 149 285
59 61 157
60 140 143
61 203 125
62 114 164
63 108 80
64 103 232
65 71 154
66 87 27
67 67 154
68 255 132
69 108 113
70 86 230
71 226 221
72 116 159
73 155 28
74 151 294
75 83 30
76 150 184
77 141 102
78 114 156
79 263 212
80 259 59
81 161 26
82 59 236
83 69 4
84 78 33
85 16 204
86 16 196
87 113 114
88 153 28
89 67 161
90 211 61
91 125 103
92 269 29
93 146 61
94 33 142
95 26 282
96 29 285
97 130 230
98 260 58
99 173 72
100 162 206
101 148 60
102 272 38
103 160 27
104 231 218
105 173 76
106 66 7
107 114 49
108 213 68
109 59 280
110 175 101
111 96 237
112 115 196
113 153 265
114 110 79
115 227 222
116 275 97
117 216 6
118 29 148
119 137 104
120 253 57
121 136 140
122 209 127
123 59 64
124 283 229
125 141 286
126 236 240
127 161 22
128 147 185
129 81 238
130 10 198
131 68 229
132 118 163
133 78 31
134 230 221
135 278 128
136 29 94
137 25 99
138 167 105
139 214 157
140 65 6
141 260 214
142 143 288
143 167 229
144 173 13
145 286 130
146 33 283
147 163 180
148 148 288
149 239 77
150 106 237
151 277 101
152 144 292
153 215 4
154 82 34
155 169 171
156 76 111
157 213 65
158 13 265
159 149 183
160 36 52
161 99 242
162 33 285
163 221 8
164 165 182
165 235 242
166 31 145
167 159 110
168 113 202
169 228 220
170 9 145
171 86 30
172 266 104
173 217 21
174 161 112
175 255 240
176 203 128
177 77 233
178 168 108
179 133 99
180 202 133
181 211 150
182 141 100
183 54 285
184 220 66
185 285 225
186 174 79
187 147 67
188 70 57
189 159 177
190 160 107
191 70 227
192 136 233
193 256 54
194 107 71
195 202 131
196 181 8
197 257 137
198 134 146
199 53 237
200 274 97
201 285 230
202 55 62
203 160 108
204 242 73
205 248 245
206 154 266
207 113 50
208 25 50
209 143 61
210 222 73
211 60 15
212 224 79
213 86 31
214 67 230
215 147 60
216 65 156
217 262 241
218 257 58
219 181 102
220 18 206
221 0 153
222 140 140
223 204 129
224 110 107
225 128 172
226 23 107
227 170 237
228 174 74
229 164 103
230 206 129
231 65 56
232 262 211
233 236 248
234 161 94
235 136 220
236 166 113
237 176 71
238 64 55
239 118 156
240 142 57
241 66 8
242 174 71
243 131 226
244 280 175
245 136 144
246 178 10
247 230 248
248 201 121
249 257 59
250 65 4
251 165 204
252 134 148
253 164 202
254 218 20
255 287 224
256 63 59
257 121 181
258 257 133
259 112 201
260 272 41
261 110 74
262 137 229
263 70 225
264 53 234
265 233 216
266 100 231
267 140 290
268 111 52
269 249 133
270 8 155
271 126 256
272 212 26
273 156 26
274 238 69
275 280 125
276 65 5
277 176 14
278 59 223
279 43 286
280 262 62
281 67 216
282 261 212
283 149 186
284 236 66
285 140 108
286 60 156
287 114 50
288 28 103
289 27 100
290 163 200
291 63 229
292 150 56
293 254 240
294 63 155
295 106 77
296 246 133
297 227 217
298 278 43
299 182 238
300 65 49
301 60 160
302 175 12
303 223 74
304 128 176
305 235 241
306 280 172
307 11 265
308 79 30
309 144 100
310 222 83
311 261 215
312 264 61
313 183 99
314 109 105
315 258 212
316 150 272
317 147 178
318 93 235
319 125 228
320 109 42
321 162 203
322 179 97
323 105 55
324 29 55
325 216 62
326 51 238
327 281 129
328 8 263
329 259 58
330 136 104
331 199 130
332 108 109
333 106 108
334 110 76
335 144 173
336 282 227
337 64 59
338 131 228
339 143 101
340 278 176
341 134 147
342 4 149
343 70 109
344 52 233
345 165 228
346 137 150
347 57 155
348 231 70
349 111 153
350 229 217
351 184 97
352 10 150
353 149 282
354 282 137
355 130 96
356 113 52
357 147 285
358 53 232
359 170 174
360 78 232
361 127 101
362 289 225
363 127 232
364 223 23
365 179 9
366 177 225
367 277 172
368 166 203
369 218 153
370 35 282
371 151 30
372 284 176
373 252 128
374 28 144
375 83 236
376 223 11
377 164 95
378 216 25
379 275 32
380 35 56
381 135 227
382 183 97
383 60 64
384 104 235
385 128 94
386 30 279
387 31 275
388 233 242
389 64 53
390 148 62
391 130 102
392 105 81
393 184 98
394 140 100
395 160 24
396 13 202
397 247 132
398 227 218
399 133 225
400 129 177
401 14 149
402 31 284
403 287 226
404 55 285
405 216 148
406 255 57
407 66 54
408 81 223
409 225 22
410 85 228
411 232 240
412 272 97
413 70 102
414 122 259
415 154 31
416 69 109
417 168 97
418 201 127
419 139 58
420 119 104
421 211 159
422 168 96
423 181 11
424 158 27
425 115 42
426 162 107
427 17 209
428 50 285
429 19 102
430 174 13
431 184 12
432 217 69
433 58 235
434 258 247
435 250 134
436 268 38
437 66 157
438 270 37
439 12 270
440 11 207
441 121 255
442 233 245
443 215 160
444 269 103
445 280 180
446 177 82
447 78 236
448 66 56
449 116 265
450 287 128
451 228 223
452 173 224
453 138 101
454 275 100
455 3 205
456 280 225
457 8 265
458 169 235
459 37 62
460 29 57
461 259 126
462 227 214
463 1 272
464 74 106
465 132 146
466 58 231
467 157 25
468 258 232
469 109 157
470 282 134
471 288 227
472 52 63
473 65 68
474 212 62
475 167 179
476 169 173
477 204 131
478 52 288
479 149 294
480 73 225
481 241 71
482 154 26
483 255 220
484 53 285
485 211 66
486 22 97
487 259 240
488 88 31
489 66 10
490 26 99
491 111 112
492 250 126
493 123 92
494 227 26
495 63 3
496 230 223
497 216 157
498 63 7
499 280 130
500 116 49
501 166 94
502 211 157
503 148 61
504 37 53
505 177 4
506 269 35
507 101 110
508 236 72
509 185 98
510 62 53
511 112 199
512 165 113
513 218 3
514 281 130
515 271 101
516 288 231
517 204 127
518 131 95
519 171 79
520 151 269
521 67 10
522 29 152
523 240 71
524 210 156
525 240 73
526 74 113
527 263 215
528 25 145
529 23 103
530 145 182
531 124 264
532 88 225
533 246 137
534 84 236
535 235 243
536 236 218
537 275 182
538 102 235
539 212 9
540 26 97
541 59 67
542 49 234
543 57 68
544 217 11
545 277 177
546 28 56
547 140 228
548 227 80
549 115 48
550 217 73
551 216 23
552 112 51
553 64 226
554 278 177
555 52 231
556 140 292
557 224 77
558 114 204
559 288 228
560 173 11
561 114 198
562 34 54
563 145 183
564 213 61
565 179 98
566 261 217
567 115 197
568 123 260
569 138 100
570 231 243
571 257 210
572 212 159
573 103 78
574 286 175
575 82 31
576 144 59
577 119 157
578 166 226
579 258 244
580 163 202
581 75 110
582 175 227
583 114 158
584 147 281
585 250 130
586 37 280
587 215 68
588 119 253
589 16 151
590 251 237
591 30 148
592 221 70
593 106 71
594 111 110
595 150 64
596 172 78
597 55 68
598 107 103
599 155 180
600 53 288
601 168 204
602 33 285
603 260 58
604 82 34
605 67 10
606 216 25
607 63 59
608 16 196
609 33 142
610 151 30
611 227 218
612 164 202
613 74 109
614 218 153
615 278 177
616 131 95
617 271 101
618 202 131
619 126 256
620 128 176
621 182 238
622 217 73
623 64 226
624 161 112
625 148 61
626 110 79
627 109 42
628 68 229
629 212 62
630 71 154
631 177 4
632 59 236
633 140 108
634 149 282
635 114 158
636 211 157
637 65 68
638 218 3
639 123 260
PICKUP_AND_DELIVERY_SECTION
1 0 0 1496 0 0 0
2 20 171 489 90 0 455
3 -30 333 858 90 113 0
4 10 104 635 90 0 169
5 -10 453 951 90 421 0
6 10 127 645 90 0 148
7 10 175 621 90 0 96
8 20 163 591 90 0 109
9 -20 632 1255 90 318 0
10 10 91 622 90 0 534
11 30 40 667 90 0 426
12 -20 749 1289 90 361 0
13 -20 399 926 90 129 0
14 20 39 425 90 0 394
15 -10 508 798 90 22 0
16 20 359 649 90 0 489
17 -20 136 574 90 52 0
18 -20 405 779 90 313 0
19 30 15 624 90 0 87
20 20 91 567 90 0 211
21 -20 119 706 90 392 0
22 10 69 606 90 0 15
23 20 176 731 90 0 370
24 -20 426 810 90 179 0
25 -10 722 1206 90 383 0
26 10 374 831 90 0 115
27 40 320 875 90 0 437
28 20 442 1055 90 0 452
29 20 53 543 90 0 537
30 10 135 565 90 0 579
31 20 190 658 90 0 507
32 10 93 595 90 0 161
33 -10 578 1180 90 121 0
34 10 262 729 90 0 57
35 -10 343 850 90 39 0
36 -20 331 660 90 118 0
37 20 178 614 90 0 317
38 10 505 966 90 0 243
39 10 241 768 90 0 35
40 10 490 844 90 0 531
41 20 591 884 90 0 526
42 -10 466 927 90 205 0
43 20 116 612 90 0 584
44 -20 710 1287 90 467 0
45 20 108 603 90 0 191
46 40 86 456 0 0 613
47 -10 755 1046 90 130 0
48 10 54 537 90 0 572
49 -10 480 944 90 541 0
50 20 191 637 90 0 170
51 20 46 563 90 0 164
52 20 135 747 90 0 17
53 10 125 655 90 0 358
54 20 222 736 90 0 399
55 -10 609 1104 90 348 0
56 30 171 653 90 0 341
57 -10 364 992 90 34 0
58 10 135 751 90 0 142
59 -20 194 728 90 301 0
60 20 12 457 90 0 222
61 30 110 563 90 0 524
62 20 38 344 90 0 216
63 20 632 1035 90 0 420
64 -20 94 581 90 532 0
65 40 586 1264 0 0 630
66 -20 230 591 90 171 0
67 -20 669 992 90 347 0
68 -20 392 742 90 258 0
69 10 55 694 90 0 334
70 20 102 631 90 0 480
71 -20 844 1212 90 411 0
72 10 35 452 90 0 78
73 -20 138 657 90 415 0
74 -30 144 697 90 368 0
75 -20 270 930 90 213 0
76 20 34 487 90 0 563
77 10 48 540 90 0 569
78 -10 346 855 90 72 0
79 -20 324 861 90 483 0
80 -10 293 910 90 406 0
81 -10 693 1212 90 127 0
82 20 605 1281 0 0 632
83 20 437 1009 90 0 241
84 -10 717 1219 90 133 0
85 -10 250 592 90 555 0
86 30 790 1200 0 0 608
87 -30 51 486 90 19 0
88 -20 122 660 90 292 0
89 10 83 661 90 0 591
90 -10 380 945 90 108 0
91 20 53 547 90 0 597
92 -30 242 858 90 102 0
93 -10 468 841 90 595 0
94 20 503 1050 0 0 609
95 -20 301 785 90 386 0
96 -10 412 863 90 7 0
97 -10 291 805 90 381 0
98 20 525 1041 0 0 603
99 10 100 604 90 0 237
100 30 243 620 90 0 458
101 10 515 1160 90 0 390
102 30 230 483 90 0 92
103 -20 857 1231 90 482 0
104 10 153 602 90 0 496
105 20 146 370 90 0 551
106 -10 587 1048 90 140 0
107 -20 388 930 90 493 0
108 10 103 332 90 0 90
109 -20 670 1163 90 8 0
110 -10 55 512 90 417 0
111 20 517 984 90 0 266
112 10 57 526 90 0 259
113 30 230 758 90 0 3
114 20 650 1201 0 0 626
115 -10 689 1184 90 26 0
116 -20 286 722 90 151 0
117 20 158 523 90 0 544
118 20 121 576 90 0 36
119 -20 527 1222 90 453 0
120 10 138 602 90 0 249
121 10 66 523 90 0 33
122 -20 463 1138 90 274 0
123 -20 468 894 90 202 0
124 -10 628 1155 90 566 0
125 -20 773 1182 90 152 0
126 -10 452 917 90 165 0
127 10 581 1136 90 0 81
128 -10 178 629 90 159 0
129 20 323 622 90 0 13
130 10 644 973 90 0 47
131 10 306 647 0 0 628
132 30 34 316 90 0 239
133 10 640 1113 90 0 84
134 -10 454 868 90 350 0
135 -30 612 1148 90 145 0
136 -10 430 756 90 490 0
137 40 135 690 90 0 486
138 20 490 877 90 0 512
139 -20 335 888 90 497 0
140 10 167 619 90 0 106
141 30 137 676 90 0 527
142 -10 447 946 90 58 0
143 -30 80 680 90 578 0
144 -20 138 639 90 234 0
145 30 137 600 90 0 135
146 -10 665 1163 90 344 0
147 -10 493 856 90 476 0
148 -10 138 645 90 6 0
149 20 115 713 90 0 525
150 -30 356 756 90 538 0
151 20 136 625 90 0 116
152 20 267 937 90 0 125
153 -30 159 656 90 539 0
154 20 821 1272 0 0 604
155 30 28 414 90 0 475
156 20 83 674 90 0 413
157 -10 675 1020 90 587 0
158 -20 178 649 90 387 0
159 10 33 513 90 0 128
160 -30 696 1101 90 385 0
161 -10 470 839 90 32 0
162 10 602 1041 0 0 602
163 10 230 830 90 0 173
164 -20 375 789 90 51 0
165 10 413 772 90 0 126
166 -20 549 817 90 374 0
167 20 41 427 90 0 190
168 -20 177 675 90 511 0
169 -10 676 1302 90 4 0
170 -20 252 760 90 50 0
171 20 136 703 90 0 66
172 -40 797 1138 90 412 0
173 -10 292 748 90 163 0
174 10 39 534 0 0 624
175 -10 314 707 90 590 0
176 -40 246 797 90 382 0
177 20 463 857 90 0 291
178 10 477 1075 90 0 236
179 20 458 966 90 0 24
180 -20 943 1352 90 477 0
181 -10 817 1342 90 443 0
182 -10 97 733 90 229 0
183 -10 448 1011 90 279 0
184 -20 129 635 90 557 0
185 30 154 722 90 0 362
186 -20 464 983 90 242 0
187 -10 916 1313 90 240 0
188 -30 611 1128 90 448 0
189 -20 523 1017 90 359 0
190 -20 171 640 90 167 0
191 -20 129 639 90 45 0
192 10 84 549 90 0 556
193 30 143 633 90 0 379
194 20 183 736 90 0 308
195 10 897 1261 0 0 618
196 -30 630 1133 90 365 0
197 -20 107 672 90 331 0
198 10 246 717 90 0 465
199 20 662 1064 90 0 433
200 -30 330 861 90 454 0
201 10 616 983 90 0 336
202 20 367 806 90 0 123
203 10 131 498 90 0 330
204 20 119 528 90 0 436
205 10 136 514 90 0 42
206 40 116 587 90 0 530
207 -10 269 684 90 356 0
208 10 295 753 90 0 324
209 10 356 768 90 0 215
210 20 460 884 90 0 303
211 -20 162 649 90 20 0
212 -30 102 541 90 548 0
213 20 135 765 90 0 75
214 -30 321 815 90 263 0
215 -10 471 1022 90 209 0
216 -20 408 884 90 62 0
217 -10 785 1170 90 570 0
218 10 146 691 90 0 329
219 -20 572 1014 90 565 0
220 10 143 691 90 0 396
221 -20 576 1003 90 342 0
222 -20 14 506 90 60 0
223 -10 363 863 90 418 0
224 -10 617 1348 90 504 0
225 20 31 576 90 0 257
226 -20 666 1272 90 529 0
227 10 172 729 90 0 305
228 -20 314 943 90 519 0
229 10 286 761 90 0 182
230 -10 692 1096 90 322 0
231 10 126 593 90 0 300
232 10 433 934 90 0 282
233 -20 130 610 90 247 0
234 20 57 530 90 0 144
235 -10 659 1335 90 384 0
236 -10 631 1113 90 178 0
237 -10 290 781 90 99 0
238 20 128 747 90 0 510
239 -30 505 884 90 132 0
240 10 136 611 90 0 187
241 -20 682 1135 90 83 0
242 20 214 672 90 0 186
243 -10 730 1115 90 38 0
244 30 219 797 90 0 545
245 10 172 604 90 0 598
246 -10 355 844 90 277 0
247 20 126 609 90 0 233
248 10 58 667 90 0 481
249 -10 233 786 90 120 0
250 -20 318 941 90 498 0
251 -20 56 617 90 601 0
252 -20 503 1010 90 400 0
253 30 497 918 0 0 612
254 20 249 608 90 0 272
255 10 155 627 90 0 471
256 20 587 1148 0 0 607
257 -20 93 537 90 225 0
258 20 196 753 90 0 68
259 -10 68 601 90 112 0
260 -20 163 513 90 298 0
261 30 229 878 90 0 295
262 10 80 604 90 0 410
263 30 109 587 90 0 214
264 20 378 787 90 0 281
265 -20 200 741 90 462 0
266 -20 701 1183 90 111 0
267 -20 655 1112 90 547 0
268 20 105 492 90 0 287
269 10 100 517 90 0 296
270 -10 658 1119 90 352 0
271 20 733 1170 0 0 619
272 -20 584 1013 90 254 0
273 10 405 758 90 0 424
274 20 409 746 90 0 122
275 -30 494 1078 90 470 0
276 20 247 641 90 0 495
277 10 138 510 90 0 246
278 -20 797 1095 90 542 0
279 10 173 766 90 0 183
280 10 810 1130 90 0 508
281 -20 867 1226 90 264 0
282 -10 575 975 90 232 0
283 20 36 653 90 0 580
284 30 345 996 90 0 523
285 10 830 1108 0 0 633
286 20 98 641 90 0 294
287 -20 359 777 90 268 0
288 10 130 715 90 0 540
289 10 132 614 90 0 429
290 -30 535 1065 90 321 0
291 -20 524 989 90 177 0
292 20 94 469 90 0 88
293 20 213 626 90 0 451
294 -20 306 803 90 286 0
295 -30 443 1036 90 261 0
296 -10 960 1306 90 269 0
297 -10 885 1304 90 571 0
298 20 166 846 90 0 260
299 10 391 714 0 0 621
300 -10 438 740 90 231 0
301 20 90 535 90 0 59
302 20 299 712 90 0 395
303 -20 473 1055 90 210 0
304 20 34 499 0 0 620
305 -10 639 914 90 227 0
306 -20 316 886 90 445 0
307 10 180 443 90 0 439
308 -20 443 1126 90 194 0
309 20 81 563 90 0 419
310 20 98 577 90 0 312
311 10 128 655 90 0 403
312 -20 623 1133 90 310 0
313 20 625 774 90 0 18
314 -30 703 1086 90 389 0
315 -10 557 1179 90 536 0
316 -40 122 562 90 520 0
317 -20 522 1204 90 37 0
318 20 606 1083 90 0 9
319 -20 606 1047 90 561 0
320 10 580 935 0 0 627
321 30 334 715 90 0 290
322 10 60 537 90 0 230
323 20 105 720 90 0 488
324 -10 403 838 90 208 0
325 20 233 722 90 0 364
326 -20 577 966 90 457 0
327 -30 465 919 90 450 0
328 30 181 713 90 0 463
329 -10 415 969 90 218 0
330 -10 513 1053 90 203 0
331 20 52 438 90 0 197
332 -10 282 749 90 594 0
333 -20 407 808 90 491 0
334 -10 401 889 90 69 0
335 -10 676 1242 90 567 0
336 -10 730 1239 90 201 0
337 30 125 549 90 0 407
338 20 261 652 90 0 408
339 10 49 417 90 0 576
340 -10 513 1063 90 367 0
341 -30 489 841 90 56 0
342 20 475 914 90 0 221
343 20 396 708 90 0 416
344 10 292 690 90 0 146
345 20 79 600 90 0 388
346 -20 512 1187 90 469 0
347 20 93 525 90 0 67
348 10 248 711 90 0 55
349 10 278 733 90 0 577
350 10 103 509 90 0 134
351 10 206 646 90 0 393
352 10 197 444 90 0 270
353 10 132 621 0 0 634
354 10 132 657 90 0 514
355 20 211 841 90 0 391
356 10 117 652 90 0 207
357 -10 807 1271 90 479 0
358 -10 127 569 90 53 0
359 20 31 487 90 0 189
360 -10 535 967 90 447 0
361 20 54 745 90 0 12
362 -30 157 690 90 185 0
363 -20 427 857 90 558 0
364 -20 146 736 90 325 0
365 30 437 944 90 0 196
366 -30 751 1113 90 582 0
367 10 378 1011 90 0 340
368 30 55 602 90 0 74
369 10 591 1187 0 0 614
370 -20 737 1231 90 23 0
371 20 120 584 0 0 610
372 30 136 612 90 0 574
373 10 574 950 90 0 397
374 20 296 883 90 0 166
375 -30 147 614 90 599 0
376 20 325 923 90 0 446
377 20 56 496 90 0 422
378 30 417 992 0 0 606
379 -30 171 792 90 193 0
380 10 148 527 90 0 546
381 10 86 638 90 0 97
382 40 105 565 90 0 176
383 10 465 1078 90 0 25
384 10 212 714 90 0 235
385 30 172 510 90 0 160
386 20 176 568 90 0 95
387 20 172 509 90 0 158
388 -20 615 1121 90 345 0
389 30 332 658 90 0 314
390 -10 773 1265 90 101 0
391 -20 635 977 90 355 0
392 20 82 534 90 0 21
393 -10 361 855 90 351 0
394 -20 309 703 90 14 0
395 -20 626 905 90 302 0
396 -10 235 796 90 220 0
397 -10 661 1308 90 373 0
398 20 847 1304 0 0 611
399 -20 836 1195 90 54 0
400 20 34 583 90 0 252
401 -20 136 628 90 589 0
402 10 464 996 90 0 586
403 -10 241 622 90 311 0
404 -20 537 1104 90 600 0
405 -20 767 1202 90 461 0
406 10 140 647 90 0 80
407 -30 472 896 90 337 0
408 -20 803 1272 90 338 0
409 40 148 731 90 0 485
410 -10 597 1102 90 262 0
411 20 524 1285 90 0 71
412 40 453 922 90 0 172
413 -20 281 629 90 156 0
414 -30 112 598 90 441 0
415 20 119 557 90 0 73
416 -20 432 855 90 343 0
417 10 176 677 90 0 110
418 10 217 642 90 0 223
419 -20 271 662 90 309 0
420 -20 799 1351 90 63 0
421 10 87 581 90 0 5
422 -20 94 577 90 377 0
423 20 664 1264 90 0 431
424 -10 787 1283 90 273 0
425 -10 622 1085 90 552 0
426 -30 249 747 90 11 0
427 10 145 680 90 0 440
428 10 168 673 90 0 478
429 -10 563 1010 90 289 0
430 -20 139 625 90 560 0
431 -20 672 1264 90 423 0
432 10 105 538 90 0 592
433 -20 702 1215 90 199 0
434 40 671 1090 90 0 456
435 30 101 681 90 0 585
436 -20 563 1098 90 204 0
437 -40 433 1043 90 27 0
438 -20 451 1025 90 506 0
439 -10 457 858 90 307 0
440 -10 401 819 90 427 0
441 30 108 684 90 0 414
442 10 179 639 90 0 535
443 10 226 809 90 0 181
444 20 654 1094 90 0 492
445 20 133 619 90 0 306
446 -20 530 1105 90 376 0
447 10 442 690 90 0 360
448 30 555 996 90 0 188
449 -20 362 784 90 588 0
450 30 168 659 90 0 327
451 -20 653 1037 90 293 0
452 -20 850 1204 90 28 0
453 20 406 972 90 0 119
454 30 185 638 90 0 200
455 -20 491 926 90 2 0
456 -40 803 1256 90 434 0
457 20 187 726 90 0 326
458 -30 87 669 90 100 0
459 10 143 741 90 0 460
460 -10 152 559 90 459 0
461 20 440 888 90 0 405
462 20 100 490 90 0 265
463 -30 306 806 90 328 0
464 -10 87 702 90 581 0
465 -10 386 760 90 198 0
466 10 122 730 90 0 484
467 20 394 951 90 0 44
468 -10 825 1271 90 487 0
469 20 215 608 90 0 346
470 30 132 656 90 0 275
471 -10 319 727 90 255 0
472 -10 309 678 90 573 0
473 20 821 1288 0 0 637
474 20 503 1006 0 0 629
475 -30 226 752 90 155 0
476 10 29 459 90 0 147
477 20 813 1161 90 0 180
478 -10 224 685 90 428 0
479 10 276 737 90 0 357
480 -20 107 420 90 70 0
481 -10 139 648 90 248 0
482 20 223 756 90 0 103
483 20 126 654 90 0 79
484 -10 475 801 90 466 0
485 -40 706 1173 90 409 0
486 -40 484 897 90 137 0
487 10 594 1265 90 0 468
488 -20 134 544 90 323 0
489 -20 820 1181 90 16 0
490 10 134 687 90 0 136
491 20 54 484 90 0 333
492 -20 589 1119 90 444 0
493 20 63 499 90 0 107
494 20 145 501 90 0 564
495 -20 248 826 90 276 0
496 -10 494 1012 90 104 0
497 20 518 1070 90 0 139
498 20 167 702 90 0 250
499 -10 319 882 90 533 0
500 -30 755 1300 90 549 0
501 30 58 693 90 0 596
502 20 61 715 0 0 636
503 10 707 1149 0 0 625
504 10 824 1155 90 0 224
505 10 567 1006 0 0 631
506 20 322 969 90 0 438
507 -20 481 925 90 31 0
508 -10 534 1000 90 280 0
509 20 301 734 90 0 517
510 -20 156 650 90 238 0
511 20 62 492 90 0 168
512 -20 716 1210 90 138 0
513 30 208 660 0 0 638
514 -10 218 802 90 354 0
515 10 635 928 0 0 617
516 -10 450 964 90 559 0
517 -20 400 1011 90 509 0
518 20 165 704 0 0 616
519 20 74 466 90 0 228
520 40 119 800 90 0 316
521 30 668 1244 0 0 605
522 30 121 717 90 0 528
523 -30 197 771 90 284 0
524 -30 60 327 90 61 0
525 -20 118 567 90 149 0
526 -20 553 1113 90 41 0
527 -30 361 638 90 141 0
528 -30 187 615 90 522 0
529 20 745 1197 90 0 226
530 -40 520 1018 90 206 0
531 -10 530 994 90 40 0
532 20 97 370 90 0 64
533 10 96 758 90 0 499
534 -10 108 590 90 10 0
535 -10 241 762 90 442 0
536 10 266 863 90 0 315
537 -20 129 626 90 29 0
538 30 156 587 90 0 150
539 30 154 781 90 0 153
540 -10 305 692 90 288 0
541 10 123 537 90 0 49
542 20 427 927 90 0 278
543 10 123 605 90 0 562
544 -20 506 933 90 117 0
545 -30 703 1238 90 244 0
546 -10 160 694 90 380 0
547 20 78 568 90 0 267
548 30 104 371 90 0 212
549 30 635 1264 90 0 500
550 20 681 1219 0 0 622
551 -20 282 942 90 105 0
552 10 106 511 90 0 425
553 30 517 1184 0 0 623
554 20 586 1173 0 0 615
555 10 132 666 90 0 85
556 -10 534 1049 90 192 0
557 20 103 672 90 0 184
558 20 253 782 90 0 363
559 10 339 888 90 0 516
560 20 252 576 90 0 430
561 20 60 351 90 0 319
562 -10 509 1101 90 543 0
563 -20 349 823 90 76 0
564 -20 269 873 90 494 0
565 20 59 503 90 0 219
566 10 129 660 90 0 124
567 10 391 839 90 0 335
568 10 649 1064 0 0 639
569 -10 431 765 90 77 0
570 10 123 649 90 0 217
571 10 779 1142 90 0 297
572 -10 241 609 90 48 0
573 10 85 632 90 0 472
574 -30 166 658 90 372 0
575 -20 385 998 90 593 0
576 -10 93 468 90 339 0
577 -10 539 1033 90 349 0
578 30 77 675 90 0 143
579 -10 549 1026 90 30 0
580 -20 379 853 90 283 0
581 10 85 507 90 0 464
582 30 621 1059 90 0 366
583 30 65 568 0 0 635
584 -20 734 1275 90 43 0
585 -30 725 1172 90 435 0
586 -10 759 1234 90 402 0
587 10 104 602 90 0 157
588 20 107 607 90 0 449
589 20 134 648 90 0 401
590 10 133 594 90 0 175
591 -10 120 583 90 89 0
592 -10 385 774 90 432 0
593 20 130 607 90 0 575
594 10 69 594 90 0 332
595 10 86 611 90 0 93
596 -30 75 541 90 501 0
597 -20 206 590 90 91 0
598 -10 532 1073 90 245 0
599 30 30 618 90 0 375
600 20 336 755 90 0 404
601 20 56 599 90 0 251
602 -10 602 1041 90 162 0
603 -20 525 1041 90 98 0
604 -20 821 1272 90 154 0
605 -30 668 1244 90 521 0
606 -30 417 992 90 378 0
607 -20 587 1148 90 256 0
608 -30 790 1200 90 86 0
609 -20 503 1050 90 94 0
610 -20 120 584 90 371 0
611 -20 847 1304 90 398 0
612 -30 497 918 90 253 0
613 -40 86 456 90 46 0
614 -10 591 1187 90 369 0
615 -20 586 1173 90 554 0
616 -20 165 704 90 518 0
617 -10 635 928 90 515 0
618 -10 897 1261 90 195 0
619 -20 733 1170 90 271 0
620 -20 34 499 90 304 0
621 -10 391 714 90 299 0
622 -20 681 1219 90 550 0
623 -30 517 1184 90 553 0
624 -10 39 534 90 174 0
625 -10 707 1149 90 503 0
626 -20 650 1201 90 114 0
627 -10 580 935 90 320 0
628 -10 306 647 90 131 0
629 -20 503 1006 90 474 0
630 -40 586 1264 90 65 0
631 -10 567 1006 90 505 0
632 -20 605 1281 90 82 0
633 -10 830 1108 90 285 0
634 -10 132 621 90 353 0
635 -30 65 568 90 583 0
636 -20 61 715 90 502 0
637 -20 821 1288 90 473 0
638 -30 208 660 90 513 0
639 -10 649 1064 90 568 0
DEPOT_SECTION
1
-1
EOF
