NAME: lc1_6_5
TYPE: PDPTW
COMMENT: Li & Lim PDPTW benchmark converted from SINTEF format
DIMENSION: 629
VEHICLES: 150
CAPACITY: 200
EDGE_WEIGHT_TYPE: EUC_2D
NODE_COORD_SECTION
1 150 150
2 17 205
3 153 254
4 229 219
5 214 156
6 121 260
7 29 277
8 47 277
9 85 224
10 105 230
11 160 111
12 65 69
13 63 233
14 143 111
15 173 233
16 85 24
17 277 100
18 166 105
19 141 137
20 100 73
21 61 70
22 161 210
23 30 280
24 129 98
25 62 65
26 256 239
27 9 144
28 174 228
29 203 156
30 251 241
31 109 110
32 106 233
33 22 102
34 145 184
35 121 170
36 25 141
37 167 176
38 126 229
39 122 172
40 119 267
41 68 113
42 257 243
43 157 266
44 157 31
45 73 226
46 74 109
47 12 198
48 199 126
49 31 55
50 10 147
51 168 176
52 277 104
53 55 232
54 119 262
55 220 74
56 122 175
57 144 182
58 149 285
59 61 157
60 140 143
61 203 125
62 114 164
63 108 80
64 103 232
65 71 154
66 87 27
67 67 154
68 255 132
69 108 113
70 86 230
71 226 221
72 116 159
73 155 28
74 151 294
75 83 30
76 150 184
77 141 102
78 114 156
79 263 212
80 259 59
81 161 26
82 59 236
83 69 4
84 78 33
85 16 204
86 16 196
87 113 114
88 153 28
89 67 161
90 211 61
91 125 103
92 269 29
93 146 61
94 33 142
95 26 282
96 29 285
97 130 230
98 260 58
99 173 72
100 162 206
101 148 60
102 272 38
103 160 27
104 231 218
105 173 76
106 66 7
107 114 49
108 213 68
109 59 280
110 175 101
111 96 237
112 115 196
113 153 265
114 110 79
115 227 222
116 275 97
117 216 6
118 29 148
119 137 104
120 253 57
121 136 140
122 209 127
123 59 64
124 283 229
125 141 286
126 236 240
127 161 22
128 147 185
129 81 238
130 10 198
131 68 229
132 118 163
133 78 31
134 230 221
135 278 128
136 29 94
137 25 99
138 167 105
139 214 157
140 65 6
141 260 214
142 143 288
143 167 229
144 173 13
145 286 130
146 33 283
147 163 180
148 148 288
149 239 77
150 106 237
151 277 101
152 144 292
153 215 4
154 82 34
155 169 171
156 76 111
157 213 65
158 13 265
159 149 183
160 36 52
161 99 242
162 33 285
163 221 8
164 165 182
165 235 242
166 31 145
167 159 110
168 113 202
169 228 220
170 9 145
171 86 30
172 266 104
173 217 21
174 161 112
175 255 240
176 203 128
177 77 233
178 168 108
179 133 99
180 202 133
181 211 150
182 141 100
183 54 285
184 220 66
185 285 225
186 174 79
187 147 67
188 70 57
189 159 177
190 160 107
191 70 227
192 136 233
193 256 54
194 107 71
195 202 131
196 181 8
197 257 137
198 134 146
199 53 237
200 274 97
201 285 230
202 55 62
203 160 108
204 242 73
205 248 245
206 154 266
207 113 50
208 25 50
209 143 61
210 222 73
211 60 15
212 224 79
213 86 31
214 67 230
215 147 60
216 65 156
217 262 241
218 257 58
219 181 102
220 18 206
221 0 153
222 140 140
223 204 129
224 110 107
225 128 172
226 23 107
227 170 237
228 174 74
229 164 103
230 206 129
231 65 56
232 262 211
233 236 248
234 161 94
235 136 220
236 166 113
237 176 71
238 64 55
239 118 156
240 142 57
241 66 8
242 174 71
243 131 226
244 280 175
245 136 144
246 178 10
247 230 248
248 201 121
249 257 59
250 65 4
251 165 204
252 134 148
253 164 202
254 218 20
255 287 224
256 63 59
257 121 181
258 257 133
259 112 201
260 272 41
261 110 74
262 137 229
263 70 225
264 53 234
265 233 216
266 100 231
267 140 290
268 111 52
269 249 133
270 8 155
271 126 256
272 212 26
273 156 26
274 238 69
275 280 125
276 65 5
277 176 14
278 59 223
279 43 286
280 262 62
281 67 216
282 261 212
283 149 186
284 236 66
285 140 108
286 60 156
287 114 50
288 28 103
289 27 100
290 163 200
291 63 229
292 150 56
293 254 240
294 63 155
295 106 77
296 246 133
297 227 217
298 278 43
299 182 238
300 65 49
301 60 160
302 175 12
303 223 74
304 128 176
305 235 241
306 280 172
307 11 265
308 79 30
309 144 100
310 222 83
311 261 215
312 264 61
313 183 99
314 109 105
315 258 212
316 150 272
317 147 178
318 93 235
319 125 228
320 109 42
321 162 203
322 179 97
323 105 55
324 29 55
325 216 62
326 51 238
327 281 129
328 8 263
329 259 58
330 136 104
331 199 130
332 108 109
333 106 108
334 110 76
335 144 173
336 282 227
337 64 59
338 131 228
339 143 101
340 278 176
341 134 147
342 4 149
343 70 109
344 52 233
345 165 228
346 137 150
347 57 155
348 231 70
349 111 153
350 229 217
351 184 97
352 10 150
353 149 282
354 282 137
355 130 96
356 113 52
357 147 285
358 53 232
359 170 174
360 78 232
361 127 101
362 289 225
363 127 232
364 223 23
365 179 9
366 177 225
367 277 172
368 166 203
369 218 153
370 35 282
371 151 30
372 284 176
373 252 128
374 28 144
375 83 236
376 223 11
377 164 95
378 216 25
379 275 32
380 35 56
381 135 227
382 183 97
383 60 64
384 104 235
385 128 94
386 30 279
387 31 275
388 233 242
389 64 53
390 148 62
391 130 102
392 105 81
393 184 98
394 140 100
395 160 24
396 13 202
397 247 132
398 227 218
399 133 225
400 129 177
401 14 149
402 31 284
403 287 226
404 55 285
405 216 148
406 255 57
407 66 54
408 81 223
409 225 22
410 85 228
411 232 240
412 272 97
413 70 102
414 122 259
415 154 31
416 69 109
417 168 97
418 201 127
419 139 58
420 119 104
421 211 159
422 168 96
423 181 11
424 158 27
425 115 42
426 162 107
427 17 209
428 50 285
429 19 102
430 174 13
431 184 12
432 217 69
433 58 235
434 258 247
435 250 134
436 268 38
437 66 157
438 270 37
439 12 270
440 11 207
441 121 255
442 233 245
443 215 160
444 269 103
445 280 180
446 177 82
447 78 236
448 66 56
449 116 265
450 287 128
451 228 223
452 173 224
453 138 101
454 275 100
455 3 205
456 280 225
457 8 265
458 169 235
459 37 62
460 29 57
461 259 126
462 227 214
463 1 272
464 74 106
465 132 146
466 58 231
467 157 25
468 258 232
469 109 157
470 282 134
471 288 227
472 52 63
473 65 68
474 212 62
475 167 179
476 169 173
477 204 131
478 52 288
479 149 294
480 73 225
481 241 71
482 154 26
483 255 220
484 53 285
485 211 66
486 22 97
487 259 240
488 88 31
489 66 10
490 26 99
491 111 112
492 250 126
493 123 92
494 227 26
495 63 3
496 230 223
497 216 157
498 63 7
499 280 130
500 116 49
501 166 94
502 211 157
503 148 61
504 37 53
505 177 4
506 269 35
507 101 110
508 236 72
509 185 98
510 62 53
511 112 199
512 165 113
513 218 3
514 281 130
515 271 101
516 288 231
517 204 127
518 131 95
519 171 79
520 151 269
521 67 10
522 29 152
523 240 71
524 210 156
525 240 73
526 74 113
527 263 215
528 25 145
529 23 103
530 145 182
531 124 264
532 88 225
533 246 137
534 84 236
535 235 243
536 236 218
537 275 182
538 102 235
539 212 9
540 26 97
541 59 67
542 49 234
543 57 68
544 217 11
545 277 177
546 28 56
547 140 228
548 227 80
549 115 48
550 217 73
551 216 23
552 112 51
553 64 226
554 278 177
555 52 231
556 140 292
557 224 77
558 114 204
559 288 228
560 173 11
561 114 198
562 34 54
563 145 183
564 213 61
565 179 98
566 261 217
567 115 197
568 123 260
569 138 100
570 231 243
571 257 210
572 212 159
573 103 78
574 286 175
575 82 31
576 144 59
577 119 157
578 166 226
579 258 244
580 163 202
581 75 110
582 175 227
583 114 158
584 147 281
585 250 130
586 37 280
587 215 68
588 119 253
589 16 151
590 251 237
591 30 148
592 221 70
593 106 71
594 111 110
595 150 64
596 172 78
597 55 68
598 107 103
599 155 180
600 53 288
601 168 204
602 35 282
603 67 10
604 287 224
605 9 145
606 175 12
607 82 31
608 23 107
609 266 104
610 67 216
611 154 26
612 182 238
613 119 267
614 70 225
615 114 50
616 246 133
617 163 202
618 76 111
619 133 225
620 183 99
621 119 157
622 123 92
623 109 110
624 174 71
625 159 177
626 140 108
627 121 170
628 145 183
629 112 199
PICKUP_AND_DELIVERY_SECTION
1 0 0 1496 0 0 0
2 20 277 383 90 0 85
3 -10 515 676 90 316 0
4 10 224 348 90 0 398
5 20 645 760 90 0 181
6 10 334 438 90 0 568
7 10 219 311 90 0 402
8 20 163 320 90 0 279
9 -20 889 998 90 129 0
10 10 91 172 90 0 150
11 30 91 170 90 0 203
12 -10 1090 1209 90 541 0
13 -10 597 728 90 214 0
14 20 39 146 90 0 339
15 -20 586 721 90 143 0
16 -20 459 548 90 171 0
17 -20 267 372 90 52 0
18 20 531 653 90 0 178
19 30 132 265 90 0 121
20 -10 214 329 90 573 0
21 30 119 253 90 0 256
22 -30 274 401 90 368 0
23 20 383 514 90 0 146
24 -20 570 666 90 355 0
25 20 896 1032 90 0 473
26 -20 540 664 90 293 0
27 40 543 652 90 0 342
28 -30 687 809 90 578 0
29 20 53 151 90 0 369
30 -10 158 304 90 205 0
31 20 371 477 0 0 623
32 10 131 238 90 0 161
33 10 806 953 90 0 529
34 -30 451 540 90 599 0
35 30 535 659 0 0 627
36 20 431 559 90 0 94
37 20 331 461 90 0 475
38 -10 664 807 90 363 0
39 -30 458 551 90 56 0
40 10 599 735 0 0 613
41 -10 678 797 90 581 0
42 10 640 752 90 0 579
43 20 116 230 90 0 520
44 -10 1179 1281 90 81 0
45 -20 122 274 90 480 0
46 40 206 327 90 0 413
47 -10 837 964 90 455 0
48 10 76 218 90 0 517
49 -20 651 773 90 324 0
50 20 362 466 90 0 270
51 20 231 379 90 0 147
52 20 135 227 90 0 17
53 -10 145 287 90 466 0
54 20 431 526 90 0 271
55 20 784 930 90 0 550
56 30 344 480 90 0 39
57 30 622 733 90 0 335
58 10 153 298 90 0 357
59 40 414 508 90 0 437
60 20 12 114 90 0 222
61 -10 283 391 90 248 0
62 20 71 186 90 0 349
63 -30 787 880 90 261 0
64 20 228 328 90 0 384
65 -20 853 997 90 347 0
66 20 353 468 90 0 75
67 -20 777 884 90 301 0
68 -30 510 625 90 435 0
69 -20 187 289 90 87 0
70 20 131 254 90 0 534
71 -10 950 1106 90 536 0
72 10 158 291 90 0 583
73 10 345 450 90 0 424
74 20 360 469 90 0 152
75 -20 567 634 90 66 0
76 20 178 260 90 0 128
77 10 74 204 90 0 394
78 -20 539 662 90 469 0
79 -30 554 631 90 141 0
80 -30 525 678 90 193 0
81 10 896 1008 90 0 44
82 -10 990 1111 90 463 0
83 20 657 790 90 0 106
84 10 911 1025 90 0 154
85 -20 373 470 90 2 0
86 -10 919 1072 90 130 0
87 20 51 153 90 0 69
88 10 254 357 90 0 395
89 10 83 198 90 0 294
90 -20 593 733 90 325 0
91 20 53 200 90 0 518
92 20 489 611 90 0 506
93 -20 591 718 90 419 0
94 -20 702 851 90 36 0
95 20 483 603 90 0 162
96 -20 582 692 90 386 0
97 -10 487 609 90 381 0
98 -30 728 839 90 329 0
99 -20 298 405 90 519 0
100 -20 353 510 90 601 0
101 -10 793 882 90 209 0
102 -20 301 411 90 298 0
103 -20 1002 1085 90 415 0
104 -10 318 438 90 350 0
105 20 192 323 90 0 228
106 -20 768 867 90 83 0
107 10 585 733 90 0 549
108 10 103 202 90 0 432
109 -20 861 971 90 600 0
110 20 55 160 90 0 351
111 20 688 814 90 0 266
112 10 57 131 90 0 259
113 -40 429 559 90 206 0
114 -10 878 972 90 295 0
115 -10 865 1008 90 451 0
116 10 456 553 90 0 200
117 20 173 326 90 0 513
118 20 248 364 90 0 166
119 -20 821 927 90 309 0
120 10 138 310 90 0 406
121 -30 219 369 90 19 0
122 -20 760 840 90 331 0
123 -30 634 727 90 597 0
124 -30 827 957 90 185 0
125 -30 910 1045 90 148 0
126 -10 634 736 90 233 0
127 -10 782 935 90 273 0
128 -20 343 464 90 76 0
129 20 407 538 90 0 9
130 10 759 859 90 0 86
131 -10 406 547 90 191 0
132 30 34 149 90 0 239
133 -30 829 923 90 308 0
134 30 610 713 90 0 297
135 -30 819 941 90 514 0
136 -40 533 653 90 137 0
137 40 346 467 90 0 136
138 -10 625 742 90 422 0
139 -20 544 679 90 502 0
140 -20 293 414 90 498 0
141 30 361 452 90 0 79
142 30 624 768 90 0 556
143 20 210 315 90 0 15
144 -20 253 391 90 430 0
145 -10 249 394 90 354 0
146 -20 851 977 90 23 0
147 -20 611 739 90 51 0
148 30 263 373 90 0 125
149 20 115 219 90 0 525
150 -10 496 616 90 10 0
151 20 149 307 90 0 412
152 -20 546 659 90 74 0
153 40 272 411 90 0 544
154 -10 1007 1118 90 84 0
155 30 28 164 90 0 359
156 20 83 215 0 0 618
157 20 787 908 90 0 485
158 20 178 305 90 0 326
159 10 71 184 90 0 283
160 -30 852 944 90 460 0
161 -10 608 702 90 32 0
162 -20 752 892 90 95 0
163 10 460 600 90 0 236
164 -10 537 627 90 476 0
165 10 540 644 90 0 411
166 -20 618 748 90 118 0
167 -10 163 282 90 174 0
168 -20 376 476 90 561 0
169 -10 1047 1193 90 496 0
170 30 453 560 0 0 605
171 20 251 383 90 0 16
172 10 914 1021 0 0 609
173 -20 445 594 90 494 0
174 10 39 169 90 0 167
175 -10 466 556 90 590 0
176 -10 450 594 90 418 0
177 -10 606 714 90 375 0
178 -20 717 835 90 18 0
179 20 653 771 90 0 391
180 -30 1097 1245 90 454 0
181 -20 996 1163 90 5 0
182 10 347 484 90 0 569
183 10 683 775 90 0 408
184 20 308 456 90 0 474
185 30 154 287 90 0 124
186 -20 680 767 90 596 0
187 -20 1061 1168 90 390 0
188 -20 809 930 90 407 0
189 30 712 827 0 0 625
190 30 344 467 90 0 426
191 10 329 438 90 0 131
192 10 111 240 90 0 338
193 30 246 402 90 0 80
194 -20 411 507 90 593 0
195 -10 1021 1136 90 230 0
196 -30 838 926 90 365 0
197 20 317 444 90 0 258
198 10 406 556 90 0 341
199 20 803 924 90 0 433
200 -10 535 655 90 116 0
201 -10 753 847 90 403 0
202 20 532 641 90 0 383
203 -30 260 369 90 11 0
204 20 241 361 90 0 481
205 10 136 260 90 0 30
206 40 156 263 90 0 113
207 -10 418 536 90 356 0
208 -30 458 589 90 546 0
209 10 503 620 90 0 101
210 20 604 740 90 0 303
211 10 162 253 90 0 276
212 30 232 342 90 0 348
213 -10 162 291 90 488 0
214 10 506 629 90 0 13
215 -20 683 810 90 292 0
216 -20 585 707 90 286 0
217 20 919 1037 90 0 468
218 10 362 475 90 0 312
219 -10 729 857 90 393 0
220 10 186 292 90 0 440
221 -10 727 853 90 401 0
222 -20 41 169 90 60 0
223 20 550 677 90 0 477
224 -10 926 1048 90 507 0
225 20 31 121 90 0 400
226 10 1003 1126 0 0 608
227 10 400 501 90 0 366
228 -20 565 692 90 105 0
229 -10 464 583 90 417 0
230 10 838 949 90 0 195
231 10 164 272 90 0 448
232 10 631 737 90 0 282
233 10 244 385 90 0 126
234 20 57 205 90 0 512
235 -30 1044 1177 90 441 0
236 -10 807 936 90 163 0
237 20 478 592 90 0 446
238 20 251 368 90 0 300
239 -30 644 745 90 132 0
240 10 329 419 90 0 503
241 -30 853 964 90 250 0
242 20 385 502 0 0 624
243 -30 850 995 90 319 0
244 -20 453 563 90 445 0
245 10 324 452 90 0 346
246 -10 525 674 90 277 0
247 20 170 266 90 0 305
248 10 178 307 90 0 61
249 20 433 586 90 0 280
250 30 567 691 90 0 241
251 20 195 287 90 0 321
252 -20 705 808 90 465 0
253 30 650 764 90 0 290
254 20 360 498 90 0 551
255 10 180 314 0 0 604
256 -30 804 932 90 21 0
257 -20 264 366 90 304 0
258 -20 409 541 90 197 0
259 -10 261 408 90 112 0
260 20 193 334 90 0 379
261 30 497 610 90 0 63
262 -20 219 319 90 547 0
263 30 233 350 0 0 614
264 -20 521 645 90 358 0
265 -20 421 521 90 462 0
266 -20 884 1000 90 111 0
267 20 825 941 90 0 584
268 -20 150 254 90 323 0
269 10 145 239 90 0 373
270 -20 833 943 90 50 0
271 -20 882 1022 90 54 0
272 -30 729 868 90 378 0
273 10 487 675 90 0 127
274 20 522 632 90 0 508
275 10 726 846 90 0 585
276 -10 402 487 90 211 0
277 10 138 257 90 0 246
278 -10 864 1028 90 344 0
279 -20 187 339 90 8 0
280 -20 899 1041 90 249 0
281 10 988 1106 0 0 610
282 -10 731 820 90 232 0
283 -10 242 379 90 159 0
284 -30 617 724 90 523 0
285 10 915 1024 0 0 626
286 20 292 447 90 0 216
287 10 511 624 0 0 615
288 10 130 257 90 0 540
289 10 162 286 90 0 490
290 -30 727 872 90 253 0
291 20 705 809 90 0 553
292 20 146 223 90 0 215
293 20 367 472 90 0 26
294 -10 485 624 90 89 0
295 10 681 799 90 0 114
296 30 1067 1199 0 0 616
297 -30 1200 1304 90 134 0
298 20 166 284 90 0 102
299 10 471 634 0 0 612
300 -20 536 641 90 238 0
301 20 121 241 90 0 67
302 20 443 569 0 0 606
303 -20 704 823 90 210 0
304 20 65 186 90 0 257
305 -20 719 834 90 247 0
306 -10 533 669 90 574 0
307 10 217 325 90 0 328
308 30 736 833 90 0 133
309 20 255 389 90 0 119
310 20 98 247 90 0 548
311 -20 259 371 90 483 0
312 -10 830 927 90 218 0
313 20 645 754 0 0 620
314 -20 836 954 90 598 0
315 -10 800 937 90 566 0
316 10 251 361 90 0 3
317 -10 810 916 90 530 0
318 -30 782 907 90 538 0
319 30 754 899 90 0 243
320 -10 692 822 90 552 0
321 -20 466 583 90 251 0
322 10 176 306 90 0 509
323 20 105 238 90 0 268
324 20 547 693 90 0 49
325 20 429 526 90 0 90
326 -20 710 833 90 158 0
327 -30 639 746 90 450 0
328 -10 292 436 90 307 0
329 30 629 756 90 0 98
330 -20 715 851 90 453 0
331 20 52 139 90 0 122
332 -20 448 583 90 491 0
333 -10 524 691 90 594 0
334 -20 579 711 90 392 0
335 -30 888 1029 90 57 0
336 -20 912 1057 90 516 0
337 30 125 281 90 0 510
338 -10 382 530 90 192 0
339 -20 160 302 90 14 0
340 20 736 841 90 0 554
341 -10 612 718 90 198 0
342 -40 629 760 90 27 0
343 20 499 606 90 0 526
344 10 429 554 90 0 278
345 20 109 230 90 0 452
346 -10 778 922 90 245 0
347 20 217 337 90 0 65
348 -30 436 523 90 212 0
349 -20 433 579 90 62 0
350 10 131 257 90 0 104
351 -20 383 469 90 110 0
352 -20 259 382 90 589 0
353 10 132 216 90 0 479
354 10 132 249 90 0 145
355 20 472 579 90 0 24
356 10 319 450 90 0 207
357 -10 1003 1144 90 58 0
358 20 254 361 90 0 264
359 -30 156 268 90 155 0
360 -10 697 805 90 447 0
361 20 64 228 90 0 385
362 10 279 399 90 0 471
363 10 582 702 90 0 38
364 -40 267 398 90 409 0
365 30 636 746 90 0 196
366 -10 871 994 90 227 0
367 -10 633 756 90 537 0
368 30 89 209 90 0 22
369 -20 823 955 90 29 0
370 30 955 1057 0 0 602
371 20 145 279 90 0 467
372 30 265 375 90 0 545
373 -10 691 833 90 269 0
374 -30 535 643 90 528 0
375 10 334 427 90 0 177
376 -30 554 693 90 539 0
377 20 86 215 90 0 501
378 30 656 752 90 0 272
379 -20 377 529 90 260 0
380 -10 170 309 90 459 0
381 10 320 403 90 0 97
382 -20 256 414 90 565 0
383 -20 723 820 90 202 0
384 -20 396 531 90 64 0
385 -20 285 397 90 361 0
386 20 294 422 90 0 96
387 20 172 308 90 0 586
388 -10 795 941 90 442 0
389 30 434 555 90 0 420
390 20 945 1093 90 0 187
391 -20 733 880 90 179 0
392 20 82 203 90 0 334
393 10 545 671 90 0 219
394 -10 429 583 90 77 0
395 -10 689 843 90 88 0
396 -10 434 597 90 427 0
397 -10 981 1104 90 533 0
398 -10 1164 1261 90 4 0
399 30 942 1089 0 0 619
400 -20 160 273 90 225 0
401 10 170 284 90 0 221
402 -10 672 788 90 7 0
403 10 372 490 90 0 201
404 -20 749 891 90 478 0
405 -20 911 1057 90 524 0
406 -10 171 290 90 120 0
407 20 612 755 90 0 188
408 -10 980 1094 90 183 0
409 40 179 302 90 0 364
410 -20 783 915 90 532 0
411 -10 900 1021 90 165 0
412 -20 628 746 90 151 0
413 -40 408 503 90 46 0
414 -20 243 347 90 588 0
415 20 119 207 90 0 103
416 -20 589 698 90 464 0
417 10 345 508 90 0 229
418 10 371 489 90 0 176
419 20 409 525 90 0 93
420 -30 1014 1159 90 389 0
421 10 272 395 90 0 443
422 10 279 391 90 0 138
423 20 917 1033 90 0 431
424 -10 1064 1208 90 73 0
425 30 797 910 90 0 500
426 -30 447 549 90 190 0
427 10 145 271 90 0 396
428 10 294 426 90 0 484
429 -20 706 866 90 486 0
430 20 182 280 90 0 144
431 -20 1019 1118 90 423 0
432 -10 220 356 90 108 0
433 -20 895 1022 90 199 0
434 40 814 947 90 0 487
435 30 219 347 90 0 68
436 -40 777 884 90 438 0
437 -40 681 795 90 59 0
438 40 656 819 90 0 436
439 -20 610 706 90 457 0
440 -10 537 684 90 220 0
441 30 147 254 90 0 235
442 10 347 471 90 0 388
443 -10 458 578 90 421 0
444 -10 814 935 90 515 0
445 20 162 287 90 0 244
446 -20 744 892 90 237 0
447 10 507 625 90 0 360
448 -10 706 845 90 231 0
449 20 508 638 90 0 531
450 30 354 474 90 0 327
451 10 775 915 90 0 115
452 -20 962 1092 90 345 0
453 20 625 753 90 0 330
454 30 371 451 90 0 180
455 10 642 776 90 0 47
456 -10 1013 1142 90 559 0
457 20 380 533 90 0 439
458 10 292 425 90 0 582
459 10 143 265 90 0 380
460 30 276 396 90 0 160
461 20 595 733 90 0 492
462 20 100 209 90 0 265
463 10 503 609 90 0 82
464 20 313 406 90 0 416
465 20 525 622 90 0 252
466 10 122 280 90 0 53
467 -20 626 719 90 371 0
468 -20 1102 1237 90 217 0
469 20 356 466 90 0 78
470 30 187 264 90 0 499
471 -10 463 582 90 362 0
472 -10 419 568 90 543 0
473 -20 1004 1113 90 25 0
474 -20 687 822 90 184 0
475 -20 421 557 90 37 0
476 10 69 171 90 0 164
477 -20 929 1044 90 223 0
478 20 404 505 90 0 404
479 -10 455 558 90 353 0
480 20 107 210 90 0 45
481 -20 343 444 90 204 0
482 20 443 535 0 0 611
483 20 126 249 90 0 311
484 -10 563 713 90 428 0
485 -20 882 998 90 157 0
486 20 611 770 90 0 429
487 -40 1007 1136 90 434 0
488 10 134 298 90 0 213
489 -10 946 1054 90 495 0
490 -10 262 369 90 289 0
491 20 92 196 90 0 332
492 -20 792 916 90 461 0
493 20 192 300 0 0 622
494 20 145 244 90 0 173
495 10 480 594 90 0 489
496 10 690 817 90 0 169
497 -20 736 852 90 572 0
498 20 204 318 90 0 140
499 -30 542 659 90 470 0
500 -30 991 1091 90 425 0
501 -20 206 278 90 377 0
502 20 207 276 90 0 139
503 -10 867 989 90 240 0
504 -30 924 1056 90 562 0
505 -20 717 855 90 560 0
506 -20 589 702 90 92 0
507 10 648 758 90 0 224
508 -20 715 819 90 274 0
509 -10 461 574 90 322 0
510 -30 352 453 90 337 0
511 20 183 301 0 0 629
512 -20 900 1026 90 234 0
513 -20 363 506 90 117 0
514 30 445 575 90 0 135
515 10 707 856 90 0 444
516 20 639 774 90 0 336
517 -10 655 755 90 48 0
518 -20 376 493 90 91 0
519 20 74 168 90 0 99
520 -20 340 459 90 43 0
521 30 1011 1172 0 0 603
522 30 121 237 90 0 591
523 30 404 564 90 0 284
524 20 90 210 90 0 405
525 -20 160 259 90 149 0
526 -20 791 875 90 343 0
527 20 441 558 90 0 571
528 30 342 460 90 0 374
529 -10 911 1031 90 33 0
530 10 701 837 90 0 317
531 -20 701 824 90 449 0
532 20 97 201 90 0 410
533 10 96 262 90 0 397
534 -20 244 335 90 70 0
535 -10 444 558 90 570 0
536 10 489 639 90 0 71
537 10 129 235 90 0 367
538 30 312 431 90 0 318
539 30 154 254 90 0 376
540 -10 444 553 90 288 0
541 10 150 277 90 0 12
542 -10 613 740 90 555 0
543 10 244 367 90 0 472
544 -40 689 750 90 153 0
545 -30 906 1034 90 372 0
546 30 369 486 90 0 208
547 20 78 223 90 0 262
548 -20 126 262 90 310 0
549 -10 893 1005 90 107 0
550 -20 890 1010 90 55 0
551 -20 556 669 90 254 0
552 10 222 364 90 0 320
553 -20 799 902 90 291 0
554 -20 822 937 90 340 0
555 10 339 459 90 0 542
556 -30 729 854 90 142 0
557 20 336 423 90 0 592
558 20 464 572 90 0 567
559 10 557 670 90 0 456
560 20 367 461 90 0 505
561 20 77 224 90 0 168
562 30 764 847 90 0 504
563 10 527 646 0 0 628
564 -10 512 629 90 587 0
565 20 80 221 90 0 382
566 10 176 270 90 0 315
567 -20 561 669 90 558 0
568 -10 808 905 90 6 0
569 -10 525 671 90 182 0
570 10 123 266 90 0 535
571 -20 899 1023 90 527 0
572 20 374 476 90 0 497
573 10 115 236 90 0 20
574 10 343 481 90 0 306
575 10 644 740 0 0 607
576 -10 221 340 90 595 0
577 10 695 876 0 0 621
578 30 77 206 90 0 28
579 -10 743 832 90 42 0
580 20 554 678 0 0 617
581 10 106 245 90 0 41
582 -10 779 900 90 458 0
583 -10 263 369 90 72 0
584 -20 1097 1239 90 267 0
585 -10 889 1008 90 275 0
586 -20 1031 1167 90 387 0
587 10 132 258 90 0 564
588 20 107 223 90 0 414
589 20 134 293 90 0 352
590 10 268 382 90 0 175
591 -30 157 273 90 522 0
592 -20 522 636 90 557 0
593 20 310 427 90 0 194
594 10 290 374 90 0 333
595 10 86 170 90 0 576
596 20 92 239 90 0 186
597 30 338 457 90 0 123
598 20 749 855 90 0 314
599 30 30 169 90 0 34
600 20 479 611 90 0 109
601 20 56 164 90 0 100
602 -30 955 1057 90 370 0
603 -30 1011 1172 90 521 0
604 -10 180 314 90 255 0
605 -30 453 560 90 170 0
606 -20 443 569 90 302 0
607 -10 644 740 90 575 0
608 -10 1003 1126 90 226 0
609 -10 914 1021 90 172 0
610 -10 988 1106 90 281 0
611 -20 443 535 90 482 0
612 -10 471 634 90 299 0
613 -10 599 735 90 40 0
614 -30 233 350 90 263 0
615 -10 511 624 90 287 0
616 -30 1067 1199 90 296 0
617 -20 554 678 90 580 0
618 -20 83 215 90 156 0
619 -30 942 1089 90 399 0
620 -20 645 754 90 313 0
621 -10 695 876 90 577 0
622 -20 192 300 90 493 0
623 -20 371 477 90 31 0
624 -20 385 502 90 242 0
625 -30 712 827 90 189 0
626 -10 915 1024 90 285 0
627 -30 535 659 90 35 0
628 -10 527 646 90 563 0
629 -20 183 301 90 511 0
DEPOT_SECTION
1
-1
EOF
