NAME: lc1_6_8
TYPE: PDPTW
COMMENT: Li & Lim PDPTW benchmark converted from SINTEF format
DIMENSION: 635
VEHICLES: 150
CAPACITY: 200
EDGE_WEIGHT_TYPE: EUC_2D
NODE_COORD_SECTION
1 150 150
2 17 205
3 153 254
4 229 219
5 214 156
6 121 260
7 29 277
8 47 277
9 85 224
10 105 230
11 160 111
12 65 69
13 63 233
14 143 111
15 173 233
16 85 24
17 277 100
18 166 105
19 141 137
20 100 73
21 61 70
22 161 210
23 30 280
24 129 98
25 62 65
26 256 239
27 9 144
28 174 228
29 203 156
30 251 241
31 109 110
32 106 233
33 22 102
34 145 184
35 121 170
36 25 141
37 167 176
38 126 229
39 122 172
40 119 267
41 68 113
42 257 243
43 157 266
44 157 31
45 73 226
46 74 109
47 12 198
48 199 126
49 31 55
50 10 147
51 168 176
52 277 104
53 55 232
54 119 262
55 220 74
56 122 175
57 144 182
58 149 285
59 61 157
60 140 143
61 203 125
62 114 164
63 108 80
64 103 232
65 71 154
66 87 27
67 67 154
68 255 132
69 108 113
70 86 230
71 226 221
72 116 159
73 155 28
74 151 294
75 83 30
76 150 184
77 141 102
78 114 156
79 263 212
80 259 59
81 161 26
82 59 236
83 69 4
84 78 33
85 16 204
86 16 196
87 113 114
88 153 28
89 67 161
90 211 61
91 125 103
92 269 29
93 146 61
94 33 142
95 26 282
96 29 285
97 130 230
98 260 58
99 173 72
100 162 206
101 148 60
102 272 38
103 160 27
104 231 218
105 173 76
106 66 7
107 114 49
108 213 68
109 59 280
110 175 101
111 96 237
112 115 196
113 153 265
114 110 79
115 227 222
116 275 97
117 216 6
118 29 148
119 137 104
120 253 57
121 136 140
122 209 127
123 59 64
124 283 229
125 141 286
126 236 240
127 161 22
128 147 185
129 81 238
130 10 198
131 68 229
132 118 163
133 78 31
134 230 221
135 278 128
136 29 94
137 25 99
138 167 105
139 214 157
140 65 6
141 260 214
142 143 288
143 167 229
144 173 13
145 286 130
146 33 283
147 163 180
148 148 288
149 239 77
150 106 237
151 277 101
152 144 292
153 215 4
154 82 34
155 169 171
156 76 111
157 213 65
158 13 265
159 149 183
160 36 52
161 99 242
162 33 285
163 221 8
164 165 182
165 235 242
166 31 145
167 159 110
168 113 202
169 228 220
170 9 145
171 86 30
172 266 104
173 217 21
174 161 112
175 255 240
176 203 128
177 77 233
178 168 108
179 133 99
180 202 133
181 211 150
182 141 100
183 54 285
184 220 66
185 285 225
186 174 79
187 147 67
188 70 57
189 159 177
190 160 107
191 70 227
192 136 233
193 256 54
194 107 71
195 202 131
196 181 8
197 257 137
198 134 146
199 53 237
200 274 97
201 285 230
202 55 62
203 160 108
204 242 73
205 248 245
206 154 266
207 113 50
208 25 50
209 143 61
210 222 73
211 60 15
212 224 79
213 86 31
214 67 230
215 147 60
216 65 156
217 262 241
218 257 58
219 181 102
220 18 206
221 0 153
222 140 140
223 204 129
224 110 107
225 128 172
226 23 107
227 170 237
228 174 74
229 164 103
230 206 129
231 65 56
232 262 211
233 236 248
234 161 94
235 136 220
236 166 113
237 176 71
238 64 55
239 118 156
240 142 57
241 66 8
242 174 71
243 131 226
244 280 175
245 136 144
246 178 10
247 230 248
248 201 121
249 257 59
250 65 4
251 165 204
252 134 148
253 164 202
254 218 20
255 287 224
256 63 59
257 121 181
258 257 133
259 112 201
260 272 41
261 110 74
262 137 229
263 70 225
264 53 234
265 233 216
266 100 231
267 140 290
268 111 52
269 249 133
270 8 155
271 126 256
272 212 26
273 156 26
274 238 69
275 280 125
276 65 5
277 176 14
278 59 223
279 43 286
280 262 62
281 67 216
282 261 212
283 149 186
284 236 66
285 140 108
286 60 156
287 114 50
288 28 103
289 27 100
290 163 200
291 63 229
292 150 56
293 254 240
294 63 155
295 106 77
296 246 133
297 227 217
298 278 43
299 182 238
300 65 49
301 60 160
302 175 12
303 223 74
304 128 176
305 235 241
306 280 172
307 11 265
308 79 30
309 144 100
310 222 83
311 261 215
312 264 61
313 183 99
314 109 105
315 258 212
316 150 272
317 147 178
318 93 235
319 125 228
320 109 42
321 162 203
322 179 97
323 105 55
324 29 55
325 216 62
326 51 238
327 281 129
328 8 263
329 259 58
330 136 104
331 199 130
332 108 109
333 106 108
334 110 76
335 144 173
336 282 227
337 64 59
338 131 228
339 143 101
340 278 176
341 134 147
342 4 149
343 70 109
344 52 233
345 165 228
346 137 150
347 57 155
348 231 70
349 111 153
350 229 217
351 184 97
352 10 150
353 149 282
354 282 137
355 130 96
356 113 52
357 147 285
358 53 232
359 170 174
360 78 232
361 127 101
362 289 225
363 127 232
364 223 23
365 179 9
366 177 225
367 277 172
368 166 203
369 218 153
370 35 282
371 151 30
372 284 176
373 252 128
374 28 144
375 83 236
376 223 11
377 164 95
378 216 25
379 275 32
380 35 56
381 135 227
382 183 97
383 60 64
384 104 235
385 128 94
386 30 279
387 31 275
388 233 242
389 64 53
390 148 62
391 130 102
392 105 81
393 184 98
394 140 100
395 160 24
396 13 202
397 247 132
398 227 218
399 133 225
400 129 177
401 14 149
402 31 284
403 287 226
404 55 285
405 216 148
406 255 57
407 66 54
408 81 223
409 225 22
410 85 228
411 232 240
412 272 97
413 70 102
414 122 259
415 154 31
416 69 109
417 168 97
418 201 127
419 139 58
420 119 104
421 211 159
422 168 96
423 181 11
424 158 27
425 115 42
426 162 107
427 17 209
428 50 285
429 19 102
430 174 13
431 184 12
432 217 69
433 58 235
434 258 247
435 250 134
436 268 38
437 66 157
438 270 37
439 12 270
440 11 207
441 121 255
442 233 245
443 215 160
444 269 103
445 280 180
446 177 82
447 78 236
448 66 56
449 116 265
450 287 128
451 228 223
452 173 224
453 138 101
454 275 100
455 3 205
456 280 225
457 8 265
458 169 235
459 37 62
460 29 57
461 259 126
462 227 214
463 1 272
464 74 106
465 132 146
466 58 231
467 157 25
468 258 232
469 109 157
470 282 134
471 288 227
472 52 63
473 65 68
474 212 62
475 167 179
476 169 173
477 204 131
478 52 288
479 149 294
480 73 225
481 241 71
482 154 26
483 255 220
484 53 285
485 211 66
486 22 97
487 259 240
488 88 31
489 66 10
490 26 99
491 111 112
492 250 126
493 123 92
494 227 26
495 63 3
496 230 223
497 216 157
498 63 7
499 280 130
500 116 49
501 166 94
502 211 157
503 148 61
504 37 53
505 177 4
506 269 35
507 101 110
508 236 72
509 185 98
510 62 53
511 112 199
512 165 113
513 218 3
514 281 130
515 271 101
516 288 231
517 204 127
518 131 95
519 171 79
520 151 269
521 67 10
522 29 152
523 240 71
524 210 156
525 240 73
526 74 113
527 263 215
528 25 145
529 23 103
530 145 182
531 124 264
532 88 225
533 246 137
534 84 236
535 235 243
536 236 218
537 275 182
538 102 235
539 212 9
540 26 97
541 59 67
542 49 234
543 57 68
544 217 11
545 277 177
546 28 56
547 140 228
548 227 80
549 115 48
550 217 73
551 216 23
552 112 51
553 64 226
554 278 177
555 52 231
556 140 292
557 224 77
558 114 204
559 288 228
560 173 11
561 114 198
562 34 54
563 145 183
564 213 61
565 179 98
566 261 217
567 115 197
568 123 260
569 138 100
570 231 243
571 257 210
572 212 159
573 103 78
574 286 175
575 82 31
576 144 59
577 119 157
578 166 226
579 258 244
580 163 202
581 75 110
582 175 227
583 114 158
584 147 281
585 250 130
586 37 280
587 215 68
588 119 253
589 16 151
590 251 237
591 30 148
592 221 70
593 106 71
594 111 110
595 150 64
596 172 78
597 55 68
598 107 103
599 155 180
600 53 288
601 168 204
602 52 288
603 269 35
604 34 54
605 124 264
606 62 65
607 280 225
608 18 206
609 87 27
610 176 14
611 67 230
612 259 240
613 23 107
614 158 27
615 105 81
616 126 256
617 129 98
618 271 101
619 235 242
620 257 210
621 81 223
622 115 42
623 111 110
624 228 220
625 163 200
626 169 235
627 76 111
628 144 173
629 183 97
630 211 159
631 70 57
632 138 101
633 202 133
634 168 176
635 119 157
PICKUP_AND_DELIVERY_SECTION
1 0 0 1496 0 0 0
2 20 217 444 90 0 47
3 -10 451 740 90 227 0
4 -20 149 422 90 143 0
5 -10 614 791 90 443 0
6 -20 276 496 90 414 0
7 -10 175 407 90 466 0
8 20 163 398 90 0 404
9 -20 817 1069 90 177 0
10 10 91 301 90 0 64
11 30 40 296 90 0 203
12 -20 1041 1258 90 276 0
13 -20 528 798 90 326 0
14 20 39 330 90 0 182
15 30 532 775 90 0 28
16 20 353 654 90 0 489
17 10 177 461 90 0 444
18 -10 471 714 90 422 0
19 30 57 339 90 0 314
20 20 138 406 90 0 83
21 30 119 291 90 0 63
22 10 189 487 90 0 381
23 20 337 561 90 0 586
24 20 508 729 0 0 617
25 20 845 1082 0 0 606
26 10 476 729 90 0 468
27 40 469 725 90 0 221
28 -30 598 899 90 15 0
29 20 53 367 90 0 572
30 10 156 306 90 0 434
31 20 293 554 90 0 333
32 10 93 310 90 0 150
33 10 755 1003 90 0 529
34 10 353 637 90 0 530
35 30 454 740 90 0 57
36 20 406 584 90 0 94
37 -30 278 513 90 155 0
38 -20 637 833 90 338 0
39 10 357 653 90 0 317
40 -30 547 787 90 441 0
41 -40 593 881 90 46 0
42 -20 571 822 90 293 0
43 20 116 402 90 0 316
44 -10 1060 1287 90 395 0
45 20 108 403 90 0 191
46 40 163 370 90 0 41
47 -20 762 1039 90 2 0
48 10 54 281 90 0 61
49 -10 606 819 90 380 0
50 20 300 528 90 0 342
51 20 209 401 0 0 634
52 20 135 424 90 0 116
53 10 125 341 90 0 328
54 20 408 550 90 0 449
55 -10 749 965 90 348 0
56 -20 281 542 90 400 0
57 -30 570 786 90 35 0
58 10 135 354 90 0 584
59 -10 330 593 90 89 0
60 20 12 356 90 0 198
61 -10 229 444 90 48 0
62 20 38 277 90 0 65
63 -30 694 973 90 21 0
64 -10 172 384 90 10 0
65 -20 789 1060 90 62 0
66 20 294 526 0 0 609
67 -10 706 956 90 437 0
68 -20 451 683 90 197 0
69 10 115 360 90 0 224
70 20 102 322 90 0 542
71 10 871 1184 90 0 398
72 10 72 377 90 0 469
73 -20 243 552 90 371 0
74 -10 320 509 90 192 0
75 30 449 752 90 0 133
76 20 115 322 90 0 128
77 10 48 318 90 0 119
78 20 466 734 90 0 239
79 10 482 703 90 0 282
80 10 464 739 90 0 98
81 -20 837 1068 90 467 0
82 -10 915 1186 90 433 0
83 -20 574 873 90 20 0
84 -30 882 1055 90 308 0
85 -10 292 550 90 427 0
86 -10 890 1100 90 455 0
87 20 51 290 90 0 507
88 -20 198 412 90 415 0
89 10 83 343 90 0 59
90 20 532 794 90 0 485
91 20 53 312 90 0 194
92 20 412 688 90 0 312
93 -10 568 742 90 240 0
94 -20 646 907 90 36 0
95 20 412 674 90 0 370
96 20 513 761 90 0 162
97 20 463 634 90 0 243
98 -10 647 920 90 80 0
99 10 231 473 90 0 237
100 30 296 568 90 0 253
101 -10 745 929 90 576 0
102 -20 233 479 90 260 0
103 -10 942 1145 90 273 0
104 10 277 479 90 0 536
105 20 163 353 90 0 228
106 10 711 924 90 0 241
107 -10 535 783 90 356 0
108 10 103 349 90 0 157
109 -10 824 1009 90 428 0
110 20 55 295 90 0 565
111 20 628 873 90 0 318
112 10 57 286 90 0 259
113 30 373 615 90 0 520
114 -10 805 1046 90 543 0
115 -10 777 1096 90 265 0
116 -20 404 604 90 52 0
117 -30 158 425 90 539 0
118 20 225 387 90 0 528
119 -10 748 1001 90 77 0
120 10 138 356 90 0 193
121 10 162 426 90 0 252
122 -20 688 913 90 176 0
123 10 616 745 90 0 383
124 -20 790 994 90 516 0
125 -20 849 1106 90 152 0
126 -10 577 793 90 570 0
127 -20 767 949 90 482 0
128 -20 285 522 90 76 0
129 -10 340 605 90 534 0
130 -30 712 906 90 132 0
131 10 322 630 90 0 264
132 30 34 255 90 0 130
133 -30 774 979 90 75 0
134 30 545 777 90 0 451
135 -30 746 1013 90 514 0
136 -40 491 694 90 137 0
137 40 304 508 90 0 136
138 20 565 801 90 0 512
139 10 478 744 90 0 497
140 10 187 519 90 0 250
141 -10 309 503 90 566 0
142 -40 643 750 90 206 0
143 20 160 364 90 0 4
144 10 200 444 90 0 423
145 30 196 447 90 0 450
146 -10 764 1063 90 402 0
147 -20 572 777 90 359 0
148 30 192 444 90 0 267
149 20 115 402 90 0 204
150 -10 427 685 90 32 0
151 20 136 401 90 0 454
152 20 472 733 90 0 125
153 40 246 436 90 0 178
154 -10 934 1190 90 575 0
155 30 28 351 90 0 37
156 20 83 314 0 0 627
157 -10 714 980 90 108 0
158 20 178 462 90 0 199
159 10 33 236 90 0 283
160 -20 777 1019 90 498 0
161 -10 527 783 90 384 0
162 -20 705 938 90 96 0
163 -30 410 650 90 513 0
164 -20 478 686 90 475 0
165 10 458 727 0 0 619
166 -20 560 806 90 374 0
167 20 115 329 90 0 285
168 10 307 545 90 0 558
169 10 1021 1220 0 0 624
170 -20 392 620 90 589 0
171 -10 215 419 90 573 0
172 -10 829 1106 90 200 0
173 30 418 622 90 0 272
174 10 39 324 90 0 417
175 -10 383 638 90 205 0
176 20 366 678 90 0 122
177 20 548 772 90 0 9
178 -40 626 927 90 153 0
179 20 608 816 90 0 330
180 20 1043 1298 0 0 633
181 -10 937 1223 90 369 0
182 -20 295 535 90 14 0
183 -10 621 838 90 484 0
184 -10 240 524 90 432 0
185 30 154 408 90 0 362
186 -20 636 812 90 519 0
187 -20 970 1258 90 215 0
188 20 757 983 0 0 631
189 -10 672 867 90 476 0
190 30 281 530 90 0 569
191 -20 257 511 90 45 0
192 10 84 283 90 0 74
193 -10 240 408 90 120 0
194 -20 372 546 90 91 0
195 -10 995 1163 90 230 0
196 -20 769 994 90 430 0
197 20 243 519 90 0 68
198 -20 348 614 90 60 0
199 -20 739 988 90 158 0
200 10 464 726 90 0 172
201 -10 665 935 90 255 0
202 -10 434 740 90 472 0
203 -30 179 450 90 11 0
204 -20 169 434 90 149 0
205 10 136 311 90 0 175
206 40 116 368 90 0 142
207 -20 346 607 90 268 0
208 -10 376 672 90 541 0
209 -20 443 680 90 419 0
210 20 574 770 90 0 550
211 -20 162 410 90 213 0
212 30 164 410 90 0 557
213 20 135 419 90 0 211
214 10 448 687 0 0 611
215 20 628 864 90 0 187
216 -10 543 750 90 294 0
217 -10 843 1112 90 590 0
218 10 309 528 90 0 436
219 -20 677 910 90 313 0
220 10 143 414 0 0 608
221 -40 662 917 90 27 0
222 30 14 225 90 0 493
223 20 500 727 90 0 477
224 -10 893 1082 90 69 0
225 20 31 233 90 0 583
226 10 927 1203 0 0 613
227 10 309 593 90 0 3
228 -20 501 756 90 105 0
229 -30 400 647 90 501 0
230 10 813 974 90 0 195
231 10 133 304 90 0 448
232 -20 562 806 90 527 0
233 -10 165 464 90 350 0
234 20 57 309 90 0 377
235 -20 976 1246 90 588 0
236 -20 743 1001 90 596 0
237 -10 417 653 90 99 0
238 20 224 395 90 0 389
239 -20 572 817 90 78 0
240 10 267 481 90 0 93
241 -10 773 1044 90 106 0
242 20 312 574 90 0 446
243 -20 766 1080 90 97 0
244 -30 355 661 90 372 0
245 10 272 505 90 0 346
246 -20 468 731 90 560 0
247 20 126 341 90 0 305
248 10 112 372 90 0 310
249 20 385 633 90 0 329
250 -10 524 735 90 140 0
251 -30 167 314 90 368 0
252 -10 652 860 90 121 0
253 -30 594 820 90 100 0
254 -10 349 508 90 364 0
255 10 169 324 90 0 201
256 -10 728 1008 90 459 0
257 20 176 454 90 0 563
258 20 367 582 90 0 585
259 -10 229 439 90 112 0
260 20 163 365 90 0 102
261 30 437 669 90 0 295
262 -20 165 373 90 547 0
263 30 169 415 90 0 281
264 -10 478 688 90 131 0
265 10 349 592 90 0 115
266 -30 847 1037 90 538 0
267 -30 776 990 90 148 0
268 20 105 308 90 0 207
269 10 100 338 90 0 492
270 -10 724 1052 90 352 0
271 20 836 1067 0 0 616
272 -30 643 954 90 173 0
273 10 466 696 90 0 103
274 -30 478 677 90 523 0
275 10 669 904 90 0 405
276 20 309 579 90 0 12
277 10 138 317 0 0 610
278 -20 824 1068 90 291 0
279 10 173 449 90 0 600
280 -30 847 1093 90 548 0
281 -30 920 1173 90 263 0
282 -10 670 880 90 79 0
283 -10 172 449 90 159 0
284 30 578 763 90 0 508
285 -20 891 1048 90 167 0
286 20 297 442 90 0 347
287 10 424 711 90 0 500
288 10 130 343 90 0 486
289 10 132 370 90 0 429
290 10 682 918 0 0 625
291 20 653 860 90 0 278
292 -10 94 356 90 595 0
293 20 312 527 90 0 42
294 10 466 642 90 0 216
295 -30 580 899 90 261 0
296 -10 1011 1255 90 397 0
297 -10 1127 1304 90 579 0
298 20 166 391 90 0 438
299 -30 423 682 90 578 0
300 -10 422 755 90 510 0
301 20 90 361 90 0 522
302 20 393 619 90 0 365
303 -10 636 891 90 592 0
304 20 34 281 90 0 561
305 -20 628 925 90 247 0
306 10 467 735 90 0 367
307 10 180 442 90 0 457
308 30 667 902 90 0 84
309 20 244 401 90 0 518
310 -10 98 383 90 248 0
311 -20 189 440 90 483 0
312 -20 750 1007 90 92 0
313 20 615 784 90 0 219
314 -30 800 990 90 19 0
315 -20 739 997 90 462 0
316 -20 206 406 90 43 0
317 -10 721 1006 90 39 0
318 -20 701 988 90 111 0
319 -10 716 937 90 363 0
320 10 649 865 90 0 549
321 30 382 668 90 0 580
322 10 129 354 90 0 509
323 20 105 334 90 0 552
324 20 489 751 90 0 473
325 20 360 596 90 0 564
326 20 637 906 90 0 13
327 -10 608 777 90 499 0
328 -10 260 468 90 53 0
329 -20 561 823 90 249 0
330 -20 644 923 90 179 0
331 20 52 267 90 0 412
332 20 422 609 90 0 598
333 -20 450 766 90 31 0
334 -20 535 755 90 361 0
335 20 789 1128 0 0 628
336 -10 872 1097 90 403 0
337 30 125 357 90 0 407
338 20 369 544 90 0 38
339 10 110 352 90 0 355
340 20 691 885 90 0 545
341 -20 506 824 90 465 0
342 -20 572 816 90 50 0
343 -20 434 671 90 464 0
344 -20 359 623 90 358 0
345 20 79 354 90 0 366
346 -10 709 990 90 245 0
347 -20 157 396 90 286 0
348 10 383 575 90 0 55
349 -30 412 599 90 599 0
350 10 103 313 90 0 233
351 10 266 587 90 0 393
352 10 226 415 90 0 270
353 10 132 367 90 0 357
354 10 132 382 90 0 470
355 -10 393 658 90 339 0
356 10 288 481 90 0 107
357 -10 1008 1139 90 353 0
358 20 171 444 90 0 344
359 20 107 316 90 0 147
360 20 694 809 90 0 410
361 20 54 264 90 0 334
362 -30 251 426 90 185 0
363 10 538 745 90 0 319
364 10 185 480 90 0 254
365 -20 561 820 90 302 0
366 -20 828 1037 90 345 0
367 -10 564 825 90 306 0
368 30 55 272 90 0 251
369 10 773 1005 90 0 181
370 -20 878 1135 90 95 0
371 20 120 343 90 0 73
372 30 230 410 90 0 244
373 -20 642 881 90 461 0
374 20 478 700 90 0 166
375 10 264 497 90 0 447
376 20 544 703 90 0 544
377 -20 56 300 90 234 0
378 -20 580 829 90 494 0
379 -10 313 593 90 406 0
380 10 148 401 90 0 49
381 -10 234 489 90 22 0
382 40 195 475 0 0 629
383 -10 646 898 90 123 0
384 10 372 555 90 0 161
385 30 203 479 90 0 391
386 -20 231 485 90 387 0
387 20 172 406 90 0 386
388 -20 751 986 90 535 0
389 -20 403 586 90 238 0
390 -10 907 1131 90 503 0
391 -30 711 902 90 385 0
392 20 82 304 0 0 615
393 -10 495 721 90 351 0
394 -10 400 612 90 426 0
395 10 645 886 90 0 44
396 20 379 651 90 0 440
397 10 947 1138 90 0 296
398 -10 1057 1304 90 71 0
399 -10 903 1128 90 568 0
400 20 100 334 90 0 56
401 -20 139 315 90 591 0
402 10 611 848 90 0 146
403 10 327 536 90 0 336
404 -20 735 906 90 8 0
405 -10 855 1114 90 275 0
406 10 140 326 90 0 379
407 -30 580 787 90 337 0
408 40 948 1127 0 0 621
409 40 148 392 90 0 551
410 -20 762 936 90 360 0
411 -10 857 1064 90 442 0
412 -20 591 783 90 331 0
413 30 337 574 90 0 526
414 20 172 417 90 0 6
415 20 119 400 90 0 88
416 -10 519 768 90 581 0
417 -10 332 520 90 174 0
418 10 297 563 90 0 517
419 20 331 603 90 0 209
420 -20 961 1213 90 593 0
421 10 190 477 0 0 630
422 10 210 460 90 0 18
423 -10 868 1082 90 144 0
424 10 1036 1235 0 0 614
425 30 749 957 0 0 622
426 10 346 649 90 0 394
427 10 145 419 90 0 85
428 10 241 480 90 0 109
429 -10 660 913 90 289 0
430 20 139 382 90 0 196
431 -10 964 1173 90 505 0
432 10 200 375 90 0 184
433 10 846 1071 90 0 82
434 -10 718 1044 90 30 0
435 -10 177 389 90 533 0
436 -10 720 941 90 218 0
437 10 586 889 90 0 67
438 -20 604 871 90 298 0
439 -10 495 820 90 463 0
440 -20 495 725 90 396 0
441 30 110 291 90 0 40
442 10 297 521 90 0 411
443 10 382 653 90 0 5
444 -10 759 989 90 17 0
445 -10 133 386 90 537 0
446 -20 680 955 90 242 0
447 -10 424 709 90 375 0
448 -10 657 895 90 231 0
449 -20 445 702 90 54 0
450 -30 336 492 90 145 0
451 -30 737 953 90 134 0
452 -30 908 1146 90 582 0
453 20 567 812 0 0 632
454 -20 302 521 90 151 0
455 10 608 809 90 0 86
456 20 978 1177 0 0 607
457 -10 328 585 90 307 0
458 10 232 484 0 0 626
459 10 143 436 90 0 256
460 30 235 437 90 0 546
461 20 528 801 90 0 373
462 20 100 335 90 0 315
463 10 438 675 90 0 439
464 20 226 493 90 0 343
465 20 470 677 90 0 341
466 10 122 345 90 0 7
467 20 567 778 90 0 81
468 -10 1008 1271 90 26 0
469 -10 276 547 90 72 0
470 -10 132 355 90 354 0
471 40 384 661 90 0 559
472 10 359 627 90 0 202
473 -20 902 1214 90 324 0
474 -10 633 876 90 587 0
475 20 396 581 90 0 164
476 10 29 337 90 0 189
477 -20 865 1109 90 223 0
478 20 345 564 0 0 602
479 10 358 656 90 0 556
480 20 107 343 90 0 553
481 -20 249 538 90 525 0
482 20 385 594 90 0 127
483 20 126 399 90 0 311
484 10 498 778 90 0 183
485 -20 847 1032 90 90 0
486 -10 600 781 90 288 0
487 10 919 1223 0 0 612
488 10 134 316 90 0 521
489 -20 877 1123 90 16 0
490 10 228 402 90 0 540
491 20 56 233 90 0 597
492 -10 738 970 90 269 0
493 -30 125 367 90 222 0
494 20 145 361 90 0 378
495 10 335 738 90 0 504
496 -20 626 881 90 601 0
497 -10 671 918 90 139 0
498 20 167 428 90 0 160
499 10 465 737 90 0 327
500 -10 872 1209 90 287 0
501 30 100 385 90 0 229
502 -20 118 366 90 524 0
503 10 823 1033 90 0 390
504 -10 881 1099 90 495 0
505 10 672 901 90 0 431
506 20 516 776 0 0 603
507 -20 594 812 90 87 0
508 -30 646 888 90 284 0
509 -10 363 671 90 322 0
510 10 280 525 90 0 300
511 20 142 343 90 0 567
512 -20 837 1089 90 138 0
513 30 281 587 90 0 163
514 30 393 627 90 0 135
515 10 651 912 0 0 618
516 20 583 830 90 0 124
517 -10 592 819 90 418 0
518 -20 309 560 90 309 0
519 20 74 279 90 0 186
520 -30 278 521 90 113 0
521 -10 967 1215 90 488 0
522 -20 121 407 90 301 0
523 30 373 595 90 0 274
524 20 60 258 90 0 502
525 20 132 286 90 0 481
526 -30 673 994 90 413 0
527 20 384 615 90 0 232
528 -20 291 512 90 118 0
529 -10 864 1077 90 33 0
530 -10 629 908 90 34 0
531 30 614 911 0 0 605
532 20 97 366 90 0 555
533 10 96 285 90 0 435
534 10 199 380 90 0 129
535 20 359 644 90 0 388
536 -10 436 692 90 104 0
537 10 129 323 90 0 445
538 30 252 491 90 0 266
539 30 154 386 90 0 117
540 -10 400 597 90 490 0
541 10 123 387 90 0 208
542 -20 571 783 90 70 0
543 10 186 426 90 0 114
544 -20 592 848 90 376 0
545 -20 875 1066 90 340 0
546 -30 304 551 90 460 0
547 20 78 277 90 0 262
548 30 104 323 90 0 280
549 -10 837 1062 90 320 0
550 -20 841 1059 90 210 0
551 -40 498 727 90 409 0
552 -20 169 418 90 323 0
553 -20 746 954 90 480 0
554 -10 764 995 90 574 0
555 -20 312 486 90 532 0
556 -10 675 907 90 479 0
557 -30 227 531 90 212 0
558 -10 367 668 90 168 0
559 -40 494 733 90 471 0
560 20 331 496 90 0 246
561 -20 60 281 90 304 0
562 30 719 892 0 0 604
563 -20 479 694 90 257 0
564 -20 433 709 90 325 0
565 -20 61 240 90 110 0
566 10 129 438 90 0 141
567 -20 479 750 90 511 0
568 10 702 1011 90 0 399
569 -30 473 724 90 190 0
570 10 123 407 90 0 126
571 10 824 1097 0 0 620
572 -20 312 537 90 29 0
573 10 85 356 90 0 171
574 10 294 530 90 0 554
575 10 574 810 90 0 154
576 10 187 374 90 0 101
577 10 668 904 0 0 635
578 30 77 285 90 0 299
579 10 679 896 90 0 297
580 -30 465 768 90 321 0
581 10 85 349 90 0 416
582 30 734 946 90 0 452
583 -20 186 447 90 225 0
584 -10 1025 1275 90 58 0
585 -20 836 1061 90 258 0
586 -20 992 1205 90 23 0
587 10 104 371 90 0 474
588 20 107 298 90 0 235
589 20 134 366 90 0 170
590 10 222 429 90 0 217
591 20 120 373 90 0 401
592 10 492 667 90 0 303
593 20 293 444 90 0 420
594 10 228 435 0 0 623
595 10 86 346 90 0 292
596 20 75 297 90 0 236
597 -20 250 545 90 491 0
598 -20 671 934 90 332 0
599 30 30 294 90 0 349
600 -10 392 698 90 279 0
601 20 56 255 90 0 496
602 -20 345 564 90 478 0
603 -20 516 776 90 506 0
604 -30 719 892 90 562 0
605 -30 614 911 90 531 0
606 -20 845 1082 90 25 0
607 -20 978 1177 90 456 0
608 -10 143 414 90 220 0
609 -20 294 526 90 66 0
610 -10 138 317 90 277 0
611 -10 448 687 90 214 0
612 -10 919 1223 90 487 0
613 -10 927 1203 90 226 0
614 -10 1036 1235 90 424 0
615 -20 82 304 90 392 0
616 -20 836 1067 90 271 0
617 -20 508 729 90 24 0
618 -10 651 912 90 515 0
619 -10 458 727 90 165 0
620 -10 824 1097 90 571 0
621 -40 948 1127 90 408 0
622 -30 749 957 90 425 0
623 -10 228 435 90 594 0
624 -10 1021 1220 90 169 0
625 -10 682 918 90 290 0
626 -10 232 484 90 458 0
627 -20 83 314 90 156 0
628 -20 789 1128 90 335 0
629 -40 195 475 90 382 0
630 -10 190 477 90 421 0
631 -20 757 983 90 188 0
632 -20 567 812 90 453 0
633 -20 1043 1298 90 180 0
634 -20 209 401 90 51 0
635 -10 668 904 90 577 0
DEPOT_SECTION
1
-1
EOF
