NAME: lc2_6_10
TYPE: PDPTW
COMMENT: Li & Lim PDPTW benchmark converted from SINTEF format
DIMENSION: 609
VEHICLES: 150
CAPACITY: 700
EDGE_WEIGHT_TYPE: EUC_2D
NODE_COORD_SECTION
1 150 150
2 248 45
3 227 221
4 122 246
5 165 85
6 253 198
7 55 126
8 131 70
9 58 230
10 243 35
11 97 45
12 30 28
13 108 27
14 279 44
15 97 40
16 18 52
17 226 232
18 272 21
19 64 30
20 141 231
21 68 211
22 50 104
23 182 178
24 66 211
25 83 219
26 141 210
27 173 87
28 260 180
29 165 187
30 117 262
31 91 49
32 176 82
33 41 46
34 182 233
35 239 181
36 177 114
37 34 135
38 140 231
39 142 82
40 102 51
41 238 62
42 261 39
43 6 146
44 244 235
45 125 23
46 135 23
47 92 52
48 136 272
49 262 257
50 75 28
51 123 63
52 224 155
53 170 116
54 179 62
55 154 257
56 240 38
57 83 105
58 207 201
59 28 122
60 25 150
61 262 32
62 67 237
63 34 50
64 186 196
65 252 60
66 97 10
67 239 262
68 71 102
69 101 29
70 103 35
71 139 244
72 231 170
73 84 114
74 74 109
75 222 160
76 38 163
77 125 9
78 237 203
79 17 134
80 203 200
81 19 137
82 263 248
83 29 137
84 80 255
85 53 145
86 190 157
87 171 58
88 125 39
89 0 169
90 252 37
91 65 233
92 287 246
93 192 251
94 143 6
95 151 228
96 173 180
97 271 34
98 62 132
99 214 210
100 276 38
101 60 143
102 49 57
103 138 17
104 281 187
105 264 250
106 193 250
107 225 213
108 173 144
109 160 111
110 135 270
111 108 103
112 78 128
113 263 195
114 233 160
115 52 59
116 134 279
117 207 183
118 264 64
119 153 144
120 17 152
121 270 178
122 86 100
123 49 56
124 39 129
125 116 21
126 28 52
127 254 157
128 163 114
129 141 55
130 167 110
131 141 33
132 241 276
133 152 245
134 266 172
135 68 57
136 91 104
137 299 177
138 75 89
139 53 57
140 182 236
141 168 287
142 71 222
143 87 237
144 9 136
145 233 228
146 48 36
147 264 181
148 227 32
149 57 232
150 23 144
151 275 31
152 206 171
153 42 147
154 56 117
155 15 138
156 56 43
157 226 56
158 248 48
159 37 63
160 62 221
161 189 138
162 203 217
163 170 89
164 258 169
165 201 154
166 183 140
167 86 133
168 71 159
169 74 248
170 32 128
171 245 233
172 227 211
173 47 141
174 255 64
175 264 42
176 266 28
177 6 139
178 172 146
179 99 32
180 272 41
181 176 136
182 256 15
183 87 234
184 246 254
185 255 187
186 244 251
187 290 49
188 234 216
189 207 203
190 81 223
191 234 38
192 221 203
193 69 239
194 150 16
195 100 34
196 130 38
197 62 122
198 96 6
199 263 12
200 180 183
201 212 190
202 61 232
203 64 234
204 171 143
205 49 46
206 64 134
207 168 49
208 153 88
209 199 214
210 204 189
211 160 84
212 90 86
213 87 105
214 236 213
215 239 201
216 274 195
217 264 39
218 258 44
219 87 96
220 230 182
221 63 89
222 57 40
223 70 66
224 196 191
225 68 164
226 182 144
227 223 213
228 13 51
229 189 232
230 59 110
231 193 175
232 180 231
233 160 56
234 161 62
235 44 51
236 122 5
237 131 261
238 101 31
239 162 141
240 231 235
241 167 256
242 177 132
243 78 223
244 236 65
245 169 56
246 42 240
247 153 74
248 220 231
249 192 176
250 223 177
251 115 25
252 62 44
253 218 208
254 143 236
255 162 157
256 197 178
257 272 185
258 269 257
259 184 163
260 83 35
261 56 132
262 193 194
263 273 184
264 52 153
265 65 152
266 57 119
267 185 241
268 78 39
269 37 149
270 196 129
271 26 161
272 142 242
273 266 49
274 268 43
275 144 250
276 153 64
277 3 159
278 72 234
279 96 17
280 237 222
281 169 134
282 242 205
283 160 244
284 221 213
285 34 55
286 65 217
287 236 224
288 173 73
289 139 262
290 196 158
291 97 28
292 135 65
293 156 63
294 20 146
295 171 253
296 157 88
297 268 49
298 229 217
299 239 177
300 141 266
301 71 126
302 225 70
303 249 44
304 155 60
305 76 30
306 172 148
307 176 140
308 191 188
309 238 203
310 202 178
311 153 256
312 31 63
313 228 62
314 73 104
315 115 2
316 284 184
317 218 197
318 233 224
319 256 38
320 146 270
321 196 178
322 265 211
323 214 51
324 111 22
325 266 37
326 257 41
327 250 247
328 85 222
329 214 239
330 233 189
331 116 272
332 143 108
333 278 42
334 163 256
335 40 60
336 191 168
337 137 255
338 57 126
339 267 255
340 109 126
341 230 59
342 133 1
343 197 174
344 133 246
345 247 243
346 92 90
347 220 171
348 96 110
349 116 18
350 110 47
351 209 173
352 47 118
353 209 184
354 114 43
355 170 69
356 278 179
357 86 83
358 166 261
359 184 267
360 251 219
361 169 221
362 106 34
363 67 142
364 78 213
365 0 166
366 52 80
367 152 247
368 283 195
369 242 263
370 222 196
371 92 23
372 13 66
373 132 248
374 271 32
375 178 240
376 45 44
377 162 246
378 50 80
379 126 20
380 193 224
381 244 260
382 122 24
383 261 49
384 153 241
385 208 191
386 252 50
387 195 168
388 268 19
389 238 170
390 182 245
391 228 200
392 263 169
393 174 155
394 270 25
395 175 84
396 261 255
397 23 163
398 178 127
399 245 42
400 259 212
401 115 235
402 18 151
403 284 30
404 179 59
405 217 219
406 96 13
407 116 34
408 241 46
409 165 83
410 246 187
411 184 245
412 149 82
413 207 209
414 248 255
415 79 238
416 124 10
417 225 201
418 266 33
419 12 133
420 134 273
421 175 142
422 180 227
423 164 79
424 261 45
425 125 253
426 256 197
427 22 126
428 24 141
429 192 152
430 43 153
431 74 62
432 236 53
433 116 35
434 28 147
435 143 250
436 157 62
437 89 57
438 231 236
439 247 46
440 225 191
441 114 27
442 178 118
443 31 48
444 255 178
445 225 51
446 104 15
447 163 223
448 245 240
449 252 62
450 188 244
451 227 187
452 89 102
453 216 192
454 58 161
455 264 194
456 165 69
457 191 172
458 87 112
459 78 234
460 199 179
461 3 149
462 99 53
463 276 22
464 250 264
465 83 218
466 132 253
467 243 252
468 258 213
469 92 114
470 149 130
471 251 186
472 149 244
473 129 41
474 295 254
475 95 104
476 178 218
477 202 169
478 168 237
479 37 165
480 39 57
481 77 25
482 41 63
483 53 243
484 42 123
485 172 249
486 43 155
487 239 174
488 239 188
489 182 130
490 259 235
491 252 44
492 235 260
493 163 150
494 196 194
495 98 33
496 131 254
497 232 220
498 215 168
499 292 18
500 262 237
501 250 234
502 75 85
503 178 247
504 59 124
505 219 174
506 89 24
507 252 218
508 238 231
509 78 222
510 251 180
511 226 164
512 66 139
513 105 21
514 176 232
515 196 190
516 210 181
517 198 182
518 70 131
519 165 269
520 236 210
521 222 197
522 220 187
523 251 222
524 285 30
525 61 237
526 229 186
527 108 131
528 3 34
529 273 18
530 223 204
531 87 114
532 87 10
533 122 32
534 150 240
535 259 71
536 231 260
537 53 28
538 284 12
539 259 202
540 264 249
541 263 43
542 196 192
543 171 141
544 53 225
545 191 215
546 99 124
547 137 256
548 262 50
549 59 243
550 57 235
551 245 197
552 232 199
553 1 152
554 78 114
555 76 59
556 154 78
557 124 13
558 267 265
559 63 135
560 158 136
561 132 262
562 104 18
563 176 117
564 73 49
565 185 180
566 26 168
567 92 28
568 20 155
569 208 174
570 192 185
571 80 84
572 141 3
573 93 77
574 70 133
575 170 255
576 191 151
577 77 11
578 270 23
579 76 110
580 14 160
581 70 128
582 283 180
583 204 171
584 111 10
585 56 57
586 235 219
587 195 253
588 50 139
589 145 63
590 243 199
591 241 209
592 123 44
593 7 144
594 86 232
595 205 191
596 30 150
597 186 181
598 177 160
599 253 64
600 187 165
601 117 14
602 266 28
603 77 11
604 141 266
605 234 216
606 25 150
607 185 241
608 249 44
609 174 155
PICKUP_AND_DELIVERY_SECTION
1 0 0 3815 0 0 0
2 -10 1715 2595 90 158 0
3 -20 1611 2491 90 253 0
4 -20 2745 3625 90 241 0
5 -30 2740 3620 90 233 0
6 20 450 1330 90 0 471
7 30 599 1479 90 0 430
8 -10 887 1767 90 288 0
9 -10 1406 2286 90 550 0
10 10 2098 2978 90 0 56
11 -30 117 997 90 40 0
12 30 966 1846 90 0 482
13 -10 815 1695 90 473 0
14 10 278 1158 90 0 218
15 -10 154 1034 90 556 0
16 -10 1289 2169 90 222 0
17 -20 2734 3614 90 360 0
18 20 1484 2364 90 0 578
19 20 269 1149 90 0 205
20 20 81 961 90 0 519
21 -30 2643 3523 90 465 0
22 -20 503 1383 90 57 0
23 -10 2803 3683 90 516 0
24 10 2551 3431 90 0 364
25 20 96 976 90 0 483
26 20 60 940 90 0 71
27 20 99 979 90 0 39
28 10 745 1625 90 0 299
29 -20 2806 3686 90 377 0
30 -30 1929 2809 90 320 0
31 20 1118 1998 90 0 469
32 10 285 1165 90 0 412
33 -10 1984 2864 90 376 0
34 20 2077 2957 90 0 380
35 20 94 974 90 0 590
36 10 180 1060 90 0 304
37 -20 1366 2246 90 574 0
38 20 81 961 90 0 272
39 -20 781 1661 90 27 0
40 30 110 990 90 0 11
41 10 124 1004 90 0 408
42 -20 2620 3500 90 97 0
43 20 1514 2394 90 0 101
44 -20 2119 2999 90 494 0
45 10 1936 2816 90 0 94
46 -20 2718 3598 90 416 0
47 20 113 993 90 0 564
48 -10 1433 2313 90 275 0
49 20 1385 2265 90 0 464
50 30 1013 1893 90 0 70
51 -20 2423 3303 90 481 0
52 20 592 1472 90 0 347
53 20 83 963 90 0 163
54 20 2253 3133 90 0 355
55 10 1092 1972 90 0 401
56 -10 2192 3072 90 10 0
57 20 105 985 90 0 22
58 -30 2769 3649 90 522 0
59 30 125 1005 90 0 144
60 20 1131 2011 0 0 606
61 -10 1770 2650 90 432 0
62 10 623 1503 90 0 278
63 -20 1886 2766 90 312 0
64 10 58 938 90 0 413
65 20 260 1140 90 0 130
66 -10 1606 2486 90 198 0
67 -20 2450 3330 90 327 0
68 10 298 1178 90 0 378
69 30 2017 2897 90 0 354
70 -30 2113 2993 90 50 0
71 -20 509 1389 90 26 0
72 -20 1680 2560 90 477 0
73 -10 2390 3270 90 223 0
74 40 1776 2656 90 0 504
75 -10 496 1376 90 398 0
76 -20 2682 3562 90 568 0
77 -10 2311 3191 90 601 0
78 -30 2209 3089 90 282 0
79 20 169 1049 90 0 277
80 10 183 1063 90 0 440
81 10 131 1011 90 0 419
82 -10 581 1461 90 497 0
83 20 937 1817 90 0 434
84 10 330 1210 90 0 149
85 -30 2266 3146 90 402 0
86 -10 1343 2223 90 114 0
87 20 2351 3231 90 0 109
88 10 113 993 90 0 584
89 -10 1990 2870 90 150 0
90 -30 2693 3573 90 174 0
91 -10 1685 2565 90 525 0
92 -20 877 1757 90 500 0
93 40 641 1521 90 0 375
94 -10 2700 3580 90 45 0
95 10 78 958 90 0 295
96 -10 2808 3688 90 99 0
97 20 2051 2931 90 0 42
98 20 407 1287 90 0 173
99 10 2688 3568 90 0 96
100 10 168 1048 90 0 394
101 -20 2363 3243 90 43 0
102 20 2559 3439 90 0 585
103 -30 2712 3592 90 238 0
104 -30 1332 2212 90 216 0
105 -10 764 1644 90 162 0
106 10 733 1613 90 0 514
107 -10 314 1194 90 209 0
108 -30 1952 2832 90 543 0
109 -20 2805 3685 90 87 0
110 -20 1526 2406 90 435 0
111 10 63 943 90 0 554
112 30 75 955 90 0 484
113 30 1034 1914 90 0 134
114 10 692 1572 90 0 86
115 -10 2712 3592 90 123 0
116 -10 1625 2505 90 334 0
117 30 65 945 90 0 310
118 -20 733 1613 90 281 0
119 -30 2631 3511 90 239 0
120 20 1319 2199 90 0 365
121 20 2020 2900 90 0 570
122 -10 1485 2365 90 348 0
123 10 2650 3530 90 0 115
124 10 1268 2148 90 0 225
125 10 436 1316 90 0 557
126 -10 1697 2577 90 146 0
127 -20 1796 2676 90 137 0
128 -10 2807 3687 90 326 0
129 20 1085 1965 90 0 436
130 -20 2802 3682 90 65 0
131 -10 2728 3608 90 279 0
132 -20 2254 3134 90 381 0
133 10 95 975 90 0 359
134 -30 2117 2997 90 113 0
135 -20 123 1003 90 555 0
136 10 74 954 90 0 502
137 20 1533 2413 90 0 127
138 20 715 1595 90 0 581
139 -10 2711 3591 90 335 0
140 40 2170 3050 90 0 361
141 -10 1215 2095 90 254 0
142 -30 2261 3141 90 246 0
143 20 125 1005 90 0 549
144 -30 453 1333 90 59 0
145 20 2504 3384 90 0 438
146 10 857 1737 90 0 126
147 10 839 1719 90 0 185
148 -10 2387 3267 90 439 0
149 -10 1211 2091 90 84 0
150 10 747 1627 90 0 89
151 10 680 1560 90 0 325
152 30 59 939 90 0 551
153 10 108 988 90 0 271
154 -20 975 1855 90 266 0
155 20 263 1143 90 0 580
156 20 566 1446 90 0 235
157 -20 2591 3471 90 297 0
158 10 1531 2411 90 0 2
159 -20 2365 3245 90 252 0
160 -20 2360 3240 90 509 0
161 20 1283 2163 90 0 242
162 10 85 965 90 0 105
163 -20 64 944 90 53 0
164 20 2306 3186 90 0 444
165 40 779 1659 90 0 429
166 10 1476 2356 90 0 307
167 30 2188 3068 90 0 527
168 -20 2661 3541 90 486 0
169 -30 430 1310 90 328 0
170 20 120 1000 90 0 593
171 -20 1921 2801 90 309 0
172 -10 406 1286 90 405 0
173 -20 1566 2446 90 98 0
174 30 536 1416 90 0 90
175 20 2246 3126 90 0 445
176 10 1044 1924 0 0 602
177 30 548 1428 90 0 428
178 -20 2044 2924 90 204 0
179 20 434 1314 90 0 305
180 -10 2148 3028 90 302 0
181 10 1574 2454 90 0 421
182 -20 1287 2167 90 403 0
183 -10 105 985 90 594 0
184 -20 1863 2743 90 540 0
185 -10 647 1527 90 147 0
186 -10 1678 2558 90 558 0
187 -10 380 1260 90 449 0
188 10 1422 2302 0 0 605
189 20 77 957 90 0 370
190 -30 1980 2860 90 459 0
191 -40 2288 3168 90 424 0
192 -20 2588 3468 90 417 0
193 -20 530 1410 90 475 0
194 -40 2711 3591 90 324 0
195 -40 251 1131 90 211 0
196 40 113 993 90 0 382
197 20 787 1667 90 0 454
198 10 1444 2324 90 0 66
199 20 1189 2069 90 0 388
200 10 44 924 90 0 451
201 -20 100 980 90 210 0
202 -10 1500 2380 90 544 0
203 10 1594 2474 90 0 243
204 20 22 902 90 0 178
205 -20 664 1544 90 19 0
206 10 314 1194 90 0 261
207 -40 1962 2842 90 293 0
208 20 62 942 90 0 296
209 10 80 960 90 0 107
210 20 66 946 90 0 201
211 40 66 946 90 0 195
212 30 1199 2079 90 0 531
213 30 77 957 90 0 458
214 10 1328 2208 90 0 240
215 30 2116 2996 90 0 552
216 30 1135 2015 90 0 104
217 -10 2432 3312 90 341 0
218 -10 1245 2125 90 14 0
219 30 1391 2271 90 0 452
220 -20 2124 3004 90 392 0
221 20 613 1493 90 0 546
222 10 473 1353 90 0 16
223 10 116 996 90 0 73
224 30 61 941 90 0 317
225 -10 2566 3446 90 124 0
226 -30 1382 2262 90 576 0
227 -20 222 1102 90 284 0
228 -20 1194 2074 90 528 0
229 10 2755 3635 90 0 476
230 30 402 1282 90 0 346
231 20 850 1730 90 0 600
232 -30 1984 2864 90 485 0
233 30 1861 2741 90 0 5
234 -10 1392 2272 90 560 0
235 -20 2080 2960 90 156 0
236 -40 2406 3286 90 315 0
237 -10 2224 3104 90 358 0
238 30 1008 1888 90 0 103
239 30 2531 3411 90 0 119
240 -10 2601 3481 90 214 0
241 20 138 1018 90 0 4
242 -20 1668 2548 90 161 0
243 -10 2073 2953 90 203 0
244 40 153 1033 90 0 599
245 -30 2059 2939 90 442 0
246 30 1013 1893 90 0 142
247 10 1288 2168 90 0 589
248 -20 2738 3618 90 526 0
249 20 758 1638 90 0 387
250 -20 893 1773 90 426 0
251 10 626 1506 90 0 572
252 20 165 1045 90 0 159
253 20 506 1386 90 0 3
254 10 86 966 90 0 141
255 -10 2335 3215 90 598 0
256 20 573 1453 90 0 321
257 -20 1923 2803 90 582 0
258 -10 1197 2077 90 501 0
259 -20 1076 1956 90 595 0
260 -40 725 1605 90 291 0
261 -10 503 1383 90 206 0
262 30 61 941 90 0 280
263 20 1831 2711 90 0 510
264 -30 2168 3048 90 588 0
265 -20 2463 3343 90 566 0
266 20 883 1763 90 0 154
267 40 925 1805 0 0 607
268 30 821 1701 90 0 446
269 -30 1669 2549 90 559 0
270 20 664 1544 90 0 290
271 -10 2293 3173 90 153 0
272 -20 416 1296 90 38 0
273 -40 153 1033 90 383 0
274 10 939 1819 90 0 386
275 10 607 1487 90 0 48
276 -40 1671 2551 90 563 0
277 -20 1800 2680 90 79 0
278 -10 1782 2662 90 62 0
279 10 1509 2389 90 0 131
280 -30 2315 3195 90 262 0
281 20 24 904 90 0 118
282 30 107 987 90 0 78
283 30 94 974 90 0 411
284 20 130 1010 90 0 227
285 -20 1601 2481 90 462 0
286 -20 2455 3335 90 415 0
287 -20 2223 3103 90 521 0
288 10 384 1264 90 0 8
289 -10 801 1681 90 311 0
290 -20 1440 2320 90 270 0
291 40 529 1409 90 0 260
292 20 983 1863 90 0 404
293 40 1577 2457 90 0 207
294 20 653 1533 90 0 397
295 -10 1399 2279 90 95 0
296 -20 62 942 90 208 0
297 20 155 1035 90 0 157
298 20 1517 2397 90 0 318
299 -10 1488 2368 90 28 0
300 20 895 1775 0 0 604
301 20 2082 2962 90 0 366
302 10 109 989 90 0 180
303 10 1806 2686 0 0 608
304 -10 1765 2645 90 36 0
305 -20 921 1801 90 179 0
306 20 2136 3016 90 0 493
307 -10 1767 2647 90 166 0
308 -30 2790 3670 90 389 0
309 20 1138 2018 90 0 171
310 -30 387 1267 90 117 0
311 10 1001 1881 90 0 289
312 20 1502 2382 90 0 63
313 20 117 997 90 0 374
314 20 205 1085 90 0 573
315 40 1715 2595 90 0 236
316 -10 1426 2306 90 322 0
317 -30 607 1487 90 224 0
318 -20 2410 3290 90 298 0
319 -10 1149 2029 90 333 0
320 30 1333 2213 90 0 30
321 -20 664 1544 90 256 0
322 10 251 1131 90 0 316
323 -30 2694 3574 90 399 0
324 40 531 1411 90 0 194
325 -10 2524 3404 90 151 0
326 10 2693 3573 90 0 128
327 20 1581 2461 90 0 67
328 30 97 977 90 0 169
329 30 2736 3616 90 0 545
330 -10 1291 2171 90 410 0
331 20 1829 2709 90 0 337
332 -10 42 922 90 470 0
333 10 186 1066 90 0 319
334 10 106 986 90 0 116
335 10 2271 3151 90 0 139
336 -10 1134 2014 90 385 0
337 -20 2413 3293 90 331 0
338 20 691 1571 90 0 596
339 20 1289 2169 90 0 467
340 -30 2782 3662 90 357 0
341 10 121 1001 90 0 217
342 -20 2508 3388 90 349 0
343 10 944 1824 90 0 457
344 -10 2748 3628 90 420 0
345 30 2021 2901 90 0 414
346 -30 1293 2173 90 230 0
347 -20 395 1275 90 52 0
348 10 67 947 90 0 122
349 20 1836 2716 90 0 342
350 -30 2312 3192 90 513 0
351 -10 1916 2796 90 569 0
352 -30 1075 1955 90 518 0
353 20 68 948 90 0 460
354 -30 2217 3097 90 69 0
355 -20 2453 3333 90 54 0
356 -30 1734 2614 90 368 0
357 30 1000 1880 90 0 340
358 10 233 1113 90 0 237
359 -10 440 1320 90 133 0
360 20 1815 2695 90 0 17
361 -40 2482 3362 90 140 0
362 -20 912 1792 90 407 0
363 20 83 963 90 0 553
364 -10 2743 3623 90 24 0
365 -20 1897 2777 90 120 0
366 -20 2725 3605 90 301 0
367 10 129 1009 90 0 587
368 30 1234 2114 90 0 356
369 -10 2357 3237 90 508 0
370 -20 1096 1976 90 189 0
371 -20 1411 2291 90 441 0
372 -20 1394 2274 90 437 0
373 -20 2695 3575 90 547 0
374 -20 1959 2839 90 313 0
375 -40 1594 2474 90 93 0
376 10 758 1638 90 0 33
377 20 96 976 90 0 29
378 -10 2723 3603 90 68 0
379 -20 2029 2909 90 406 0
380 -20 2276 3156 90 34 0
381 20 2052 2932 90 0 132
382 -40 340 1220 90 196 0
383 40 150 1030 90 0 273
384 -30 91 971 90 534 0
385 10 283 1163 90 0 336
386 -10 1437 2317 90 274 0
387 -20 1540 2420 90 249 0
388 -20 1390 2270 90 199 0
389 30 2516 3396 90 0 308
390 20 1111 1991 90 0 503
391 10 2399 3279 90 0 530
392 20 2211 3091 90 0 220
393 20 2233 3113 0 0 609
394 -10 1669 2549 90 100 0
395 10 192 1072 90 0 456
396 20 1477 2357 90 0 492
397 -20 2486 3366 90 294 0
398 10 465 1345 90 0 75
399 30 2000 2880 90 0 323
400 -10 154 1034 90 591 0
401 -10 2754 3634 90 55 0
402 30 1228 2108 90 0 85
403 20 581 1461 90 0 182
404 -20 2160 3040 90 292 0
405 10 96 976 90 0 172
406 20 1245 2125 90 0 379
407 20 145 1025 90 0 362
408 -10 1905 2785 90 41 0
409 -10 2648 3528 90 423 0
410 10 102 982 90 0 330
411 -30 1019 1899 90 283 0
412 -10 684 1564 90 32 0
413 -10 82 962 90 64 0
414 -30 1955 2835 90 345 0
415 20 223 1103 90 0 286
416 20 2220 3100 90 0 46
417 20 2234 3114 90 0 192
418 20 1864 2744 90 0 541
419 -10 359 1239 90 81 0
420 10 1721 2601 90 0 344
421 -10 1859 2739 90 181 0
422 -30 1890 2770 90 478 0
423 10 2554 3434 90 0 409
424 40 842 1722 90 0 191
425 30 2031 2911 90 0 496
426 20 357 1237 90 0 250
427 -20 130 1010 90 512 0
428 -30 840 1720 90 177 0
429 -40 878 1758 90 165 0
430 -30 1869 2749 90 7 0
431 10 116 996 90 0 537
432 10 129 1009 90 0 61
433 -20 119 999 90 592 0
434 -20 1037 1917 90 83 0
435 20 698 1578 90 0 110
436 -20 1486 2366 90 129 0
437 20 111 991 90 0 372
438 -20 2692 3572 90 145 0
439 10 1624 2504 90 0 148
440 -10 1192 2072 90 80 0
441 20 719 1599 90 0 371
442 30 366 1246 90 0 245
443 10 1792 2672 90 0 480
444 -20 1907 2787 90 164 0
445 -20 2496 3376 90 175 0
446 -30 1546 2426 90 268 0
447 -10 2578 3458 90 450 0
448 20 130 1010 90 0 536
449 10 352 1232 90 0 187
450 10 831 1711 90 0 447
451 -10 901 1781 90 200 0
452 -30 1579 2459 90 219 0
453 -20 702 1582 90 542 0
454 -20 2068 2948 90 197 0
455 20 942 1822 90 0 597
456 -10 483 1363 90 395 0
457 -10 1040 1920 90 343 0
458 -30 2484 3364 90 213 0
459 30 1878 2758 90 0 190
460 -20 480 1360 90 353 0
461 20 1609 2489 90 0 479
462 20 109 989 90 0 285
463 -30 779 1659 90 524 0
464 -20 2149 3029 90 49 0
465 30 95 975 90 0 21
466 -10 2600 3480 90 561 0
467 -20 1769 2649 90 339 0
468 20 366 1246 90 0 517
469 -20 2579 3459 90 31 0
470 10 20 900 90 0 332
471 -20 552 1432 90 6 0
472 20 223 1103 90 0 575
473 10 111 991 90 0 13
474 -10 978 1858 90 490 0
475 20 71 951 90 0 193
476 -10 2383 3263 90 229 0
477 20 1637 2517 90 0 72
478 30 1694 2574 90 0 422
479 -20 2590 3470 90 461 0
480 -10 2178 3058 90 443 0
481 20 1107 1987 90 0 51
482 -30 2459 3339 90 12 0
483 -20 911 1791 90 25 0
484 -30 1172 2052 90 112 0
485 30 1493 2373 90 0 232
486 20 1961 2841 90 0 168
487 -30 1581 2461 90 498 0
488 -30 1387 2267 90 505 0
489 10 560 1440 90 0 511
490 10 138 1018 90 0 474
491 -20 1341 2221 90 535 0
492 -20 2544 3424 90 396 0
493 -20 2432 3312 90 306 0
494 20 83 963 90 0 44
495 10 343 1223 90 0 567
496 -30 2509 3389 90 425 0
497 10 107 987 90 0 82
498 30 2014 2894 90 0 487
499 30 885 1765 90 0 538
500 20 480 1360 90 0 92
501 10 130 1010 90 0 258
502 -10 809 1689 90 136 0
503 -20 1205 2085 90 390 0
504 -40 1888 2768 90 74 0
505 30 302 1182 90 0 488
506 -20 1318 2198 90 533 0
507 10 268 1148 90 0 565
508 10 119 999 90 0 369
509 20 2164 3044 90 0 160
510 -20 2409 3289 90 263 0
511 -10 790 1670 90 489 0
512 20 128 1008 90 0 427
513 30 1918 2798 90 0 350
514 -10 1794 2674 90 106 0
515 -10 2785 3665 90 583 0
516 10 2349 3229 90 0 23
517 -20 2451 3331 90 468 0
518 30 82 962 90 0 352
519 -20 331 1211 90 20 0
520 30 1235 2115 90 0 586
521 20 800 1680 90 0 287
522 30 199 1079 90 0 58
523 20 174 1054 90 0 539
524 30 490 1370 90 0 463
525 10 719 1599 90 0 91
526 20 994 1874 90 0 248
527 -30 2799 3679 90 167 0
528 20 1084 1964 90 0 228
529 -30 1088 1968 90 548 0
530 -10 2495 3375 90 391 0
531 -30 2297 3177 90 212 0
532 30 1344 2224 90 0 562
533 20 242 1122 90 0 506
534 30 318 1198 90 0 384
535 20 634 1514 90 0 491
536 -20 2638 3518 90 448 0
537 -10 370 1250 90 431 0
538 -30 985 1865 90 499 0
539 -20 1027 1907 90 523 0
540 20 673 1553 90 0 184
541 -20 2337 3217 90 418 0
542 20 62 942 90 0 453
543 30 22 902 90 0 108
544 10 1309 2189 90 0 202
545 -30 2769 3649 90 329 0
546 -20 2681 3561 90 221 0
547 20 2322 3202 90 0 373
548 30 150 1030 90 0 529
549 -20 815 1695 90 143 0
550 10 1118 1998 90 0 9
551 -30 105 985 90 152 0
552 -30 2305 3185 90 215 0
553 -20 1702 2582 90 363 0
554 -10 80 960 90 111 0
555 20 117 997 90 0 135
556 10 587 1467 90 0 15
557 -10 2127 3007 90 125 0
558 10 1098 1978 90 0 186
559 30 223 1103 90 0 269
560 10 16 896 90 0 234
561 10 2132 3012 90 0 466
562 -30 1825 2705 90 532 0
563 40 273 1153 90 0 276
564 -20 127 1007 90 47 0
565 -10 2736 3616 90 507 0
566 20 2390 3270 90 0 265
567 -10 624 1504 90 495 0
568 20 2195 3075 90 0 76
569 10 1825 2705 90 0 351
570 -20 2548 3428 90 121 0
571 20 904 1784 90 0 579
572 -10 2606 3486 90 251 0
573 -20 1099 1979 90 314 0
574 20 81 961 90 0 37
575 -20 1307 2187 90 472 0
576 30 1180 2060 90 0 226
577 30 1211 2091 0 0 603
578 -20 1577 2457 90 18 0
579 -20 1684 2564 90 571 0
580 -20 2097 2977 90 155 0
581 -20 1989 2869 90 138 0
582 20 1639 2519 90 0 257
583 10 1730 2610 90 0 515
584 -10 1645 2525 90 88 0
585 -20 2713 3593 90 102 0
586 -30 1709 2589 90 520 0
587 -10 548 1428 90 367 0
588 30 1473 2353 90 0 264
589 -10 1184 2064 90 247 0
590 -20 2021 2901 90 35 0
591 10 108 988 90 0 400
592 20 109 989 90 0 433
593 -20 1422 2302 90 170 0
594 10 104 984 90 0 183
595 20 68 948 90 0 259
596 -20 1766 2646 90 338 0
597 -20 2645 3525 90 455 0
598 10 1240 2120 90 0 255
599 -40 444 1324 90 244 0
600 -20 982 1862 90 231 0
601 10 1742 2622 90 0 77
602 -10 1044 1924 90 176 0
603 -30 1211 2091 90 577 0
604 -20 895 1775 90 300 0
605 -10 1422 2302 90 188 0
606 -20 1131 2011 90 60 0
607 -40 925 1805 90 267 0
608 -10 1806 2686 90 303 0
609 -20 2233 3113 90 393 0
DEPOT_SECTION
1
-1
EOF
