NAME: lc2_6_4
TYPE: PDPTW
COMMENT: Li & Lim PDPTW benchmark converted from SINTEF format
DIMENSION: 613
VEHICLES: 150
CAPACITY: 700
EDGE_WEIGHT_TYPE: EUC_2D
NODE_COORD_SECTION
1 150 150
2 248 45
3 227 221
4 122 246
5 165 85
6 253 198
7 55 126
8 131 70
9 58 230
10 243 35
11 97 45
12 30 28
13 108 27
14 279 44
15 97 40
16 18 52
17 226 232
18 272 21
19 64 30
20 141 231
21 68 211
22 50 104
23 182 178
24 66 211
25 83 219
26 141 210
27 173 87
28 260 180
29 165 187
30 117 262
31 91 49
32 176 82
33 41 46
34 182 233
35 239 181
36 177 114
37 34 135
38 140 231
39 142 82
40 102 51
41 238 62
42 261 39
43 6 146
44 244 235
45 125 23
46 135 23
47 92 52
48 136 272
49 262 257
50 75 28
51 123 63
52 224 155
53 170 116
54 179 62
55 154 257
56 240 38
57 83 105
58 207 201
59 28 122
60 25 150
61 262 32
62 67 237
63 34 50
64 186 196
65 252 60
66 97 10
67 239 262
68 71 102
69 101 29
70 103 35
71 139 244
72 231 170
73 84 114
74 74 109
75 222 160
76 38 163
77 125 9
78 237 203
79 17 134
80 203 200
81 19 137
82 263 248
83 29 137
84 80 255
85 53 145
86 190 157
87 171 58
88 125 39
89 0 169
90 252 37
91 65 233
92 287 246
93 192 251
94 143 6
95 151 228
96 173 180
97 271 34
98 62 132
99 214 210
100 276 38
101 60 143
102 49 57
103 138 17
104 281 187
105 264 250
106 193 250
107 225 213
108 173 144
109 160 111
110 135 270
111 108 103
112 78 128
113 263 195
114 233 160
115 52 59
116 134 279
117 207 183
118 264 64
119 153 144
120 17 152
121 270 178
122 86 100
123 49 56
124 39 129
125 116 21
126 28 52
127 254 157
128 163 114
129 141 55
130 167 110
131 141 33
132 241 276
133 152 245
134 266 172
135 68 57
136 91 104
137 299 177
138 75 89
139 53 57
140 182 236
141 168 287
142 71 222
143 87 237
144 9 136
145 233 228
146 48 36
147 264 181
148 227 32
149 57 232
150 23 144
151 275 31
152 206 171
153 42 147
154 56 117
155 15 138
156 56 43
157 226 56
158 248 48
159 37 63
160 62 221
161 189 138
162 203 217
163 170 89
164 258 169
165 201 154
166 183 140
167 86 133
168 71 159
169 74 248
170 32 128
171 245 233
172 227 211
173 47 141
174 255 64
175 264 42
176 266 28
177 6 139
178 172 146
179 99 32
180 272 41
181 176 136
182 256 15
183 87 234
184 246 254
185 255 187
186 244 251
187 290 49
188 234 216
189 207 203
190 81 223
191 234 38
192 221 203
193 69 239
194 150 16
195 100 34
196 130 38
197 62 122
198 96 6
199 263 12
200 180 183
201 212 190
202 61 232
203 64 234
204 171 143
205 49 46
206 64 134
207 168 49
208 153 88
209 199 214
210 204 189
211 160 84
212 90 86
213 87 105
214 236 213
215 239 201
216 274 195
217 264 39
218 258 44
219 87 96
220 230 182
221 63 89
222 57 40
223 70 66
224 196 191
225 68 164
226 182 144
227 223 213
228 13 51
229 189 232
230 59 110
231 193 175
232 180 231
233 160 56
234 161 62
235 44 51
236 122 5
237 131 261
238 101 31
239 162 141
240 231 235
241 167 256
242 177 132
243 78 223
244 236 65
245 169 56
246 42 240
247 153 74
248 220 231
249 192 176
250 223 177
251 115 25
252 62 44
253 218 208
254 143 236
255 162 157
256 197 178
257 272 185
258 269 257
259 184 163
260 83 35
261 56 132
262 193 194
263 273 184
264 52 153
265 65 152
266 57 119
267 185 241
268 78 39
269 37 149
270 196 129
271 26 161
272 142 242
273 266 49
274 268 43
275 144 250
276 153 64
277 3 159
278 72 234
279 96 17
280 237 222
281 169 134
282 242 205
283 160 244
284 221 213
285 34 55
286 65 217
287 236 224
288 173 73
289 139 262
290 196 158
291 97 28
292 135 65
293 156 63
294 20 146
295 171 253
296 157 88
297 268 49
298 229 217
299 239 177
300 141 266
301 71 126
302 225 70
303 249 44
304 155 60
305 76 30
306 172 148
307 176 140
308 191 188
309 238 203
310 202 178
311 153 256
312 31 63
313 228 62
314 73 104
315 115 2
316 284 184
317 218 197
318 233 224
319 256 38
320 146 270
321 196 178
322 265 211
323 214 51
324 111 22
325 266 37
326 257 41
327 250 247
328 85 222
329 214 239
330 233 189
331 116 272
332 143 108
333 278 42
334 163 256
335 40 60
336 191 168
337 137 255
338 57 126
339 267 255
340 109 126
341 230 59
342 133 1
343 197 174
344 133 246
345 247 243
346 92 90
347 220 171
348 96 110
349 116 18
350 110 47
351 209 173
352 47 118
353 209 184
354 114 43
355 170 69
356 278 179
357 86 83
358 166 261
359 184 267
360 251 219
361 169 221
362 106 34
363 67 142
364 78 213
365 0 166
366 52 80
367 152 247
368 283 195
369 242 263
370 222 196
371 92 23
372 13 66
373 132 248
374 271 32
375 178 240
376 45 44
377 162 246
378 50 80
379 126 20
380 193 224
381 244 260
382 122 24
383 261 49
384 153 241
385 208 191
386 252 50
387 195 168
388 268 19
389 238 170
390 182 245
391 228 200
392 263 169
393 174 155
394 270 25
395 175 84
396 261 255
397 23 163
398 178 127
399 245 42
400 259 212
401 115 235
402 18 151
403 284 30
404 179 59
405 217 219
406 96 13
407 116 34
408 241 46
409 165 83
410 246 187
411 184 245
412 149 82
413 207 209
414 248 255
415 79 238
416 124 10
417 225 201
418 266 33
419 12 133
420 134 273
421 175 142
422 180 227
423 164 79
424 261 45
425 125 253
426 256 197
427 22 126
428 24 141
429 192 152
430 43 153
431 74 62
432 236 53
433 116 35
434 28 147
435 143 250
436 157 62
437 89 57
438 231 236
439 247 46
440 225 191
441 114 27
442 178 118
443 31 48
444 255 178
445 225 51
446 104 15
447 163 223
448 245 240
449 252 62
450 188 244
451 227 187
452 89 102
453 216 192
454 58 161
455 264 194
456 165 69
457 191 172
458 87 112
459 78 234
460 199 179
461 3 149
462 99 53
463 276 22
464 250 264
465 83 218
466 132 253
467 243 252
468 258 213
469 92 114
470 149 130
471 251 186
472 149 244
473 129 41
474 295 254
475 95 104
476 178 218
477 202 169
478 168 237
479 37 165
480 39 57
481 77 25
482 41 63
483 53 243
484 42 123
485 172 249
486 43 155
487 239 174
488 239 188
489 182 130
490 259 235
491 252 44
492 235 260
493 163 150
494 196 194
495 98 33
496 131 254
497 232 220
498 215 168
499 292 18
500 262 237
501 250 234
502 75 85
503 178 247
504 59 124
505 219 174
506 89 24
507 252 218
508 238 231
509 78 222
510 251 180
511 226 164
512 66 139
513 105 21
514 176 232
515 196 190
516 210 181
517 198 182
518 70 131
519 165 269
520 236 210
521 222 197
522 220 187
523 251 222
524 285 30
525 61 237
526 229 186
527 108 131
528 3 34
529 273 18
530 223 204
531 87 114
532 87 10
533 122 32
534 150 240
535 259 71
536 231 260
537 53 28
538 284 12
539 259 202
540 264 249
541 263 43
542 196 192
543 171 141
544 53 225
545 191 215
546 99 124
547 137 256
548 262 50
549 59 243
550 57 235
551 245 197
552 232 199
553 1 152
554 78 114
555 76 59
556 154 78
557 124 13
558 267 265
559 63 135
560 158 136
561 132 262
562 104 18
563 176 117
564 73 49
565 185 180
566 26 168
567 92 28
568 20 155
569 208 174
570 192 185
571 80 84
572 141 3
573 93 77
574 70 133
575 170 255
576 191 151
577 77 11
578 270 23
579 76 110
580 14 160
581 70 128
582 283 180
583 204 171
584 111 10
585 56 57
586 235 219
587 195 253
588 50 139
589 145 63
590 243 199
591 241 209
592 123 44
593 7 144
594 86 232
595 205 191
596 30 150
597 186 181
598 177 160
599 253 64
600 187 165
601 117 14
602 270 25
603 24 141
604 274 195
605 141 55
606 140 231
607 43 155
608 180 231
609 158 136
610 184 163
611 135 65
612 173 180
613 178 118
PICKUP_AND_DELIVERY_SECTION
1 0 0 3815 0 0 0
2 -10 0 3582 90 333 0
3 10 0 3621 90 0 497
4 -10 0 3625 90 450 0
5 -40 0 3659 90 211 0
6 20 0 3612 90 0 257
7 30 0 3628 90 0 588
8 -20 1247 1407 90 39 0
9 10 0 3604 90 0 62
10 -40 0 3578 90 244 0
11 -10 0 3608 90 279 0
12 30 0 3554 90 0 480
13 -10 0 3596 90 51 0
14 10 638 798 90 0 599
15 20 514 674 90 0 103
16 20 0 3561 90 0 335
17 20 0 3614 90 0 171
18 20 0 3548 90 0 182
19 20 629 789 90 0 139
20 -10 0 3644 90 254 0
21 -10 0 3623 90 24 0
22 -30 0 3615 90 154 0
23 -20 0 3683 90 570 0
24 10 0 3622 90 0 21
25 20 106 266 90 0 509
26 20 60 220 90 0 95
27 -20 0 3658 90 208 0
28 10 0 3611 90 0 263
29 -10 3390 3550 90 55 0
30 -10 2289 2449 90 237 0
31 20 0 3609 90 0 371
32 -20 0 3653 90 87 0
33 -10 2344 2504 90 376 0
34 -10 0 3637 90 384 0
35 20 94 254 90 0 147
36 10 0 3680 90 0 180
37 20 0 3609 90 0 168
38 20 0 3644 0 0 606
39 20 0 3657 90 0 8
40 -20 0 3615 90 195 0
41 -30 0 3601 90 386 0
42 -10 2980 3140 90 538 0
43 20 0 3581 90 0 553
44 10 0 3599 90 0 172
45 10 2296 2456 90 0 379
46 10 3361 3521 90 0 131
47 20 320 480 90 0 70
48 30 0 3603 90 0 447
49 20 0 3571 90 0 105
50 -20 0 3582 90 406 0
51 10 0 3634 90 0 13
52 -20 0 3651 90 249 0
53 -20 0 3686 90 355 0
54 20 0 3633 90 0 281
55 10 0 3618 90 0 29
56 10 0 3582 90 0 148
57 -10 0 3645 90 68 0
58 -30 3149 3309 90 368 0
59 30 237 397 90 0 301
60 20 0 3600 90 0 479
61 10 0 3563 90 0 90
62 -10 0 3605 90 9 0
63 20 0 3572 90 0 159
64 10 69 229 90 0 227
65 20 0 3589 90 0 158
66 -20 1966 2126 90 533 0
67 20 0 3582 90 0 162
68 10 658 818 90 0 57
69 30 0 3595 90 0 362
70 -20 0 3601 90 47 0
71 20 0 3631 90 0 272
72 10 0 3642 90 0 515
73 10 2750 2910 90 0 527
74 -20 2136 2296 90 502 0
75 20 856 1016 90 0 256
76 30 0 3613 90 0 112
77 -10 2671 2831 90 125 0
78 -10 0 3624 90 322 0
79 20 0 3592 90 0 120
80 -20 0 3653 90 494 0
81 -20 0 3594 90 434 0
82 -20 0 3576 90 595 0
83 20 0 3604 90 0 566
84 -20 0 3599 90 202 0
85 20 0 3628 90 0 264
86 10 0 3685 90 0 152
87 20 0 3631 90 0 32
88 10 0 3612 90 0 194
89 20 0 3574 90 0 225
90 -10 3171 3331 90 61 0
91 20 0 3607 90 0 203
92 -20 0 3558 90 396 0
93 -10 0 3616 90 229 0
94 20 0 3581 90 0 223
95 -20 78 238 90 26 0
96 30 3289 3449 0 0 612
97 -20 0 3558 90 319 0
98 -20 0 3636 90 352 0
99 -30 0 3638 90 520 0
100 -10 0 3557 90 432 0
101 -10 0 3635 90 265 0
102 20 0 3588 90 0 585
103 -20 0 3592 90 15 0
104 40 1692 1852 90 0 455
105 -20 0 3574 90 49 0
106 10 0 3617 90 0 390
107 10 0 3628 90 0 240
108 20 0 3702 90 0 119
109 -30 3312 3472 90 357 0
110 -10 1886 2046 90 420 0
111 10 0 3662 90 0 222
112 -30 0 3650 90 76 0
113 30 0 3604 90 0 287
114 -30 0 3642 90 505 0
115 -20 3292 3452 90 126 0
116 30 0 3596 90 0 478
117 30 82 242 90 0 516
118 20 1093 1253 90 0 174
119 -20 2991 3151 90 108 0
120 -20 0 3592 90 79 0
121 20 0 3602 90 0 308
122 20 0 3644 90 0 579
123 -10 0 3588 90 146 0
124 10 0 3613 90 0 518
125 10 796 956 90 0 77
126 20 2057 2217 90 0 115
127 -10 0 3621 90 400 0
128 -10 0 3687 90 332 0
129 20 0 3630 0 0 605
130 -10 0 3682 90 163 0
131 -10 0 3608 90 46 0
132 20 0 3570 90 0 255
133 10 0 3630 90 0 472
134 20 0 3607 90 0 410
135 -20 0 3602 90 252 0
136 10 277 437 90 0 584
137 20 0 3574 90 0 598
138 20 1075 1235 90 0 219
139 -20 3200 3360 90 19 0
140 40 2530 2690 90 0 514
141 -40 0 3587 90 267 0
142 -30 2621 2781 90 246 0
143 20 0 3618 90 0 550
144 10 0 3584 90 0 294
145 20 0 3612 90 0 440
146 10 0 3573 90 0 123
147 -20 0 3607 90 35 0
148 -10 0 3585 90 56 0
149 40 0 3602 90 0 544
150 10 0 3598 90 0 365
151 10 0 3553 90 0 418
152 -10 0 3666 90 86 0
153 10 108 268 90 0 170
154 30 0 3626 90 0 22
155 -30 0 3590 90 177 0
156 20 926 1086 90 0 205
157 20 0 3605 90 0 535
158 -20 0 3584 90 65 0
159 -20 2725 2885 90 63 0
160 30 2720 2880 90 0 286
161 -10 0 3685 90 398 0
162 -20 0 3640 90 67 0
163 10 0 3661 90 0 130
164 -20 0 3616 90 299 0
165 -30 1139 1299 90 498 0
166 10 0 3691 90 0 307
167 30 0 3659 90 0 573
168 -20 0 3646 90 37 0
169 -20 0 3601 90 483 0
170 -10 0 3605 90 153 0
171 -20 0 3599 90 17 0
172 -10 0 3627 90 44 0
173 -20 0 3622 90 484 0
174 -20 0 3590 90 118 0
175 -10 0 3568 90 323 0
176 -20 0 3557 90 529 0
177 30 908 1068 90 0 155
178 10 0 3703 90 0 306
179 -20 0 3597 90 437 0
180 -10 2508 2668 90 36 0
181 10 0 3696 90 0 226
182 -20 0 3554 90 18 0
183 -10 392 552 90 594 0
184 -40 0 3584 90 474 0
185 30 1007 1167 90 0 215
186 20 0 3588 90 0 467
187 -10 0 3553 90 439 0
188 -20 1782 1942 90 316 0
189 20 0 3648 90 0 448
190 -30 2340 2500 90 328 0
191 -10 0 3585 90 273 0
192 -10 0 3637 90 438 0
193 10 0 3605 90 0 459
194 -10 3162 3322 90 88 0
195 20 611 771 90 0 40
196 -10 0 3612 90 562 0
197 20 0 3633 90 0 213
198 10 1804 1964 90 0 416
199 -20 0 3547 90 325 0
200 10 44 204 90 0 451
201 -10 0 3652 90 501 0
202 20 0 3604 90 0 84
203 -20 0 3605 90 91 0
204 20 0 3703 90 0 489
205 -20 0 3581 90 156 0
206 10 0 3638 90 0 574
207 -20 2322 2482 90 412 0
208 20 0 3663 90 0 27
209 -10 0 3645 90 369 0
210 20 0 3659 90 0 523
211 40 264 424 90 0 5
212 -20 0 3638 90 571 0
213 -20 0 3648 90 197 0
214 10 0 3619 90 0 586
215 -30 0 3623 90 185 0
216 30 0 3594 0 0 604
217 -30 0 3566 90 499 0
218 -10 0 3574 90 449 0
219 -20 0 3643 90 138 0
220 -40 0 3639 90 539 0
221 20 0 3619 90 0 346
222 -10 0 3581 90 111 0
223 -20 0 3609 90 94 0
224 -20 0 3664 90 582 0
225 -20 2926 3086 90 89 0
226 -10 1742 1902 90 181 0
227 -10 0 3629 90 64 0
228 -30 0 3556 90 268 0
229 10 0 3635 90 0 93
230 -20 0 3626 90 266 0
231 -20 0 3676 90 530 0
232 30 2344 2504 0 0 608
233 -30 2221 2381 90 436 0
234 -10 0 3637 90 296 0
235 30 2440 2600 90 0 482
236 -10 0 3578 90 348 0
237 10 0 3613 90 0 30
238 -20 0 3597 90 567 0
239 30 0 3710 90 0 493
240 -10 0 3608 90 107 0
241 -30 0 3618 90 375 0
242 20 0 3693 90 0 421
243 -10 2433 2593 90 525 0
244 40 0 3605 90 0 10
245 -10 0 3630 90 423 0
246 30 0 3585 90 0 142
247 10 0 3649 90 0 589
248 -10 0 3618 90 464 0
249 20 0 3676 90 0 52
250 10 0 3648 90 0 336
251 10 0 3596 90 0 572
252 20 0 3588 90 0 135
253 -30 866 1026 90 262 0
254 10 0 3639 90 0 20
255 -20 0 3712 90 132 0
256 -20 0 3671 90 75 0
257 -20 0 3599 90 6 0
258 10 1557 1717 90 0 381
259 30 0 3689 0 0 610
260 20 1085 1245 90 0 506
261 30 863 1023 90 0 581
262 30 0 3664 90 0 253
263 -10 0 3598 90 28 0
264 -20 2528 2688 90 85 0
265 10 0 3640 90 0 101
266 20 0 3627 90 0 230
267 40 0 3628 90 0 141
268 30 0 3593 90 0 228
269 10 0 3612 90 0 593
270 -10 0 3675 90 326 0
271 -20 0 3601 90 568 0
272 -20 0 3633 90 71 0
273 10 0 3572 90 0 191
274 -20 0 3566 90 374 0
275 10 967 1127 90 0 377
276 10 2031 2191 90 0 456
277 -10 0 3578 90 596 0
278 10 0 3611 90 0 415
279 10 0 3582 90 0 11
280 20 2675 2835 90 0 318
281 -20 0 3701 90 54 0
282 30 312 472 90 0 392
283 -10 0 3631 90 311 0
284 20 0 3631 90 0 413
285 -20 0 3576 90 312 0
286 -30 0 3617 90 160 0
287 -30 2583 2743 90 113 0
288 -40 0 3645 90 293 0
289 -10 1161 1321 90 367 0
290 -30 1800 1960 90 576 0
291 -10 0 3592 90 446 0
292 20 0 3639 0 0 611
293 40 0 3638 90 0 288
294 -10 0 3595 90 144 0
295 10 1759 1919 90 0 561
296 10 0 3663 90 0 234
297 -40 0 3570 90 424 0
298 -20 0 3622 90 542 0
299 20 0 3632 90 0 164
300 20 0 3609 90 0 361
301 -30 0 3643 90 59 0
302 -30 0 3616 90 541 0
303 -20 2166 2326 90 491 0
304 -10 0 3635 90 470 0
305 20 0 3585 90 0 372
306 -10 0 3703 90 178 0
307 -10 2127 2287 90 166 0
308 -20 3350 3510 90 121 0
309 -10 1498 1658 90 391 0
310 -20 0 3666 90 477 0
311 10 0 3619 90 0 283
312 20 1862 2022 90 0 285
313 -10 0 3608 90 341 0
314 -10 565 725 90 554 0
315 40 0 3573 90 0 601
316 20 0 3587 90 0 188
317 10 0 3643 90 0 558
318 -20 2770 2930 90 280 0
319 20 1509 1669 90 0 97
320 30 0 3605 90 0 422
321 10 0 3672 90 0 517
322 10 0 3595 90 0 78
323 10 0 3608 90 0 175
324 -20 0 3592 90 382 0
325 20 0 3564 90 0 199
326 10 0 3573 90 0 270
327 -10 1941 2101 90 490 0
328 30 0 3628 90 0 190
329 -20 0 3616 90 540 0
330 -30 0 3634 90 488 0
331 20 0 3599 90 0 496
332 10 0 3683 90 0 128
333 10 546 706 90 0 2
334 -20 0 3619 90 519 0
335 -20 0 3583 90 16 0
336 -10 0 3681 90 250 0
337 -10 0 3620 90 358 0
338 -10 0 3629 90 504 0
339 -20 1649 1809 90 500 0
340 10 0 3678 90 0 592
341 10 0 3604 90 0 313
342 20 0 3576 90 0 532
343 10 1304 1464 90 0 569
344 -30 3147 3307 90 425 0
345 30 0 3591 90 0 457
346 -20 1653 1813 90 221 0
347 10 0 3652 90 0 511
348 10 0 3658 90 0 236
349 -20 2196 2356 90 441 0
350 -30 0 3615 90 513 0
351 -20 0 3662 90 353 0
352 20 0 3618 90 0 98
353 20 0 3657 90 0 351
354 -10 0 3613 90 495 0
355 20 0 3642 90 0 53
356 10 0 3594 90 0 393
357 30 0 3633 90 0 109
358 10 0 3613 90 0 337
359 10 800 960 90 0 503
360 20 0 3603 90 0 389
361 -20 2842 3002 90 300 0
362 -30 0 3601 90 69 0
363 -20 0 3642 90 427 0
364 20 0 3630 90 0 465
365 -10 0 3575 90 150 0
366 -20 0 3605 90 378 0
367 10 0 3628 90 0 289
368 30 0 3585 90 0 58
369 10 0 3580 90 0 209
370 -20 0 3640 90 417 0
371 -20 0 3586 90 31 0
372 -20 1754 1914 90 305 0
373 -10 0 3626 90 575 0
374 20 2319 2479 90 0 274
375 30 0 3631 90 0 241
376 10 1118 1278 90 0 33
377 -10 0 3629 90 275 0
378 20 0 3603 90 0 366
379 -10 2389 2549 90 45 0
380 40 0 3640 90 0 545
381 -10 2412 2572 90 258 0
382 20 700 860 90 0 324
383 40 0 3575 90 0 548
384 10 0 3634 90 0 34
385 10 0 3654 90 0 591
386 30 0 3583 90 0 41
387 20 0 3677 90 0 565
388 20 1750 1910 90 0 408
389 -20 0 3635 90 360 0
390 -10 0 3625 90 106 0
391 10 0 3633 90 0 309
392 -30 2571 2731 90 282 0
393 -10 0 3701 90 356 0
394 10 0 3552 0 0 602
395 -10 0 3655 90 404 0
396 20 0 3573 90 0 92
397 -30 0 3598 90 580 0
398 10 0 3689 90 0 161
399 30 0 3582 90 0 578
400 10 0 3600 90 0 127
401 20 0 3634 90 0 549
402 -20 0 3593 90 419 0
403 -30 0 3546 90 445 0
404 10 2520 2680 90 0 395
405 -40 0 3629 90 414 0
406 20 0 3578 90 0 50
407 -10 0 3605 90 433 0
408 -20 0 3587 90 388 0
409 30 0 3657 90 0 556
410 -20 0 3623 90 134 0
411 20 0 3625 90 0 547
412 20 1044 1204 90 0 207
413 -20 0 3643 90 284 0
414 40 2315 2475 90 0 405
415 -10 0 3612 90 278 0
416 -10 0 3583 90 198 0
417 20 2594 2754 90 0 370
418 -10 0 3561 90 151 0
419 20 0 3586 90 0 402
420 10 0 3601 90 0 110
421 -20 0 3699 90 242 0
422 -30 0 3643 90 320 0
423 10 0 3653 90 0 245
424 40 0 3573 90 0 297
425 30 2391 2551 90 0 344
426 20 717 877 90 0 551
427 20 334 494 90 0 363
428 20 1200 1360 0 0 603
429 30 0 3683 90 0 583
430 30 0 3618 90 0 469
431 10 132 292 90 0 564
432 10 0 3596 90 0 100
433 10 0 3606 90 0 407
434 20 0 3603 90 0 81
435 -30 0 3625 90 534 0
436 30 0 3637 90 0 233
437 20 0 3614 90 0 179
438 10 0 3607 90 0 192
439 10 1984 2144 90 0 187
440 -20 0 3640 90 145 0
441 20 1079 1239 90 0 349
442 30 0 3683 0 0 613
443 -10 2152 2312 90 537 0
444 -20 0 3617 90 487 0
445 30 0 3601 90 0 403
446 10 0 3583 90 0 291
447 -30 0 3651 90 48 0
448 -20 0 3595 90 189 0
449 10 712 872 90 0 218
450 10 0 3624 90 0 4
451 -10 0 3640 90 200 0
452 -20 0 3648 90 512 0
453 40 0 3647 90 0 507
454 -20 0 3633 90 461 0
455 -40 0 3603 90 104 0
456 -10 0 3643 90 276 0
457 -30 0 3679 90 345 0
458 -30 0 3652 90 559 0
459 -10 2238 2398 90 193 0
460 30 0 3669 90 0 597
461 20 0 3578 90 0 454
462 20 0 3616 90 0 473
463 20 0 3546 90 0 524
464 10 0 3574 90 0 248
465 -20 0 3630 90 364 0
466 -20 0 3621 90 476 0
467 -20 2129 2289 90 186 0
468 20 0 3600 90 0 590
469 -30 0 3657 90 430 0
470 10 0 3705 90 0 304
471 10 0 3618 90 0 526
472 -10 583 743 90 133 0
473 -20 0 3614 90 462 0
474 40 0 3547 90 0 184
475 20 0 3654 90 0 557
476 20 0 3652 90 0 466
477 20 0 3670 90 0 310
478 -30 0 3637 90 116 0
479 -20 2950 3110 90 60 0
480 -30 0 3581 90 12 0
481 -30 0 3581 90 577 0
482 -30 0 3586 90 235 0
483 20 1271 1431 90 0 169
484 20 0 3614 90 0 173
485 -10 0 3624 90 587 0
486 20 0 3618 0 0 607
487 20 1941 2101 90 0 444
488 30 0 3629 90 0 330
489 -20 0 3688 90 204 0
490 10 429 589 90 0 327
491 20 1701 1861 90 0 303
492 40 0 3586 90 0 536
493 -30 2792 2952 90 239 0
494 20 0 3662 90 0 80
495 10 703 863 90 0 354
496 -20 0 3620 90 331 0
497 -10 0 3618 90 3 0
498 30 0 3658 90 0 165
499 30 1245 1405 90 0 217
500 20 0 3584 90 0 339
501 10 0 3595 90 0 201
502 20 1169 1329 90 0 74
503 -10 0 3625 90 359 0
504 10 2248 2408 90 0 338
505 30 0 3652 90 0 114
506 -20 0 3586 90 260 0
507 -40 628 788 90 453 0
508 10 0 3606 90 0 521
509 -20 0 3624 90 25 0
510 -30 2769 2929 90 552 0
511 -10 0 3648 90 347 0
512 20 488 648 90 0 452
513 30 0 3589 90 0 350
514 -40 0 3639 90 140 0
515 -10 0 3665 90 72 0
516 -30 0 3658 90 117 0
517 -10 0 3668 90 321 0
518 -10 0 3643 90 124 0
519 20 0 3606 90 0 334
520 30 0 3621 90 0 99
521 -10 0 3640 90 508 0
522 30 0 3646 90 0 600
523 -20 0 3601 90 210 0
524 -20 850 1010 90 463 0
525 10 0 3601 90 0 243
526 -10 0 3639 90 471 0
527 -10 0 3679 90 73 0
528 -20 1444 1604 90 555 0
529 20 1448 1608 90 0 176
530 20 0 3635 90 0 231
531 10 2657 2817 90 0 546
532 -20 0 3572 90 342 0
533 20 602 762 90 0 66
534 30 0 3635 90 0 435
535 -20 0 3591 90 157 0
536 -40 0 3589 90 492 0
537 10 0 3570 90 0 443
538 10 0 3533 90 0 42
539 40 0 3605 90 0 220
540 20 0 3575 90 0 329
541 30 0 3570 90 0 302
542 20 351 511 90 0 298
543 30 0 3703 90 0 563
544 -40 0 3603 90 149 0
545 -40 0 3649 90 380 0
546 -10 0 3668 90 531 0
547 -20 2682 2842 90 411 0
548 -40 0 3575 90 383 0
549 -20 0 3595 90 401 0
550 -20 1478 1638 90 143 0
551 -20 0 3620 90 426 0
552 30 0 3630 90 0 510
553 -20 0 3576 90 43 0
554 10 0 3645 90 0 314
555 20 0 3608 90 0 528
556 -30 0 3653 90 409 0
557 -20 2487 2647 90 475 0
558 -10 0 3561 90 317 0
559 30 0 3637 90 0 458
560 10 0 3709 0 0 609
561 -10 0 3612 90 295 0
562 10 0 3586 90 0 196
563 -30 0 3683 90 543 0
564 -10 423 583 90 431 0
565 -20 0 3679 90 387 0
566 -20 0 3600 90 83 0
567 20 0 3590 90 0 238
568 20 0 3595 90 0 271
569 -10 2185 2345 90 343 0
570 20 2908 3068 90 0 23
571 20 1264 1424 90 0 212
572 -10 0 3578 90 251 0
573 -30 1459 1619 90 167 0
574 -10 0 3644 90 206 0
575 10 0 3619 90 0 373
576 30 1540 1700 90 0 290
577 30 0 3568 90 0 481
578 -30 0 3551 90 399 0
579 -20 0 3641 90 122 0
580 30 0 3589 90 0 397
581 -30 0 3643 90 261 0
582 20 0 3589 90 0 224
583 -30 0 3668 90 429 0
584 -10 2005 2165 90 136 0
585 -20 0 3593 90 102 0
586 -10 2069 2229 90 214 0
587 10 0 3613 90 0 485
588 -30 0 3625 90 7 0
589 -10 1544 1704 90 247 0
590 -20 0 3620 90 468 0
591 -10 406 566 90 385 0
592 -10 0 3616 90 340 0
593 -10 0 3582 90 269 0
594 10 0 3621 90 0 183
595 20 0 3657 90 0 82
596 10 0 3605 90 0 277
597 -30 3005 3165 90 460 0
598 -20 0 3697 90 137 0
599 -10 0 3591 90 14 0
600 -30 0 3686 90 522 0
601 -40 0 3586 90 315 0
602 -10 0 3552 90 394 0
603 -20 1200 1360 90 428 0
604 -30 0 3594 90 216 0
605 -20 0 3630 90 129 0
606 -20 0 3644 90 38 0
607 -20 0 3618 90 486 0
608 -30 2344 2504 90 232 0
609 -10 0 3709 90 560 0
610 -30 0 3689 90 259 0
611 -20 0 3639 90 292 0
612 -30 3289 3449 90 96 0
613 -30 0 3683 90 442 0
DEPOT_SECTION
1
-1
EOF
