NAME: lc2_6_5
TYPE: PDPTW
COMMENT: Li & Lim PDPTW benchmark converted from SINTEF format
DIMENSION: 609
VEHICLES: 150
CAPACITY: 700
EDGE_WEIGHT_TYPE: EUC_2D
NODE_COORD_SECTION
1 150 150
2 248 45
3 227 221
4 122 246
5 165 85
6 253 198
7 55 126
8 131 70
9 58 230
10 243 35
11 97 45
12 30 28
13 108 27
14 279 44
15 97 40
16 18 52
17 226 232
18 272 21
19 64 30
20 141 231
21 68 211
22 50 104
23 182 178
24 66 211
25 83 219
26 141 210
27 173 87
28 260 180
29 165 187
30 117 262
31 91 49
32 176 82
33 41 46
34 182 233
35 239 181
36 177 114
37 34 135
38 140 231
39 142 82
40 102 51
41 238 62
42 261 39
43 6 146
44 244 235
45 125 23
46 135 23
47 92 52
48 136 272
49 262 257
50 75 28
51 123 63
52 224 155
53 170 116
54 179 62
55 154 257
56 240 38
57 83 105
58 207 201
59 28 122
60 25 150
61 262 32
62 67 237
63 34 50
64 186 196
65 252 60
66 97 10
67 239 262
68 71 102
69 101 29
70 103 35
71 139 244
72 231 170
73 84 114
74 74 109
75 222 160
76 38 163
77 125 9
78 237 203
79 17 134
80 203 200
81 19 137
82 263 248
83 29 137
84 80 255
85 53 145
86 190 157
87 171 58
88 125 39
89 0 169
90 252 37
91 65 233
92 287 246
93 192 251
94 143 6
95 151 228
96 173 180
97 271 34
98 62 132
99 214 210
100 276 38
101 60 143
102 49 57
103 138 17
104 281 187
105 264 250
106 193 250
107 225 213
108 173 144
109 160 111
110 135 270
111 108 103
112 78 128
113 263 195
114 233 160
115 52 59
116 134 279
117 207 183
118 264 64
119 153 144
120 17 152
121 270 178
122 86 100
123 49 56
124 39 129
125 116 21
126 28 52
127 254 157
128 163 114
129 141 55
130 167 110
131 141 33
132 241 276
133 152 245
134 266 172
135 68 57
136 91 104
137 299 177
138 75 89
139 53 57
140 182 236
141 168 287
142 71 222
143 87 237
144 9 136
145 233 228
146 48 36
147 264 181
148 227 32
149 57 232
150 23 144
151 275 31
152 206 171
153 42 147
154 56 117
155 15 138
156 56 43
157 226 56
158 248 48
159 37 63
160 62 221
161 189 138
162 203 217
163 170 89
164 258 169
165 201 154
166 183 140
167 86 133
168 71 159
169 74 248
170 32 128
171 245 233
172 227 211
173 47 141
174 255 64
175 264 42
176 266 28
177 6 139
178 172 146
179 99 32
180 272 41
181 176 136
182 256 15
183 87 234
184 246 254
185 255 187
186 244 251
187 290 49
188 234 216
189 207 203
190 81 223
191 234 38
192 221 203
193 69 239
194 150 16
195 100 34
196 130 38
197 62 122
198 96 6
199 263 12
200 180 183
201 212 190
202 61 232
203 64 234
204 171 143
205 49 46
206 64 134
207 168 49
208 153 88
209 199 214
210 204 189
211 160 84
212 90 86
213 87 105
214 236 213
215 239 201
216 274 195
217 264 39
218 258 44
219 87 96
220 230 182
221 63 89
222 57 40
223 70 66
224 196 191
225 68 164
226 182 144
227 223 213
228 13 51
229 189 232
230 59 110
231 193 175
232 180 231
233 160 56
234 161 62
235 44 51
236 122 5
237 131 261
238 101 31
239 162 141
240 231 235
241 167 256
242 177 132
243 78 223
244 236 65
245 169 56
246 42 240
247 153 74
248 220 231
249 192 176
250 223 177
251 115 25
252 62 44
253 218 208
254 143 236
255 162 157
256 197 178
257 272 185
258 269 257
259 184 163
260 83 35
261 56 132
262 193 194
263 273 184
264 52 153
265 65 152
266 57 119
267 185 241
268 78 39
269 37 149
270 196 129
271 26 161
272 142 242
273 266 49
274 268 43
275 144 250
276 153 64
277 3 159
278 72 234
279 96 17
280 237 222
281 169 134
282 242 205
283 160 244
284 221 213
285 34 55
286 65 217
287 236 224
288 173 73
289 139 262
290 196 158
291 97 28
292 135 65
293 156 63
294 20 146
295 171 253
296 157 88
297 268 49
298 229 217
299 239 177
300 141 266
301 71 126
302 225 70
303 249 44
304 155 60
305 76 30
306 172 148
307 176 140
308 191 188
309 238 203
310 202 178
311 153 256
312 31 63
313 228 62
314 73 104
315 115 2
316 284 184
317 218 197
318 233 224
319 256 38
320 146 270
321 196 178
322 265 211
323 214 51
324 111 22
325 266 37
326 257 41
327 250 247
328 85 222
329 214 239
330 233 189
331 116 272
332 143 108
333 278 42
334 163 256
335 40 60
336 191 168
337 137 255
338 57 126
339 267 255
340 109 126
341 230 59
342 133 1
343 197 174
344 133 246
345 247 243
346 92 90
347 220 171
348 96 110
349 116 18
350 110 47
351 209 173
352 47 118
353 209 184
354 114 43
355 170 69
356 278 179
357 86 83
358 166 261
359 184 267
360 251 219
361 169 221
362 106 34
363 67 142
364 78 213
365 0 166
366 52 80
367 152 247
368 283 195
369 242 263
370 222 196
371 92 23
372 13 66
373 132 248
374 271 32
375 178 240
376 45 44
377 162 246
378 50 80
379 126 20
380 193 224
381 244 260
382 122 24
383 261 49
384 153 241
385 208 191
386 252 50
387 195 168
388 268 19
389 238 170
390 182 245
391 228 200
392 263 169
393 174 155
394 270 25
395 175 84
396 261 255
397 23 163
398 178 127
399 245 42
400 259 212
401 115 235
402 18 151
403 284 30
404 179 59
405 217 219
406 96 13
407 116 34
408 241 46
409 165 83
410 246 187
411 184 245
412 149 82
413 207 209
414 248 255
415 79 238
416 124 10
417 225 201
418 266 33
419 12 133
420 134 273
421 175 142
422 180 227
423 164 79
424 261 45
425 125 253
426 256 197
427 22 126
428 24 141
429 192 152
430 43 153
431 74 62
432 236 53
433 116 35
434 28 147
435 143 250
436 157 62
437 89 57
438 231 236
439 247 46
440 225 191
441 114 27
442 178 118
443 31 48
444 255 178
445 225 51
446 104 15
447 163 223
448 245 240
449 252 62
450 188 244
451 227 187
452 89 102
453 216 192
454 58 161
455 264 194
456 165 69
457 191 172
458 87 112
459 78 234
460 199 179
461 3 149
462 99 53
463 276 22
464 250 264
465 83 218
466 132 253
467 243 252
468 258 213
469 92 114
470 149 130
471 251 186
472 149 244
473 129 41
474 295 254
475 95 104
476 178 218
477 202 169
478 168 237
479 37 165
480 39 57
481 77 25
482 41 63
483 53 243
484 42 123
485 172 249
486 43 155
487 239 174
488 239 188
489 182 130
490 259 235
491 252 44
492 235 260
493 163 150
494 196 194
495 98 33
496 131 254
497 232 220
498 215 168
499 292 18
500 262 237
501 250 234
502 75 85
503 178 247
504 59 124
505 219 174
506 89 24
507 252 218
508 238 231
509 78 222
510 251 180
511 226 164
512 66 139
513 105 21
514 176 232
515 196 190
516 210 181
517 198 182
518 70 131
519 165 269
520 236 210
521 222 197
522 220 187
523 251 222
524 285 30
525 61 237
526 229 186
527 108 131
528 3 34
529 273 18
530 223 204
531 87 114
532 87 10
533 122 32
534 150 240
535 259 71
536 231 260
537 53 28
538 284 12
539 259 202
540 264 249
541 263 43
542 196 192
543 171 141
544 53 225
545 191 215
546 99 124
547 137 256
548 262 50
549 59 243
550 57 235
551 245 197
552 232 199
553 1 152
554 78 114
555 76 59
556 154 78
557 124 13
558 267 265
559 63 135
560 158 136
561 132 262
562 104 18
563 176 117
564 73 49
565 185 180
566 26 168
567 92 28
568 20 155
569 208 174
570 192 185
571 80 84
572 141 3
573 93 77
574 70 133
575 170 255
576 191 151
577 77 11
578 270 23
579 76 110
580 14 160
581 70 128
582 283 180
583 204 171
584 111 10
585 56 57
586 235 219
587 195 253
588 50 139
589 145 63
590 243 199
591 241 209
592 123 44
593 7 144
594 86 232
595 205 191
596 30 150
597 186 181
598 177 160
599 253 64
600 187 165
601 117 14
602 183 140
603 123 63
604 198 182
605 6 146
606 72 234
607 133 246
608 163 223
609 255 187
PICKUP_AND_DELIVERY_SECTION
1 0 0 3815 0 0 0
2 20 1995 2315 90 0 323
3 -20 1891 2211 90 426 0
4 -10 3168 3488 90 337 0
5 -10 3020 3340 90 245 0
6 -20 730 1050 90 551 0
7 30 879 1199 90 0 167
8 20 1167 1487 90 0 292
9 -10 1686 2006 90 62 0
10 10 2378 2698 90 0 128
11 20 339 659 90 0 15
12 30 1246 1566 90 0 443
13 30 1095 1415 90 0 601
14 10 558 878 90 0 175
15 -20 434 754 90 11 0
16 -10 1569 1889 90 146 0
17 -30 3068 3388 90 345 0
18 -20 1764 2084 90 463 0
19 -20 549 869 90 475 0
20 20 81 401 90 0 289
21 40 2923 3243 90 0 364
22 -20 783 1103 90 314 0
23 -20 3110 3430 90 52 0
24 -10 2831 3151 90 286 0
25 20 96 416 90 0 328
26 20 60 380 90 0 466
27 20 379 699 90 0 589
28 10 1025 1345 90 0 493
29 -20 3310 3630 90 467 0
30 -30 2209 2529 90 534 0
31 20 1398 1718 90 0 74
32 -10 565 885 90 470 0
33 -20 2264 2584 90 528 0
34 -10 2357 2677 90 295 0
35 20 94 414 90 0 520
36 10 460 780 90 0 398
37 20 1646 1966 90 0 588
38 20 81 401 90 0 561
39 -10 1061 1381 90 556 0
40 30 110 430 90 0 513
41 10 340 660 90 0 319
42 20 2900 3220 90 0 90
43 20 1794 2114 0 0 605
44 10 2399 2719 90 0 96
45 10 2216 2536 90 0 103
46 -20 3278 3598 90 379 0
47 20 240 560 90 0 585
48 -10 1713 2033 90 272 0
49 20 1665 1985 90 0 381
50 -20 1293 1613 90 195 0
51 10 2703 3023 0 0 603
52 20 872 1192 90 0 23
53 20 363 683 90 0 563
54 -40 2533 2853 90 211 0
55 -20 1372 1692 90 71 0
56 10 2472 2792 90 0 148
57 20 385 705 90 0 73
58 -20 3069 3389 90 78 0
59 30 157 477 90 0 150
60 -20 1411 1731 90 155 0
61 -10 2050 2370 90 273 0
62 10 903 1223 90 0 9
63 20 2166 2486 90 0 335
64 10 58 378 90 0 515
65 20 540 860 90 0 535
66 -40 1886 2206 90 324 0
67 -20 2730 3050 90 189 0
68 10 578 898 90 0 138
69 -10 2297 2617 90 279 0
70 20 2393 2713 90 0 354
71 20 789 1109 90 0 55
72 -10 1960 2280 90 413 0
73 -20 2670 2990 90 57 0
74 -20 2056 2376 90 31 0
75 -30 776 1096 90 543 0
76 -10 2962 3282 90 81 0
77 -20 2591 2911 90 557 0
78 20 2489 2809 90 0 58
79 20 449 769 90 0 144
80 10 463 783 90 0 477
81 10 355 675 90 0 76
82 10 861 1181 90 0 396
83 20 1217 1537 90 0 593
84 10 610 930 90 0 243
85 -20 2546 2866 90 484 0
86 10 1623 1943 90 0 583
87 -20 2631 2951 90 129 0
88 10 234 554 90 0 315
89 20 2270 2590 90 0 566
90 -20 3091 3411 90 42 0
91 20 1965 2285 90 0 190
92 -20 1157 1477 90 540 0
93 -10 921 1241 90 358 0
94 -10 2980 3300 90 362 0
95 10 78 398 90 0 140
96 -10 3209 3529 90 44 0
97 -20 2331 2651 90 403 0
98 20 687 1007 90 0 269
99 10 2968 3288 90 0 308
100 -20 371 691 90 297 0
101 -20 2643 2963 90 512 0
102 -10 2839 3159 90 372 0
103 -10 3184 3504 90 45 0
104 -20 1612 1932 90 455 0
105 20 1044 1364 90 0 492
106 -30 1013 1333 90 283 0
107 -30 594 914 90 227 0
108 -20 2232 2552 90 226 0
109 -20 3232 3552 90 355 0
110 -10 1806 2126 90 275 0
111 10 63 383 90 0 567
112 30 75 395 90 0 352
113 -10 1314 1634 90 147 0
114 -20 972 1292 90 204 0
115 -10 3212 3532 90 205 0
116 30 1905 2225 90 0 237
117 30 65 385 90 0 263
118 -10 1013 1333 90 432 0
119 -20 2911 3231 90 307 0
120 -20 1599 1919 90 427 0
121 -20 2300 2620 90 316 0
122 20 1765 2085 90 0 527
123 -20 2930 3250 90 285 0
124 -30 1548 1868 90 559 0
125 -10 716 1036 90 433 0
126 -10 1977 2297 90 564 0
127 20 2076 2396 90 0 552
128 -10 3327 3647 90 10 0
129 20 1365 1685 90 0 87
130 -30 3135 3455 90 445 0
131 -40 3288 3608 90 196 0
132 -30 2534 2854 90 184 0
133 10 218 538 90 0 401
134 -10 2397 2717 90 201 0
135 -20 244 564 90 555 0
136 10 197 517 90 0 458
137 20 1813 2133 90 0 392
138 -10 995 1315 90 68 0
139 -20 3120 3440 90 252 0
140 -10 2450 2770 90 95 0
141 10 1495 1815 90 0 331
142 -10 2541 2861 90 550 0
143 -30 405 725 90 465 0
144 -20 733 1053 90 79 0
145 -10 2784 3104 90 318 0
146 10 1137 1457 90 0 16
147 10 1119 1439 90 0 113
148 -10 2667 2987 90 56 0
149 40 1491 1811 90 0 160
150 -30 1027 1347 90 59 0
151 10 960 1280 90 0 499
152 30 59 379 90 0 565
153 10 108 428 90 0 402
154 -20 1255 1575 90 338 0
155 20 543 863 90 0 60
156 -10 846 1166 90 537 0
157 -10 2871 3191 90 158 0
158 10 1811 2131 90 0 157
159 -30 2645 2965 90 235 0
160 -40 2640 2960 90 149 0
161 20 1563 1883 90 0 181
162 10 208 528 90 0 444
163 10 285 605 90 0 404
164 -10 2586 2906 90 257 0
165 -40 1059 1379 90 244 0
166 10 1756 2076 0 0 602
167 -30 2468 2788 90 7 0
168 -20 2941 3261 90 271 0
169 20 710 1030 90 0 246
170 20 120 440 90 0 177
171 -10 2201 2521 90 188 0
172 10 686 1006 90 0 391
173 -30 1846 2166 90 261 0
174 30 816 1136 90 0 218
175 -10 2526 2846 90 14 0
176 10 1324 1644 90 0 303
177 -20 828 1148 90 170 0
178 -10 2324 2644 90 421 0
179 20 714 1034 90 0 532
180 20 2428 2748 90 0 325
181 -20 1854 2174 90 161 0
182 20 1567 1887 90 0 399
183 30 312 632 90 0 202
184 30 2143 2463 90 0 132
185 30 927 1247 0 0 609
186 -10 1958 2278 90 258 0
187 -20 660 980 90 313 0
188 10 1702 2022 90 0 171
189 20 77 397 90 0 67
190 -20 2260 2580 90 91 0
191 -10 2568 2888 90 274 0
192 -20 2868 3188 90 530 0
193 10 810 1130 90 0 509
194 -20 3082 3402 90 349 0
195 20 531 851 90 0 50
196 40 139 459 90 0 131
197 20 1067 1387 90 0 486
198 10 1724 2044 90 0 416
199 -10 1469 1789 90 538 0
200 10 44 364 90 0 256
201 10 380 700 90 0 134
202 -30 1780 2100 90 183 0
203 -10 1874 2194 90 525 0
204 20 66 386 90 0 114
205 10 944 1264 90 0 115
206 -10 594 914 90 554 0
207 -20 2242 2562 90 412 0
208 20 62 382 90 0 234
209 10 113 433 90 0 317
210 20 191 511 90 0 356
211 40 184 504 90 0 54
212 -20 1479 1799 90 571 0
213 30 291 611 90 0 504
214 10 1608 1928 90 0 438
215 -20 2396 2716 90 521 0
216 30 1415 1735 90 0 510
217 -20 2712 3032 90 374 0
218 -30 1525 1845 90 174 0
219 30 1671 1991 90 0 301
220 10 2404 2724 90 0 597
221 20 893 1213 90 0 573
222 -10 753 1073 90 431 0
223 10 116 436 90 0 480
224 -30 180 500 90 262 0
225 -10 2846 3166 90 265 0
226 20 1662 1982 90 0 108
227 30 502 822 90 0 107
228 10 1474 1794 90 0 366
229 -20 3315 3635 90 448 0
230 30 682 1002 90 0 346
231 20 1130 1450 90 0 290
232 -10 2264 2584 90 334 0
233 30 2141 2461 90 0 409
234 -20 1672 1992 90 208 0
235 30 2360 2680 90 0 159
236 -10 2686 3006 90 584 0
237 -30 2504 2824 90 116 0
238 -20 1288 1608 90 407 0
239 -20 2811 3131 90 306 0
240 -30 2881 3201 90 287 0
241 20 418 738 90 0 587
242 -10 1948 2268 90 560 0
243 -10 2353 2673 90 84 0
244 40 433 753 90 0 165
245 10 2339 2659 90 0 5
246 -20 1293 1613 90 169 0
247 10 1568 1888 90 0 276
248 -10 3164 3484 90 400 0
249 20 1038 1358 90 0 351
250 -30 1173 1493 90 505 0
251 10 906 1226 90 0 441
252 20 445 765 90 0 139
253 20 786 1106 90 0 330
254 10 108 428 90 0 367
255 -30 2615 2935 90 259 0
256 -10 853 1173 90 200 0
257 10 2203 2523 90 0 164
258 10 1477 1797 90 0 186
259 30 1356 1676 90 0 255
260 -20 1005 1325 90 437 0
261 30 783 1103 90 0 173
262 30 86 406 90 0 224
263 -30 2111 2431 90 117 0
264 -20 2448 2768 90 266 0
265 10 2743 3063 90 0 225
266 20 1163 1483 90 0 264
267 40 1205 1525 90 0 503
268 30 1101 1421 90 0 452
269 -20 1949 2269 90 98 0
270 20 944 1264 90 0 429
271 20 2573 2893 90 0 168
272 10 696 1016 90 0 48
273 10 176 496 90 0 61
274 10 1219 1539 90 0 191
275 10 887 1207 90 0 110
276 -10 1951 2271 90 247 0
277 -20 2080 2400 90 428 0
278 10 2062 2382 0 0 606
279 10 1789 2109 90 0 69
280 -20 2595 2915 90 298 0
281 20 255 575 90 0 489
282 30 232 552 90 0 468
283 30 216 536 90 0 106
284 20 410 730 90 0 453
285 20 1881 2201 90 0 123
286 10 2735 3055 90 0 24
287 30 2503 2823 90 0 240
288 10 664 984 90 0 423
289 -20 1081 1401 90 20 0
290 -20 1720 2040 90 231 0
291 40 809 1129 90 0 371
292 -20 1263 1583 90 8 0
293 40 1857 2177 90 0 304
294 20 933 1253 90 0 553
295 10 1679 1999 90 0 34
296 10 89 409 90 0 456
297 20 268 588 90 0 100
298 20 1797 2117 90 0 280
299 20 1768 2088 90 0 590
300 20 1175 1495 90 0 373
301 -30 2362 2682 90 219 0
302 10 109 429 90 0 548
303 -10 2086 2406 90 176 0
304 -40 2045 2365 90 293 0
305 20 1201 1521 90 0 506
306 20 2416 2736 90 0 239
307 20 2047 2367 90 0 119
308 -10 3270 3590 90 99 0
309 -10 1418 1738 90 322 0
310 10 667 987 90 0 598
311 10 1281 1601 90 0 547
312 20 1782 2102 90 0 378
313 20 117 437 90 0 187
314 20 485 805 90 0 22
315 -10 1995 2315 90 88 0
316 20 1706 2026 90 0 121
317 -10 887 1207 90 209 0
318 10 2690 3010 90 0 145
319 -10 1429 1749 90 41 0
320 30 1613 1933 90 0 425
321 -20 944 1264 90 542 0
322 10 531 851 90 0 309
323 -20 2974 3294 90 2 0
324 40 811 1131 90 0 66
325 -20 2804 3124 90 180 0
326 -10 2994 3314 90 394 0
327 -10 1861 2181 90 490 0
328 -20 120 440 90 25 0
329 -40 3264 3584 90 414 0
330 -20 1571 1891 90 253 0
331 -10 2109 2429 90 141 0
332 10 42 362 90 0 572
333 10 466 786 90 0 578
334 10 324 644 90 0 232
335 -20 2551 2871 90 63 0
336 -20 1414 1734 90 494 0
337 10 2693 3013 90 0 4
338 20 971 1291 90 0 154
339 -20 1569 1889 90 500 0
340 -20 3062 3382 90 350 0
341 10 142 462 90 0 439
342 -20 2788 3108 90 406 0
343 10 1224 1544 90 0 498
344 30 3067 3387 0 0 607
345 30 2301 2621 90 0 17
346 -30 1573 1893 90 230 0
347 10 675 995 90 0 451
348 10 67 387 90 0 546
349 20 2116 2436 90 0 194
350 20 2592 2912 90 0 340
351 -20 2196 2516 90 249 0
352 -30 1355 1675 90 112 0
353 20 94 414 90 0 385
354 -20 2497 2817 90 70 0
355 20 2733 3053 90 0 109
356 -20 2014 2334 90 210 0
357 30 1280 1600 90 0 531
358 10 513 833 90 0 93
359 -20 720 1040 90 377 0
360 20 2095 2415 90 0 545
361 -10 2762 3082 90 384 0
362 10 1192 1512 90 0 94
363 20 315 635 90 0 430
364 -40 3023 3343 90 21 0
365 20 2177 2497 90 0 580
366 -10 3285 3605 90 228 0
367 -10 409 729 90 254 0
368 30 1514 1834 90 0 582
369 -10 2637 2957 90 464 0
370 10 1376 1696 90 0 417
371 -40 1691 2011 90 291 0
372 10 1674 1994 90 0 102
373 -20 2975 3295 90 300 0
374 20 2239 2559 90 0 217
375 -20 1874 2194 90 390 0
376 10 1038 1358 90 0 482
377 20 309 629 90 0 359
378 -20 3283 3603 90 312 0
379 20 2309 2629 90 0 46
380 40 2556 2876 90 0 476
381 -20 2332 2652 90 49 0
382 -20 620 940 90 592 0
383 40 150 470 90 0 529
384 10 124 444 90 0 361
385 -20 563 883 90 353 0
386 -40 1717 2037 90 424 0
387 20 1820 2140 90 0 393
388 20 1670 1990 90 0 541
389 -30 2796 3116 90 522 0
390 20 1391 1711 90 0 375
391 -10 2679 2999 90 172 0
392 -20 2491 2811 90 137 0
393 -20 2513 2833 90 387 0
394 10 1949 2269 90 0 326
395 10 472 792 90 0 436
396 -10 1757 2077 90 82 0
397 -20 2766 3086 90 461 0
398 -10 745 1065 90 36 0
399 -20 2280 2600 90 182 0
400 10 434 754 90 0 248
401 -10 3271 3591 90 133 0
402 -10 1508 1828 90 153 0
403 20 861 1181 90 0 97
404 -10 2440 2760 90 163 0
405 10 312 632 90 0 488
406 20 1525 1845 90 0 342
407 20 425 745 90 0 238
408 -20 2185 2505 90 491 0
409 -30 2928 3248 90 233 0
410 10 102 422 90 0 539
411 20 1299 1619 90 0 478
412 20 964 1284 90 0 207
413 10 82 402 90 0 72
414 40 2235 2555 90 0 329
415 20 503 823 90 0 549
416 -10 2500 2820 90 198 0
417 -10 2514 2834 90 370 0
418 -30 2144 2464 90 524 0
419 20 639 959 90 0 479
420 -20 2001 2321 90 472 0
421 10 2139 2459 90 0 178
422 -10 2170 2490 90 514 0
423 -10 2834 3154 90 288 0
424 40 1122 1442 90 0 386
425 -30 2311 2631 90 320 0
426 20 637 957 90 0 3
427 20 254 574 90 0 120
428 20 1120 1440 90 0 277
429 -20 1158 1478 90 270 0
430 -20 2149 2469 90 363 0
431 10 116 436 90 0 222
432 10 240 560 90 0 118
433 10 334 654 90 0 125
434 20 1317 1637 90 0 568
435 20 978 1298 90 0 496
436 -10 1766 2086 90 395 0
437 20 144 464 90 0 260
438 -10 2972 3292 90 214 0
439 -10 1904 2224 90 341 0
440 10 1472 1792 90 0 487
441 -10 999 1319 90 251 0
442 30 646 966 90 0 576
443 -30 2072 2392 90 12 0
444 -10 2187 2507 90 162 0
445 30 2776 3096 90 0 130
446 -20 1826 2146 90 481 0
447 20 2858 3178 0 0 608
448 20 152 472 90 0 229
449 10 632 952 90 0 599
450 10 1111 1431 90 0 485
451 -10 1181 1501 90 347 0
452 -30 1859 2179 90 268 0
453 -20 982 1302 90 284 0
454 -20 2348 2668 90 574 0
455 20 1222 1542 90 0 104
456 -10 763 1083 90 296 0
457 -30 1320 1640 90 460 0
458 -10 2764 3084 90 136 0
459 -10 2158 2478 90 544 0
460 30 760 1080 90 0 457
461 20 1889 2209 90 0 397
462 20 109 429 90 0 562
463 20 1059 1379 90 0 18
464 10 2429 2749 90 0 369
465 30 95 415 90 0 143
466 -20 2880 3200 90 26 0
467 20 2049 2369 90 0 29
468 -30 646 966 90 282 0
469 -20 2859 3179 90 581 0
470 10 20 340 90 0 32
471 -20 832 1152 90 595 0
472 20 503 823 90 0 420
473 10 111 431 90 0 533
474 40 1258 1578 90 0 558
475 20 103 423 90 0 19
476 -40 2663 2983 90 380 0
477 -10 1917 2237 90 80 0
478 -20 1974 2294 90 411 0
479 -20 2870 3190 90 419 0
480 -10 2458 2778 90 223 0
481 20 1387 1707 90 0 446
482 -10 2739 3059 90 376 0
483 -10 1191 1511 90 594 0
484 20 1452 1772 90 0 85
485 -10 1773 2093 90 450 0
486 -20 2241 2561 90 197 0
487 -10 1861 2181 90 440 0
488 -10 1667 1987 90 405 0
489 -20 840 1160 90 281 0
490 10 349 669 90 0 327
491 20 1621 1941 90 0 408
492 -20 2824 3144 90 105 0
493 -10 2712 3032 90 28 0
494 20 363 683 90 0 336
495 10 623 943 90 0 577
496 -20 2789 3109 90 435 0
497 10 107 427 90 0 536
498 -10 2294 2614 90 343 0
499 -10 1165 1485 90 151 0
500 20 760 1080 90 0 339
501 10 250 570 90 0 523
502 20 1089 1409 90 0 579
503 -40 1485 1805 90 267 0
504 -30 2168 2488 90 213 0
505 30 582 902 90 0 250
506 -20 1598 1918 90 305 0
507 -10 548 868 90 508 0
508 10 119 439 90 0 507
509 -10 2444 2764 90 193 0
510 -30 2689 3009 90 216 0
511 10 1070 1390 90 0 526
512 20 408 728 90 0 101
513 -30 2198 2518 90 40 0
514 10 2074 2394 90 0 422
515 -10 3175 3495 90 64 0
516 10 2629 2949 90 0 570
517 20 2731 3051 0 0 604
518 30 123 443 90 0 596
519 20 611 931 90 0 575
520 -20 1515 1835 90 35 0
521 20 1080 1400 90 0 215
522 30 479 799 90 0 389
523 -10 454 774 90 501 0
524 30 770 1090 90 0 418
525 10 999 1319 90 0 203
526 -10 1274 1594 90 511 0
527 -20 3157 3477 90 122 0
528 20 1364 1684 90 0 33
529 -40 1368 1688 90 383 0
530 20 2775 3095 90 0 192
531 -30 2577 2897 90 357 0
532 -20 1624 1944 90 179 0
533 -10 522 842 90 473 0
534 30 598 918 90 0 30
535 -20 914 1234 90 65 0
536 -10 2918 3238 90 497 0
537 10 650 970 90 0 156
538 10 1265 1585 90 0 199
539 -10 1307 1627 90 410 0
540 20 953 1273 90 0 92
541 -20 2617 2937 90 388 0
542 20 271 591 90 0 321
543 30 158 478 90 0 75
544 10 1589 1909 90 0 459
545 -20 3329 3649 90 360 0
546 -10 2961 3281 90 348 0
547 -10 2602 2922 90 311 0
548 -10 150 470 90 302 0
549 -20 1095 1415 90 415 0
550 10 1398 1718 90 0 142
551 20 134 454 90 0 6
552 -20 2585 2905 90 127 0
553 -20 1982 2302 90 294 0
554 10 80 400 90 0 206
555 20 145 465 90 0 135
556 10 867 1187 90 0 39
557 20 2407 2727 90 0 77
558 -40 1378 1698 90 474 0
559 30 503 823 90 0 124
560 10 16 336 90 0 242
561 -20 2412 2732 90 38 0
562 -20 2105 2425 90 462 0
563 -20 553 873 90 53 0
564 10 343 663 90 0 126
565 -30 3016 3336 90 152 0
566 -20 2670 2990 90 89 0
567 -10 904 1224 90 111 0
568 -20 2475 2795 90 434 0
569 -10 2105 2425 90 600 0
570 -10 2828 3148 90 516 0
571 20 1184 1504 90 0 212
572 -10 2886 3206 90 332 0
573 -20 1379 1699 90 221 0
574 20 215 535 90 0 454
575 -20 1587 1907 90 519 0
576 -30 1460 1780 90 442 0
577 -10 1491 1811 90 495 0
578 -10 1857 2177 90 333 0
579 -20 1964 2284 90 502 0
580 -20 2377 2697 90 365 0
581 20 2269 2589 90 0 469
582 -30 1919 2239 90 368 0
583 -10 2010 2330 90 86 0
584 10 1925 2245 90 0 236
585 -20 3027 3347 90 47 0
586 -10 1989 2309 90 591 0
587 -20 828 1148 90 241 0
588 -20 1753 2073 90 37 0
589 -20 1464 1784 90 27 0
590 -20 2301 2621 90 299 0
591 10 326 646 90 0 586
592 20 109 429 90 0 382
593 -20 1702 2022 90 83 0
594 10 220 540 90 0 483
595 20 283 603 90 0 471
596 -30 2046 2366 90 518 0
597 -10 2925 3245 90 220 0
598 -10 1520 1840 90 310 0
599 -10 724 1044 90 449 0
600 10 1262 1582 90 0 569
601 -30 2022 2342 90 13 0
602 -10 1756 2076 90 166 0
603 -10 2703 3023 90 51 0
604 -20 2731 3051 90 517 0
605 -20 1794 2114 90 43 0
606 -10 2062 2382 90 278 0
607 -30 3067 3387 90 344 0
608 -20 2858 3178 90 447 0
609 -30 927 1247 90 185 0
DEPOT_SECTION
1
-1
EOF
