NAME: lc2_6_1
TYPE: PDPTW
COMMENT: Li & Lim PDPTW benchmark converted from SINTEF format
DIMENSION: 609
VEHICLES: 150
CAPACITY: 700
EDGE_WEIGHT_TYPE: EUC_2D
NODE_COORD_SECTION
1 150 150
2 248 45
3 227 221
4 122 246
5 165 85
6 253 198
7 55 126
8 131 70
9 58 230
10 243 35
11 97 45
12 30 28
13 108 27
14 279 44
15 97 40
16 18 52
17 226 232
18 272 21
19 64 30
20 141 231
21 68 211
22 50 104
23 182 178
24 66 211
25 83 219
26 141 210
27 173 87
28 260 180
29 165 187
30 117 262
31 91 49
32 176 82
33 41 46
34 182 233
35 239 181
36 177 114
37 34 135
38 140 231
39 142 82
40 102 51
41 238 62
42 261 39
43 6 146
44 244 235
45 125 23
46 135 23
47 92 52
48 136 272
49 262 257
50 75 28
51 123 63
52 224 155
53 170 116
54 179 62
55 154 257
56 240 38
57 83 105
58 207 201
59 28 122
60 25 150
61 262 32
62 67 237
63 34 50
64 186 196
65 252 60
66 97 10
67 239 262
68 71 102
69 101 29
70 103 35
71 139 244
72 231 170
73 84 114
74 74 109
75 222 160
76 38 163
77 125 9
78 237 203
79 17 134
80 203 200
81 19 137
82 263 248
83 29 137
84 80 255
85 53 145
86 190 157
87 171 58
88 125 39
89 0 169
90 252 37
91 65 233
92 287 246
93 192 251
94 143 6
95 151 228
96 173 180
97 271 34
98 62 132
99 214 210
100 276 38
101 60 143
102 49 57
103 138 17
104 281 187
105 264 250
106 193 250
107 225 213
108 173 144
109 160 111
110 135 270
111 108 103
112 78 128
113 263 195
114 233 160
115 52 59
116 134 279
117 207 183
118 264 64
119 153 144
120 17 152
121 270 178
122 86 100
123 49 56
124 39 129
125 116 21
126 28 52
127 254 157
128 163 114
129 141 55
130 167 110
131 141 33
132 241 276
133 152 245
134 266 172
135 68 57
136 91 104
137 299 177
138 75 89
139 53 57
140 182 236
141 168 287
142 71 222
143 87 237
144 9 136
145 233 228
146 48 36
147 264 181
148 227 32
149 57 232
150 23 144
151 275 31
152 206 171
153 42 147
154 56 117
155 15 138
156 56 43
157 226 56
158 248 48
159 37 63
160 62 221
161 189 138
162 203 217
163 170 89
164 258 169
165 201 154
166 183 140
167 86 133
168 71 159
169 74 248
170 32 128
171 245 233
172 227 211
173 47 141
174 255 64
175 264 42
176 266 28
177 6 139
178 172 146
179 99 32
180 272 41
181 176 136
182 256 15
183 87 234
184 246 254
185 255 187
186 244 251
187 290 49
188 234 216
189 207 203
190 81 223
191 234 38
192 221 203
193 69 239
194 150 16
195 100 34
196 130 38
197 62 122
198 96 6
199 263 12
200 180 183
201 212 190
202 61 232
203 64 234
204 171 143
205 49 46
206 64 134
207 168 49
208 153 88
209 199 214
210 204 189
211 160 84
212 90 86
213 87 105
214 236 213
215 239 201
216 274 195
217 264 39
218 258 44
219 87 96
220 230 182
221 63 89
222 57 40
223 70 66
224 196 191
225 68 164
226 182 144
227 223 213
228 13 51
229 189 232
230 59 110
231 193 175
232 180 231
233 160 56
234 161 62
235 44 51
236 122 5
237 131 261
238 101 31
239 162 141
240 231 235
241 167 256
242 177 132
243 78 223
244 236 65
245 169 56
246 42 240
247 153 74
248 220 231
249 192 176
250 223 177
251 115 25
252 62 44
253 218 208
254 143 236
255 162 157
256 197 178
257 272 185
258 269 257
259 184 163
260 83 35
261 56 132
262 193 194
263 273 184
264 52 153
265 65 152
266 57 119
267 185 241
268 78 39
269 37 149
270 196 129
271 26 161
272 142 242
273 266 49
274 268 43
275 144 250
276 153 64
277 3 159
278 72 234
279 96 17
280 237 222
281 169 134
282 242 205
283 160 244
284 221 213
285 34 55
286 65 217
287 236 224
288 173 73
289 139 262
290 196 158
291 97 28
292 135 65
293 156 63
294 20 146
295 171 253
296 157 88
297 268 49
298 229 217
299 239 177
300 141 266
301 71 126
302 225 70
303 249 44
304 155 60
305 76 30
306 172 148
307 176 140
308 191 188
309 238 203
310 202 178
311 153 256
312 31 63
313 228 62
314 73 104
315 115 2
316 284 184
317 218 197
318 233 224
319 256 38
320 146 270
321 196 178
322 265 211
323 214 51
324 111 22
325 266 37
326 257 41
327 250 247
328 85 222
329 214 239
330 233 189
331 116 272
332 143 108
333 278 42
334 163 256
335 40 60
336 191 168
337 137 255
338 57 126
339 267 255
340 109 126
341 230 59
342 133 1
343 197 174
344 133 246
345 247 243
346 92 90
347 220 171
348 96 110
349 116 18
350 110 47
351 209 173
352 47 118
353 209 184
354 114 43
355 170 69
356 278 179
357 86 83
358 166 261
359 184 267
360 251 219
361 169 221
362 106 34
363 67 142
364 78 213
365 0 166
366 52 80
367 152 247
368 283 195
369 242 263
370 222 196
371 92 23
372 13 66
373 132 248
374 271 32
375 178 240
376 45 44
377 162 246
378 50 80
379 126 20
380 193 224
381 244 260
382 122 24
383 261 49
384 153 241
385 208 191
386 252 50
387 195 168
388 268 19
389 238 170
390 182 245
391 228 200
392 263 169
393 174 155
394 270 25
395 175 84
396 261 255
397 23 163
398 178 127
399 245 42
400 259 212
401 115 235
402 18 151
403 284 30
404 179 59
405 217 219
406 96 13
407 116 34
408 241 46
409 165 83
410 246 187
411 184 245
412 149 82
413 207 209
414 248 255
415 79 238
416 124 10
417 225 201
418 266 33
419 12 133
420 134 273
421 175 142
422 180 227
423 164 79
424 261 45
425 125 253
426 256 197
427 22 126
428 24 141
429 192 152
430 43 153
431 74 62
432 236 53
433 116 35
434 28 147
435 143 250
436 157 62
437 89 57
438 231 236
439 247 46
440 225 191
441 114 27
442 178 118
443 31 48
444 255 178
445 225 51
446 104 15
447 163 223
448 245 240
449 252 62
450 188 244
451 227 187
452 89 102
453 216 192
454 58 161
455 264 194
456 165 69
457 191 172
458 87 112
459 78 234
460 199 179
461 3 149
462 99 53
463 276 22
464 250 264
465 83 218
466 132 253
467 243 252
468 258 213
469 92 114
470 149 130
471 251 186
472 149 244
473 129 41
474 295 254
475 95 104
476 178 218
477 202 169
478 168 237
479 37 165
480 39 57
481 77 25
482 41 63
483 53 243
484 42 123
485 172 249
486 43 155
487 239 174
488 239 188
489 182 130
490 259 235
491 252 44
492 235 260
493 163 150
494 196 194
495 98 33
496 131 254
497 232 220
498 215 168
499 292 18
500 262 237
501 250 234
502 75 85
503 178 247
504 59 124
505 219 174
506 89 24
507 252 218
508 238 231
509 78 222
510 251 180
511 226 164
512 66 139
513 105 21
514 176 232
515 196 190
516 210 181
517 198 182
518 70 131
519 165 269
520 236 210
521 222 197
522 220 187
523 251 222
524 285 30
525 61 237
526 229 186
527 108 131
528 3 34
529 273 18
530 223 204
531 87 114
532 87 10
533 122 32
534 150 240
535 259 71
536 231 260
537 53 28
538 284 12
539 259 202
540 264 249
541 263 43
542 196 192
543 171 141
544 53 225
545 191 215
546 99 124
547 137 256
548 262 50
549 59 243
550 57 235
551 245 197
552 232 199
553 1 152
554 78 114
555 76 59
556 154 78
557 124 13
558 267 265
559 63 135
560 158 136
561 132 262
562 104 18
563 176 117
564 73 49
565 185 180
566 26 168
567 92 28
568 20 155
569 208 174
570 192 185
571 80 84
572 141 3
573 93 77
574 70 133
575 170 255
576 191 151
577 77 11
578 270 23
579 76 110
580 14 160
581 70 128
582 283 180
583 204 171
584 111 10
585 56 57
586 235 219
587 195 253
588 50 139
589 145 63
590 243 199
591 241 209
592 123 44
593 7 144
594 86 232
595 205 191
596 30 150
597 186 181
598 177 160
599 253 64
600 187 165
601 117 14
602 262 50
603 226 56
604 98 33
605 116 21
606 210 181
607 62 221
608 137 255
609 193 224
PICKUP_AND_DELIVERY_SECTION
1 0 0 3815 0 0 0
2 20 2075 2235 90 0 303
3 -30 1971 2131 90 282 0
4 -10 3248 3408 90 237 0
5 10 3100 3260 90 0 128
6 20 810 970 90 0 287
7 30 959 1119 90 0 37
8 -10 1247 1407 90 395 0
9 -20 1766 1926 90 143 0
10 10 2458 2618 90 0 445
11 20 419 579 90 0 379
12 -20 1326 1486 90 252 0
13 30 1175 1335 90 0 446
14 -10 638 798 90 273 0
15 20 514 674 90 0 305
16 -10 1649 1809 90 228 0
17 -20 3148 3308 90 280 0
18 20 1844 2004 90 0 175
19 20 629 789 90 0 222
20 20 98 258 90 0 254
21 -20 3003 3163 90 142 0
22 20 863 1023 90 0 340
23 -10 3190 3350 90 511 0
24 -30 2911 3071 90 465 0
25 20 106 266 90 0 525
26 20 60 220 90 0 387
27 20 459 619 90 0 556
28 10 1105 1265 90 0 368
29 -20 3390 3550 90 38 0
30 20 2289 2449 90 0 344
31 20 1478 1638 90 0 584
32 -10 645 805 90 332 0
33 10 2344 2504 90 0 235
34 -10 2437 2597 90 575 0
35 20 94 254 90 0 188
36 -20 540 700 90 204 0
37 -30 1726 1886 90 7 0
38 20 92 252 90 0 29
39 20 1141 1301 90 0 129
40 30 110 270 90 0 437
41 10 420 580 90 0 323
42 -20 2980 3140 90 180 0
43 -10 1874 2034 90 153 0
44 -10 2479 2639 90 322 0
45 10 2296 2456 90 0 46
46 -10 3361 3521 90 45 0
47 20 320 480 90 0 557
48 30 1793 1953 90 0 547
49 -20 1745 1905 90 500 0
50 30 1373 1533 90 0 416
51 -30 2783 2943 90 513 0
52 20 952 1112 90 0 517
53 -10 443 603 90 560 0
54 -30 2613 2773 90 233 0
55 10 1452 1612 90 0 447
56 -10 2552 2712 90 158 0
57 20 465 625 90 0 74
58 -30 3149 3309 90 227 0
59 30 237 397 90 0 79
60 -20 1491 1651 90 294 0
61 10 2130 2290 90 0 326
62 10 983 1143 90 0 246
63 20 2246 2406 90 0 482
64 10 69 229 90 0 494
65 20 620 780 90 0 399
66 -20 1966 2126 90 481 0
67 -10 2810 2970 90 507 0
68 10 658 818 90 0 469
69 -10 2377 2537 90 473 0
70 -20 2473 2633 90 506 0
71 -10 869 1029 90 367 0
72 10 2040 2200 90 0 444
73 10 2750 2910 90 0 527
74 -20 2136 2296 90 57 0
75 20 856 1016 90 0 114
76 -20 3042 3202 90 83 0
77 -20 2671 2831 90 406 0
78 -20 2569 2729 90 284 0
79 -30 529 689 90 59 0
80 10 543 703 90 0 310
81 10 435 595 90 0 461
82 10 941 1101 90 0 558
83 20 1297 1457 90 0 76
84 10 690 850 90 0 549
85 -20 2626 2786 90 197 0
86 10 1703 1863 90 0 477
87 -20 2711 2871 90 456 0
88 10 314 474 90 0 562
89 -30 2350 2510 90 593 0
90 -20 3171 3331 90 374 0
91 20 2045 2205 90 0 459
92 40 1237 1397 90 0 467
93 40 1001 1161 90 0 420
94 -30 3060 3220 90 532 0
95 10 78 238 90 0 334
96 -10 3289 3449 90 248 0
97 20 2411 2571 90 0 325
98 -10 767 927 90 206 0
99 -10 3048 3208 90 317 0
100 10 451 611 90 0 333
101 -30 2723 2883 90 454 0
102 20 2919 3079 90 0 585
103 10 3264 3424 90 0 131
104 40 1692 1852 90 0 134
105 20 1124 1284 90 0 464
106 -10 1093 1253 90 587 0
107 10 674 834 90 0 521
108 -20 2312 2472 90 307 0
109 -30 3312 3472 90 207 0
110 -20 1886 2046 90 411 0
111 10 63 223 90 0 581
112 30 104 264 90 0 512
113 30 1394 1554 90 0 389
114 -20 1052 1212 90 75 0
115 -30 3292 3452 90 480 0
116 -40 1985 2145 90 267 0
117 30 82 242 90 0 185
118 -20 1093 1253 90 535 0
119 -10 2991 3151 90 147 0
120 20 1679 1839 90 0 365
121 -20 2380 2540 90 316 0
122 -10 1845 2005 90 346 0
123 10 3010 3170 90 0 366
124 -20 1628 1788 90 484 0
125 10 796 956 0 0 605
126 -10 2057 2217 90 537 0
127 20 2156 2316 90 0 192
128 -10 3407 3567 90 5 0
129 -20 1445 1605 90 39 0
130 -10 3215 3375 90 423 0
131 -10 3448 3608 90 103 0
132 -20 2614 2774 90 468 0
133 10 298 458 90 0 141
134 -40 2477 2637 90 104 0
135 50 324 484 90 0 205
136 10 277 437 90 0 357
137 -10 1893 2053 90 200 0
138 -10 1075 1235 90 348 0
139 30 3200 3360 90 0 378
140 -10 2530 2690 90 272 0
141 -10 1575 1735 90 133 0
142 20 2621 2781 90 0 21
143 20 485 645 90 0 9
144 10 813 973 90 0 397
145 -30 2864 3024 90 345 0
146 10 1217 1377 90 0 335
147 10 1199 1359 90 0 119
148 -30 2747 2907 90 386 0
149 -20 1571 1731 90 483 0
150 -20 1107 1267 90 419 0
151 10 1040 1200 90 0 394
152 30 59 219 90 0 220
153 10 108 268 90 0 43
154 30 1335 1495 90 0 486
155 20 623 783 90 0 428
156 -10 926 1086 90 431 0
157 20 2951 3111 0 0 603
158 10 1891 2051 90 0 56
159 -10 2725 2885 90 372 0
160 30 2720 2880 0 0 607
161 -30 1643 1803 90 442 0
162 10 288 448 90 0 253
163 10 365 525 90 0 276
164 -20 2666 2826 90 582 0
165 40 1139 1299 90 0 178
166 -10 1836 1996 90 600 0
167 -20 2548 2708 90 221 0
168 -20 3021 3181 90 225 0
169 -10 790 950 90 594 0
170 20 140 300 90 0 553
171 20 2281 2441 90 0 240
172 -10 766 926 90 209 0
173 10 1926 2086 90 0 269
174 -10 896 1056 90 432 0
175 -20 2606 2766 90 18 0
176 10 1404 1564 90 0 491
177 30 908 1068 90 0 402
178 -40 2404 2564 90 165 0
179 20 794 954 90 0 349
180 20 2508 2668 90 0 42
181 -30 1934 2094 90 259 0
182 20 1647 1807 90 0 418
183 -30 392 552 90 328 0
184 -20 2223 2383 90 523 0
185 -30 1007 1167 90 117 0
186 -20 2038 2198 90 327 0
187 10 740 900 90 0 199
188 -20 1782 1942 90 35 0
189 20 77 237 90 0 215
190 -20 2340 2500 90 202 0
191 20 2648 2808 90 0 194
192 -20 2948 3108 90 127 0
193 10 890 1050 90 0 203
194 -20 3162 3322 90 191 0
195 20 611 771 90 0 291
196 40 219 379 90 0 441
197 20 1147 1307 90 0 85
198 -30 1804 1964 90 577 0
199 -10 1549 1709 90 187 0
200 10 44 204 90 0 137
201 10 460 620 90 0 263
202 20 1860 2020 90 0 190
203 -10 1954 2114 90 193 0
204 20 146 306 90 0 36
205 -50 1024 1184 90 135 0
206 10 674 834 90 0 98
207 30 2322 2482 90 0 109
208 20 75 235 90 0 293
209 10 193 353 90 0 172
210 20 271 431 90 0 510
211 40 264 424 90 0 234
212 30 1559 1719 90 0 452
213 30 371 531 90 0 573
214 10 1688 1848 90 0 360
215 -20 2476 2636 90 189 0
216 -20 1495 1655 90 595 0
217 -30 2792 2952 90 524 0
218 -20 1605 1765 90 319 0
219 -20 1751 1911 90 571 0
220 -30 2484 2644 90 152 0
221 20 973 1133 90 0 167
222 -20 833 993 90 19 0
223 10 116 276 90 0 564
224 30 260 420 90 0 457
225 20 2926 3086 90 0 168
226 -10 1742 1902 90 470 0
227 30 582 742 90 0 58
228 10 1554 1714 90 0 16
229 -20 3460 3620 90 540 0
230 30 762 922 90 0 504
231 -10 1210 1370 90 321 0
232 -30 2344 2504 90 478 0
233 30 2221 2381 90 0 54
234 -40 1752 1912 90 211 0
235 -10 2440 2600 90 33 0
236 -20 2766 2926 90 567 0
237 10 2584 2744 90 0 4
238 -20 1368 1528 90 592 0
239 -10 2891 3051 90 356 0
240 -20 2961 3121 90 171 0
241 -30 498 658 90 283 0
242 -20 2028 2188 90 281 0
243 -10 2433 2593 90 550 0
244 40 513 673 90 0 439
245 -10 2419 2579 90 296 0
246 -10 1373 1533 90 62 0
247 -20 1648 1808 90 412 0
248 10 3244 3404 90 0 96
249 20 1118 1278 90 0 343
250 10 1253 1413 90 0 526
251 10 986 1146 90 0 371
252 20 525 685 90 0 12
253 -10 866 1026 90 162 0
254 -20 188 348 90 20 0
255 -10 2695 2855 90 569 0
256 20 933 1093 90 0 583
257 -20 2283 2443 90 455 0
258 -10 1557 1717 90 497 0
259 30 1436 1596 90 0 181
260 20 1085 1245 90 0 268
261 -10 863 1023 90 554 0
262 30 166 326 90 0 385
263 -10 2191 2351 90 201 0
264 -30 2528 2688 90 588 0
265 -30 2823 2983 90 559 0
266 -20 1243 1403 90 338 0
267 40 1285 1445 90 0 116
268 -20 1181 1341 90 260 0
269 -10 2029 2189 90 173 0
270 20 1024 1184 90 0 429
271 -30 2653 2813 90 580 0
272 10 776 936 90 0 140
273 10 256 416 90 0 14
274 10 1299 1459 90 0 408
275 -20 967 1127 90 472 0
276 -10 2031 2191 90 163 0
277 -20 2160 2320 90 434 0
278 10 2142 2302 90 0 509
279 -20 1869 2029 90 382 0
280 20 2675 2835 90 0 17
281 20 335 495 90 0 242
282 30 312 472 90 0 3
283 30 296 456 90 0 241
284 20 490 650 90 0 78
285 -20 1961 2121 90 312 0
286 10 2815 2975 90 0 364
287 -20 2583 2743 90 6 0
288 10 744 904 90 0 292
289 10 1161 1321 90 0 485
290 -20 1800 1960 90 336 0
291 -20 889 1049 90 195 0
292 -10 1343 1503 90 288 0
293 -20 1937 2097 90 208 0
294 20 1013 1173 90 0 60
295 -30 1759 1919 90 534 0
296 10 169 329 90 0 245
297 20 348 508 90 0 499
298 -20 1877 2037 90 309 0
299 -10 1848 2008 90 413 0
300 -20 1255 1415 90 435 0
301 20 2442 2602 90 0 458
302 10 109 269 90 0 424
303 -20 2166 2326 90 2 0
304 -30 2125 2285 90 436 0
305 -20 1281 1441 90 15 0
306 20 2496 2656 90 0 493
307 20 2127 2287 90 0 108
308 -10 3350 3510 90 370 0
309 20 1498 1658 90 0 298
310 -10 747 907 90 80 0
311 10 1361 1521 90 0 422
312 20 1862 2022 90 0 285
313 20 128 288 90 0 599
314 -20 565 725 90 475 0
315 -10 2075 2235 90 433 0
316 20 1786 1946 90 0 121
317 10 967 1127 90 0 99
318 -20 2770 2930 90 426 0
319 20 1509 1669 90 0 218
320 -10 1693 1853 90 450 0
321 10 1024 1184 90 0 231
322 10 611 771 90 0 44
323 -10 3054 3214 90 41 0
324 -20 891 1051 90 533 0
325 -20 2884 3044 90 97 0
326 -10 3074 3234 90 61 0
327 20 1941 2101 90 0 186
328 30 200 360 90 0 183
329 30 3344 3504 90 0 545
330 -10 1651 1811 90 440 0
331 20 2189 2349 90 0 466
332 10 42 202 90 0 32
333 -10 546 706 90 100 0
334 -10 404 564 90 95 0
335 -10 2631 2791 90 146 0
336 20 1494 1654 90 0 290
337 10 2773 2933 0 0 608
338 20 1051 1211 90 0 266
339 20 1649 1809 90 0 369
340 -20 3142 3302 90 22 0
341 10 222 382 90 0 449
342 -10 2868 3028 90 601 0
343 -20 1304 1464 90 249 0
344 -20 3147 3307 90 30 0
345 30 2381 2541 90 0 145
346 10 1653 1813 90 0 122
347 -30 755 915 90 505 0
348 10 87 247 90 0 138
349 -20 2196 2356 90 179 0
350 -20 2672 2832 90 354 0
351 -10 2276 2436 90 598 0
352 -20 1435 1595 90 363 0
353 20 174 334 90 0 471
354 20 2577 2737 90 0 350
355 20 2813 2973 90 0 409
356 10 2094 2254 90 0 239
357 -10 1360 1520 90 136 0
358 10 593 753 90 0 359
359 -10 800 960 90 358 0
360 -10 2175 2335 90 214 0
361 -20 2842 3002 90 476 0
362 -20 1272 1432 90 407 0
363 20 395 555 90 0 352
364 -10 3103 3263 90 286 0
365 -20 2257 2417 90 120 0
366 -10 3445 3605 90 123 0
367 10 489 649 90 0 71
368 -10 1594 1754 90 28 0
369 -20 2717 2877 90 339 0
370 10 1456 1616 90 0 308
371 -10 1771 1931 90 251 0
372 10 1754 1914 90 0 159
373 -10 3055 3215 90 496 0
374 20 2319 2479 90 0 90
375 30 1954 2114 90 0 514
376 -20 1118 1278 90 555 0
377 20 389 549 90 0 425
378 -30 3403 3563 90 139 0
379 -20 2389 2549 90 11 0
380 40 2636 2796 0 0 609
381 -20 2412 2572 90 396 0
382 20 700 860 90 0 279
383 40 150 310 90 0 538
384 10 204 364 90 0 503
385 -30 643 803 90 262 0
386 30 1797 1957 90 0 148
387 -20 1900 2060 90 26 0
388 -20 1750 1910 90 403 0
389 -30 2876 3036 90 113 0
390 -20 1471 1631 90 519 0
391 10 2759 2919 90 0 530
392 -30 2571 2731 90 522 0
393 -30 2593 2753 90 498 0
394 -10 2029 2189 90 151 0
395 10 552 712 90 0 8
396 20 1837 1997 90 0 381
397 -10 2846 3006 90 144 0
398 -40 825 985 90 563 0
399 -20 2360 2520 90 65 0
400 10 514 674 90 0 539
401 -10 3351 3511 90 561 0
402 -30 1588 1748 90 177 0
403 20 941 1101 90 0 388
404 -20 2520 2680 90 589 0
405 10 392 552 90 0 453
406 20 1605 1765 90 0 77
407 20 505 665 90 0 362
408 -10 2265 2425 90 274 0
409 -20 3008 3168 90 355 0
410 10 113 273 90 0 591
411 20 1379 1539 90 0 110
412 20 1044 1204 90 0 247
413 10 94 254 90 0 299
414 -10 2315 2475 90 490 0
415 20 583 743 90 0 544
416 -30 2580 2740 90 50 0
417 -20 2594 2754 90 487 0
418 -20 2224 2384 90 182 0
419 20 719 879 90 0 150
420 -40 2081 2241 90 93 0
421 -30 2219 2379 90 543 0
422 -10 2250 2410 90 311 0
423 10 2914 3074 90 0 130
424 -10 1202 1362 90 302 0
425 -20 2391 2551 90 377 0
426 20 717 877 90 0 318
427 20 334 494 90 0 566
428 -20 1200 1360 90 155 0
429 -20 1238 1398 90 270 0
430 -30 2229 2389 90 518 0
431 10 132 292 90 0 156
432 10 320 480 90 0 174
433 10 414 574 90 0 315
434 20 1397 1557 90 0 277
435 20 1058 1218 90 0 300
436 30 1846 2006 90 0 304
437 -30 224 384 90 40 0
438 -10 3052 3212 90 586 0
439 -40 1984 2144 90 244 0
440 10 1552 1712 90 0 330
441 -40 1079 1239 90 196 0
442 30 726 886 90 0 161
443 -20 2152 2312 90 528 0
444 -10 2267 2427 90 72 0
445 -10 2856 3016 90 10 0
446 -30 1906 2066 90 13 0
447 -10 2938 3098 90 55 0
448 20 232 392 90 0 501
449 -10 712 872 90 341 0
450 10 1191 1351 90 0 320
451 20 1261 1421 90 0 565
452 -30 1939 2099 90 212 0
453 -10 1062 1222 90 405 0
454 30 2428 2588 90 0 101
455 20 1302 1462 90 0 257
456 20 843 1003 90 0 87
457 -30 1400 1560 90 224 0
458 -20 2844 3004 90 301 0
459 -20 2238 2398 90 91 0
460 -20 840 1000 90 542 0
461 -10 1969 2129 90 81 0
462 20 124 284 90 0 572
463 20 1139 1299 90 0 578
464 -20 2509 2669 90 105 0
465 30 95 255 90 0 24
466 -20 2960 3120 90 331 0
467 -40 2129 2289 90 92 0
468 20 726 886 90 0 132
469 -10 2939 3099 90 68 0
470 10 20 180 90 0 226
471 -20 912 1072 90 353 0
472 20 583 743 90 0 275
473 10 126 286 90 0 69
474 40 1338 1498 90 0 492
475 20 183 343 90 0 314
476 20 2743 2903 90 0 361
477 -10 1997 2157 90 86 0
478 30 2054 2214 90 0 232
479 -20 2950 3110 90 568 0
480 30 2538 2698 90 0 115
481 20 1467 1627 90 0 66
482 -20 2819 2979 90 63 0
483 20 1271 1431 90 0 149
484 20 1532 1692 90 0 124
485 -10 1853 2013 90 289 0
486 -30 2321 2481 90 154 0
487 20 1941 2101 90 0 417
488 30 1747 1907 90 0 552
489 10 920 1080 90 0 576
490 10 429 589 90 0 414
491 -10 1701 1861 90 176 0
492 -40 2904 3064 90 474 0
493 -20 2792 2952 90 306 0
494 -10 443 603 90 64 0
495 10 703 863 0 0 604
496 10 2869 3029 90 0 373
497 10 107 267 90 0 258
498 30 2374 2534 90 0 393
499 -20 1245 1405 90 297 0
500 20 840 1000 90 0 49
501 -20 330 490 90 448 0
502 20 1169 1329 90 0 546
503 -10 1565 1725 90 384 0
504 -30 2248 2408 90 230 0
505 30 662 822 90 0 347
506 20 1678 1838 90 0 70
507 10 628 788 90 0 67
508 10 130 290 90 0 536
509 -10 2524 2684 90 278 0
510 -20 2769 2929 90 210 0
511 10 1150 1310 90 0 23
512 -30 488 648 90 112 0
513 30 2278 2438 90 0 51
514 -30 2154 2314 90 375 0
515 -10 3255 3415 90 590 0
516 10 2709 2869 0 0 606
517 -20 2811 2971 90 52 0
518 30 203 363 90 0 430
519 20 691 851 90 0 390
520 -20 1595 1755 90 551 0
521 -10 1160 1320 90 107 0
522 30 559 719 90 0 392
523 20 534 694 90 0 184
524 30 850 1010 90 0 217
525 -20 1079 1239 90 25 0
526 -10 1354 1514 90 250 0
527 -10 3237 3397 90 73 0
528 20 1444 1604 90 0 443
529 20 1448 1608 90 0 541
530 -10 2855 3015 90 391 0
531 -20 2657 2817 90 579 0
532 30 1704 1864 90 0 94
533 20 602 762 90 0 324
534 30 678 838 90 0 295
535 20 994 1154 90 0 118
536 -10 2998 3158 90 508 0
537 10 730 890 90 0 126
538 -40 1345 1505 90 383 0
539 -10 1387 1547 90 400 0
540 20 1033 1193 90 0 229
541 -20 2697 2857 90 529 0
542 20 351 511 90 0 460
543 30 238 398 90 0 421
544 -20 1669 1829 90 415 0
545 -30 3489 3649 90 329 0
546 -20 3041 3201 90 502 0
547 -30 2682 2842 90 48 0
548 30 161 321 0 0 602
549 -10 1175 1335 90 84 0
550 10 1478 1638 90 0 243
551 20 214 374 90 0 520
552 -30 2665 2825 90 488 0
553 -20 2062 2222 90 170 0
554 10 80 240 90 0 261
555 20 225 385 90 0 376
556 -20 947 1107 90 27 0
557 -20 2487 2647 90 47 0
558 -10 1458 1618 90 82 0
559 30 583 743 90 0 265
560 10 41 201 90 0 53
561 10 2492 2652 90 0 401
562 -10 2185 2345 90 88 0
563 40 633 793 90 0 398
564 -10 423 583 90 223 0
565 -20 3096 3256 90 451 0
566 -20 2750 2910 90 427 0
567 20 984 1144 90 0 236
568 20 2555 2715 90 0 479
569 10 2185 2345 90 0 255
570 20 2908 3068 90 0 597
571 20 1264 1424 90 0 219
572 -20 2966 3126 90 462 0
573 -30 1459 1619 90 213 0
574 20 295 455 90 0 596
575 10 1667 1827 90 0 34
576 -10 1540 1700 90 489 0
577 30 1571 1731 90 0 198
578 -20 1937 2097 90 463 0
579 20 2044 2204 90 0 531
580 30 2457 2617 90 0 271
581 -10 2349 2509 90 111 0
582 20 1999 2159 90 0 164
583 -20 2090 2250 90 256 0
584 -20 2005 2165 90 31 0
585 -20 3107 3267 90 102 0
586 10 2069 2229 90 0 438
587 10 908 1068 90 0 106
588 30 1833 1993 90 0 264
589 20 1544 1704 90 0 404
590 10 2381 2541 90 0 515
591 -10 406 566 90 410 0
592 20 109 269 90 0 238
593 30 1782 1942 90 0 89
594 10 300 460 90 0 169
595 20 363 523 90 0 216
596 -20 2126 2286 90 574 0
597 -20 3005 3165 90 570 0
598 10 1600 1760 90 0 351
599 -20 804 964 90 313 0
600 10 1342 1502 90 0 166
601 10 2102 2262 90 0 342
602 -30 161 321 90 548 0
603 -20 2951 3111 90 157 0
604 -10 703 863 90 495 0
605 -10 796 956 90 125 0
606 -10 2709 2869 90 516 0
607 -30 2720 2880 90 160 0
608 -10 2773 2933 90 337 0
609 -40 2636 2796 90 380 0
DEPOT_SECTION
1
-1
EOF
