NAME: lc2_6_2
TYPE: PDPTW
COMMENT: Li & Lim PDPTW benchmark converted from SINTEF format
DIMENSION: 605
VEHICLES: 150
CAPACITY: 700
EDGE_WEIGHT_TYPE: EUC_2D
NODE_COORD_SECTION
1 150 150
2 248 45
3 227 221
4 122 246
5 165 85
6 253 198
7 55 126
8 131 70
9 58 230
10 243 35
11 97 45
12 30 28
13 108 27
14 279 44
15 97 40
16 18 52
17 226 232
18 272 21
19 64 30
20 141 231
21 68 211
22 50 104
23 182 178
24 66 211
25 83 219
26 141 210
27 173 87
28 260 180
29 165 187
30 117 262
31 91 49
32 176 82
33 41 46
34 182 233
35 239 181
36 177 114
37 34 135
38 140 231
39 142 82
40 102 51
41 238 62
42 261 39
43 6 146
44 244 235
45 125 23
46 135 23
47 92 52
48 136 272
49 262 257
50 75 28
51 123 63
52 224 155
53 170 116
54 179 62
55 154 257
56 240 38
57 83 105
58 207 201
59 28 122
60 25 150
61 262 32
62 67 237
63 34 50
64 186 196
65 252 60
66 97 10
67 239 262
68 71 102
69 101 29
70 103 35
71 139 244
72 231 170
73 84 114
74 74 109
75 222 160
76 38 163
77 125 9
78 237 203
79 17 134
80 203 200
81 19 137
82 263 248
83 29 137
84 80 255
85 53 145
86 190 157
87 171 58
88 125 39
89 0 169
90 252 37
91 65 233
92 287 246
93 192 251
94 143 6
95 151 228
96 173 180
97 271 34
98 62 132
99 214 210
100 276 38
101 60 143
102 49 57
103 138 17
104 281 187
105 264 250
106 193 250
107 225 213
108 173 144
109 160 111
110 135 270
111 108 103
112 78 128
113 263 195
114 233 160
115 52 59
116 134 279
117 207 183
118 264 64
119 153 144
120 17 152
121 270 178
122 86 100
123 49 56
124 39 129
125 116 21
126 28 52
127 254 157
128 163 114
129 141 55
130 167 110
131 141 33
132 241 276
133 152 245
134 266 172
135 68 57
136 91 104
137 299 177
138 75 89
139 53 57
140 182 236
141 168 287
142 71 222
143 87 237
144 9 136
145 233 228
146 48 36
147 264 181
148 227 32
149 57 232
150 23 144
151 275 31
152 206 171
153 42 147
154 56 117
155 15 138
156 56 43
157 226 56
158 248 48
159 37 63
160 62 221
161 189 138
162 203 217
163 170 89
164 258 169
165 201 154
166 183 140
167 86 133
168 71 159
169 74 248
170 32 128
171 245 233
172 227 211
173 47 141
174 255 64
175 264 42
176 266 28
177 6 139
178 172 146
179 99 32
180 272 41
181 176 136
182 256 15
183 87 234
184 246 254
185 255 187
186 244 251
187 290 49
188 234 216
189 207 203
190 81 223
191 234 38
192 221 203
193 69 239
194 150 16
195 100 34
196 130 38
197 62 122
198 96 6
199 263 12
200 180 183
201 212 190
202 61 232
203 64 234
204 171 143
205 49 46
206 64 134
207 168 49
208 153 88
209 199 214
210 204 189
211 160 84
212 90 86
213 87 105
214 236 213
215 239 201
216 274 195
217 264 39
218 258 44
219 87 96
220 230 182
221 63 89
222 57 40
223 70 66
224 196 191
225 68 164
226 182 144
227 223 213
228 13 51
229 189 232
230 59 110
231 193 175
232 180 231
233 160 56
234 161 62
235 44 51
236 122 5
237 131 261
238 101 31
239 162 141
240 231 235
241 167 256
242 177 132
243 78 223
244 236 65
245 169 56
246 42 240
247 153 74
248 220 231
249 192 176
250 223 177
251 115 25
252 62 44
253 218 208
254 143 236
255 162 157
256 197 178
257 272 185
258 269 257
259 184 163
260 83 35
261 56 132
262 193 194
263 273 184
264 52 153
265 65 152
266 57 119
267 185 241
268 78 39
269 37 149
270 196 129
271 26 161
272 142 242
273 266 49
274 268 43
275 144 250
276 153 64
277 3 159
278 72 234
279 96 17
280 237 222
281 169 134
282 242 205
283 160 244
284 221 213
285 34 55
286 65 217
287 236 224
288 173 73
289 139 262
290 196 158
291 97 28
292 135 65
293 156 63
294 20 146
295 171 253
296 157 88
297 268 49
298 229 217
299 239 177
300 141 266
301 71 126
302 225 70
303 249 44
304 155 60
305 76 30
306 172 148
307 176 140
308 191 188
309 238 203
310 202 178
311 153 256
312 31 63
313 228 62
314 73 104
315 115 2
316 284 184
317 218 197
318 233 224
319 256 38
320 146 270
321 196 178
322 265 211
323 214 51
324 111 22
325 266 37
326 257 41
327 250 247
328 85 222
329 214 239
330 233 189
331 116 272
332 143 108
333 278 42
334 163 256
335 40 60
336 191 168
337 137 255
338 57 126
339 267 255
340 109 126
341 230 59
342 133 1
343 197 174
344 133 246
345 247 243
346 92 90
347 220 171
348 96 110
349 116 18
350 110 47
351 209 173
352 47 118
353 209 184
354 114 43
355 170 69
356 278 179
357 86 83
358 166 261
359 184 267
360 251 219
361 169 221
362 106 34
363 67 142
364 78 213
365 0 166
366 52 80
367 152 247
368 283 195
369 242 263
370 222 196
371 92 23
372 13 66
373 132 248
374 271 32
375 178 240
376 45 44
377 162 246
378 50 80
379 126 20
380 193 224
381 244 260
382 122 24
383 261 49
384 153 241
385 208 191
386 252 50
387 195 168
388 268 19
389 238 170
390 182 245
391 228 200
392 263 169
393 174 155
394 270 25
395 175 84
396 261 255
397 23 163
398 178 127
399 245 42
400 259 212
401 115 235
402 18 151
403 284 30
404 179 59
405 217 219
406 96 13
407 116 34
408 241 46
409 165 83
410 246 187
411 184 245
412 149 82
413 207 209
414 248 255
415 79 238
416 124 10
417 225 201
418 266 33
419 12 133
420 134 273
421 175 142
422 180 227
423 164 79
424 261 45
425 125 253
426 256 197
427 22 126
428 24 141
429 192 152
430 43 153
431 74 62
432 236 53
433 116 35
434 28 147
435 143 250
436 157 62
437 89 57
438 231 236
439 247 46
440 225 191
441 114 27
442 178 118
443 31 48
444 255 178
445 225 51
446 104 15
447 163 223
448 245 240
449 252 62
450 188 244
451 227 187
452 89 102
453 216 192
454 58 161
455 264 194
456 165 69
457 191 172
458 87 112
459 78 234
460 199 179
461 3 149
462 99 53
463 276 22
464 250 264
465 83 218
466 132 253
467 243 252
468 258 213
469 92 114
470 149 130
471 251 186
472 149 244
473 129 41
474 295 254
475 95 104
476 178 218
477 202 169
478 168 237
479 37 165
480 39 57
481 77 25
482 41 63
483 53 243
484 42 123
485 172 249
486 43 155
487 239 174
488 239 188
489 182 130
490 259 235
491 252 44
492 235 260
493 163 150
494 196 194
495 98 33
496 131 254
497 232 220
498 215 168
499 292 18
500 262 237
501 250 234
502 75 85
503 178 247
504 59 124
505 219 174
506 89 24
507 252 218
508 238 231
509 78 222
510 251 180
511 226 164
512 66 139
513 105 21
514 176 232
515 196 190
516 210 181
517 198 182
518 70 131
519 165 269
520 236 210
521 222 197
522 220 187
523 251 222
524 285 30
525 61 237
526 229 186
527 108 131
528 3 34
529 273 18
530 223 204
531 87 114
532 87 10
533 122 32
534 150 240
535 259 71
536 231 260
537 53 28
538 284 12
539 259 202
540 264 249
541 263 43
542 196 192
543 171 141
544 53 225
545 191 215
546 99 124
547 137 256
548 262 50
549 59 243
550 57 235
551 245 197
552 232 199
553 1 152
554 78 114
555 76 59
556 154 78
557 124 13
558 267 265
559 63 135
560 158 136
561 132 262
562 104 18
563 176 117
564 73 49
565 185 180
566 26 168
567 92 28
568 20 155
569 208 174
570 192 185
571 80 84
572 141 3
573 93 77
574 70 133
575 170 255
576 191 151
577 77 11
578 270 23
579 76 110
580 14 160
581 70 128
582 283 180
583 204 171
584 111 10
585 56 57
586 235 219
587 195 253
588 50 139
589 145 63
590 243 199
591 241 209
592 123 44
593 7 144
594 86 232
595 205 191
596 30 150
597 186 181
598 177 160
599 253 64
600 187 165
601 117 14
602 135 270
603 53 145
604 66 211
605 165 269
PICKUP_AND_DELIVERY_SECTION
1 0 0 3815 0 0 0
2 -10 2075 2235 90 274 0
3 10 1971 2131 90 0 375
4 -20 3248 3408 90 71 0
5 -10 0 3659 90 423 0
6 20 810 970 90 0 185
7 -30 0 3628 90 261 0
8 -20 1247 1407 90 39 0
9 -40 0 3604 90 149 0
10 -30 0 3578 90 543 0
11 20 419 579 90 0 595
12 30 0 3554 90 0 159
13 -10 1175 1335 90 88 0
14 10 638 798 90 0 403
15 20 514 674 90 0 515
16 20 0 3561 90 0 372
17 20 3148 3308 90 0 329
18 -30 1844 2004 90 499 0
19 -10 629 789 90 431 0
20 -10 0 3644 90 420 0
21 -20 3003 3163 90 509 0
22 20 863 1023 90 0 79
23 -30 3190 3350 90 565 0
24 10 2911 3071 0 0 604
25 20 106 266 90 0 193
26 20 60 220 90 0 133
27 20 0 3658 90 0 436
28 10 1105 1265 90 0 520
29 -20 3390 3550 90 476 0
30 20 2289 2449 90 0 401
31 -30 1478 1638 90 268 0
32 10 645 805 90 0 456
33 10 2344 2504 90 0 378
34 20 0 3637 90 0 447
35 20 94 254 90 0 298
36 -10 540 700 90 560 0
37 20 1726 1886 90 0 596
38 -10 0 3644 90 561 0
39 20 1141 1301 90 0 8
40 30 110 270 90 0 218
41 10 420 580 90 0 535
42 -10 2980 3140 90 394 0
43 -20 1874 2034 90 57 0
44 -20 2479 2639 90 339 0
45 -40 2296 2456 90 196 0
46 -20 3361 3521 90 94 0
47 20 320 480 90 0 495
48 -20 1793 1953 90 472 0
49 20 0 3571 90 0 287
50 -20 1373 1533 90 567 0
51 -20 0 3634 90 350 0
52 -10 0 3651 90 356 0
53 20 443 603 90 0 86
54 -20 2613 2773 90 292 0
55 10 0 3618 90 0 237
56 10 2552 2712 90 0 157
57 20 465 625 90 0 43
58 -20 3149 3309 90 417 0
59 -20 237 397 90 170 0
60 -20 1491 1651 90 434 0
61 10 0 3563 90 0 391
62 10 983 1143 90 0 525
63 -20 0 3572 90 156 0
64 10 69 229 90 0 256
65 20 620 780 90 0 158
66 -50 1966 2126 90 135 0
67 -10 0 3582 90 464 0
68 10 658 818 90 0 461
69 -30 2377 2537 90 532 0
70 -30 0 3601 90 577 0
71 20 869 1029 90 0 4
72 -40 0 3642 90 104 0
73 -20 2750 2910 90 581 0
74 40 2136 2296 90 0 504
75 20 856 1016 90 0 192
76 -20 3042 3202 90 89 0
77 -30 2671 2831 90 238 0
78 -20 2569 2729 90 127 0
79 -20 0 3592 90 22 0
80 10 0 3653 90 0 96
81 10 435 595 90 0 419
82 -10 0 3576 90 497 0
83 20 0 3604 90 0 271
84 10 690 850 90 0 364
85 20 0 3628 0 0 603
86 -20 1703 1863 90 53 0
87 -10 2711 2871 90 247 0
88 10 314 474 90 0 13
89 20 0 3574 90 0 76
90 -30 3171 3331 90 541 0
91 20 2045 2205 90 0 278
92 40 0 3558 90 0 258
93 40 1001 1161 90 0 267
94 20 0 3581 90 0 46
95 10 78 238 90 0 241
96 -10 3289 3449 90 80 0
97 -20 2411 2571 90 418 0
98 -20 767 927 90 363 0
99 10 0 3638 90 0 370
100 10 451 611 90 0 176
101 -20 2723 2883 90 574 0
102 20 2919 3079 90 0 115
103 -20 3264 3424 90 416 0
104 40 1692 1852 90 0 72
105 20 1124 1284 90 0 327
106 -20 0 3617 90 132 0
107 -10 0 3628 90 209 0
108 20 2312 2472 90 0 119
109 -20 3312 3472 90 129 0
110 20 1886 2046 0 0 602
111 10 63 223 90 0 566
112 30 104 264 90 0 154
113 30 0 3604 90 0 263
114 -20 0 3642 90 121 0
115 -20 3292 3452 90 102 0
116 30 1985 2145 90 0 547
117 30 82 242 90 0 522
118 20 1093 1253 90 0 128
119 -20 2991 3151 90 108 0
120 20 0 3592 90 0 397
121 20 2380 2540 90 0 114
122 -10 1845 2005 90 346 0
123 10 3010 3170 90 0 585
124 10 1628 1788 90 0 430
125 10 796 956 90 0 342
126 -10 2057 2217 90 335 0
127 20 0 3621 90 0 78
128 -20 3407 3567 90 118 0
129 20 1445 1605 90 0 109
130 -20 3215 3375 90 491 0
131 20 0 3608 90 0 208
132 20 2614 2774 90 0 106
133 -20 298 458 90 26 0
134 20 0 3607 90 0 489
135 50 324 484 90 0 66
136 10 277 437 90 0 580
137 20 1893 2053 90 0 392
138 -10 1075 1235 90 144 0
139 -30 3200 3360 90 480 0
140 -30 2530 2690 90 485 0
141 10 0 3587 90 0 295
142 -20 2621 2781 90 483 0
143 -30 485 645 90 328 0
144 10 813 973 90 0 138
145 -20 0 3612 90 396 0
146 10 0 3573 90 0 228
147 10 1199 1359 90 0 309
148 40 0 3585 90 0 444
149 40 0 3602 90 0 9
150 -20 0 3598 90 428 0
151 10 1040 1200 90 0 326
152 30 59 219 90 0 530
153 10 108 268 90 0 219
154 -30 1335 1495 90 112 0
155 20 623 783 90 0 531
156 20 926 1086 90 0 63
157 -10 2951 3111 90 56 0
158 -20 0 3584 90 65 0
159 -30 2725 2885 90 12 0
160 -10 2720 2880 90 544 0
161 -30 0 3685 90 389 0
162 -10 288 448 90 413 0
163 10 365 525 90 0 293
164 20 0 3616 90 0 317
165 40 1139 1299 90 0 477
166 -20 1836 1996 90 336 0
167 30 2548 2708 90 0 458
168 -20 3021 3181 90 225 0
169 -20 0 3601 90 415 0
170 20 140 300 90 0 59
171 20 2281 2441 90 0 587
172 10 766 926 90 0 400
173 -20 1926 2086 90 484 0
174 -20 896 1056 90 599 0
175 -10 2606 2766 90 273 0
176 -10 0 3557 90 100 0
177 30 908 1068 90 0 452
178 -20 2404 2564 90 226 0
179 -40 0 3597 90 324 0
180 20 2508 2668 90 0 313
181 -30 1934 2094 90 460 0
182 -20 1647 1807 90 529 0
183 30 392 552 90 0 459
184 -20 2223 2383 90 186 0
185 -20 1007 1167 90 6 0
186 20 2038 2198 90 0 184
187 10 740 900 90 0 217
188 -10 1782 1942 90 590 0
189 20 77 237 90 0 455
190 10 2340 2500 90 0 243
191 -30 2648 2808 90 548 0
192 -20 2948 3108 90 75 0
193 -20 890 1050 90 25 0
194 -20 3162 3322 90 349 0
195 20 611 771 90 0 215
196 40 0 3612 90 0 45
197 20 1147 1307 90 0 486
198 10 1804 1964 90 0 354
199 -30 0 3547 90 524 0
200 10 44 204 90 0 421
201 10 460 620 90 0 451
202 -30 1860 2020 90 246 0
203 10 0 3605 90 0 286
204 20 146 306 90 0 323
205 10 1024 1184 90 0 528
206 10 674 834 90 0 269
207 -30 2322 2482 90 233 0
208 -20 0 3663 90 131 0
209 10 193 353 90 0 107
210 -20 271 431 90 353 0
211 -10 264 424 90 332 0
212 30 1559 1719 90 0 469
213 30 371 531 90 0 593
214 -10 0 3619 90 471 0
215 -20 2476 2636 90 195 0
216 30 1495 1655 90 0 316
217 -10 2792 2952 90 187 0
218 -30 0 3574 90 40 0
219 -10 1751 1911 90 153 0
220 -20 2484 2644 90 521 0
221 -10 0 3619 90 554 0
222 10 833 993 90 0 376
223 10 116 276 90 0 252
224 -30 0 3664 90 262 0
225 20 2926 3086 90 0 168
226 20 1742 1902 90 0 178
227 30 582 742 90 0 368
228 -10 1554 1714 90 146 0
229 -20 0 3635 90 377 0
230 30 762 922 90 0 277
231 20 1210 1370 90 0 457
232 -30 2344 2504 90 503 0
233 30 2221 2381 90 0 207
234 -10 1752 1912 90 470 0
235 -10 2440 2600 90 443 0
236 -20 2766 2926 90 371 0
237 -10 0 3613 90 55 0
238 30 1368 1528 90 0 77
239 -20 2891 3051 90 249 0
240 -10 2961 3121 90 318 0
241 -10 498 658 90 95 0
242 -10 0 3693 90 322 0
243 -10 2433 2593 90 190 0
244 -20 513 673 90 281 0
245 -10 2419 2579 90 304 0
246 30 1373 1533 90 0 202
247 10 1648 1808 90 0 87
248 10 0 3618 90 0 545
249 20 1118 1278 90 0 239
250 10 0 3648 90 0 440
251 -10 986 1146 90 473 0
252 -10 0 3588 90 223 0
253 20 866 1026 90 0 299
254 10 0 3639 90 0 275
255 -10 0 3712 90 351 0
256 -10 0 3671 90 64 0
257 -20 2283 2443 90 523 0
258 -40 1557 1717 90 92 0
259 -10 1436 1596 90 310 0
260 -10 1085 1245 90 564 0
261 30 863 1023 90 0 7
262 30 0 3664 90 0 224
263 -30 2191 2351 90 113 0
264 -30 2528 2688 90 454 0
265 -20 2823 2983 90 352 0
266 -20 0 3627 90 338 0
267 -40 1285 1445 90 93 0
268 30 0 3593 90 0 31
269 -10 2029 2189 90 206 0
270 20 1024 1184 90 0 576
271 -20 2653 2813 90 83 0
272 10 776 936 90 0 289
273 10 256 416 90 0 175
274 10 1299 1459 90 0 2
275 -10 967 1127 90 254 0
276 10 2031 2191 90 0 404
277 -30 2160 2320 90 230 0
278 -20 0 3611 90 91 0
279 10 1869 2029 90 0 557
280 -20 2675 2835 90 540 0
281 20 335 495 90 0 244
282 30 312 472 90 0 591
283 30 296 456 90 0 450
284 -10 490 650 90 405 0
285 20 0 3576 90 0 312
286 -10 2815 2975 90 203 0
287 -20 2583 2743 90 49 0
288 10 0 3645 90 0 412
289 -10 1161 1321 90 272 0
290 30 1800 1960 90 0 516
291 40 889 1049 90 0 513
292 20 0 3639 90 0 54
293 -10 1937 2097 90 163 0
294 20 1013 1173 90 0 571
295 -10 1759 1919 90 141 0
296 10 169 329 90 0 589
297 20 348 508 90 0 374
298 -20 1877 2037 90 35 0
299 -20 1848 2008 90 253 0
300 -10 0 3609 90 367 0
301 -30 2442 2602 90 573 0
302 -30 0 3616 90 578 0
303 10 2166 2326 90 0 408
304 10 2125 2285 90 0 245
305 -20 1281 1441 90 555 0
306 -20 2496 2656 90 307 0
307 20 2127 2287 90 0 306
308 20 3350 3510 90 0 598
309 -10 1498 1658 90 147 0
310 10 747 907 90 0 259
311 -10 0 3619 90 384 0
312 -20 1862 2022 90 285 0
313 -20 0 3608 90 180 0
314 20 565 725 90 0 402
315 -20 2075 2235 90 481 0
316 -30 1786 1946 90 216 0
317 -20 0 3643 90 164 0
318 10 2770 2930 90 0 240
319 20 1509 1669 90 0 399
320 30 1693 1853 90 0 425
321 -20 0 3672 90 542 0
322 10 0 3595 90 0 242
323 -20 3054 3214 90 204 0
324 40 0 3592 90 0 179
325 -10 0 3564 90 449 0
326 -10 3074 3234 90 151 0
327 -20 1941 2101 90 105 0
328 30 0 3628 90 0 143
329 -20 3344 3504 90 17 0
330 -10 1651 1811 90 347 0
331 20 2189 2349 90 0 344
332 10 42 202 90 0 211
333 -10 546 706 90 398 0
334 10 0 3619 90 0 390
335 10 0 3583 90 0 126
336 20 0 3681 90 0 166
337 10 0 3620 90 0 373
338 20 1051 1211 90 0 266
339 20 1649 1809 90 0 44
340 -10 3142 3302 90 546 0
341 -10 0 3604 90 432 0
342 -10 2868 3028 90 125 0
343 -20 1304 1464 90 494 0
344 -20 3147 3307 90 331 0
345 30 2381 2541 90 0 448
346 10 1653 1813 90 0 122
347 10 755 915 90 0 330
348 10 87 247 90 0 475
349 20 2196 2356 90 0 194
350 20 2672 2832 90 0 51
351 10 2276 2436 90 0 255
352 20 0 3618 90 0 265
353 20 174 334 90 0 210
354 -10 2577 2737 90 198 0
355 20 0 3642 90 0 409
356 10 2094 2254 90 0 52
357 30 1360 1520 90 0 579
358 10 593 753 90 0 361
359 10 800 960 90 0 575
360 20 0 3603 90 0 539
361 -10 2842 3002 90 358 0
362 10 1272 1432 90 0 506
363 20 395 555 90 0 98
364 -10 3103 3263 90 84 0
365 -20 2257 2417 90 553 0
366 -10 0 3605 90 537 0
367 10 489 649 90 0 300
368 -30 0 3585 90 227 0
369 -40 2717 2877 90 414 0
370 -10 1456 1616 90 99 0
371 20 1771 1931 90 0 236
372 -20 1754 1914 90 16 0
373 -10 3055 3215 90 337 0
374 -20 2319 2479 90 297 0
375 -10 0 3631 90 3 0
376 -10 1118 1278 90 222 0
377 20 0 3629 90 0 229
378 -10 3403 3563 90 33 0
379 -20 2389 2549 90 382 0
380 -30 2636 2796 90 478 0
381 -10 2412 2572 90 586 0
382 20 700 860 90 0 379
383 40 150 310 90 0 538
384 10 0 3634 90 0 311
385 -20 0 3654 90 437 0
386 -20 1797 1957 90 462 0
387 20 1900 2060 90 0 505
388 -20 1750 1910 90 463 0
389 30 2876 3036 90 0 161
390 -10 0 3625 90 334 0
391 -10 0 3633 90 61 0
392 -20 2571 2731 90 137 0
393 20 2593 2753 90 0 493
394 10 0 3552 90 0 42
395 10 552 712 90 0 556
396 20 0 3573 90 0 145
397 -20 2846 3006 90 120 0
398 10 0 3689 90 0 333
399 -20 2360 2520 90 319 0
400 -10 0 3600 90 172 0
401 -20 0 3634 90 30 0
402 -20 1588 1748 90 314 0
403 -10 0 3546 90 14 0
404 -10 2520 2680 90 276 0
405 10 392 552 90 0 284
406 -20 1605 1765 90 592 0
407 20 505 665 90 0 533
408 -10 0 3587 90 303 0
409 -20 3008 3168 90 355 0
410 10 113 273 90 0 551
411 -20 0 3625 90 426 0
412 -10 1044 1204 90 288 0
413 10 94 254 90 0 162
414 40 2315 2475 90 0 369
415 20 583 743 90 0 169
416 20 2580 2740 90 0 103
417 20 2594 2754 90 0 58
418 20 2224 2384 90 0 97
419 -10 719 879 90 81 0
420 10 2081 2241 90 0 20
421 -10 2219 2379 90 200 0
422 -10 2250 2410 90 514 0
423 10 2914 3074 90 0 5
424 40 1202 1362 90 0 600
425 -30 2391 2551 90 320 0
426 20 717 877 90 0 411
427 20 334 494 90 0 502
428 20 1200 1360 90 0 150
429 -40 1238 1398 90 563 0
430 -10 2229 2389 90 124 0
431 10 132 292 90 0 19
432 10 0 3596 90 0 341
433 10 0 3606 90 0 552
434 20 0 3603 90 0 60
435 20 1058 1218 90 0 466
436 -20 1846 2006 90 27 0
437 20 224 384 90 0 385
438 -10 0 3607 90 558 0
439 10 1984 2144 90 0 445
440 -10 1552 1712 90 250 0
441 20 1079 1239 90 0 446
442 30 726 886 90 0 511
443 10 2152 2312 90 0 235
444 -40 2267 2427 90 148 0
445 -10 0 3601 90 439 0
446 -20 1906 2066 90 441 0
447 -20 2938 3098 90 34 0
448 -30 0 3595 90 345 0
449 10 712 872 90 0 325
450 -30 0 3624 90 283 0
451 -10 1261 1421 90 201 0
452 -30 1939 2099 90 177 0
453 40 1062 1222 90 0 487
454 30 2428 2588 90 0 264
455 -20 1302 1462 90 189 0
456 -10 843 1003 90 32 0
457 -20 1400 1560 90 231 0
458 -30 2844 3004 90 167 0
459 -30 2238 2398 90 183 0
460 30 840 1000 90 0 181
461 -10 1969 2129 90 68 0
462 20 0 3616 90 0 386
463 20 0 3546 90 0 388
464 10 2509 2669 90 0 67
465 30 0 3630 90 0 594
466 -20 0 3621 90 435 0
467 -10 2129 2289 90 501 0
468 -10 726 886 90 507 0
469 -30 2939 3099 90 212 0
470 10 0 3705 90 0 234
471 10 912 1072 90 0 214
472 20 583 743 90 0 48
473 10 0 3614 90 0 251
474 -10 0 3547 90 490 0
475 -10 183 343 90 348 0
476 20 2743 2903 90 0 29
477 -40 1997 2157 90 165 0
478 30 2054 2214 90 0 380
479 -20 2950 3110 90 568 0
480 30 2538 2698 90 0 139
481 20 1467 1627 90 0 315
482 -10 2819 2979 90 527 0
483 20 1271 1431 90 0 142
484 20 1532 1692 90 0 173
485 30 1853 2013 90 0 140
486 -20 0 3618 90 197 0
487 -40 1941 2101 90 453 0
488 30 1747 1907 90 0 526
489 -20 0 3688 90 134 0
490 10 429 589 90 0 474
491 20 1701 1861 90 0 130
492 40 2904 3064 90 0 536
493 -20 2792 2952 90 393 0
494 20 443 603 90 0 343
495 -20 703 863 90 47 0
496 -30 2869 3029 90 534 0
497 10 107 267 90 0 82
498 30 2374 2534 90 0 517
499 30 1245 1405 90 0 18
500 -10 840 1000 90 508 0
501 10 330 490 90 0 467
502 -20 1169 1329 90 427 0
503 30 1565 1725 90 0 232
504 -40 2248 2408 90 74 0
505 -20 0 3652 90 387 0
506 -10 1678 1838 90 362 0
507 10 628 788 90 0 468
508 10 130 290 90 0 500
509 20 2524 2684 90 0 21
510 -20 2769 2929 90 582 0
511 -30 1150 1310 90 442 0
512 -30 488 648 90 518 0
513 -40 2278 2438 90 291 0
514 10 2154 2314 90 0 422
515 -20 3255 3415 90 15 0
516 -30 2709 2869 90 290 0
517 -30 2811 2971 90 498 0
518 30 203 363 90 0 512
519 20 691 851 0 0 605
520 -10 1595 1755 90 28 0
521 20 1160 1320 90 0 220
522 -30 559 719 90 117 0
523 20 0 3601 90 0 257
524 30 850 1010 90 0 199
525 -10 0 3601 90 62 0
526 -30 0 3639 90 488 0
527 10 0 3679 90 0 482
528 -10 1444 1604 90 205 0
529 20 1448 1608 90 0 182
530 -30 2855 3015 90 152 0
531 -20 2657 2817 90 155 0
532 30 0 3572 90 0 69
533 -20 602 762 90 407 0
534 30 678 838 90 0 496
535 -10 994 1154 90 41 0
536 -40 2998 3158 90 492 0
537 10 730 890 90 0 366
538 -40 0 3533 90 383 0
539 -20 0 3605 90 360 0
540 20 1033 1193 90 0 280
541 30 2697 2857 90 0 90
542 20 351 511 90 0 321
543 30 238 398 90 0 10
544 10 0 3603 90 0 160
545 -10 3489 3649 90 248 0
546 10 3041 3201 90 0 340
547 -30 2682 2842 90 116 0
548 30 0 3575 90 0 191
549 30 1175 1335 90 0 550
550 -30 1478 1638 90 549 0
551 -10 214 374 90 410 0
552 -10 0 3630 90 433 0
553 20 0 3576 90 0 365
554 10 80 240 90 0 221
555 20 225 385 90 0 305
556 -10 947 1107 90 395 0
557 -10 2487 2647 90 279 0
558 10 0 3561 90 0 438
559 30 583 743 90 0 588
560 10 41 201 90 0 36
561 10 0 3612 90 0 38
562 -10 0 3586 90 601 0
563 40 633 793 90 0 429
564 10 423 583 90 0 260
565 30 3096 3256 90 0 23
566 -10 2750 2910 90 111 0
567 20 984 1144 90 0 50
568 20 0 3595 90 0 479
569 -10 2185 2345 90 583 0
570 20 2908 3068 90 0 597
571 -20 1264 1424 90 294 0
572 -10 0 3578 90 584 0
573 30 1459 1619 90 0 301
574 20 295 455 90 0 101
575 -10 1667 1827 90 359 0
576 -20 1540 1700 90 270 0
577 30 1571 1731 90 0 70
578 30 1937 2097 90 0 302
579 -30 2044 2204 90 357 0
580 -10 2457 2617 90 136 0
581 20 0 3643 90 0 73
582 20 1999 2159 90 0 510
583 10 2090 2250 90 0 569
584 10 2005 2165 90 0 572
585 -10 0 3593 90 123 0
586 10 2069 2229 90 0 381
587 -20 0 3613 90 171 0
588 -30 0 3625 90 559 0
589 -10 1544 1704 90 296 0
590 10 0 3620 90 0 188
591 -30 406 566 90 282 0
592 20 109 269 90 0 406
593 -30 0 3582 90 213 0
594 -30 0 3621 90 465 0
595 -20 0 3657 90 11 0
596 -20 0 3605 90 37 0
597 -20 3005 3165 90 570 0
598 -20 0 3697 90 308 0
599 20 804 964 90 0 174
600 -40 0 3686 90 424 0
601 10 2102 2262 90 0 562
602 -20 1886 2046 90 110 0
603 -20 0 3628 90 85 0
604 -10 2911 3071 90 24 0
605 -20 691 851 90 519 0
DEPOT_SECTION
1
-1
EOF
