NAME: lr1_6_10
TYPE: PDPTW
COMMENT: Li & Lim PDPTW benchmark converted from SINTEF format
DIMENSION: 629
VEHICLES: 150
CAPACITY: 200
EDGE_WEIGHT_TYPE: EUC_2D
NODE_COORD_SECTION
1 150 150
2 71 268
3 183 80
4 174 238
5 166 123
6 287 293
7 140 214
8 47 203
9 247 19
10 152 29
11 86 216
12 107 29
13 212 270
14 148 157
15 291 148
16 92 241
17 162 148
18 119 254
19 266 212
20 99 226
21 56 116
22 110 31
23 175 107
24 17 0
25 96 86
26 136 228
27 100 138
28 184 277
29 16 42
30 67 175
31 72 286
32 176 235
33 116 14
34 26 27
35 37 14
36 1 11
37 74 117
38 170 53
39 154 101
40 75 191
41 227 62
42 209 269
43 207 149
44 99 105
45 6 168
46 296 211
47 254 87
48 201 175
49 268 113
50 29 8
51 159 89
52 9 30
53 175 294
54 282 76
55 90 44
56 57 7
57 176 153
58 106 243
59 207 20
60 289 143
61 166 194
62 295 123
63 85 62
64 207 237
65 136 50
66 42 221
67 208 235
68 267 29
69 206 121
70 227 5
71 60 287
72 151 133
73 222 100
74 152 77
75 225 192
76 150 104
77 296 252
78 63 170
79 106 168
80 73 81
81 97 232
82 112 43
83 135 251
84 214 6
85 252 219
86 182 284
87 259 187
88 72 20
89 153 61
90 211 174
91 199 28
92 274 136
93 226 248
94 85 75
95 52 165
96 54 136
97 34 150
98 203 36
99 37 258
100 29 130
101 40 181
102 192 150
103 61 138
104 183 88
105 122 127
106 126 266
107 165 179
108 19 290
109 30 243
110 172 198
111 209 84
112 24 261
113 181 145
114 149 76
115 206 157
116 1 81
117 47 153
118 125 148
119 109 148
120 256 286
121 15 52
122 234 107
123 108 162
124 147 240
125 290 37
126 165 256
127 188 69
128 242 70
129 93 165
130 224 61
131 72 180
132 44 286
133 47 121
134 30 145
135 283 275
136 2 238
137 289 130
138 159 266
139 198 159
140 155 93
141 201 122
142 34 5
143 103 8
144 30 149
145 278 178
146 203 183
147 276 28
148 63 130
149 199 213
150 274 6
151 107 174
152 57 123
153 14 177
154 156 182
155 168 42
156 84 231
157 272 211
158 153 226
159 250 194
160 243 136
161 56 212
162 221 145
163 52 109
164 88 190
165 11 191
166 296 235
167 175 123
168 124 174
169 271 105
170 169 236
171 127 266
172 139 31
173 160 179
174 200 26
175 59 113
176 189 197
177 76 160
178 183 44
179 45 190
180 145 38
181 271 8
182 161 242
183 230 150
184 260 64
185 44 189
186 125 168
187 120 155
188 237 171
189 120 60
190 263 291
191 246 93
192 15 259
193 250 124
194 129 77
195 188 142
196 29 139
197 241 218
198 183 23
199 217 138
200 126 42
201 136 68
202 64 91
203 148 28
204 262 164
205 103 93
206 37 159
207 75 269
208 126 127
209 103 81
210 18 196
211 88 49
212 259 14
213 60 176
214 15 88
215 178 263
216 45 74
217 209 246
218 275 263
219 37 149
220 183 43
221 59 287
222 170 93
223 167 171
224 227 192
225 236 27
226 139 110
227 243 191
228 136 295
229 132 16
230 157 84
231 162 92
232 140 18
233 4 97
234 133 153
235 150 185
236 151 113
237 71 294
238 133 187
239 136 241
240 139 146
241 184 237
242 15 178
243 41 279
244 96 96
245 230 128
246 198 100
247 160 17
248 137 212
249 180 93
250 8 227
251 189 41
252 176 263
253 263 193
254 220 43
255 296 17
256 217 43
257 150 67
258 117 155
259 113 4
260 114 259
261 38 74
262 148 172
263 139 250
264 163 150
265 112 161
266 127 77
267 147 152
268 131 222
269 43 62
270 167 193
271 157 254
272 187 129
273 96 199
274 31 68
275 234 146
276 14 204
277 121 116
278 88 110
279 25 119
280 262 14
281 108 80
282 239 84
283 107 281
284 152 241
285 183 282
286 186 26
287 175 281
288 118 38
289 189 201
290 238 294
291 250 49
292 109 299
293 128 225
294 157 221
295 69 90
296 12 10
297 109 61
298 213 299
299 11 176
300 271 106
301 140 294
302 51 2
303 158 140
304 102 155
305 75 265
306 116 240
307 272 183
308 30 226
309 27 255
310 203 166
311 205 130
312 94 93
313 248 280
314 57 127
315 16 22
316 80 133
317 75 127
318 9 239
319 110 83
320 297 43
321 247 86
322 248 41
323 102 173
324 28 141
325 246 166
326 5 189
327 216 40
328 282 104
329 44 223
330 1 145
331 253 84
332 69 134
333 24 76
334 255 203
335 94 12
336 14 165
337 164 108
338 266 203
339 114 117
340 48 141
341 28 124
342 12 275
343 8 200
344 123 76
345 108 3
346 228 217
347 253 69
348 147 43
349 180 114
350 76 221
351 250 228
352 228 276
353 29 72
354 57 192
355 166 99
356 69 208
357 179 123
358 208 297
359 241 298
360 151 172
361 216 203
362 241 208
363 219 152
364 238 214
365 173 148
366 156 57
367 157 50
368 276 66
369 112 272
370 190 181
371 224 138
372 154 207
373 111 40
374 172 2
375 125 278
376 186 228
377 191 49
378 102 81
379 246 133
380 47 143
381 220 18
382 40 1
383 135 38
384 124 299
385 36 212
386 89 61
387 60 72
388 83 188
389 182 146
390 223 198
391 11 242
392 244 13
393 274 66
394 15 219
395 294 64
396 8 4
397 102 76
398 4 296
399 141 120
400 262 80
401 78 246
402 180 98
403 139 33
404 25 191
405 188 198
406 82 100
407 3 119
408 239 295
409 80 131
410 152 258
411 181 297
412 206 130
413 241 183
414 180 106
415 131 220
416 103 260
417 148 8
418 173 152
419 235 31
420 157 12
421 296 15
422 172 225
423 57 125
424 158 83
425 51 63
426 51 217
427 254 206
428 236 108
429 224 229
430 208 117
431 176 72
432 159 287
433 149 98
434 25 64
435 135 210
436 113 188
437 142 188
438 261 232
439 277 41
440 189 240
441 11 185
442 212 45
443 231 28
444 159 42
445 159 41
446 99 73
447 110 262
448 15 2
449 72 89
450 229 188
451 232 121
452 98 129
453 139 270
454 181 277
455 281 68
456 159 300
457 143 244
458 105 252
459 288 127
460 230 80
461 76 280
462 182 81
463 61 84
464 159 199
465 280 158
466 215 295
467 38 139
468 213 119
469 37 36
470 229 179
471 81 219
472 283 65
473 229 25
474 121 246
475 129 83
476 87 183
477 274 256
478 234 213
479 46 155
480 139 206
481 283 144
482 208 47
483 114 211
484 15 209
485 107 291
486 154 299
487 101 114
488 5 195
489 120 241
490 229 40
491 83 77
492 289 79
493 177 281
494 175 251
495 80 35
496 117 79
497 3 135
498 58 240
499 210 236
500 173 64
501 93 117
502 80 86
503 125 136
504 38 44
505 211 62
506 230 135
507 45 115
508 40 236
509 143 67
510 20 245
511 220 182
512 246 123
513 300 44
514 9 63
515 53 141
516 208 208
517 173 72
518 265 78
519 143 223
520 272 70
521 126 233
522 271 145
523 184 102
524 131 78
525 7 31
526 107 39
527 110 145
528 111 98
529 251 195
530 18 151
531 296 279
532 9 122
533 33 231
534 195 9
535 25 14
536 158 291
537 297 213
538 23 218
539 117 178
540 40 192
541 205 44
542 116 245
543 281 8
544 232 45
545 266 39
546 4 294
547 88 124
548 51 278
549 26 0
550 80 67
551 128 155
552 225 210
553 18 184
554 203 283
555 289 209
556 279 189
557 135 139
558 284 72
559 132 297
560 43 52
561 119 214
562 72 36
563 228 41
564 202 161
565 162 250
566 299 153
567 202 292
568 108 298
569 238 206
570 275 146
571 194 234
572 279 36
573 238 103
574 194 11
575 265 141
576 264 35
577 285 285
578 211 239
579 233 119
580 191 234
581 64 170
582 117 168
583 265 197
584 113 62
585 82 35
586 285 283
587 122 96
588 298 135
589 290 219
590 293 62
591 119 183
592 284 244
593 214 234
594 176 70
595 94 109
596 148 299
597 2 81
598 225 73
599 157 276
600 37 126
601 208 290
602 17 0
603 284 72
604 26 27
605 72 20
606 159 266
607 60 287
608 264 35
609 1 81
610 11 191
611 265 78
612 107 29
613 132 297
614 157 50
615 139 270
616 183 282
617 96 199
618 246 123
619 76 221
620 135 38
621 148 8
622 88 110
623 94 93
624 295 123
625 183 88
626 214 6
627 122 96
628 135 210
629 129 77
PICKUP_AND_DELIVERY_SECTION
1 0 0 1206 0 0 0
2 -25 171 302 10 548 0
3 13 77 233 10 0 428
4 -35 986 1090 10 410 0
5 14 31 151 10 0 244
6 -2 474 633 10 190 0
7 -18 564 695 10 480 0
8 -35 630 739 10 179 0
9 21 770 897 10 0 443
10 -27 873 956 10 366 0
11 25 177 269 10 0 20
12 20 964 1068 0 0 612
13 -2 525 689 10 26 0
14 24 7 57 10 0 235
15 11 574 727 10 0 465
16 -9 744 820 10 192 0
17 25 729 801 10 0 110
18 -18 778 866 10 207 0
19 -27 294 402 10 552 0
20 -25 279 408 10 11 0
21 22 148 341 10 0 63
22 -27 337 419 10 288 0
23 -15 1000 1147 10 127 0
24 11 552 633 0 0 602
25 12 83 160 10 0 80
26 2 287 457 10 0 13
27 -19 166 274 10 119 0
28 17 166 268 10 0 567
29 17 230 305 10 0 525
30 -2 242 341 10 177 0
31 17 365 469 10 0 308
32 33 88 293 10 0 376
33 -16 614 723 10 345 0
34 16 822 947 0 0 604
35 19 188 327 10 0 50
36 -1 413 577 10 105 0
37 24 761 878 10 0 595
38 21 122 232 10 0 91
39 21 49 162 10 0 140
40 12 85 173 10 0 354
41 -13 768 872 10 59 0
42 17 444 477 10 0 593
43 -15 282 443 10 264 0
44 -31 221 309 10 339 0
45 21 691 828 10 0 233
46 -29 158 290 10 253 0
47 -27 993 1075 10 137 0
48 10 662 754 10 0 405
49 -22 800 916 10 300 0
50 -19 723 808 10 35 0
51 -10 811 872 10 114 0
52 -6 354 452 10 425 0
53 -21 425 587 10 432 0
54 -3 811 930 10 513 0
55 -12 953 1060 10 585 0
56 -38 348 505 10 382 0
57 -23 784 902 10 139 0
58 22 156 249 10 0 447
59 13 152 249 10 0 41
60 23 139 226 10 0 328
61 7 59 166 10 0 154
62 29 746 823 0 0 624
63 -22 522 611 10 21 0
64 11 435 571 10 0 361
65 16 183 340 10 0 335
66 29 257 364 10 0 356
67 -18 748 927 10 440 0
68 -14 395 554 10 439 0
69 -25 704 818 10 468 0
70 -6 308 463 10 482 0
71 15 907 1033 0 0 607
72 23 17 138 10 0 399
73 18 693 790 10 0 272
74 10 73 166 10 0 500
75 -24 479 643 10 390 0
76 21 46 143 10 0 424
77 -22 744 864 10 586 0
78 19 239 321 10 0 242
79 -12 199 255 10 304 0
80 -12 508 633 10 25 0
81 11 906 990 10 0 164
82 -26 531 604 10 229 0
83 -20 424 575 10 519 0
84 35 796 965 0 0 626
85 23 239 394 10 0 583
86 -16 470 586 10 493 0
87 35 115 219 10 0 307
88 32 670 729 0 0 605
89 -29 212 335 10 257 0
90 33 455 607 10 0 418
91 -21 394 550 10 38 0
92 -9 745 894 10 379 0
93 -6 786 949 10 554 0
94 -31 673 808 10 495 0
95 -19 243 362 10 213 0
96 -14 197 332 10 582 0
97 -17 326 490 10 380 0
98 18 346 478 10 0 442
99 11 796 886 10 0 136
100 -19 122 214 10 600 0
101 26 233 349 10 0 161
102 6 42 154 10 0 331
103 -13 573 743 10 507 0
104 35 841 947 0 0 625
105 1 36 141 10 0 36
106 -18 429 589 10 369 0
107 -4 817 875 10 236 0
108 -11 334 470 10 243 0
109 6 263 340 10 0 508
110 -25 789 902 10 17 0
111 13 341 453 10 0 113
112 8 443 603 10 0 342
113 -13 721 834 10 111 0
114 10 751 878 10 0 51
115 -30 871 981 10 556 0
116 21 278 393 0 0 609
117 -18 736 829 10 479 0
118 -13 791 925 10 129 0
119 19 41 163 10 0 27
120 -21 740 879 10 352 0
121 21 166 308 10 0 269
122 24 307 400 10 0 245
123 -19 576 709 10 133 0
124 -13 632 712 10 457 0
125 -13 784 879 10 320 0
126 12 532 672 10 0 293
127 15 596 728 10 0 23
128 22 121 218 10 0 322
129 13 58 179 10 0 118
130 22 451 525 10 0 598
131 -16 305 469 10 388 0
132 37 515 592 10 0 237
133 19 107 228 10 0 123
134 -12 816 908 10 341 0
135 12 708 800 10 0 592
136 -11 793 918 10 99 0
137 27 296 393 10 0 47
138 2 840 979 0 0 606
139 23 728 858 10 0 57
140 -21 81 226 10 39 0
141 29 671 803 10 0 365
142 -15 681 819 10 535 0
143 -14 620 773 10 348 0
144 -12 356 456 10 467 0
145 17 641 759 10 0 413
146 26 62 176 10 0 176
147 -21 218 338 10 393 0
148 -16 520 635 10 175 0
149 13 455 597 10 0 494
150 41 462 606 10 0 421
151 21 49 134 10 0 581
152 19 139 222 10 0 163
153 17 138 216 10 0 407
154 -7 569 657 10 61 0
155 -14 583 712 10 220 0
156 -9 492 628 10 474 0
157 -34 325 423 10 197 0
158 18 335 456 10 0 306
159 -32 858 927 10 334 0
160 46 226 309 10 0 193
161 -26 428 548 10 101 0
162 -17 975 1088 10 282 0
163 -19 106 254 10 152 0
164 -11 832 994 10 81 0
165 12 666 815 0 0 610
166 25 524 627 10 0 338
167 -21 770 905 10 226 0
168 22 35 150 10 0 436
169 42 564 701 10 0 579
170 -20 892 1015 10 498 0
171 13 118 222 10 0 221
172 -31 414 575 10 259 0
173 -3 719 870 10 402 0
174 -26 412 507 10 534 0
175 16 196 322 10 0 148
176 -26 424 554 10 146 0
177 2 74 205 10 0 30
178 17 111 250 10 0 541
179 35 361 558 10 0 8
180 10 188 326 10 0 496
181 36 699 853 10 0 249
182 -21 841 941 10 268 0
183 -18 618 735 10 325 0
184 23 400 496 10 0 347
185 13 112 180 10 0 540
186 27 815 948 10 0 258
187 -19 855 951 10 539 0
188 17 329 490 10 0 511
189 -1 477 577 10 281 0
190 2 180 352 10 0 6
191 -8 521 597 10 505 0
192 9 637 748 10 0 16
193 -46 103 257 10 160 0
194 11 607 698 0 0 629
195 -38 1111 1158 10 275 0
196 25 121 302 10 0 497
197 34 113 246 10 0 157
198 -33 542 635 10 444 0
199 5 630 781 10 0 311
200 23 163 315 10 0 526
201 -33 556 663 10 209 0
202 29 104 210 10 0 216
203 -11 281 421 10 445 0
204 -7 846 979 10 450 0
205 -19 536 626 10 230 0
206 7 113 263 10 0 441
207 18 750 896 10 0 18
208 40 33 181 10 0 524
209 33 384 553 10 0 201
210 8 404 490 10 0 276
211 21 152 220 10 0 504
212 -10 721 787 10 392 0
213 19 154 267 10 0 95
214 -2 262 457 10 547 0
215 -15 739 812 10 456 0
216 -29 365 450 10 202 0
217 26 359 418 10 0 578
218 33 168 314 10 0 531
219 24 345 428 10 0 324
220 14 555 687 10 0 155
221 -13 471 551 10 171 0
222 39 416 566 10 0 517
223 -26 826 920 10 412 0
224 15 283 376 10 0 362
225 -13 331 444 10 490 0
226 21 816 932 10 0 167
227 16 101 261 10 0 537
228 -18 454 559 10 536 0
229 26 191 338 10 0 82
230 19 66 165 10 0 205
231 2 110 188 10 0 247
232 26 338 482 10 0 374
233 -21 846 931 10 45 0
234 32 17 119 10 0 501
235 -24 35 100 10 14 0
236 4 298 424 10 0 107
237 -37 533 628 10 132 0
238 -10 1019 1147 10 372 0
239 11 340 433 10 0 499
240 34 11 130 10 0 475
241 -16 724 832 10 429 0
242 -19 703 862 10 78 0
243 11 360 493 10 0 108
244 -14 463 577 10 5 0
245 -24 330 461 10 122 0
246 -21 69 215 10 337 0
247 -2 274 437 10 231 0
248 -10 652 772 10 483 0
249 -36 935 1032 10 181 0
250 33 161 305 10 0 488
251 12 384 461 10 0 431
252 -18 573 676 10 301 0
253 29 210 352 10 0 46
254 28 401 499 10 0 544
255 -19 731 869 10 543 0
256 5 492 584 10 0 563
257 29 83 209 10 0 89
258 -27 958 1088 10 186 0
259 31 234 377 10 0 172
260 -27 768 878 10 401 0
261 16 135 233 10 0 469
262 25 22 149 10 0 591
263 -25 590 707 10 458 0
264 15 13 81 10 0 43
265 11 39 142 10 0 515
266 -14 770 919 10 267 0
267 14 3 101 10 0 266
268 21 128 207 10 0 182
269 -21 783 888 10 121 0
270 -12 991 1085 10 464 0
271 8 470 593 10 0 489
272 -18 755 839 10 73 0
273 16 990 1079 0 0 617
274 -13 459 567 10 514 0
275 38 288 445 10 0 195
276 -8 536 681 10 210 0
277 -12 447 585 10 557 0
278 1 590 707 0 0 622
279 17 128 257 10 0 353
280 -18 661 766 10 419 0
281 1 424 556 10 0 189
282 17 506 692 10 0 162
283 16 137 270 10 0 461
284 2 614 759 10 0 370
285 42 413 500 0 0 616
286 -14 547 612 10 509 0
287 -17 573 738 10 486 0
288 27 180 276 10 0 22
289 -16 902 1080 10 564 0
290 22 204 265 10 0 577
291 11 433 555 10 0 371
292 -9 336 448 10 384 0
293 -12 595 708 10 126 0
294 10 366 486 10 0 521
295 -18 728 854 10 491 0
296 22 392 475 10 0 549
297 17 366 457 10 0 433
298 -27 499 607 10 359 0
299 13 141 270 10 0 336
300 22 550 655 10 0 49
301 18 392 457 10 0 252
302 41 178 288 10 0 562
303 5 12 131 10 0 594
304 12 159 247 10 0 79
305 14 630 732 10 0 416
306 -18 484 597 10 158 0
307 -35 659 783 10 87 0
308 -17 915 991 10 31 0
309 5 193 318 10 0 533
310 -16 939 1072 10 516 0
311 -5 917 992 10 199 0
312 19 856 993 0 0 623
313 27 233 377 10 0 477
314 20 286 435 10 0 332
315 -2 469 611 10 452 0
316 30 72 186 10 0 406
317 -14 482 578 10 409 0
318 -28 287 374 10 510 0
319 -16 167 256 10 528 0
320 13 697 778 10 0 125
321 21 134 319 10 0 451
322 -22 418 551 10 128 0
323 15 53 185 10 0 471
324 -24 585 735 10 219 0
325 18 534 584 10 0 183
326 -19 150 291 10 394 0
327 41 128 226 10 0 473
328 -23 217 355 10 60 0
329 -36 233 307 10 426 0
330 6 149 219 10 0 434
331 -6 364 476 10 102 0
332 -20 581 696 10 314 0
333 -19 436 587 10 532 0
334 32 681 810 10 0 159
335 -16 423 555 10 65 0
336 -13 476 589 10 299 0
337 21 44 150 10 0 246
338 -25 604 706 10 166 0
339 31 48 155 10 0 44
340 25 179 284 10 0 476
341 12 655 786 10 0 134
342 -8 475 580 10 112 0
343 21 658 744 10 0 484
344 2 276 349 10 0 584
345 16 615 757 10 0 33
346 -12 831 933 10 438 0
347 -23 592 713 10 184 0
348 14 107 211 10 0 143
349 -29 1024 1147 10 462 0
350 24 677 793 0 0 619
351 -15 731 852 10 478 0
352 21 695 801 10 0 120
353 -17 869 1000 10 279 0
354 -12 653 743 10 40 0
355 19 53 198 10 0 523
356 -29 507 687 10 66 0
357 4 39 158 10 0 381
358 -15 363 484 10 454 0
359 27 428 525 10 0 298
360 -22 683 846 10 569 0
361 -11 484 627 10 64 0
362 -15 380 534 10 224 0
363 -15 901 1048 10 506 0
364 -16 422 524 10 470 0
365 -29 968 1059 10 141 0
366 27 635 757 10 0 10
367 8 896 1028 0 0 614
368 17 151 284 10 0 590
369 18 284 420 10 0 106
370 -2 864 974 10 284 0
371 -11 872 976 10 291 0
372 10 364 503 10 0 238
373 -2 835 905 10 403 0
374 -26 592 642 10 232 0
375 -17 483 559 10 485 0
376 -33 346 509 10 32 0
377 12 109 248 10 0 574
378 12 84 203 10 0 446
379 9 121 219 10 0 92
380 17 298 399 10 0 97
381 -4 593 680 10 357 0
382 38 405 523 10 0 56
383 19 682 786 0 0 620
384 9 255 360 10 0 292
385 4 129 242 10 0 391
386 14 187 350 10 0 550
387 2 139 231 10 0 597
388 16 294 374 10 0 131
389 -19 757 889 10 414 0
390 24 412 537 10 0 75
391 -4 488 576 10 385 0
392 10 676 800 10 0 212
393 21 149 320 10 0 147
394 19 151 266 10 0 326
395 32 438 559 10 0 472
396 29 203 283 10 0 448
397 -11 807 910 10 420 0
398 -15 783 915 10 546 0
399 -23 31 134 10 72 0
400 -15 174 291 10 430 0
401 27 263 415 10 0 260
402 3 292 447 10 0 173
403 2 468 578 10 0 373
404 -23 173 317 10 538 0
405 -10 626 752 10 48 0
406 -30 541 645 10 316 0
407 -17 647 761 10 153 0
408 -10 691 844 10 411 0
409 14 275 423 10 0 317
410 35 610 737 10 0 4
411 10 150 211 10 0 408
412 26 59 173 10 0 223
413 -17 788 929 10 145 0
414 19 53 174 10 0 389
415 23 72 219 10 0 565
416 -14 846 972 10 305 0
417 13 142 263 0 0 621
418 -33 725 798 10 90 0
419 18 146 323 10 0 280
420 11 138 275 10 0 397
421 -41 466 567 10 150 0
422 13 78 184 10 0 580
423 -5 169 282 10 503 0
424 -21 67 236 10 76 0
425 6 131 319 10 0 52
426 36 220 349 10 0 329
427 -33 581 691 10 529 0
428 -13 851 950 10 3 0
429 16 288 424 10 0 241
430 15 66 194 10 0 400
431 -12 536 643 10 251 0
432 21 352 471 10 0 53
433 -17 774 914 10 297 0
434 -6 565 707 10 330 0
435 12 874 961 0 0 628
436 -22 262 376 10 168 0
437 -8 903 1051 10 527 0
438 12 446 583 10 0 346
439 14 289 430 10 0 68
440 18 98 197 10 0 67
441 -7 232 336 10 206 0
442 -18 562 726 10 98 0
443 -21 821 918 10 9 0
444 33 108 227 10 0 198
445 11 246 397 10 0 203
446 -12 92 201 10 378 0
447 -22 423 591 10 58 0
448 -29 350 477 10 396 0
449 -32 510 625 10 502 0
450 7 142 266 10 0 204
451 -21 517 668 10 321 0
452 2 56 199 10 0 315
453 15 710 862 0 0 615
454 15 213 394 10 0 358
455 23 463 582 10 0 520
456 15 150 306 10 0 215
457 13 625 775 10 0 124
458 25 111 255 10 0 263
459 -12 663 788 10 566 0
460 -16 780 892 10 573 0
461 -16 427 573 10 283 0
462 29 447 519 10 0 349
463 7 271 425 10 0 560
464 12 777 890 10 0 270
465 -11 587 738 10 15 0
466 -16 772 901 10 601 0
467 12 286 417 10 0 144
468 25 681 806 10 0 69
469 -16 276 419 10 261 0
470 16 182 332 10 0 364
471 -15 941 1016 10 323 0
472 -32 417 514 10 395 0
473 -41 455 562 10 327 0
474 9 454 545 10 0 156
475 -34 568 705 10 240 0
476 -25 500 581 10 340 0
477 -27 731 891 10 313 0
478 15 106 208 10 0 351
479 18 707 834 10 0 117
480 18 521 689 10 0 7
481 6 133 263 10 0 492
482 6 118 251 10 0 70
483 10 394 515 10 0 248
484 -21 840 954 10 343 0
485 17 495 618 10 0 375
486 17 561 645 10 0 287
487 -11 182 337 10 551 0
488 -33 151 301 10 250 0
489 -8 561 679 10 271 0
490 13 194 314 10 0 225
491 18 392 494 10 0 295
492 -6 352 458 10 481 0
493 16 402 479 10 0 86
494 -13 675 828 10 149 0
495 31 487 573 10 0 94
496 -10 882 956 10 180 0
497 -25 607 758 10 196 0
498 20 740 838 10 0 170
499 -11 765 862 10 239 0
500 -10 535 638 10 74 0
501 -32 317 413 10 234 0
502 32 549 682 10 0 449
503 5 28 118 10 0 423
504 -21 601 730 10 211 0
505 8 107 235 10 0 191
506 15 942 1044 10 0 363
507 13 180 284 10 0 103
508 -6 699 831 10 109 0
509 14 83 232 10 0 286
510 28 203 301 10 0 318
511 -17 571 684 10 188 0
512 18 531 638 0 0 618
513 3 692 852 10 0 54
514 13 273 375 10 0 274
515 -11 97 182 10 265 0
516 16 82 174 10 0 310
517 -39 674 728 10 222 0
518 7 668 774 0 0 611
519 20 364 472 10 0 83
520 -23 640 733 10 455 0
521 -10 341 472 10 294 0
522 -7 908 1035 10 588 0
523 -19 1001 1125 10 355 0
524 -40 536 650 10 208 0
525 -17 744 871 10 29 0
526 -23 297 414 10 200 0
527 8 134 228 10 0 437
528 16 214 359 10 0 319
529 33 237 370 10 0 427
530 15 132 297 10 0 553
531 -33 464 560 10 218 0
532 19 182 281 10 0 333
533 -5 697 823 10 309 0
534 26 148 297 10 0 174
535 15 184 295 10 0 142
536 18 141 294 10 0 228
537 -16 643 775 10 227 0
538 23 144 242 10 0 404
539 19 738 823 10 0 187
540 -13 117 218 10 185 0
541 -17 119 240 10 178 0
542 37 512 673 10 0 561
543 19 193 324 10 0 255
544 -28 768 886 10 254 0
545 6 449 597 10 0 572
546 15 495 635 10 0 398
547 2 67 201 10 0 214
548 25 226 348 10 0 2
549 -22 421 599 10 296 0
550 -14 377 506 10 386 0
551 11 22 138 10 0 487
552 27 96 180 10 0 19
553 -15 317 454 10 530 0
554 6 701 811 10 0 93
555 -19 610 807 10 589 0
556 30 541 678 10 0 115
557 12 18 82 10 0 277
558 17 897 999 0 0 603
559 40 148 233 0 0 613
560 -7 502 659 10 463 0
561 -37 567 700 10 542 0
562 -41 363 531 10 302 0
563 -5 790 865 10 256 0
564 16 53 177 10 0 289
565 -23 148 274 10 415 0
566 12 367 484 10 0 459
567 -17 877 969 10 28 0
568 -7 813 978 10 571 0
569 22 539 637 10 0 360
570 -22 610 722 10 575 0
571 7 94 213 10 0 568
572 -6 661 754 10 545 0
573 16 700 775 10 0 460
574 -12 289 394 10 377 0
575 22 115 249 10 0 570
576 25 909 1035 0 0 608
577 -22 641 791 10 290 0
578 -26 520 664 10 217 0
579 -42 908 998 10 169 0
580 -13 93 238 10 422 0
581 -21 393 551 10 151 0
582 14 37 192 10 0 96
583 -23 305 367 10 85 0
584 -2 460 617 10 344 0
585 12 133 266 10 0 55
586 22 493 645 10 0 77
587 19 101 223 0 0 627
588 7 856 975 10 0 522
589 19 156 334 10 0 555
590 -17 167 269 10 368 0
591 -25 517 648 10 262 0
592 -12 667 835 10 135 0
593 -17 692 798 10 42 0
594 -5 616 758 10 303 0
595 -24 741 855 10 37 0
596 -18 149 226 10 599 0
597 -2 228 331 10 387 0
598 -22 452 615 10 130 0
599 18 126 200 10 0 596
600 19 115 245 10 0 100
601 16 278 363 10 0 466
602 -11 552 633 10 24 0
603 -17 897 999 10 558 0
604 -16 822 947 10 34 0
605 -32 670 729 10 88 0
606 -2 840 979 10 138 0
607 -15 907 1033 10 71 0
608 -25 909 1035 10 576 0
609 -21 278 393 10 116 0
610 -12 666 815 10 165 0
611 -7 668 774 10 518 0
612 -20 964 1068 10 12 0
613 -40 148 233 10 559 0
614 -8 896 1028 10 367 0
615 -15 710 862 10 453 0
616 -42 413 500 10 285 0
617 -16 990 1079 10 273 0
618 -18 531 638 10 512 0
619 -24 677 793 10 350 0
620 -19 682 786 10 383 0
621 -13 142 263 10 417 0
622 -1 590 707 10 278 0
623 -19 856 993 10 312 0
624 -29 746 823 10 62 0
625 -35 841 947 10 104 0
626 -35 796 965 10 84 0
627 -19 101 223 10 587 0
628 -12 874 961 10 435 0
629 -11 607 698 10 194 0
DEPOT_SECTION
1
-1
EOF
