NAME: lr1_6_2
TYPE: PDPTW
COMMENT: Li & Lim PDPTW benchmark converted from SINTEF format
DIMENSION: 631
VEHICLES: 150
CAPACITY: 200
EDGE_WEIGHT_TYPE: EUC_2D
NODE_COORD_SECTION
1 150 150
2 71 268
3 183 80
4 174 238
5 166 123
6 287 293
7 140 214
8 47 203
9 247 19
10 152 29
11 86 216
12 107 29
13 212 270
14 148 157
15 291 148
16 92 241
17 162 148
18 119 254
19 266 212
20 99 226
21 56 116
22 110 31
23 175 107
24 17 0
25 96 86
26 136 228
27 100 138
28 184 277
29 16 42
30 67 175
31 72 286
32 176 235
33 116 14
34 26 27
35 37 14
36 1 11
37 74 117
38 170 53
39 154 101
40 75 191
41 227 62
42 209 269
43 207 149
44 99 105
45 6 168
46 296 211
47 254 87
48 201 175
49 268 113
50 29 8
51 159 89
52 9 30
53 175 294
54 282 76
55 90 44
56 57 7
57 176 153
58 106 243
59 207 20
60 289 143
61 166 194
62 295 123
63 85 62
64 207 237
65 136 50
66 42 221
67 208 235
68 267 29
69 206 121
70 227 5
71 60 287
72 151 133
73 222 100
74 152 77
75 225 192
76 150 104
77 296 252
78 63 170
79 106 168
80 73 81
81 97 232
82 112 43
83 135 251
84 214 6
85 252 219
86 182 284
87 259 187
88 72 20
89 153 61
90 211 174
91 199 28
92 274 136
93 226 248
94 85 75
95 52 165
96 54 136
97 34 150
98 203 36
99 37 258
100 29 130
101 40 181
102 192 150
103 61 138
104 183 88
105 122 127
106 126 266
107 165 179
108 19 290
109 30 243
110 172 198
111 209 84
112 24 261
113 181 145
114 149 76
115 206 157
116 1 81
117 47 153
118 125 148
119 109 148
120 256 286
121 15 52
122 234 107
123 108 162
124 147 240
125 290 37
126 165 256
127 188 69
128 242 70
129 93 165
130 224 61
131 72 180
132 44 286
133 47 121
134 30 145
135 283 275
136 2 238
137 289 130
138 159 266
139 198 159
140 155 93
141 201 122
142 34 5
143 103 8
144 30 149
145 278 178
146 203 183
147 276 28
148 63 130
149 199 213
150 274 6
151 107 174
152 57 123
153 14 177
154 156 182
155 168 42
156 84 231
157 272 211
158 153 226
159 250 194
160 243 136
161 56 212
162 221 145
163 52 109
164 88 190
165 11 191
166 296 235
167 175 123
168 124 174
169 271 105
170 169 236
171 127 266
172 139 31
173 160 179
174 200 26
175 59 113
176 189 197
177 76 160
178 183 44
179 45 190
180 145 38
181 271 8
182 161 242
183 230 150
184 260 64
185 44 189
186 125 168
187 120 155
188 237 171
189 120 60
190 263 291
191 246 93
192 15 259
193 250 124
194 129 77
195 188 142
196 29 139
197 241 218
198 183 23
199 217 138
200 126 42
201 136 68
202 64 91
203 148 28
204 262 164
205 103 93
206 37 159
207 75 269
208 126 127
209 103 81
210 18 196
211 88 49
212 259 14
213 60 176
214 15 88
215 178 263
216 45 74
217 209 246
218 275 263
219 37 149
220 183 43
221 59 287
222 170 93
223 167 171
224 227 192
225 236 27
226 139 110
227 243 191
228 136 295
229 132 16
230 157 84
231 162 92
232 140 18
233 4 97
234 133 153
235 150 185
236 151 113
237 71 294
238 133 187
239 136 241
240 139 146
241 184 237
242 15 178
243 41 279
244 96 96
245 230 128
246 198 100
247 160 17
248 137 212
249 180 93
250 8 227
251 189 41
252 176 263
253 263 193
254 220 43
255 296 17
256 217 43
257 150 67
258 117 155
259 113 4
260 114 259
261 38 74
262 148 172
263 139 250
264 163 150
265 112 161
266 127 77
267 147 152
268 131 222
269 43 62
270 167 193
271 157 254
272 187 129
273 96 199
274 31 68
275 234 146
276 14 204
277 121 116
278 88 110
279 25 119
280 262 14
281 108 80
282 239 84
283 107 281
284 152 241
285 183 282
286 186 26
287 175 281
288 118 38
289 189 201
290 238 294
291 250 49
292 109 299
293 128 225
294 157 221
295 69 90
296 12 10
297 109 61
298 213 299
299 11 176
300 271 106
301 140 294
302 51 2
303 158 140
304 102 155
305 75 265
306 116 240
307 272 183
308 30 226
309 27 255
310 203 166
311 205 130
312 94 93
313 248 280
314 57 127
315 16 22
316 80 133
317 75 127
318 9 239
319 110 83
320 297 43
321 247 86
322 248 41
323 102 173
324 28 141
325 246 166
326 5 189
327 216 40
328 282 104
329 44 223
330 1 145
331 253 84
332 69 134
333 24 76
334 255 203
335 94 12
336 14 165
337 164 108
338 266 203
339 114 117
340 48 141
341 28 124
342 12 275
343 8 200
344 123 76
345 108 3
346 228 217
347 253 69
348 147 43
349 180 114
350 76 221
351 250 228
352 228 276
353 29 72
354 57 192
355 166 99
356 69 208
357 179 123
358 208 297
359 241 298
360 151 172
361 216 203
362 241 208
363 219 152
364 238 214
365 173 148
366 156 57
367 157 50
368 276 66
369 112 272
370 190 181
371 224 138
372 154 207
373 111 40
374 172 2
375 125 278
376 186 228
377 191 49
378 102 81
379 246 133
380 47 143
381 220 18
382 40 1
383 135 38
384 124 299
385 36 212
386 89 61
387 60 72
388 83 188
389 182 146
390 223 198
391 11 242
392 244 13
393 274 66
394 15 219
395 294 64
396 8 4
397 102 76
398 4 296
399 141 120
400 262 80
401 78 246
402 180 98
403 139 33
404 25 191
405 188 198
406 82 100
407 3 119
408 239 295
409 80 131
410 152 258
411 181 297
412 206 130
413 241 183
414 180 106
415 131 220
416 103 260
417 148 8
418 173 152
419 235 31
420 157 12
421 296 15
422 172 225
423 57 125
424 158 83
425 51 63
426 51 217
427 254 206
428 236 108
429 224 229
430 208 117
431 176 72
432 159 287
433 149 98
434 25 64
435 135 210
436 113 188
437 142 188
438 261 232
439 277 41
440 189 240
441 11 185
442 212 45
443 231 28
444 159 42
445 159 41
446 99 73
447 110 262
448 15 2
449 72 89
450 229 188
451 232 121
452 98 129
453 139 270
454 181 277
455 281 68
456 159 300
457 143 244
458 105 252
459 288 127
460 230 80
461 76 280
462 182 81
463 61 84
464 159 199
465 280 158
466 215 295
467 38 139
468 213 119
469 37 36
470 229 179
471 81 219
472 283 65
473 229 25
474 121 246
475 129 83
476 87 183
477 274 256
478 234 213
479 46 155
480 139 206
481 283 144
482 208 47
483 114 211
484 15 209
485 107 291
486 154 299
487 101 114
488 5 195
489 120 241
490 229 40
491 83 77
492 289 79
493 177 281
494 175 251
495 80 35
496 117 79
497 3 135
498 58 240
499 210 236
500 173 64
501 93 117
502 80 86
503 125 136
504 38 44
505 211 62
506 230 135
507 45 115
508 40 236
509 143 67
510 20 245
511 220 182
512 246 123
513 300 44
514 9 63
515 53 141
516 208 208
517 173 72
518 265 78
519 143 223
520 272 70
521 126 233
522 271 145
523 184 102
524 131 78
525 7 31
526 107 39
527 110 145
528 111 98
529 251 195
530 18 151
531 296 279
532 9 122
533 33 231
534 195 9
535 25 14
536 158 291
537 297 213
538 23 218
539 117 178
540 40 192
541 205 44
542 116 245
543 281 8
544 232 45
545 266 39
546 4 294
547 88 124
548 51 278
549 26 0
550 80 67
551 128 155
552 225 210
553 18 184
554 203 283
555 289 209
556 279 189
557 135 139
558 284 72
559 132 297
560 43 52
561 119 214
562 72 36
563 228 41
564 202 161
565 162 250
566 299 153
567 202 292
568 108 298
569 238 206
570 275 146
571 194 234
572 279 36
573 238 103
574 194 11
575 265 141
576 264 35
577 285 285
578 211 239
579 233 119
580 191 234
581 64 170
582 117 168
583 265 197
584 113 62
585 82 35
586 285 283
587 122 96
588 298 135
589 290 219
590 293 62
591 119 183
592 284 244
593 214 234
594 176 70
595 94 109
596 148 299
597 2 81
598 225 73
599 157 276
600 37 126
601 208 290
602 18 151
603 125 168
604 201 175
605 285 283
606 131 220
607 229 40
608 102 76
609 11 242
610 142 188
611 59 287
612 254 87
613 208 47
614 296 252
615 2 81
616 125 148
617 139 31
618 44 223
619 276 66
620 182 284
621 57 127
622 242 70
623 173 152
624 181 277
625 148 157
626 279 189
627 45 74
628 264 35
629 152 77
630 203 166
631 34 5
PICKUP_AND_DELIVERY_SECTION
1 0 0 1206 0 0 0
2 10 231 241 10 0 20
3 -5 0 1119 10 256 0
4 -16 1033 1043 10 493 0
5 14 31 41 10 0 70
6 14 548 558 10 0 120
7 -25 0 1132 10 262 0
8 29 680 690 10 0 498
9 -19 828 838 10 543 0
10 10 909 919 10 0 367
11 -12 218 228 10 40 0
12 -12 1021 1031 10 549 0
13 21 602 612 10 0 554
14 24 7 17 0 0 625
15 -29 646 656 10 253 0
16 -27 777 787 10 401 0
17 -23 760 770 10 423 0
18 42 817 827 10 0 293
19 11 343 353 10 0 438
20 -10 0 1105 10 2 0
21 -13 0 1097 10 353 0
22 -22 373 383 10 446 0
23 -15 1096 1106 10 544 0
24 11 587 597 10 0 194
25 12 83 93 10 0 382
26 2 367 377 10 0 83
27 -40 0 1145 10 208 0
28 17 0 1065 10 0 42
29 17 263 273 10 0 560
30 -6 0 1110 10 109 0
31 17 412 422 10 0 305
32 33 0 1108 10 0 106
33 -26 664 674 10 229 0
34 -6 0 1022 10 425 0
35 19 253 263 10 0 562
36 -22 490 500 10 296 0
37 -17 814 824 10 279 0
38 -19 0 1097 10 383 0
39 21 49 59 10 0 286
40 12 90 100 10 0 11
41 16 815 825 10 0 579
42 -17 456 466 10 28 0
43 22 357 367 10 0 390
44 -19 260 270 10 230 0
45 -4 754 764 10 144 0
46 22 206 216 10 0 537
47 7 0 1075 0 0 612
48 10 703 713 0 0 604
49 -26 853 863 10 412 0
50 -5 761 771 10 448 0
51 -12 836 846 10 500 0
52 -24 0 1011 10 315 0
53 16 501 511 10 0 486
54 -27 866 876 10 472 0
55 12 0 1075 10 0 584
56 25 0 1026 10 0 495
57 -29 0 1170 10 427 0
58 -24 0 1094 10 292 0
59 -3 195 205 10 402 0
60 23 147 157 10 0 137
61 7 108 118 10 0 217
62 29 780 790 10 0 522
63 3 0 1087 10 0 550
64 11 498 508 10 0 289
65 16 0 1096 10 0 143
66 -36 306 316 10 426 0
67 -21 833 843 10 593 0
68 -18 469 479 10 419 0
69 -25 756 766 10 468 0
70 -14 380 390 10 5 0
71 -17 993 1003 10 485 0
72 23 17 27 10 0 222
73 -17 736 746 10 400 0
74 10 0 1123 0 0 629
75 -6 556 566 10 102 0
76 -25 0 1150 10 433 0
77 18 799 809 0 0 614
78 -11 0 1107 10 551 0
79 21 222 232 10 0 164
80 15 566 576 10 0 502
81 -25 943 953 10 458 0
82 42 563 573 10 0 496
83 -2 494 504 10 26 0
84 -12 875 885 10 251 0
85 -26 311 321 10 146 0
86 3 523 533 0 0 620
87 -33 0 1081 10 90 0
88 32 694 704 10 0 266
89 12 269 279 10 0 444
90 33 0 1131 10 0 87
91 -11 0 1065 10 420 0
92 -23 814 824 10 459 0
93 -12 863 873 10 135 0
94 -10 736 746 10 504 0
95 18 297 307 10 0 206
96 9 260 270 10 0 277
97 15 403 413 10 0 117
98 18 407 417 10 0 191
99 11 836 846 10 0 484
100 18 0 1074 10 0 233
101 -16 0 1082 10 404 0
102 6 42 52 10 0 75
103 -19 653 663 10 600 0
104 -15 889 899 10 127 0
105 1 36 46 10 0 449
106 -33 504 514 10 32 0
107 -17 841 851 10 188 0
108 12 397 407 10 0 508
109 6 296 306 10 0 30
110 29 840 850 10 0 370
111 13 392 402 10 0 181
112 -15 0 1029 10 546 0
113 20 772 782 10 0 389
114 -8 810 820 10 524 0
115 -12 921 931 10 413 0
116 -16 331 341 10 261 0
117 -15 777 787 10 97 0
118 8 0 1171 0 0 616
119 19 0 1155 10 0 483
120 -14 804 814 10 6 0
121 21 166 176 10 0 535
122 24 348 358 10 0 594
123 24 637 647 10 0 240
124 4 0 1106 10 0 306
125 1 826 836 10 0 558
126 12 597 607 10 0 182
127 15 0 1107 10 0 104
128 22 0 1075 0 0 622
129 -19 0 1138 10 213 0
130 22 483 493 10 0 347
131 -24 0 1113 10 553 0
132 37 549 559 10 0 238
133 19 112 122 10 0 340
134 -18 857 867 10 488 0
135 12 749 759 10 0 93
136 -33 0 1024 10 250 0
137 -23 339 349 10 60 0
138 -42 905 915 10 285 0
139 -7 788 798 10 450 0
140 -27 148 158 10 424 0
141 29 0 1138 10 0 275
142 16 745 755 0 0 631
143 -16 0 1047 10 65 0
144 4 401 411 10 0 45
145 17 695 705 10 0 363
146 26 0 1134 10 0 85
147 9 0 1021 10 0 513
148 -17 0 1107 10 380 0
149 -18 521 531 10 480 0
150 41 529 539 10 0 212
151 21 49 59 10 0 192
152 19 175 185 10 0 409
153 -2 146 156 10 177 0
154 -22 608 618 10 569 0
155 -17 643 653 10 203 0
156 -12 555 565 10 557 0
157 8 369 379 10 0 334
158 -10 0 1120 10 294 0
159 -33 887 897 10 529 0
160 -11 0 1102 10 322 0
161 -14 0 1084 10 582 0
162 -28 1027 1037 10 254 0
163 30 106 116 10 0 175
164 -21 908 918 10 79 0
165 -32 736 746 10 234 0
166 25 570 580 10 0 592
167 -8 833 843 10 272 0
168 22 35 45 10 0 268
169 42 627 637 10 0 428
170 -18 949 959 10 215 0
171 -12 132 142 10 248 0
172 15 0 1077 0 0 617
173 32 0 1166 10 0 239
174 10 0 1063 10 0 374
175 -30 254 264 10 163 0
176 -10 484 494 10 372 0
177 2 74 84 10 0 153
178 17 119 129 10 0 417
179 35 455 465 10 0 273
180 10 252 262 10 0 403
181 -13 0 1010 10 111 0
182 -12 886 896 10 126 0
183 28 672 682 10 0 195
184 23 443 453 10 0 431
185 -28 0 1084 10 510 0
186 27 877 887 0 0 603
187 -31 898 908 10 339 0
188 17 404 414 10 0 107
189 -17 522 532 10 297 0
190 2 197 207 10 0 290
191 -18 554 564 10 98 0
192 -21 688 698 10 151 0
193 -18 143 153 10 512 0
194 -11 0 1121 10 24 0
195 -28 1148 1158 10 183 0
196 -19 0 1075 10 532 0
197 -27 157 167 10 552 0
198 -5 0 1065 10 303 0
199 -14 700 710 10 570 0
200 -12 234 244 10 378 0
201 19 604 614 10 0 257
202 29 0 1092 10 0 406
203 17 346 356 10 0 155
204 18 908 918 10 0 325
205 -16 576 586 10 528 0
206 -18 0 1083 10 95 0
207 -11 818 828 10 243 0
208 40 33 43 10 0 27
209 33 0 1113 10 0 281
210 8 442 452 10 0 276
211 21 181 191 10 0 344
212 -41 749 759 10 150 0
213 19 0 1103 10 0 129
214 12 0 1048 10 0 333
215 18 0 1080 10 0 170
216 9 403 413 0 0 627
217 -7 384 394 10 61 0
218 -16 0 1028 10 227 0
219 24 382 392 10 0 479
220 14 0 1085 10 0 247
221 17 506 516 0 0 611
222 -23 486 496 10 72 0
223 9 0 1169 10 0 362
224 -15 324 334 10 364 0
225 -8 382 392 10 505 0
226 -15 869 879 10 475 0
227 16 101 111 10 0 218
228 18 501 511 10 0 568
229 26 259 269 10 0 33
230 19 110 120 10 0 44
231 -19 0 1137 10 355 0
232 -31 0 1064 10 259 0
233 -18 884 894 10 100 0
234 32 17 27 10 0 165
235 22 0 1161 10 0 270
236 4 356 366 10 0 337
237 -27 576 586 10 461 0
238 -37 0 1156 10 132 0
239 -32 382 392 10 173 0
240 -24 0 1185 10 123 0
241 -18 0 1103 10 440 0
242 9 778 788 10 0 336
243 11 422 432 10 0 207
244 -21 0 1120 10 399 0
245 -9 390 400 10 379 0
246 25 97 107 10 0 321
247 -14 350 360 10 220 0
248 12 0 1133 10 0 171
249 -30 979 989 10 442 0
250 33 187 197 10 0 136
251 12 417 427 10 0 84
252 -2 620 630 10 360 0
253 29 276 286 10 0 15
254 28 445 455 10 0 162
255 -14 795 805 10 439 0
256 5 533 543 10 0 3
257 -19 0 1113 10 201 0
258 22 0 1163 10 0 304
259 31 301 311 10 0 232
260 -20 818 828 10 521 0
261 16 160 170 10 0 116
262 25 22 32 10 0 7
263 -18 643 653 10 369 0
264 15 13 23 10 0 511
265 11 39 49 10 0 540
266 -32 840 850 10 88 0
267 14 3 13 10 0 287
268 -22 0 1122 10 168 0
269 -29 831 841 10 396 0
270 -22 1033 1043 10 235 0
271 8 526 536 10 0 494
272 8 792 802 10 0 167
273 -35 1029 1039 10 179 0
274 -29 508 518 10 525 0
275 -29 362 372 10 141 0
276 -8 603 613 10 210 0
277 -9 511 521 10 96 0
278 1 644 654 10 0 595
279 17 178 188 10 0 37
280 -4 708 718 10 357 0
281 -33 485 495 10 209 0
282 -26 594 604 10 460 0
283 16 137 147 10 0 435
284 2 681 691 10 0 464
285 42 452 462 10 0 138
286 -21 575 585 10 39 0
287 -14 650 660 10 267 0
288 27 223 233 10 0 526
289 -11 986 996 10 64 0
290 -2 229 239 10 190 0
291 -11 489 499 10 331 0
292 24 387 397 10 0 58
293 -42 0 1118 10 18 0
294 10 421 431 10 0 158
295 23 786 796 10 0 312
296 22 429 439 10 0 36
297 17 407 417 10 0 189
298 -10 548 558 10 411 0
299 -30 0 1055 10 441 0
300 -19 597 607 10 492 0
301 -9 419 429 10 384 0
302 -12 227 237 10 585 0
303 5 12 22 10 0 198
304 -22 198 208 10 258 0
305 -17 676 686 10 31 0
306 -4 535 545 10 124 0
307 12 0 1070 10 0 583
308 -36 948 958 10 533 0
309 -19 251 261 10 394 0
310 20 1000 1010 0 0 630
311 -22 949 959 10 575 0
312 -23 920 930 10 295 0
313 -7 300 310 10 571 0
314 20 0 1101 0 0 621
315 24 0 1011 10 0 52
316 -15 0 1124 10 501 0
317 -5 525 535 10 487 0
318 -15 0 1030 10 323 0
319 22 206 216 10 0 386
320 -29 732 742 10 572 0
321 -25 222 232 10 246 0
322 11 479 489 10 0 160
323 15 53 63 10 0 318
324 -16 0 1074 10 515 0
325 -18 0 1099 10 204 0
326 5 156 166 10 0 343
327 41 162 172 10 0 473
328 19 281 291 10 0 506
329 22 0 1068 0 0 618
330 -7 0 1047 10 497 0
331 11 415 425 10 0 291
332 -2 634 644 10 452 0
333 -12 507 517 10 214 0
334 -8 740 750 10 157 0
335 20 484 494 10 0 345
336 -9 0 1060 10 242 0
337 -4 0 1152 10 236 0
338 6 0 1069 10 0 351
339 31 48 58 10 0 187
340 -19 227 237 10 133 0
341 12 0 1072 10 0 407
342 18 522 532 10 0 398
343 -5 696 706 10 326 0
344 -21 0 1118 10 211 0
345 -20 681 691 10 335 0
346 32 0 1094 10 0 429
347 -22 648 658 10 130 0
348 14 113 123 10 0 517
349 -29 1080 1090 10 523 0
350 24 730 740 10 0 471
351 -6 0 1070 10 338 0
352 21 743 753 10 0 466
353 13 929 939 10 0 21
354 -11 693 703 10 436 0
355 19 53 63 10 0 231
356 -8 592 602 10 527 0
357 4 39 49 10 0 280
358 -9 419 429 10 580 0
359 27 472 482 10 0 577
360 2 0 1174 10 0 252
361 5 551 561 10 0 405
362 -9 0 1089 10 223 0
363 -17 969 979 10 145 0
364 15 0 1088 10 0 224
365 -19 1008 1018 10 587 0
366 -26 691 701 10 534 0
367 -10 957 967 10 10 0
368 17 151 161 0 0 619
369 18 347 357 10 0 263
370 -29 914 924 10 110 0
371 -29 919 929 10 462 0
372 10 429 439 10 0 176
373 -18 865 875 10 491 0
374 -10 612 622 10 174 0
375 16 0 1066 10 0 489
376 -45 423 433 10 499 0
377 12 140 150 10 0 573
378 12 84 94 10 0 200
379 9 165 175 10 0 245
380 17 344 354 10 0 148
381 38 631 641 10 0 563
382 -12 459 469 10 25 0
383 19 0 1083 10 0 38
384 9 302 312 10 0 301
385 4 135 145 10 0 538
386 -22 263 273 10 319 0
387 2 180 190 10 0 469
388 16 329 339 10 0 476
389 -20 818 828 10 113 0
390 -22 469 479 10 43 0
391 16 527 537 0 0 609
392 -14 0 1030 10 574 0
393 21 185 195 10 0 395
394 19 0 1045 10 0 309
395 -21 493 503 10 393 0
396 29 203 213 10 0 269
397 17 853 863 0 0 608
398 -18 844 854 10 342 0
399 21 31 41 10 0 244
400 17 0 1064 10 0 73
401 27 0 1076 10 0 16
402 3 0 1136 10 0 59
403 -10 518 528 10 180 0
404 16 240 250 10 0 101
405 -5 0 1135 10 361 0
406 -29 588 598 10 202 0
407 -12 699 709 10 341 0
408 11 0 1026 10 0 578
409 -19 344 354 10 152 0
410 -20 0 1088 10 519 0
411 10 172 182 10 0 298
412 26 59 69 10 0 49
413 12 853 863 10 0 115
414 19 53 63 10 0 520
415 23 131 141 0 0 606
416 -25 904 914 10 548 0
417 -17 196 206 10 178 0
418 12 757 767 0 0 623
419 18 151 161 10 0 68
420 11 0 1058 10 0 91
421 -6 0 998 10 545 0
422 13 119 129 10 0 565
423 23 221 231 10 0 17
424 27 0 1129 10 0 140
425 6 138 148 10 0 34
426 36 279 289 10 0 66
427 29 631 641 10 0 57
428 -42 895 905 10 169 0
429 -32 351 361 10 346 0
430 15 88 98 10 0 451
431 -23 584 594 10 184 0
432 -18 0 1059 10 536 0
433 25 839 849 10 0 76
434 10 631 641 10 0 503
435 -16 0 1135 10 283 0
436 11 314 324 10 0 354
437 12 972 982 0 0 610
438 -11 509 519 10 19 0
439 14 0 1029 10 0 255
440 18 105 115 10 0 241
441 30 0 1053 10 0 299
442 30 639 649 10 0 249
443 -9 0 1050 10 541 0
444 -12 0 1088 10 89 0
445 -14 0 1087 10 509 0
446 22 100 110 10 0 22
447 26 502 512 10 0 542
448 5 409 419 10 0 50
449 -1 563 573 10 105 0
450 7 0 1109 10 0 139
451 -15 587 597 10 430 0
452 2 56 66 10 0 332
453 -13 781 791 10 457 0
454 15 0 1066 0 0 624
455 -10 517 527 10 590 0
456 15 150 160 10 0 596
457 13 0 1102 10 0 453
458 25 111 121 10 0 81
459 23 720 730 10 0 92
460 26 0 1090 10 0 282
461 27 495 505 10 0 237
462 29 0 1120 10 0 371
463 -13 343 353 10 507 0
464 -2 829 839 10 284 0
465 34 658 668 10 0 588
466 -21 832 842 10 352 0
467 12 347 357 10 0 581
468 25 739 749 10 0 69
469 -2 343 353 10 387 0
470 16 252 262 10 0 555
471 -24 974 984 10 350 0
472 27 460 470 10 0 54
473 -41 503 513 10 327 0
474 9 0 1096 10 0 561
475 15 632 642 10 0 226
476 -16 535 545 10 388 0
477 -15 0 1033 10 531 0
478 -16 152 162 10 516 0
479 -24 765 775 10 219 0
480 18 0 1139 10 0 149
481 6 133 143 10 0 566
482 6 0 1078 0 0 613
483 -19 449 459 10 119 0
484 -11 892 902 10 99 0
485 17 552 562 10 0 71
486 -16 598 608 10 53 0
487 5 255 265 10 0 317
488 18 0 1045 10 0 134
489 -16 615 625 10 375 0
490 13 0 1061 0 0 607
491 18 438 448 10 0 373
492 19 400 410 10 0 300
493 16 436 446 10 0 4
494 -8 747 757 10 271 0
495 -25 0 1062 10 56 0
496 -42 914 924 10 82 0
497 7 678 688 10 0 330
498 -29 784 794 10 8 0
499 45 0 1092 10 0 376
500 12 0 1107 10 0 51
501 15 360 370 10 0 316
502 -15 610 620 10 80 0
503 -10 0 1168 10 434 0
504 10 661 671 10 0 94
505 8 107 117 10 0 225
506 -19 988 998 10 328 0
507 13 227 237 10 0 463
508 -12 0 1057 10 108 0
509 14 83 93 10 0 445
510 28 247 257 10 0 185
511 -15 623 633 10 264 0
512 18 0 1097 10 0 193
513 -9 0 1013 10 147 0
514 13 319 329 10 0 547
515 16 97 107 10 0 324
516 16 116 126 10 0 478
517 -14 696 706 10 348 0
518 -9 716 726 10 598 0
519 20 413 423 10 0 410
520 -19 682 692 10 414 0
521 20 401 411 10 0 260
522 -29 967 977 10 62 0
523 29 0 1138 10 0 349
524 8 588 598 10 0 114
525 29 0 1010 10 0 274
526 -27 351 361 10 288 0
527 8 176 186 10 0 356
528 16 281 291 10 0 205
529 33 0 1086 10 0 159
530 15 141 151 0 0 602
531 15 507 517 10 0 477
532 19 226 236 10 0 196
533 36 755 765 10 0 308
534 26 0 1048 10 0 366
535 -21 223 233 10 121 0
536 18 0 1055 10 0 432
537 -22 704 714 10 46 0
538 -4 159 169 10 385 0
539 -6 776 786 10 591 0
540 -11 123 133 10 265 0
541 9 150 160 10 0 443
542 -26 587 597 10 447 0
543 19 0 1003 10 0 9
544 15 822 832 10 0 23
545 6 518 528 10 0 421
546 15 560 570 10 0 112
547 -13 0 1129 10 514 0
548 25 282 292 10 0 416
549 12 0 1002 10 0 12
550 -3 437 447 10 63 0
551 11 22 32 10 0 78
552 27 129 139 10 0 197
553 24 0 1060 10 0 131
554 -21 0 1053 10 13 0
555 -16 704 714 10 470 0
556 30 0 1062 0 0 626
557 12 18 28 10 0 156
558 -1 943 953 10 125 0
559 -18 174 184 10 599 0
560 -17 0 1051 10 29 0
561 -9 628 638 10 474 0
562 -19 442 452 10 35 0
563 -38 822 832 10 381 0
564 16 53 63 10 0 589
565 -13 206 216 10 422 0
566 -6 420 430 10 481 0
567 -16 918 928 10 601 0
568 -18 890 900 10 228 0
569 22 0 1092 10 0 154
570 14 0 1071 10 0 199
571 7 94 104 10 0 313
572 29 703 713 10 0 320
573 -12 732 742 10 377 0
574 14 337 347 10 0 392
575 22 0 1081 10 0 311
576 25 993 1003 0 0 628
577 -27 711 721 10 359 0
578 -11 0 1089 10 408 0
579 -16 948 958 10 41 0
580 9 93 103 10 0 358
581 -12 467 477 10 467 0
582 14 37 47 10 0 161
583 -12 331 341 10 307 0
584 -12 0 1101 10 55 0
585 12 133 143 10 0 302
586 22 564 574 0 0 605
587 19 0 1136 10 0 365
588 -34 910 920 10 465 0
589 -16 0 1040 10 564 0
590 10 0 1029 10 0 455
591 6 577 587 10 0 539
592 -25 746 756 10 166 0
593 21 740 750 10 0 67
594 -24 682 692 10 122 0
595 -1 793 803 10 278 0
596 -15 164 174 10 456 0
597 32 274 284 0 0 615
598 9 529 539 10 0 518
599 18 126 136 10 0 559
600 19 164 174 10 0 103
601 16 315 325 10 0 567
602 -15 141 151 10 530 0
603 -27 877 887 10 186 0
604 -10 703 713 10 48 0
605 -22 564 574 10 586 0
606 -23 131 141 10 415 0
607 -13 0 1061 10 490 0
608 -17 853 863 10 397 0
609 -16 527 537 10 391 0
610 -12 972 982 10 437 0
611 -17 506 516 10 221 0
612 -7 0 1075 10 47 0
613 -6 0 1078 10 482 0
614 -18 799 809 10 77 0
615 -32 274 284 10 597 0
616 -8 0 1171 10 118 0
617 -15 0 1077 10 172 0
618 -22 0 1068 10 329 0
619 -17 151 161 10 368 0
620 -3 523 533 10 86 0
621 -20 0 1101 10 314 0
622 -22 0 1075 10 128 0
623 -12 757 767 10 418 0
624 -15 0 1066 10 454 0
625 -24 7 17 10 14 0
626 -30 0 1062 10 556 0
627 -9 403 413 10 216 0
628 -25 993 1003 10 576 0
629 -10 0 1123 10 74 0
630 -20 1000 1010 10 310 0
631 -16 745 755 10 142 0
DEPOT_SECTION
1
-1
EOF
