NAME: lr1_6_3
TYPE: PDPTW
COMMENT: Li & Lim PDPTW benchmark converted from SINTEF format
DIMENSION: 635
VEHICLES: 150
CAPACITY: 200
EDGE_WEIGHT_TYPE: EUC_2D
NODE_COORD_SECTION
1 150 150
2 71 268
3 183 80
4 174 238
5 166 123
6 287 293
7 140 214
8 47 203
9 247 19
10 152 29
11 86 216
12 107 29
13 212 270
14 148 157
15 291 148
16 92 241
17 162 148
18 119 254
19 266 212
20 99 226
21 56 116
22 110 31
23 175 107
24 17 0
25 96 86
26 136 228
27 100 138
28 184 277
29 16 42
30 67 175
31 72 286
32 176 235
33 116 14
34 26 27
35 37 14
36 1 11
37 74 117
38 170 53
39 154 101
40 75 191
41 227 62
42 209 269
43 207 149
44 99 105
45 6 168
46 296 211
47 254 87
48 201 175
49 268 113
50 29 8
51 159 89
52 9 30
53 175 294
54 282 76
55 90 44
56 57 7
57 176 153
58 106 243
59 207 20
60 289 143
61 166 194
62 295 123
63 85 62
64 207 237
65 136 50
66 42 221
67 208 235
68 267 29
69 206 121
70 227 5
71 60 287
72 151 133
73 222 100
74 152 77
75 225 192
76 150 104
77 296 252
78 63 170
79 106 168
80 73 81
81 97 232
82 112 43
83 135 251
84 214 6
85 252 219
86 182 284
87 259 187
88 72 20
89 153 61
90 211 174
91 199 28
92 274 136
93 226 248
94 85 75
95 52 165
96 54 136
97 34 150
98 203 36
99 37 258
100 29 130
101 40 181
102 192 150
103 61 138
104 183 88
105 122 127
106 126 266
107 165 179
108 19 290
109 30 243
110 172 198
111 209 84
112 24 261
113 181 145
114 149 76
115 206 157
116 1 81
117 47 153
118 125 148
119 109 148
120 256 286
121 15 52
122 234 107
123 108 162
124 147 240
125 290 37
126 165 256
127 188 69
128 242 70
129 93 165
130 224 61
131 72 180
132 44 286
133 47 121
134 30 145
135 283 275
136 2 238
137 289 130
138 159 266
139 198 159
140 155 93
141 201 122
142 34 5
143 103 8
144 30 149
145 278 178
146 203 183
147 276 28
148 63 130
149 199 213
150 274 6
151 107 174
152 57 123
153 14 177
154 156 182
155 168 42
156 84 231
157 272 211
158 153 226
159 250 194
160 243 136
161 56 212
162 221 145
163 52 109
164 88 190
165 11 191
166 296 235
167 175 123
168 124 174
169 271 105
170 169 236
171 127 266
172 139 31
173 160 179
174 200 26
175 59 113
176 189 197
177 76 160
178 183 44
179 45 190
180 145 38
181 271 8
182 161 242
183 230 150
184 260 64
185 44 189
186 125 168
187 120 155
188 237 171
189 120 60
190 263 291
191 246 93
192 15 259
193 250 124
194 129 77
195 188 142
196 29 139
197 241 218
198 183 23
199 217 138
200 126 42
201 136 68
202 64 91
203 148 28
204 262 164
205 103 93
206 37 159
207 75 269
208 126 127
209 103 81
210 18 196
211 88 49
212 259 14
213 60 176
214 15 88
215 178 263
216 45 74
217 209 246
218 275 263
219 37 149
220 183 43
221 59 287
222 170 93
223 167 171
224 227 192
225 236 27
226 139 110
227 243 191
228 136 295
229 132 16
230 157 84
231 162 92
232 140 18
233 4 97
234 133 153
235 150 185
236 151 113
237 71 294
238 133 187
239 136 241
240 139 146
241 184 237
242 15 178
243 41 279
244 96 96
245 230 128
246 198 100
247 160 17
248 137 212
249 180 93
250 8 227
251 189 41
252 176 263
253 263 193
254 220 43
255 296 17
256 217 43
257 150 67
258 117 155
259 113 4
260 114 259
261 38 74
262 148 172
263 139 250
264 163 150
265 112 161
266 127 77
267 147 152
268 131 222
269 43 62
270 167 193
271 157 254
272 187 129
273 96 199
274 31 68
275 234 146
276 14 204
277 121 116
278 88 110
279 25 119
280 262 14
281 108 80
282 239 84
283 107 281
284 152 241
285 183 282
286 186 26
287 175 281
288 118 38
289 189 201
290 238 294
291 250 49
292 109 299
293 128 225
294 157 221
295 69 90
296 12 10
297 109 61
298 213 299
299 11 176
300 271 106
301 140 294
302 51 2
303 158 140
304 102 155
305 75 265
306 116 240
307 272 183
308 30 226
309 27 255
310 203 166
311 205 130
312 94 93
313 248 280
314 57 127
315 16 22
316 80 133
317 75 127
318 9 239
319 110 83
320 297 43
321 247 86
322 248 41
323 102 173
324 28 141
325 246 166
326 5 189
327 216 40
328 282 104
329 44 223
330 1 145
331 253 84
332 69 134
333 24 76
334 255 203
335 94 12
336 14 165
337 164 108
338 266 203
339 114 117
340 48 141
341 28 124
342 12 275
343 8 200
344 123 76
345 108 3
346 228 217
347 253 69
348 147 43
349 180 114
350 76 221
351 250 228
352 228 276
353 29 72
354 57 192
355 166 99
356 69 208
357 179 123
358 208 297
359 241 298
360 151 172
361 216 203
362 241 208
363 219 152
364 238 214
365 173 148
366 156 57
367 157 50
368 276 66
369 112 272
370 190 181
371 224 138
372 154 207
373 111 40
374 172 2
375 125 278
376 186 228
377 191 49
378 102 81
379 246 133
380 47 143
381 220 18
382 40 1
383 135 38
384 124 299
385 36 212
386 89 61
387 60 72
388 83 188
389 182 146
390 223 198
391 11 242
392 244 13
393 274 66
394 15 219
395 294 64
396 8 4
397 102 76
398 4 296
399 141 120
400 262 80
401 78 246
402 180 98
403 139 33
404 25 191
405 188 198
406 82 100
407 3 119
408 239 295
409 80 131
410 152 258
411 181 297
412 206 130
413 241 183
414 180 106
415 131 220
416 103 260
417 148 8
418 173 152
419 235 31
420 157 12
421 296 15
422 172 225
423 57 125
424 158 83
425 51 63
426 51 217
427 254 206
428 236 108
429 224 229
430 208 117
431 176 72
432 159 287
433 149 98
434 25 64
435 135 210
436 113 188
437 142 188
438 261 232
439 277 41
440 189 240
441 11 185
442 212 45
443 231 28
444 159 42
445 159 41
446 99 73
447 110 262
448 15 2
449 72 89
450 229 188
451 232 121
452 98 129
453 139 270
454 181 277
455 281 68
456 159 300
457 143 244
458 105 252
459 288 127
460 230 80
461 76 280
462 182 81
463 61 84
464 159 199
465 280 158
466 215 295
467 38 139
468 213 119
469 37 36
470 229 179
471 81 219
472 283 65
473 229 25
474 121 246
475 129 83
476 87 183
477 274 256
478 234 213
479 46 155
480 139 206
481 283 144
482 208 47
483 114 211
484 15 209
485 107 291
486 154 299
487 101 114
488 5 195
489 120 241
490 229 40
491 83 77
492 289 79
493 177 281
494 175 251
495 80 35
496 117 79
497 3 135
498 58 240
499 210 236
500 173 64
501 93 117
502 80 86
503 125 136
504 38 44
505 211 62
506 230 135
507 45 115
508 40 236
509 143 67
510 20 245
511 220 182
512 246 123
513 300 44
514 9 63
515 53 141
516 208 208
517 173 72
518 265 78
519 143 223
520 272 70
521 126 233
522 271 145
523 184 102
524 131 78
525 7 31
526 107 39
527 110 145
528 111 98
529 251 195
530 18 151
531 296 279
532 9 122
533 33 231
534 195 9
535 25 14
536 158 291
537 297 213
538 23 218
539 117 178
540 40 192
541 205 44
542 116 245
543 281 8
544 232 45
545 266 39
546 4 294
547 88 124
548 51 278
549 26 0
550 80 67
551 128 155
552 225 210
553 18 184
554 203 283
555 289 209
556 279 189
557 135 139
558 284 72
559 132 297
560 43 52
561 119 214
562 72 36
563 228 41
564 202 161
565 162 250
566 299 153
567 202 292
568 108 298
569 238 206
570 275 146
571 194 234
572 279 36
573 238 103
574 194 11
575 265 141
576 264 35
577 285 285
578 211 239
579 233 119
580 191 234
581 64 170
582 117 168
583 265 197
584 113 62
585 82 35
586 285 283
587 122 96
588 298 135
589 290 219
590 293 62
591 119 183
592 284 244
593 214 234
594 176 70
595 94 109
596 148 299
597 2 81
598 225 73
599 157 276
600 37 126
601 208 290
602 24 261
603 222 100
604 189 197
605 11 191
606 25 119
607 132 16
608 26 27
609 1 11
610 40 236
611 216 203
612 156 57
613 254 87
614 296 235
615 121 246
616 271 145
617 220 43
618 179 123
619 94 12
620 158 140
621 85 75
622 61 138
623 114 117
624 227 192
625 299 153
626 117 155
627 205 130
628 120 60
629 135 38
630 97 232
631 182 146
632 162 92
633 180 114
634 157 221
635 154 207
PICKUP_AND_DELIVERY_SECTION
1 0 0 1206 0 0 0
2 10 231 241 10 0 548
3 -10 0 1119 10 10 0
4 -24 0 1105 10 565 0
5 14 31 41 10 0 534
6 14 0 998 10 0 159
7 24 0 1132 10 0 239
8 29 680 690 10 0 273
9 21 828 838 10 0 392
10 10 909 919 10 0 3
11 25 218 228 10 0 498
12 -9 1021 1031 10 526 0
13 21 602 612 10 0 138
14 24 7 17 10 0 376
15 11 646 656 10 0 62
16 3 777 787 10 0 293
17 25 0 1184 10 0 275
18 -16 817 827 10 493 0
19 11 343 353 10 0 593
20 -16 0 1105 10 561 0
21 22 0 1097 10 0 340
22 -23 373 383 10 200 0
23 -13 0 1147 10 205 0
24 -5 587 597 10 448 0
25 12 83 93 10 0 202
26 -23 367 377 10 415 0
27 -9 0 1145 10 216 0
28 -8 0 1065 10 466 0
29 17 263 273 10 0 214
30 -21 0 1110 10 343 0
31 17 0 1040 10 0 237
32 33 0 1108 10 0 499
33 -31 664 674 10 259 0
34 16 0 1022 0 0 608
35 19 253 263 10 0 55
36 34 490 500 0 0 609
37 24 814 824 10 0 267
38 -11 0 1097 10 445 0
39 21 49 59 10 0 257
40 12 90 100 10 0 210
41 -14 0 1080 10 191 0
42 -6 456 466 10 554 0
43 22 357 367 10 0 270
44 -16 0 1128 10 261 0
45 -13 754 764 10 299 0
46 -16 206 216 10 227 0
47 7 0 1075 0 0 613
48 -23 0 1140 10 139 0
49 -10 853 863 10 590 0
50 -29 761 771 10 396 0
51 22 836 846 10 0 310
52 6 0 1011 10 0 504
53 -18 0 1050 10 301 0
54 -17 866 876 10 400 0
55 -19 0 1075 10 35 0
56 -7 0 1026 10 562 0
57 -9 0 1170 10 365 0
58 -17 0 1094 10 263 0
59 -11 0 1055 10 420 0
60 -27 0 1057 10 137 0
61 7 108 118 10 0 217
62 -11 780 790 10 15 0
63 -32 0 1087 10 88 0
64 -15 0 1092 10 456 0
65 16 0 1096 10 0 266
66 -14 306 316 10 582 0
67 -27 0 1094 10 552 0
68 33 469 479 10 0 455
69 10 0 1133 10 0 430
70 13 380 390 10 0 442
71 15 0 1033 10 0 461
72 23 17 27 10 0 482
73 18 736 746 0 0 603
74 -8 0 1123 10 524 0
75 -27 0 1111 10 472 0
76 -13 0 1150 10 449 0
77 -15 799 809 10 583 0
78 -30 0 1107 10 316 0
79 -12 222 232 10 304 0
80 15 566 576 10 0 491
81 11 943 953 0 0 630
82 42 0 1083 10 0 194
83 -17 0 1094 10 485 0
84 -11 875 885 10 291 0
85 -16 311 321 10 516 0
86 3 523 533 10 0 453
87 -11 0 1081 10 92 0
88 32 694 704 10 0 63
89 -27 0 1107 10 424 0
90 33 0 1131 10 0 146
91 -18 0 1065 10 98 0
92 11 814 824 10 0 87
93 -12 863 873 10 438 0
94 18 736 746 0 0 621
95 18 297 307 10 0 154
96 9 260 270 10 0 479
97 15 0 1080 10 0 507
98 18 0 1071 10 0 91
99 11 836 846 10 0 329
100 -25 0 1074 10 196 0
101 -9 0 1082 10 242 0
102 6 42 52 10 0 282
103 9 653 663 0 0 622
104 35 889 899 10 0 523
105 1 36 46 10 0 434
106 -4 0 1078 10 124 0
107 -10 0 1164 10 496 0
108 -9 0 1005 10 192 0
109 6 296 306 10 0 309
110 -20 840 850 10 113 0
111 -24 392 402 10 122 0
112 8 0 1029 0 0 602
113 20 772 782 10 0 110
114 10 810 820 10 0 141
115 -21 921 931 10 245 0
116 21 331 341 10 0 274
117 -19 777 787 10 152 0
118 -32 0 1171 10 234 0
119 19 0 1155 10 0 539
120 31 0 1024 10 0 567
121 21 166 176 10 0 547
122 24 348 358 10 0 111
123 -8 637 647 10 527 0
124 4 0 1106 10 0 106
125 1 826 836 10 0 347
126 12 597 607 10 0 457
127 15 0 1107 10 0 543
128 -21 0 1075 10 393 0
129 -13 0 1138 10 185 0
130 -5 483 493 10 256 0
131 27 0 1113 10 0 418
132 -17 549 559 10 221 0
133 19 112 122 10 0 332
134 -24 0 1076 10 219 0
135 12 0 1014 10 0 351
136 -33 0 1024 10 250 0
137 27 339 349 10 0 60
138 -21 0 1080 10 13 0
139 23 0 1148 10 0 48
140 33 148 158 10 0 475
141 -10 0 1138 10 114 0
142 -22 745 755 10 296 0
143 -16 0 1047 10 345 0
144 -14 0 1076 10 269 0
145 -34 695 705 10 465 0
146 -33 0 1134 10 90 0
147 -14 0 1021 10 439 0
148 -23 0 1107 10 423 0
149 13 521 531 10 0 511
150 41 529 539 10 0 212
151 21 49 59 10 0 354
152 19 0 1100 10 0 117
153 17 146 156 10 0 441
154 -18 608 618 10 95 0
155 -10 0 1087 10 174 0
156 21 555 565 10 0 179
157 -31 369 379 10 362 0
158 18 0 1120 10 0 480
159 -14 887 897 10 6 0
160 -5 0 1102 10 199 0
161 -20 0 1084 10 318 0
162 -4 1027 1037 10 236 0
163 30 106 116 10 0 467
164 -27 908 918 10 471 0
165 12 0 1052 0 0 605
166 25 570 580 0 0 614
167 -21 833 843 10 321 0
168 -20 0 1161 10 489 0
169 -25 627 637 10 246 0
170 -17 949 959 10 287 0
171 -40 0 1078 10 559 0
172 15 0 1077 10 0 203
173 32 0 1166 10 0 240
174 10 0 1063 10 0 155
175 16 0 1098 10 0 380
176 17 0 1135 0 0 604
177 -20 0 1122 10 314 0
178 17 119 129 10 0 381
179 -21 0 1084 10 156 0
180 -14 252 262 10 509 0
181 36 0 1010 10 0 280
182 -2 886 896 10 284 0
183 -18 672 682 10 325 0
184 -19 443 453 10 492 0
185 13 0 1084 10 0 129
186 27 877 887 10 0 187
187 -27 898 908 10 186 0
188 -39 0 1107 10 222 0
189 12 522 532 0 0 628
190 -27 0 1016 10 313 0
191 14 0 1085 10 0 41
192 9 688 698 10 0 108
193 -9 143 153 10 379 0
194 -42 0 1121 10 82 0
195 -7 1148 1158 10 463 0
196 25 0 1075 10 0 100
197 -15 0 1083 10 478 0
198 26 0 1065 10 0 286
199 5 0 1128 10 0 160
200 23 0 1086 10 0 22
201 -21 0 1113 10 226 0
202 -12 0 1092 10 25 0
203 -15 346 356 10 172 0
204 -17 0 1084 10 368 0
205 13 576 586 10 0 23
206 7 0 1083 10 0 553
207 18 818 828 10 0 375
208 40 33 43 10 0 557
209 33 0 1113 10 0 587
210 -12 442 452 10 40 0
211 -12 0 1078 10 585 0
212 -41 749 759 10 150 0
213 -7 0 1103 10 336 0
214 -17 0 1048 10 29 0
215 -18 0 1080 10 440 0
216 9 403 413 10 0 27
217 -7 0 1084 10 61 0
218 33 0 1028 10 0 477
219 24 382 392 10 0 134
220 -12 0 1085 10 251 0
221 17 506 516 10 0 132
222 39 486 496 10 0 188
223 -21 0 1169 10 289 0
224 15 0 1109 0 0 624
225 21 382 392 10 0 322
226 21 0 1155 10 0 201
227 16 101 111 10 0 46
228 18 0 1051 10 0 260
229 26 259 269 0 0 607
230 19 110 120 10 0 584
231 2 0 1137 0 0 632
232 26 0 1064 10 0 247
233 23 884 894 10 0 407
234 32 17 27 10 0 118
235 22 0 1161 10 0 437
236 4 356 366 10 0 162
237 -17 576 586 10 31 0
238 -20 0 1156 10 519 0
239 -24 382 392 10 7 0
240 -32 0 1185 10 173 0
241 14 0 1103 10 0 494
242 9 0 1059 10 0 101
243 -25 0 1028 10 458 0
244 33 0 1120 10 0 278
245 21 390 400 10 0 115
246 25 97 107 10 0 169
247 -26 350 360 10 232 0
248 -12 0 1133 10 464 0
249 -8 0 1132 10 367 0
250 33 187 197 10 0 136
251 12 0 1081 10 0 220
252 -14 0 1081 10 416 0
253 29 0 1076 10 0 427
254 28 445 455 0 0 617
255 -19 0 999 10 355 0
256 5 0 1070 10 0 130
257 -21 0 1113 10 39 0
258 22 0 1163 0 0 626
259 31 301 311 10 0 33
260 -18 818 828 10 228 0
261 16 0 1061 10 0 44
262 25 22 32 10 0 384
263 17 643 653 10 0 58
264 15 13 23 10 0 272
265 11 39 49 10 0 326
266 -16 840 850 10 65 0
267 -24 0 1193 10 37 0
268 -20 0 1122 10 521 0
269 14 0 1058 10 0 144
270 -22 0 1150 10 43 0
271 8 0 1092 10 0 306
272 -15 792 802 10 264 0
273 -29 1029 1039 10 8 0
274 -21 0 1052 10 116 0
275 -25 362 372 10 17 0
276 -23 0 1050 10 538 0
277 23 511 521 10 0 528
278 -33 644 654 10 244 0
279 17 178 188 0 0 606
280 -36 708 718 10 181 0
281 -21 0 1115 10 399 0
282 -6 594 604 10 102 0
283 16 137 147 10 0 369
284 2 681 691 10 0 182
285 -9 0 1060 10 580 0
286 -26 0 1067 10 198 0
287 17 650 660 10 0 170
288 27 223 233 10 0 297
289 21 986 996 10 0 223
290 22 229 239 10 0 359
291 11 489 499 10 0 84
292 -17 0 1042 10 568 0
293 -3 0 1118 10 16 0
294 10 0 1125 0 0 634
295 -12 786 796 10 550 0
296 22 0 1000 10 0 142
297 -27 407 417 10 288 0
298 -20 0 1035 10 578 0
299 13 0 1055 10 0 45
300 -29 0 1068 10 572 0
301 18 419 429 10 0 53
302 41 0 1018 10 0 344
303 5 12 22 0 0 620
304 12 198 208 10 0 79
305 -16 676 686 10 388 0
306 -8 0 1100 10 271 0
307 -6 0 1070 10 481 0
308 -4 0 1054 10 385 0
309 -6 0 1035 10 109 0
310 -22 1000 1010 10 51 0
311 30 0 1138 0 0 627
312 19 0 1117 10 0 595
313 27 300 310 10 0 190
314 20 0 1101 10 0 177
315 -26 0 1011 10 469 0
316 30 0 1124 10 0 78
317 37 0 1118 10 0 503
318 20 0 1030 10 0 161
319 22 206 216 10 0 501
320 -26 732 742 10 412 0
321 21 222 232 10 0 167
322 -21 479 489 10 225 0
323 15 53 63 10 0 342
324 25 0 1074 10 0 497
325 18 0 1099 10 0 183
326 -11 156 166 10 265 0
327 -18 162 172 10 594 0
328 -26 281 291 10 460 0
329 -11 0 1068 10 99 0
330 -16 0 1047 10 515 0
331 -17 0 1074 10 558 0
332 -19 634 644 10 133 0
333 23 507 517 10 0 387
334 32 0 1079 10 0 390
335 20 484 494 0 0 619
336 7 0 1060 10 0 213
337 -12 0 1152 10 378 0
338 -16 0 1069 10 470 0
339 31 0 1148 0 0 623
340 -22 0 1094 10 21 0
341 -15 0 1072 10 530 0
342 -15 522 532 10 323 0
343 21 0 1046 10 0 30
344 -41 0 1118 10 302 0
345 16 0 1044 10 0 143
346 32 0 1094 10 0 429
347 -1 0 1065 10 125 0
348 14 113 123 10 0 373
349 9 1080 1090 0 0 633
350 24 730 740 10 0 476
351 -12 0 1070 10 135 0
352 -11 743 753 10 408 0
353 -2 929 939 10 452 0
354 -21 0 1094 10 151 0
355 19 53 63 10 0 255
356 -11 0 1097 10 436 0
357 4 0 1157 0 0 618
358 -16 0 1038 10 601 0
359 -22 472 482 10 290 0
360 2 0 1174 10 0 422
361 5 551 561 0 0 611
362 31 0 1089 10 0 157
363 -11 969 979 10 579 0
364 15 0 1088 10 0 571
365 9 0 1173 10 0 57
366 27 691 701 0 0 612
367 8 957 967 10 0 249
368 17 151 161 10 0 204
369 -16 347 357 10 283 0
370 -33 914 924 10 529 0
371 16 0 1122 10 0 462
372 10 0 1139 0 0 635
373 -14 865 875 10 348 0
374 -13 612 622 10 417 0
375 -18 0 1066 10 207 0
376 -24 0 1111 10 14 0
377 12 140 150 10 0 518
378 12 84 94 10 0 337
379 9 0 1099 10 0 193
380 -16 0 1093 10 175 0
381 -17 0 1047 10 178 0
382 38 0 1011 10 0 535
383 19 0 1083 0 0 629
384 -25 302 312 10 262 0
385 4 0 1067 10 0 308
386 -22 263 273 10 446 0
387 -23 0 1077 10 333 0
388 16 329 339 10 0 305
389 3 818 828 0 0 631
390 -32 0 1109 10 334 0
391 -28 527 537 10 510 0
392 -21 0 1030 10 9 0
393 21 185 195 10 0 128
394 19 0 1045 10 0 398
395 32 493 503 10 0 413
396 29 203 213 10 0 50
397 -31 853 863 10 495 0
398 -19 844 854 10 394 0
399 21 31 41 10 0 281
400 17 0 1064 10 0 54
401 -36 0 1076 10 426 0
402 -14 0 1136 10 574 0
403 2 0 1079 10 0 444
404 16 240 250 10 0 484
405 -22 0 1135 10 569 0
406 16 0 1112 10 0 433
407 -23 0 1046 10 233 0
408 11 0 1026 10 0 352
409 14 0 1124 10 0 581
410 -18 0 1088 10 599 0
411 -21 0 1046 10 432 0
412 26 59 69 10 0 320
413 -32 853 863 10 395 0
414 -12 0 1143 10 500 0
415 23 131 141 10 0 26
416 14 904 914 10 0 252
417 13 196 206 10 0 374
418 -27 757 767 10 131 0
419 18 151 161 10 0 490
420 11 0 1058 10 0 59
421 -9 0 998 10 541 0
422 -2 0 1118 10 360 0
423 23 0 1100 10 0 148
424 27 0 1129 10 0 89
425 -31 0 1065 10 560 0
426 36 0 1077 10 0 401
427 -29 631 641 10 253 0
428 16 0 1101 10 0 598
429 -32 351 361 10 346 0
430 -10 0 1130 10 69 0
431 -8 584 594 10 517 0
432 21 0 1059 10 0 411
433 -16 839 849 10 406 0
434 -1 631 641 10 105 0
435 12 0 1135 10 0 591
436 11 314 324 10 0 356
437 -22 972 982 10 235 0
438 12 509 519 10 0 93
439 14 0 1029 10 0 147
440 18 0 1098 10 0 215
441 -17 0 1053 10 153 0
442 -13 639 649 10 70 0
443 21 0 1050 10 0 563
444 -2 0 1088 10 403 0
445 11 0 1087 10 0 38
446 22 100 110 10 0 386
447 26 502 512 10 0 542
448 5 0 996 10 0 24
449 13 563 573 10 0 76
450 -16 0 1109 10 564 0
451 15 587 597 10 0 513
452 2 56 66 10 0 353
453 -3 781 791 10 86 0
454 -18 0 1066 10 536 0
455 -33 517 527 10 68 0
456 15 150 160 10 0 64
457 -12 0 1102 10 126 0
458 25 111 121 10 0 243
459 23 720 730 10 0 588
460 26 0 1090 10 0 328
461 -15 495 505 10 71 0
462 -16 0 1120 10 371 0
463 7 343 353 10 0 195
464 12 0 1147 10 0 248
465 34 658 668 10 0 145
466 8 832 842 10 0 28
467 -30 347 357 10 163 0
468 25 739 749 10 0 506
469 26 0 1036 10 0 315
470 16 252 262 10 0 338
471 27 0 1099 10 0 164
472 27 460 470 10 0 75
473 -8 503 513 10 505 0
474 9 0 1096 0 0 615
475 -33 0 1126 10 140 0
476 -24 0 1125 10 350 0
477 -33 0 1033 10 218 0
478 15 152 162 10 0 197
479 -9 765 775 10 96 0
480 -18 0 1139 10 158 0
481 6 133 143 10 0 307
482 -23 0 1078 10 72 0
483 -11 449 459 10 551 0
484 -16 892 902 10 404 0
485 17 552 562 10 0 83
486 17 598 608 10 0 596
487 -32 0 1136 10 502 0
488 18 0 1045 10 0 533
489 20 615 625 10 0 168
490 -18 0 1061 10 419 0
491 -15 0 1097 10 80 0
492 19 400 410 10 0 184
493 16 436 446 10 0 18
494 -14 0 1092 10 241 0
495 31 0 1062 10 0 397
496 10 0 1118 10 0 107
497 -25 678 688 10 324 0
498 -25 784 794 10 11 0
499 -33 0 1092 10 32 0
500 12 0 1107 10 0 414
501 -22 360 370 10 319 0
502 32 610 620 10 0 487
503 -37 0 1168 10 317 0
504 -6 0 1042 10 52 0
505 8 107 117 10 0 473
506 -25 988 998 10 468 0
507 -15 0 1086 10 97 0
508 11 0 1057 0 0 610
509 14 83 93 10 0 180
510 28 0 1035 10 0 391
511 -13 623 633 10 149 0
512 18 0 1097 10 0 520
513 -15 0 1013 10 451 0
514 13 319 329 10 0 597
515 16 97 107 10 0 330
516 16 116 126 10 0 85
517 8 0 1115 10 0 431
518 -12 716 726 10 377 0
519 20 413 423 10 0 238
520 -18 682 692 10 512 0
521 20 401 411 10 0 268
522 26 0 1075 0 0 616
523 -35 0 1138 10 104 0
524 8 588 598 10 0 74
525 -12 0 1010 10 549 0
526 9 351 361 10 0 12
527 8 0 1156 10 0 123
528 -23 0 1131 10 277 0
529 33 0 1086 10 0 370
530 15 141 151 10 0 341
531 -30 507 517 10 556 0
532 -19 226 236 10 600 0
533 -18 755 765 10 488 0
534 -14 0 1048 10 5 0
535 -38 223 233 10 382 0
536 18 0 1055 10 0 454
537 -19 704 714 10 589 0
538 23 159 169 10 0 276
539 -19 776 786 10 119 0
540 30 123 133 10 0 546
541 9 150 160 10 0 421
542 -26 587 597 10 447 0
543 -15 0 1003 10 127 0
544 -16 822 832 10 573 0
545 -25 0 1036 10 576 0
546 -30 560 570 10 540 0
547 -21 0 1129 10 121 0
548 -10 282 292 10 2 0
549 12 0 1002 10 0 525
550 12 437 447 10 0 295
551 11 22 32 10 0 483
552 27 129 139 10 0 67
553 -7 0 1060 10 206 0
554 6 0 1053 10 0 42
555 23 0 1045 10 0 586
556 30 0 1062 10 0 531
557 -40 0 1178 10 208 0
558 17 943 953 10 0 331
559 40 174 184 10 0 171
560 31 0 1051 10 0 425
561 16 628 638 10 0 20
562 7 0 1058 10 0 56
563 -21 822 832 10 443 0
564 16 53 63 10 0 450
565 24 206 216 10 0 4
566 12 420 430 0 0 625
567 -31 0 1045 10 120 0
568 17 890 900 10 0 292
569 22 0 1092 10 0 405
570 -22 0 1071 10 575 0
571 -15 0 1102 10 364 0
572 29 0 1024 10 0 300
573 16 732 742 10 0 544
574 14 337 347 10 0 402
575 22 0 1081 10 0 570
576 25 993 1003 10 0 545
577 -12 0 1006 10 592 0
578 20 0 1089 10 0 298
579 11 0 1108 10 0 363
580 9 93 103 10 0 285
581 -14 0 1108 10 409 0
582 14 37 47 10 0 66
583 15 331 341 10 0 77
584 -19 0 1101 10 230 0
585 12 133 143 10 0 211
586 -23 0 1007 10 555 0
587 -33 0 1136 10 209 0
588 -23 910 920 10 459 0
589 19 0 1040 10 0 537
590 10 0 1029 10 0 49
591 -12 577 587 10 435 0
592 12 746 756 10 0 577
593 -11 0 1091 10 19 0
594 18 0 1112 10 0 327
595 -19 793 803 10 312 0
596 -17 0 1047 10 486 0
597 -13 0 1033 10 514 0
598 -16 0 1089 10 428 0
599 18 126 136 10 0 410
600 19 164 174 10 0 532
601 16 315 325 10 0 358
602 -8 0 1029 10 112 0
603 -18 736 746 10 73 0
604 -17 0 1135 10 176 0
605 -12 0 1052 10 165 0
606 -17 178 188 10 279 0
607 -26 259 269 10 229 0
608 -16 0 1022 10 34 0
609 -34 490 500 10 36 0
610 -11 0 1057 10 508 0
611 -5 551 561 10 361 0
612 -27 691 701 10 366 0
613 -7 0 1075 10 47 0
614 -25 570 580 10 166 0
615 -9 0 1096 10 474 0
616 -26 0 1075 10 522 0
617 -28 445 455 10 254 0
618 -4 0 1157 10 357 0
619 -20 484 494 10 335 0
620 -5 12 22 10 303 0
621 -18 736 746 10 94 0
622 -9 653 663 10 103 0
623 -31 0 1148 10 339 0
624 -15 0 1109 10 224 0
625 -12 420 430 10 566 0
626 -22 0 1163 10 258 0
627 -30 0 1138 10 311 0
628 -12 522 532 10 189 0
629 -19 0 1083 10 383 0
630 -11 943 953 10 81 0
631 -3 818 828 10 389 0
632 -2 0 1137 10 231 0
633 -9 1080 1090 10 349 0
634 -10 0 1125 10 294 0
635 -10 0 1139 10 372 0
DEPOT_SECTION
1
-1
EOF
