NAME: lr1_6_6
TYPE: PDPTW
COMMENT: Li & Lim PDPTW benchmark converted from SINTEF format
DIMENSION: 631
VEHICLES: 150
CAPACITY: 200
EDGE_WEIGHT_TYPE: EUC_2D
NODE_COORD_SECTION
1 150 150
2 71 268
3 183 80
4 174 238
5 166 123
6 287 293
7 140 214
8 47 203
9 247 19
10 152 29
11 86 216
12 107 29
13 212 270
14 148 157
15 291 148
16 92 241
17 162 148
18 119 254
19 266 212
20 99 226
21 56 116
22 110 31
23 175 107
24 17 0
25 96 86
26 136 228
27 100 138
28 184 277
29 16 42
30 67 175
31 72 286
32 176 235
33 116 14
34 26 27
35 37 14
36 1 11
37 74 117
38 170 53
39 154 101
40 75 191
41 227 62
42 209 269
43 207 149
44 99 105
45 6 168
46 296 211
47 254 87
48 201 175
49 268 113
50 29 8
51 159 89
52 9 30
53 175 294
54 282 76
55 90 44
56 57 7
57 176 153
58 106 243
59 207 20
60 289 143
61 166 194
62 295 123
63 85 62
64 207 237
65 136 50
66 42 221
67 208 235
68 267 29
69 206 121
70 227 5
71 60 287
72 151 133
73 222 100
74 152 77
75 225 192
76 150 104
77 296 252
78 63 170
79 106 168
80 73 81
81 97 232
82 112 43
83 135 251
84 214 6
85 252 219
86 182 284
87 259 187
88 72 20
89 153 61
90 211 174
91 199 28
92 274 136
93 226 248
94 85 75
95 52 165
96 54 136
97 34 150
98 203 36
99 37 258
100 29 130
101 40 181
102 192 150
103 61 138
104 183 88
105 122 127
106 126 266
107 165 179
108 19 290
109 30 243
110 172 198
111 209 84
112 24 261
113 181 145
114 149 76
115 206 157
116 1 81
117 47 153
118 125 148
119 109 148
120 256 286
121 15 52
122 234 107
123 108 162
124 147 240
125 290 37
126 165 256
127 188 69
128 242 70
129 93 165
130 224 61
131 72 180
132 44 286
133 47 121
134 30 145
135 283 275
136 2 238
137 289 130
138 159 266
139 198 159
140 155 93
141 201 122
142 34 5
143 103 8
144 30 149
145 278 178
146 203 183
147 276 28
148 63 130
149 199 213
150 274 6
151 107 174
152 57 123
153 14 177
154 156 182
155 168 42
156 84 231
157 272 211
158 153 226
159 250 194
160 243 136
161 56 212
162 221 145
163 52 109
164 88 190
165 11 191
166 296 235
167 175 123
168 124 174
169 271 105
170 169 236
171 127 266
172 139 31
173 160 179
174 200 26
175 59 113
176 189 197
177 76 160
178 183 44
179 45 190
180 145 38
181 271 8
182 161 242
183 230 150
184 260 64
185 44 189
186 125 168
187 120 155
188 237 171
189 120 60
190 263 291
191 246 93
192 15 259
193 250 124
194 129 77
195 188 142
196 29 139
197 241 218
198 183 23
199 217 138
200 126 42
201 136 68
202 64 91
203 148 28
204 262 164
205 103 93
206 37 159
207 75 269
208 126 127
209 103 81
210 18 196
211 88 49
212 259 14
213 60 176
214 15 88
215 178 263
216 45 74
217 209 246
218 275 263
219 37 149
220 183 43
221 59 287
222 170 93
223 167 171
224 227 192
225 236 27
226 139 110
227 243 191
228 136 295
229 132 16
230 157 84
231 162 92
232 140 18
233 4 97
234 133 153
235 150 185
236 151 113
237 71 294
238 133 187
239 136 241
240 139 146
241 184 237
242 15 178
243 41 279
244 96 96
245 230 128
246 198 100
247 160 17
248 137 212
249 180 93
250 8 227
251 189 41
252 176 263
253 263 193
254 220 43
255 296 17
256 217 43
257 150 67
258 117 155
259 113 4
260 114 259
261 38 74
262 148 172
263 139 250
264 163 150
265 112 161
266 127 77
267 147 152
268 131 222
269 43 62
270 167 193
271 157 254
272 187 129
273 96 199
274 31 68
275 234 146
276 14 204
277 121 116
278 88 110
279 25 119
280 262 14
281 108 80
282 239 84
283 107 281
284 152 241
285 183 282
286 186 26
287 175 281
288 118 38
289 189 201
290 238 294
291 250 49
292 109 299
293 128 225
294 157 221
295 69 90
296 12 10
297 109 61
298 213 299
299 11 176
300 271 106
301 140 294
302 51 2
303 158 140
304 102 155
305 75 265
306 116 240
307 272 183
308 30 226
309 27 255
310 203 166
311 205 130
312 94 93
313 248 280
314 57 127
315 16 22
316 80 133
317 75 127
318 9 239
319 110 83
320 297 43
321 247 86
322 248 41
323 102 173
324 28 141
325 246 166
326 5 189
327 216 40
328 282 104
329 44 223
330 1 145
331 253 84
332 69 134
333 24 76
334 255 203
335 94 12
336 14 165
337 164 108
338 266 203
339 114 117
340 48 141
341 28 124
342 12 275
343 8 200
344 123 76
345 108 3
346 228 217
347 253 69
348 147 43
349 180 114
350 76 221
351 250 228
352 228 276
353 29 72
354 57 192
355 166 99
356 69 208
357 179 123
358 208 297
359 241 298
360 151 172
361 216 203
362 241 208
363 219 152
364 238 214
365 173 148
366 156 57
367 157 50
368 276 66
369 112 272
370 190 181
371 224 138
372 154 207
373 111 40
374 172 2
375 125 278
376 186 228
377 191 49
378 102 81
379 246 133
380 47 143
381 220 18
382 40 1
383 135 38
384 124 299
385 36 212
386 89 61
387 60 72
388 83 188
389 182 146
390 223 198
391 11 242
392 244 13
393 274 66
394 15 219
395 294 64
396 8 4
397 102 76
398 4 296
399 141 120
400 262 80
401 78 246
402 180 98
403 139 33
404 25 191
405 188 198
406 82 100
407 3 119
408 239 295
409 80 131
410 152 258
411 181 297
412 206 130
413 241 183
414 180 106
415 131 220
416 103 260
417 148 8
418 173 152
419 235 31
420 157 12
421 296 15
422 172 225
423 57 125
424 158 83
425 51 63
426 51 217
427 254 206
428 236 108
429 224 229
430 208 117
431 176 72
432 159 287
433 149 98
434 25 64
435 135 210
436 113 188
437 142 188
438 261 232
439 277 41
440 189 240
441 11 185
442 212 45
443 231 28
444 159 42
445 159 41
446 99 73
447 110 262
448 15 2
449 72 89
450 229 188
451 232 121
452 98 129
453 139 270
454 181 277
455 281 68
456 159 300
457 143 244
458 105 252
459 288 127
460 230 80
461 76 280
462 182 81
463 61 84
464 159 199
465 280 158
466 215 295
467 38 139
468 213 119
469 37 36
470 229 179
471 81 219
472 283 65
473 229 25
474 121 246
475 129 83
476 87 183
477 274 256
478 234 213
479 46 155
480 139 206
481 283 144
482 208 47
483 114 211
484 15 209
485 107 291
486 154 299
487 101 114
488 5 195
489 120 241
490 229 40
491 83 77
492 289 79
493 177 281
494 175 251
495 80 35
496 117 79
497 3 135
498 58 240
499 210 236
500 173 64
501 93 117
502 80 86
503 125 136
504 38 44
505 211 62
506 230 135
507 45 115
508 40 236
509 143 67
510 20 245
511 220 182
512 246 123
513 300 44
514 9 63
515 53 141
516 208 208
517 173 72
518 265 78
519 143 223
520 272 70
521 126 233
522 271 145
523 184 102
524 131 78
525 7 31
526 107 39
527 110 145
528 111 98
529 251 195
530 18 151
531 296 279
532 9 122
533 33 231
534 195 9
535 25 14
536 158 291
537 297 213
538 23 218
539 117 178
540 40 192
541 205 44
542 116 245
543 281 8
544 232 45
545 266 39
546 4 294
547 88 124
548 51 278
549 26 0
550 80 67
551 128 155
552 225 210
553 18 184
554 203 283
555 289 209
556 279 189
557 135 139
558 284 72
559 132 297
560 43 52
561 119 214
562 72 36
563 228 41
564 202 161
565 162 250
566 299 153
567 202 292
568 108 298
569 238 206
570 275 146
571 194 234
572 279 36
573 238 103
574 194 11
575 265 141
576 264 35
577 285 285
578 211 239
579 233 119
580 191 234
581 64 170
582 117 168
583 265 197
584 113 62
585 82 35
586 285 283
587 122 96
588 298 135
589 290 219
590 293 62
591 119 183
592 284 244
593 214 234
594 176 70
595 94 109
596 148 299
597 2 81
598 225 73
599 157 276
600 37 126
601 208 290
602 2 238
603 229 25
604 61 138
605 44 223
606 283 275
607 276 66
608 162 92
609 148 157
610 57 192
611 26 0
612 250 194
613 250 49
614 282 76
615 111 98
616 208 297
617 177 281
618 75 127
619 15 209
620 228 217
621 140 18
622 174 238
623 108 298
624 143 244
625 275 146
626 116 14
627 73 81
628 199 213
629 105 252
630 227 62
631 131 222
PICKUP_AND_DELIVERY_SECTION
1 0 0 1206 0 0 0
2 10 221 251 10 0 99
3 13 0 1119 10 0 127
4 21 1023 1053 0 0 622
5 14 31 61 10 0 534
6 14 538 568 10 0 289
7 24 0 1132 10 0 471
8 -35 670 700 10 179 0
9 -9 818 848 10 147 0
10 10 899 929 10 0 444
11 25 208 238 10 0 591
12 -16 1011 1041 10 143 0
13 -17 592 622 10 42 0
14 24 7 37 0 0 609
15 11 636 666 10 0 459
16 -9 767 797 10 384 0
17 -12 750 780 10 378 0
18 -11 807 837 10 436 0
19 11 333 363 10 0 157
20 12 0 1105 10 0 161
21 22 0 1097 10 0 409
22 15 363 393 10 0 50
23 -15 1086 1116 10 544 0
24 -15 577 607 10 535 0
25 12 83 113 10 0 386
26 -23 357 387 10 415 0
27 -16 0 1145 10 175 0
28 -18 0 1065 10 228 0
29 17 253 283 10 0 514
30 -5 0 1110 10 326 0
31 -18 402 432 10 369 0
32 -24 0 1108 10 565 0
33 20 654 684 0 0 626
34 -16 0 1022 10 142 0
35 -30 243 273 10 163 0
36 34 480 510 10 0 312
37 -23 804 834 10 295 0
38 -26 0 1097 10 155 0
39 21 49 79 10 0 417
40 -14 85 115 10 582 0
41 16 805 835 0 0 630
42 17 446 476 10 0 13
43 22 347 377 10 0 223
44 -5 250 280 10 487 0
45 -19 744 774 10 532 0
46 22 196 226 10 0 531
47 7 0 1075 10 0 573
48 10 693 723 10 0 370
49 -18 843 873 10 419 0
50 -15 751 781 10 22 0
51 22 826 856 10 0 76
52 6 0 1011 10 0 463
53 16 491 521 10 0 362
54 26 856 886 0 0 614
55 12 0 1075 10 0 302
56 -20 0 1026 10 335 0
57 14 0 1170 10 0 556
58 22 0 1094 10 0 476
59 -3 185 215 10 402 0
60 -6 139 169 10 481 0
61 7 98 128 10 0 298
62 29 770 800 10 0 371
63 3 0 1087 10 0 491
64 11 488 518 10 0 499
65 16 0 1096 10 0 200
66 29 296 326 10 0 210
67 -5 823 853 10 376 0
68 33 459 489 10 0 439
69 10 746 776 10 0 311
70 13 370 400 10 0 543
71 -14 983 1013 10 267 0
72 23 17 47 10 0 257
73 18 726 756 10 0 468
74 10 0 1123 10 0 374
75 -24 546 576 10 390 0
76 -22 0 1150 10 51 0
77 -13 789 819 10 577 0
78 19 0 1107 10 0 101
79 21 212 242 10 0 123
80 15 556 586 0 0 627
81 -40 933 963 10 559 0
82 42 553 583 10 0 201
83 -11 484 514 10 239 0
84 -18 865 895 10 98 0
85 -16 301 331 10 516 0
86 3 513 543 10 0 592
87 -29 0 1081 10 427 0
88 -22 684 714 10 319 0
89 12 259 289 10 0 247
90 -6 0 1131 10 102 0
91 12 0 1065 10 0 174
92 -18 804 834 10 512 0
93 -7 853 883 10 571 0
94 -1 726 756 10 105 0
95 -25 287 317 10 340 0
96 9 250 280 10 0 332
97 -19 393 423 10 133 0
98 18 397 427 10 0 84
99 -10 826 856 10 2 0
100 -13 0 1074 10 205 0
101 -19 0 1082 10 78 0
102 6 42 72 10 0 90
103 9 643 673 0 0 604
104 -41 879 909 10 327 0
105 1 36 66 10 0 94
106 -10 494 524 10 294 0
107 -3 831 861 10 389 0
108 12 387 417 10 0 342
109 -28 286 316 10 510 0
110 -20 830 860 10 154 0
111 13 382 412 10 0 141
112 -20 0 1029 10 318 0
113 20 762 792 10 0 173
114 -19 800 830 10 383 0
115 -22 911 941 10 575 0
116 21 321 351 10 0 407
117 9 767 797 10 0 187
118 8 0 1171 10 0 530
119 19 0 1155 10 0 144
120 -18 794 824 10 215 0
121 21 166 196 10 0 406
122 24 338 368 10 0 465
123 -21 627 657 10 79 0
124 4 0 1106 10 0 360
125 -32 816 846 10 395 0
126 12 587 617 10 0 494
127 -13 0 1107 10 3 0
128 -42 0 1075 10 169 0
129 -17 0 1138 10 581 0
130 -4 473 503 10 357 0
131 -12 0 1113 10 304 0
132 -11 539 569 10 243 0
133 19 107 137 10 0 97
134 -7 847 877 10 497 0
135 12 739 769 0 0 606
136 21 0 1024 0 0 602
137 27 329 359 10 0 139
138 -17 895 925 10 287 0
139 -27 778 808 10 137 0
140 33 138 168 10 0 288
141 -13 0 1138 10 111 0
142 16 735 765 10 0 34
143 16 0 1047 10 0 12
144 -19 391 421 10 119 0
145 17 685 715 10 0 365
146 -15 0 1134 10 264 0
147 9 0 1021 10 0 9
148 -30 0 1107 10 316 0
149 13 511 541 0 0 628
150 41 519 549 10 0 280
151 21 49 79 10 0 401
152 19 165 195 10 0 423
153 17 138 168 10 0 336
154 20 598 628 10 0 110
155 26 633 663 10 0 38
156 21 545 575 10 0 164
157 -11 359 389 10 19 0
158 -17 0 1120 10 306 0
159 4 877 907 0 0 612
160 46 0 1102 10 0 245
161 -12 0 1084 10 20 0
162 -11 1017 1047 10 322 0
163 30 106 136 10 0 35
164 -21 898 928 10 156 0
165 -16 726 756 10 404 0
166 25 560 590 10 0 537
167 -8 823 853 10 272 0
168 22 35 65 10 0 483
169 42 617 647 10 0 128
170 -13 939 969 10 422 0
171 13 122 152 10 0 461
172 -14 0 1077 10 509 0
173 -20 0 1166 10 113 0
174 -12 0 1063 10 91 0
175 16 244 274 10 0 27
176 -17 474 504 10 188 0
177 2 74 104 10 0 299
178 17 111 141 10 0 220
179 35 445 475 10 0 8
180 10 242 272 10 0 587
181 -9 0 1010 10 541 0
182 -20 876 906 10 521 0
183 -18 662 692 10 325 0
184 -21 433 463 10 321 0
185 -19 0 1084 10 213 0
186 -8 867 897 10 527 0
187 -9 888 918 10 117 0
188 17 394 424 10 0 176
189 -9 512 542 10 526 0
190 -9 187 217 10 580 0
191 14 544 574 10 0 282
192 9 678 708 10 0 508
193 4 133 163 10 0 300
194 11 0 1121 10 0 475
195 -15 1128 1158 10 451 0
196 -14 0 1075 10 269 0
197 34 147 177 10 0 429
198 -14 0 1065 10 574 0
199 5 690 720 10 0 310
200 -16 224 254 10 65 0
201 -42 594 624 10 82 0
202 -12 0 1092 10 557 0
203 17 336 366 10 0 445
204 -13 898 928 10 511 0
205 13 566 596 10 0 100
206 -6 0 1083 10 330 0
207 -14 808 838 10 305 0
208 40 33 63 10 0 277
209 -21 0 1113 10 211 0
210 -29 432 462 10 66 0
211 21 171 201 10 0 209
212 -10 739 769 10 392 0
213 19 0 1103 10 0 185
214 -32 0 1048 10 597 0
215 18 0 1080 10 0 120
216 -21 393 423 10 399 0
217 26 374 404 10 0 578
218 33 0 1028 10 0 555
219 24 372 402 10 0 479
220 -17 0 1085 10 178 0
221 -16 496 526 10 283 0
222 -21 476 506 10 337 0
223 -22 0 1169 10 43 0
224 -16 314 344 10 564 0
225 -8 372 402 10 505 0
226 -11 859 889 10 266 0
227 16 101 131 10 0 307
228 18 491 521 10 0 28
229 26 249 279 10 0 259
230 19 100 130 10 0 420
231 2 0 1137 0 0 608
232 26 0 1064 0 0 621
233 23 874 904 10 0 341
234 32 17 47 10 0 551
235 -25 0 1161 10 262 0
236 4 346 376 10 0 431
237 18 566 596 10 0 375
238 -18 0 1156 10 398 0
239 11 372 402 10 0 83
240 34 0 1185 10 0 418
241 14 0 1103 10 0 364
242 -24 768 798 10 553 0
243 11 412 442 10 0 132
244 33 0 1120 10 0 396
245 -46 380 410 10 160 0
246 25 87 117 10 0 598
247 -12 340 370 10 89 0
248 -14 0 1133 10 416 0
249 -19 969 999 10 414 0
250 33 177 207 10 0 343
251 -12 407 437 10 500 0
252 5 610 640 10 0 567
253 29 266 296 10 0 583
254 28 435 465 10 0 442
255 -21 785 815 10 393 0
256 5 523 553 10 0 482
257 -23 0 1113 10 72 0
258 -25 0 1163 10 324 0
259 -26 291 321 10 229 0
260 5 808 838 10 0 435
261 -2 150 180 10 452 0
262 25 22 52 10 0 235
263 -20 633 663 10 489 0
264 15 13 43 10 0 146
265 11 39 69 10 0 540
266 11 830 860 10 0 226
267 14 3 33 10 0 71
268 21 0 1122 0 0 631
269 14 821 851 10 0 196
270 -10 1023 1053 10 372 0
271 -35 516 546 10 410 0
272 8 782 812 10 0 167
273 -24 1019 1049 10 292 0
274 -22 498 528 10 296 0
275 38 352 382 10 0 506
276 -23 593 623 10 538 0
277 -40 501 531 10 208 0
278 -24 634 664 10 315 0
279 -16 168 198 10 515 0
280 -41 698 728 10 150 0
281 1 475 505 10 0 496
282 -14 584 614 10 191 0
283 16 137 167 10 0 221
284 -37 671 701 10 542 0
285 42 442 472 10 0 351
286 -12 565 595 10 377 0
287 17 640 670 10 0 138
288 -33 213 243 10 140 0
289 -14 976 1006 10 6 0
290 -10 219 249 10 411 0
291 11 479 509 0 0 613
292 24 377 407 10 0 273
293 5 0 1118 10 0 480
294 10 411 441 10 0 106
295 23 776 806 10 0 37
296 22 419 449 10 0 274
297 -12 397 427 10 585 0
298 -7 538 568 10 61 0
299 -2 0 1055 10 177 0
300 -4 587 617 10 193 0
301 18 409 439 10 0 486
302 -12 217 247 10 55 0
303 5 12 42 10 0 523
304 12 188 218 10 0 131
305 14 666 696 10 0 207
306 17 525 555 10 0 158
307 -16 0 1070 10 227 0
308 -16 938 968 10 391 0
309 5 241 271 10 0 546
310 -5 990 1020 10 199 0
311 -10 939 969 10 69 0
312 -34 910 940 10 36 0
313 27 290 320 10 0 359
314 20 0 1101 10 0 467
315 24 0 1011 10 0 278
316 30 0 1124 10 0 148
317 37 515 545 0 0 618
318 20 0 1030 10 0 112
319 22 196 226 10 0 88
320 13 722 752 10 0 576
321 21 212 242 10 0 184
322 11 469 499 10 0 162
323 15 53 83 10 0 548
324 25 0 1074 10 0 258
325 18 0 1099 10 0 183
326 5 150 180 10 0 30
327 41 152 182 10 0 104
328 19 271 301 10 0 513
329 22 0 1068 0 0 605
330 6 0 1047 10 0 206
331 11 405 435 10 0 472
332 -9 624 654 10 96 0
333 -5 497 527 10 448 0
334 -16 730 760 10 470 0
335 20 474 504 10 0 56
336 -17 0 1060 10 153 0
337 21 0 1152 10 0 222
338 -22 0 1069 10 569 0
339 31 48 78 10 0 397
340 25 217 247 10 0 95
341 -23 0 1072 10 233 0
342 -12 512 542 10 108 0
343 -33 686 716 10 250 0
344 -22 0 1118 10 373 0
345 -14 671 701 10 348 0
346 32 0 1094 0 0 620
347 20 638 668 10 0 520
348 14 107 137 10 0 345
349 -17 1070 1100 10 558 0
350 -20 720 750 10 519 0
351 -42 0 1070 10 285 0
352 21 733 763 10 0 466
353 13 919 949 10 0 503
354 33 683 713 0 0 610
355 19 53 83 10 0 563
356 -26 582 612 10 447 0
357 4 39 69 10 0 130
358 8 409 439 0 0 616
359 -27 462 492 10 313 0
360 -4 0 1174 10 124 0
361 -27 541 571 10 552 0
362 -16 0 1089 10 53 0
363 -7 959 989 10 450 0
364 -14 0 1088 10 241 0
365 -17 998 1028 10 145 0
366 -2 681 711 10 403 0
367 8 947 977 10 0 424
368 17 151 181 0 0 607
369 18 337 367 10 0 31
370 -10 904 934 10 48 0
371 -29 909 939 10 62 0
372 10 419 449 10 0 270
373 22 855 885 10 0 344
374 -10 602 632 10 74 0
375 -18 0 1066 10 237 0
376 5 413 443 10 0 67
377 12 130 160 10 0 286
378 12 84 114 10 0 17
379 9 155 185 10 0 455
380 -19 334 364 10 600 0
381 38 621 651 10 0 443
382 38 449 479 10 0 504
383 19 0 1083 10 0 114
384 9 292 322 10 0 16
385 4 129 159 10 0 394
386 -12 253 283 10 25 0
387 2 170 200 10 0 562
388 -36 319 349 10 426 0
389 3 808 838 10 0 107
390 24 459 489 10 0 75
391 16 517 547 10 0 308
392 10 0 1030 10 0 212
393 21 175 205 10 0 255
394 -4 0 1045 10 385 0
395 32 483 513 10 0 125
396 -33 203 233 10 244 0
397 -31 843 873 10 339 0
398 18 834 864 10 0 238
399 21 31 61 10 0 216
400 17 0 1064 10 0 492
401 -21 0 1076 10 151 0
402 3 0 1136 10 0 59
403 2 508 538 10 0 366
404 16 230 260 10 0 165
405 -12 0 1135 10 464 0
406 -21 578 608 10 121 0
407 -21 689 719 10 116 0
408 11 0 1026 10 0 586
409 -22 334 364 10 21 0
410 35 0 1088 10 0 271
411 10 162 192 10 0 290
412 26 59 89 10 0 460
413 -12 843 873 10 438 0
414 19 53 83 10 0 249
415 23 121 151 10 0 26
416 14 894 924 10 0 248
417 -21 186 216 10 39 0
418 -34 747 777 10 240 0
419 18 146 176 10 0 49
420 -19 0 1058 10 230 0
421 -10 0 998 10 590 0
422 13 109 139 10 0 170
423 -19 211 241 10 152 0
424 -8 0 1129 10 367 0
425 6 131 161 10 0 449
426 36 269 299 10 0 388
427 29 621 651 10 0 87
428 16 885 915 10 0 579
429 -34 341 371 10 197 0
430 15 78 108 10 0 566
431 -4 574 604 10 236 0
432 21 0 1059 10 0 454
433 -8 829 859 10 517 0
434 10 621 651 10 0 547
435 -5 0 1135 10 260 0
436 11 304 334 10 0 18
437 -19 962 992 10 539 0
438 12 499 529 10 0 413
439 -33 0 1029 10 68 0
440 18 98 128 10 0 593
441 -18 0 1053 10 488 0
442 -28 629 659 10 254 0
443 -38 0 1050 10 381 0
444 -10 0 1088 10 10 0
445 -17 0 1087 10 203 0
446 22 92 122 10 0 550
447 26 492 522 10 0 356
448 5 399 429 10 0 333
449 -6 553 583 10 425 0
450 7 0 1109 10 0 363
451 15 577 607 10 0 195
452 2 56 86 10 0 261
453 -18 771 801 10 536 0
454 -21 0 1066 10 432 0
455 -9 507 537 10 379 0
456 -18 150 180 10 599 0
457 13 0 1102 0 0 624
458 25 111 141 0 0 629
459 -11 710 740 10 15 0
460 -26 0 1090 10 412 0
461 -13 485 515 10 171 0
462 29 0 1120 10 0 594
463 -6 333 363 10 52 0
464 12 819 849 10 0 405
465 -24 648 678 10 122 0
466 -21 822 852 10 352 0
467 -20 337 367 10 314 0
468 -18 729 759 10 73 0
469 26 333 363 10 0 502
470 16 242 272 10 0 334
471 -24 964 994 10 7 0
472 -11 450 480 10 331 0
473 17 493 523 0 0 603
474 -16 0 1096 10 561 0
475 -11 622 652 10 194 0
476 -22 525 555 10 58 0
477 -19 0 1033 10 589 0
478 15 142 172 10 0 529
479 -24 755 785 10 219 0
480 -5 0 1139 10 293 0
481 6 133 163 10 0 60
482 -5 0 1078 10 256 0
483 -22 439 469 10 168 0
484 25 882 912 0 0 619
485 -15 542 572 10 596 0
486 -18 588 618 10 301 0
487 5 245 275 10 0 44
488 18 0 1045 10 0 441
489 20 605 635 10 0 263
490 13 0 1061 10 0 588
491 -3 428 458 10 63 0
492 -17 390 420 10 400 0
493 16 426 456 0 0 617
494 -12 737 767 10 126 0
495 31 0 1062 10 0 595
496 -1 904 934 10 281 0
497 7 668 698 10 0 134
498 -36 774 804 10 533 0
499 -11 0 1092 10 64 0
500 12 0 1107 10 0 251
501 -13 350 380 10 507 0
502 -26 600 630 10 469 0
503 -13 0 1168 10 353 0
504 -38 651 681 10 382 0
505 8 107 137 10 0 225
506 -38 978 1008 10 275 0
507 13 217 247 10 0 501
508 -9 0 1057 10 192 0
509 14 83 113 10 0 172
510 28 237 267 10 0 109
511 13 613 643 10 0 204
512 18 0 1097 10 0 92
513 -19 0 1013 10 328 0
514 -17 309 339 10 29 0
515 16 97 127 10 0 279
516 16 106 136 10 0 85
517 8 686 716 10 0 433
518 7 706 736 10 0 522
519 20 403 433 10 0 350
520 -20 672 702 10 347 0
521 20 391 421 10 0 182
522 -7 957 987 10 518 0
523 -5 0 1138 10 303 0
524 -9 578 608 10 584 0
525 29 0 1010 10 0 560
526 9 341 371 10 0 189
527 8 166 196 10 0 186
528 16 271 301 0 0 615
529 -15 0 1086 10 478 0
530 -8 132 162 10 118 0
531 -22 497 527 10 46 0
532 19 216 246 10 0 45
533 36 745 775 10 0 498
534 -14 0 1048 10 5 0
535 15 213 243 10 0 24
536 18 0 1055 10 0 453
537 -25 694 724 10 166 0
538 23 149 179 10 0 276
539 19 766 796 10 0 437
540 -11 117 147 10 265 0
541 9 140 170 10 0 181
542 37 577 607 10 0 284
543 -13 0 1003 10 70 0
544 15 812 842 10 0 23
545 6 508 538 10 0 572
546 -5 550 580 10 309 0
547 -10 0 1129 10 434 0
548 -15 272 302 10 323 0
549 12 0 1002 0 0 611
550 -22 427 457 10 446 0
551 -32 22 52 10 234 0
552 27 119 149 10 0 361
553 24 0 1060 10 0 242
554 -16 0 1053 10 601 0
555 -33 694 724 10 218 0
556 -14 0 1062 10 57 0
557 12 18 48 10 0 202
558 17 933 963 10 0 349
559 40 164 194 10 0 81
560 -29 0 1051 10 525 0
561 16 618 648 10 0 474
562 -2 432 462 10 387 0
563 -19 812 842 10 355 0
564 16 53 83 10 0 224
565 24 196 226 10 0 32
566 -15 410 440 10 430 0
567 -5 908 938 10 252 0
568 17 880 910 0 0 623
569 22 0 1092 10 0 338
570 14 0 1071 0 0 625
571 7 94 124 10 0 93
572 -6 693 723 10 545 0
573 -7 722 752 10 47 0
574 14 327 357 10 0 198
575 22 0 1081 10 0 115
576 -13 983 1013 10 320 0
577 13 701 731 10 0 77
578 -26 0 1089 10 217 0
579 -16 938 968 10 428 0
580 9 93 123 10 0 190
581 17 457 487 10 0 129
582 14 37 67 10 0 40
583 -29 321 351 10 253 0
584 9 0 1101 10 0 524
585 12 133 163 10 0 297
586 -11 554 584 10 408 0
587 -10 0 1136 10 180 0
588 -13 900 930 10 490 0
589 19 0 1040 10 0 477
590 10 0 1029 10 0 421
591 -25 567 597 10 11 0
592 -3 736 766 10 86 0
593 -18 730 760 10 440 0
594 -29 672 702 10 462 0
595 -31 783 813 10 495 0
596 15 154 184 10 0 485
597 32 264 294 10 0 214
598 -25 519 549 10 246 0
599 18 126 156 10 0 456
600 19 154 184 10 0 380
601 16 305 335 10 0 554
602 -21 0 1024 10 136 0
603 -17 493 523 10 473 0
604 -9 643 673 10 103 0
605 -22 0 1068 10 329 0
606 -12 739 769 10 135 0
607 -17 151 181 10 368 0
608 -2 0 1137 10 231 0
609 -24 7 37 10 14 0
610 -33 683 713 10 354 0
611 -12 0 1002 10 549 0
612 -4 877 907 10 159 0
613 -11 479 509 10 291 0
614 -26 856 886 10 54 0
615 -16 271 301 10 528 0
616 -8 409 439 10 358 0
617 -16 426 456 10 493 0
618 -37 515 545 10 317 0
619 -25 882 912 10 484 0
620 -32 0 1094 10 346 0
621 -26 0 1064 10 232 0
622 -21 1023 1053 10 4 0
623 -17 880 910 10 568 0
624 -13 0 1102 10 457 0
625 -14 0 1071 10 570 0
626 -20 654 684 10 33 0
627 -15 556 586 10 80 0
628 -13 511 541 10 149 0
629 -25 111 141 10 458 0
630 -16 805 835 10 41 0
631 -21 0 1122 10 268 0
DEPOT_SECTION
1
-1
EOF
