NAME: lr1_6_5
TYPE: PDPTW
COMMENT: Li & Lim PDPTW benchmark converted from SINTEF format
DIMENSION: 627
VEHICLES: 150
CAPACITY: 200
EDGE_WEIGHT_TYPE: EUC_2D
NODE_COORD_SECTION
1 150 150
2 71 268
3 183 80
4 174 238
5 166 123
6 287 293
7 140 214
8 47 203
9 247 19
10 152 29
11 86 216
12 107 29
13 212 270
14 148 157
15 291 148
16 92 241
17 162 148
18 119 254
19 266 212
20 99 226
21 56 116
22 110 31
23 175 107
24 17 0
25 96 86
26 136 228
27 100 138
28 184 277
29 16 42
30 67 175
31 72 286
32 176 235
33 116 14
34 26 27
35 37 14
36 1 11
37 74 117
38 170 53
39 154 101
40 75 191
41 227 62
42 209 269
43 207 149
44 99 105
45 6 168
46 296 211
47 254 87
48 201 175
49 268 113
50 29 8
51 159 89
52 9 30
53 175 294
54 282 76
55 90 44
56 57 7
57 176 153
58 106 243
59 207 20
60 289 143
61 166 194
62 295 123
63 85 62
64 207 237
65 136 50
66 42 221
67 208 235
68 267 29
69 206 121
70 227 5
71 60 287
72 151 133
73 222 100
74 152 77
75 225 192
76 150 104
77 296 252
78 63 170
79 106 168
80 73 81
81 97 232
82 112 43
83 135 251
84 214 6
85 252 219
86 182 284
87 259 187
88 72 20
89 153 61
90 211 174
91 199 28
92 274 136
93 226 248
94 85 75
95 52 165
96 54 136
97 34 150
98 203 36
99 37 258
100 29 130
101 40 181
102 192 150
103 61 138
104 183 88
105 122 127
106 126 266
107 165 179
108 19 290
109 30 243
110 172 198
111 209 84
112 24 261
113 181 145
114 149 76
115 206 157
116 1 81
117 47 153
118 125 148
119 109 148
120 256 286
121 15 52
122 234 107
123 108 162
124 147 240
125 290 37
126 165 256
127 188 69
128 242 70
129 93 165
130 224 61
131 72 180
132 44 286
133 47 121
134 30 145
135 283 275
136 2 238
137 289 130
138 159 266
139 198 159
140 155 93
141 201 122
142 34 5
143 103 8
144 30 149
145 278 178
146 203 183
147 276 28
148 63 130
149 199 213
150 274 6
151 107 174
152 57 123
153 14 177
154 156 182
155 168 42
156 84 231
157 272 211
158 153 226
159 250 194
160 243 136
161 56 212
162 221 145
163 52 109
164 88 190
165 11 191
166 296 235
167 175 123
168 124 174
169 271 105
170 169 236
171 127 266
172 139 31
173 160 179
174 200 26
175 59 113
176 189 197
177 76 160
178 183 44
179 45 190
180 145 38
181 271 8
182 161 242
183 230 150
184 260 64
185 44 189
186 125 168
187 120 155
188 237 171
189 120 60
190 263 291
191 246 93
192 15 259
193 250 124
194 129 77
195 188 142
196 29 139
197 241 218
198 183 23
199 217 138
200 126 42
201 136 68
202 64 91
203 148 28
204 262 164
205 103 93
206 37 159
207 75 269
208 126 127
209 103 81
210 18 196
211 88 49
212 259 14
213 60 176
214 15 88
215 178 263
216 45 74
217 209 246
218 275 263
219 37 149
220 183 43
221 59 287
222 170 93
223 167 171
224 227 192
225 236 27
226 139 110
227 243 191
228 136 295
229 132 16
230 157 84
231 162 92
232 140 18
233 4 97
234 133 153
235 150 185
236 151 113
237 71 294
238 133 187
239 136 241
240 139 146
241 184 237
242 15 178
243 41 279
244 96 96
245 230 128
246 198 100
247 160 17
248 137 212
249 180 93
250 8 227
251 189 41
252 176 263
253 263 193
254 220 43
255 296 17
256 217 43
257 150 67
258 117 155
259 113 4
260 114 259
261 38 74
262 148 172
263 139 250
264 163 150
265 112 161
266 127 77
267 147 152
268 131 222
269 43 62
270 167 193
271 157 254
272 187 129
273 96 199
274 31 68
275 234 146
276 14 204
277 121 116
278 88 110
279 25 119
280 262 14
281 108 80
282 239 84
283 107 281
284 152 241
285 183 282
286 186 26
287 175 281
288 118 38
289 189 201
290 238 294
291 250 49
292 109 299
293 128 225
294 157 221
295 69 90
296 12 10
297 109 61
298 213 299
299 11 176
300 271 106
301 140 294
302 51 2
303 158 140
304 102 155
305 75 265
306 116 240
307 272 183
308 30 226
309 27 255
310 203 166
311 205 130
312 94 93
313 248 280
314 57 127
315 16 22
316 80 133
317 75 127
318 9 239
319 110 83
320 297 43
321 247 86
322 248 41
323 102 173
324 28 141
325 246 166
326 5 189
327 216 40
328 282 104
329 44 223
330 1 145
331 253 84
332 69 134
333 24 76
334 255 203
335 94 12
336 14 165
337 164 108
338 266 203
339 114 117
340 48 141
341 28 124
342 12 275
343 8 200
344 123 76
345 108 3
346 228 217
347 253 69
348 147 43
349 180 114
350 76 221
351 250 228
352 228 276
353 29 72
354 57 192
355 166 99
356 69 208
357 179 123
358 208 297
359 241 298
360 151 172
361 216 203
362 241 208
363 219 152
364 238 214
365 173 148
366 156 57
367 157 50
368 276 66
369 112 272
370 190 181
371 224 138
372 154 207
373 111 40
374 172 2
375 125 278
376 186 228
377 191 49
378 102 81
379 246 133
380 47 143
381 220 18
382 40 1
383 135 38
384 124 299
385 36 212
386 89 61
387 60 72
388 83 188
389 182 146
390 223 198
391 11 242
392 244 13
393 274 66
394 15 219
395 294 64
396 8 4
397 102 76
398 4 296
399 141 120
400 262 80
401 78 246
402 180 98
403 139 33
404 25 191
405 188 198
406 82 100
407 3 119
408 239 295
409 80 131
410 152 258
411 181 297
412 206 130
413 241 183
414 180 106
415 131 220
416 103 260
417 148 8
418 173 152
419 235 31
420 157 12
421 296 15
422 172 225
423 57 125
424 158 83
425 51 63
426 51 217
427 254 206
428 236 108
429 224 229
430 208 117
431 176 72
432 159 287
433 149 98
434 25 64
435 135 210
436 113 188
437 142 188
438 261 232
439 277 41
440 189 240
441 11 185
442 212 45
443 231 28
444 159 42
445 159 41
446 99 73
447 110 262
448 15 2
449 72 89
450 229 188
451 232 121
452 98 129
453 139 270
454 181 277
455 281 68
456 159 300
457 143 244
458 105 252
459 288 127
460 230 80
461 76 280
462 182 81
463 61 84
464 159 199
465 280 158
466 215 295
467 38 139
468 213 119
469 37 36
470 229 179
471 81 219
472 283 65
473 229 25
474 121 246
475 129 83
476 87 183
477 274 256
478 234 213
479 46 155
480 139 206
481 283 144
482 208 47
483 114 211
484 15 209
485 107 291
486 154 299
487 101 114
488 5 195
489 120 241
490 229 40
491 83 77
492 289 79
493 177 281
494 175 251
495 80 35
496 117 79
497 3 135
498 58 240
499 210 236
500 173 64
501 93 117
502 80 86
503 125 136
504 38 44
505 211 62
506 230 135
507 45 115
508 40 236
509 143 67
510 20 245
511 220 182
512 246 123
513 300 44
514 9 63
515 53 141
516 208 208
517 173 72
518 265 78
519 143 223
520 272 70
521 126 233
522 271 145
523 184 102
524 131 78
525 7 31
526 107 39
527 110 145
528 111 98
529 251 195
530 18 151
531 296 279
532 9 122
533 33 231
534 195 9
535 25 14
536 158 291
537 297 213
538 23 218
539 117 178
540 40 192
541 205 44
542 116 245
543 281 8
544 232 45
545 266 39
546 4 294
547 88 124
548 51 278
549 26 0
550 80 67
551 128 155
552 225 210
553 18 184
554 203 283
555 289 209
556 279 189
557 135 139
558 284 72
559 132 297
560 43 52
561 119 214
562 72 36
563 228 41
564 202 161
565 162 250
566 299 153
567 202 292
568 108 298
569 238 206
570 275 146
571 194 234
572 279 36
573 238 103
574 194 11
575 265 141
576 264 35
577 285 285
578 211 239
579 233 119
580 191 234
581 64 170
582 117 168
583 265 197
584 113 62
585 82 35
586 285 283
587 122 96
588 298 135
589 290 219
590 293 62
591 119 183
592 284 244
593 214 234
594 176 70
595 94 109
596 148 299
597 2 81
598 225 73
599 157 276
600 37 126
601 208 290
602 127 77
603 43 62
604 266 39
605 111 40
606 259 14
607 184 277
608 217 43
609 214 6
610 148 299
611 80 131
612 6 168
613 120 241
614 295 123
615 180 114
616 40 192
617 78 246
618 142 188
619 174 238
620 57 127
621 237 171
622 165 179
623 224 138
624 133 187
625 117 155
626 176 153
627 112 43
PICKUP_AND_DELIVERY_SECTION
1 0 0 1206 0 0 0
2 10 221 251 10 0 308
3 13 77 107 10 0 327
4 21 1023 1053 0 0 619
5 14 31 61 10 0 246
6 14 538 568 10 0 77
7 24 614 644 10 0 124
8 29 670 700 10 0 354
9 -21 818 848 10 225 0
10 10 899 929 10 0 367
11 25 208 238 10 0 20
12 -16 1011 1041 10 143 0
13 21 592 622 10 0 120
14 24 7 37 10 0 464
15 11 636 666 10 0 522
16 -31 767 797 10 83 0
17 -12 750 780 10 557 0
18 42 807 837 10 0 435
19 11 333 363 10 0 592
20 -25 328 358 10 11 0
21 22 230 260 10 0 103
22 15 363 393 10 0 113
23 -39 1086 1116 10 222 0
24 -5 577 607 10 448 0
25 12 83 113 10 0 562
26 2 357 387 10 0 519
27 -12 205 235 10 304 0
28 17 202 232 0 0 607
29 -2 253 283 10 452 0
30 -19 276 306 10 152 0
31 17 402 432 10 0 305
32 33 88 118 10 0 422
33 -33 654 684 10 444 0
34 -24 870 900 10 50 0
35 19 243 273 10 0 52
36 34 480 510 10 0 549
37 -19 804 834 10 78 0
38 21 162 192 10 0 130
39 21 49 79 10 0 141
40 12 85 115 10 0 404
41 16 805 835 10 0 523
42 17 446 476 10 0 567
43 -16 347 377 10 564 0
44 4 250 280 10 0 418
45 21 744 774 0 0 612
46 -35 196 226 10 87 0
47 -29 1045 1075 10 572 0
48 10 693 723 10 0 139
49 -22 843 873 10 300 0
50 24 751 781 10 0 34
51 -8 826 856 10 517 0
52 -19 388 418 10 35 0
53 -18 491 521 10 536 0
54 -21 856 886 10 393 0
55 -24 992 1022 10 315 0
56 25 412 442 10 0 335
57 14 828 858 0 0 626
58 22 188 218 10 0 350
59 13 185 215 10 0 534
60 23 139 169 10 0 570
61 -25 98 128 10 262 0
62 29 770 800 0 0 614
63 -12 551 581 10 378 0
64 11 488 518 10 0 289
65 16 247 277 10 0 247
66 -36 296 326 10 426 0
67 -45 823 853 10 499 0
68 -19 459 489 10 543 0
69 10 746 776 10 0 272
70 -14 370 400 10 574 0
71 -18 983 1013 10 398 0
72 23 17 47 10 0 337
73 -26 726 756 10 412 0
74 10 73 103 10 0 251
75 -24 546 576 10 390 0
76 21 69 99 10 0 167
77 -14 789 819 10 6 0
78 19 265 295 10 0 37
79 -21 212 242 10 151 0
80 -29 556 586 10 202 0
81 -18 933 963 10 228 0
82 42 553 583 0 0 627
83 31 484 514 10 0 16
84 35 865 895 0 0 609
85 23 301 331 10 0 334
86 3 513 543 10 0 486
87 35 115 145 10 0 46
88 -41 684 714 10 302 0
89 -2 259 289 10 231 0
90 33 516 546 10 0 311
91 -13 457 487 10 490 0
92 -6 804 834 10 102 0
93 -15 853 883 10 264 0
94 18 726 756 10 0 397
95 18 287 317 10 0 581
96 -30 250 280 10 316 0
97 15 393 423 10 0 134
98 18 397 427 10 0 174
99 -11 826 856 10 508 0
100 -16 130 160 10 515 0
101 26 276 306 10 0 179
102 6 42 72 10 0 92
103 -22 643 673 10 21 0
104 -20 879 909 10 347 0
105 1 36 66 10 0 296
106 -24 494 524 10 565 0
107 19 831 861 0 0 622
108 12 387 417 10 0 498
109 -5 286 316 10 309 0
110 -32 830 860 10 173 0
111 13 382 412 10 0 598
112 -25 508 538 10 458 0
113 -15 762 792 10 22 0
114 -27 800 830 10 366 0
115 -5 911 941 10 361 0
116 21 321 351 10 0 434
117 -17 767 797 10 380 0
118 -10 843 873 10 161 0
119 19 41 71 10 0 388
120 -21 794 824 10 13 0
121 -16 166 196 10 261 0
122 -15 338 368 10 430 0
123 24 627 657 10 0 186
124 -24 657 687 10 7 0
125 -36 816 846 10 181 0
126 12 587 617 10 0 215
127 -6 647 677 10 431 0
128 22 131 161 10 0 322
129 13 58 88 10 0 213
130 -21 473 503 10 38 0
131 -11 372 402 10 551 0
132 -17 539 569 10 221 0
133 -30 107 137 10 163 0
134 -15 847 877 10 97 0
135 -13 739 769 10 577 0
136 -13 840 870 10 185 0
137 27 329 359 10 0 588
138 -14 895 925 10 241 0
139 -10 778 808 10 48 0
140 -19 138 168 10 230 0
141 -21 722 752 10 39 0
142 16 735 765 10 0 353
143 16 682 712 10 0 12
144 -24 391 421 10 219 0
145 -15 685 715 10 583 0
146 26 70 100 10 0 450
147 9 263 293 10 0 421
148 -16 562 592 10 175 0
149 -18 511 541 10 440 0
150 41 519 549 10 0 255
151 21 49 79 10 0 79
152 19 165 195 10 0 30
153 17 138 168 10 0 553
154 20 598 628 10 0 370
155 -14 633 663 10 220 0
156 21 545 575 10 0 273
157 8 359 389 10 0 555
158 18 381 411 10 0 294
159 -22 877 907 10 290 0
160 46 253 283 10 0 512
161 10 473 503 10 0 118
162 -18 1017 1047 10 204 0
163 30 106 136 10 0 133
164 -18 898 928 10 207 0
165 -21 726 756 10 343 0
166 25 560 590 10 0 351
167 -21 823 853 10 76 0
168 22 35 65 10 0 483
169 -9 617 647 10 379 0
170 -7 939 969 10 571 0
171 13 122 152 10 0 292
172 -17 479 509 10 203 0
173 32 780 810 10 0 110
174 -18 444 474 10 98 0
175 16 244 274 10 0 148
176 17 474 504 10 0 511
177 2 74 104 10 0 206
178 17 111 141 10 0 541
179 -26 445 475 10 101 0
180 10 242 272 10 0 403
181 36 761 791 10 0 125
182 -2 876 906 10 284 0
183 -18 662 692 10 325 0
184 23 433 463 10 0 291
185 13 112 142 10 0 136
186 -24 867 897 10 123 0
187 -18 888 918 10 479 0
188 17 394 424 0 0 621
189 -17 512 542 10 297 0
190 2 187 217 10 0 531
191 14 544 574 10 0 282
192 -33 678 708 10 250 0
193 4 133 163 10 0 321
194 -15 638 668 10 475 0
195 -5 1128 1158 10 199 0
196 25 121 151 10 0 597
197 -27 147 177 10 552 0
198 26 574 604 10 0 249
199 5 690 720 10 0 195
200 23 224 254 10 0 526
201 19 594 624 10 0 389
202 29 104 134 10 0 80
203 17 336 366 10 0 172
204 18 898 928 10 0 162
205 -1 566 596 10 281 0
206 -2 116 146 10 177 0
207 18 808 838 10 0 164
208 40 33 63 10 0 339
209 33 454 484 10 0 244
210 -22 432 462 10 329 0
211 -22 171 201 10 446 0
212 18 739 769 0 0 606
213 -13 195 225 10 129 0
214 12 344 374 10 0 333
215 -12 760 790 10 126 0
216 9 393 423 10 0 449
217 -16 374 404 10 516 0
218 33 168 198 10 0 477
219 24 372 402 10 0 144
220 14 606 636 10 0 155
221 17 496 526 10 0 132
222 39 476 506 10 0 23
223 -33 858 888 10 529 0
224 15 314 344 10 0 364
225 21 372 402 10 0 9
226 -19 859 889 10 355 0
227 16 101 131 10 0 506
228 18 491 521 10 0 81
229 -14 249 279 10 348 0
230 19 100 130 10 0 140
231 2 134 164 10 0 89
232 -29 395 425 10 257 0
233 -17 874 904 10 279 0
234 32 17 47 10 0 501
235 22 35 65 10 0 310
236 4 346 376 10 0 468
237 -27 566 596 10 461 0
238 16 1068 1098 0 0 624
239 11 372 402 10 0 306
240 34 11 41 10 0 463
241 14 763 793 10 0 138
242 -13 768 798 10 299 0
243 11 412 442 10 0 533
244 -33 505 535 10 209 0
245 21 380 410 10 0 573
246 -14 87 117 10 5 0
247 -16 340 370 10 65 0
248 12 697 727 10 0 360
249 -26 969 999 10 198 0
250 33 177 207 10 0 192
251 -10 407 437 10 74 0
252 -8 610 640 10 271 0
253 29 266 296 10 0 465
254 28 435 465 10 0 563
255 -41 785 815 10 150 0
256 5 523 553 0 0 608
257 29 83 113 10 0 232
258 22 1008 1038 0 0 625
259 31 291 321 10 0 345
260 -20 808 838 10 521 0
261 16 150 180 10 0 121
262 25 22 52 10 0 61
263 -9 633 663 10 474 0
264 15 13 43 10 0 93
265 11 39 69 10 0 323
266 11 830 860 0 0 602
267 14 3 33 10 0 270
268 21 153 183 10 0 471
269 14 821 851 0 0 603
270 -14 1023 1053 10 267 0
271 8 516 546 10 0 252
272 -10 782 812 10 69 0
273 -21 1019 1049 10 156 0
274 -2 498 528 10 547 0
275 38 352 382 10 0 451
276 -7 593 623 10 336 0
277 23 501 531 10 0 365
278 1 634 664 10 0 595
279 17 168 198 10 0 233
280 21 698 728 10 0 392
281 1 475 505 10 0 205
282 -14 584 614 10 191 0
283 16 137 167 10 0 548
284 2 671 701 10 0 182
285 -16 442 472 10 493 0
286 -12 565 595 10 377 0
287 -22 640 670 10 298 0
288 27 213 243 10 0 584
289 -11 976 1006 10 64 0
290 22 219 249 10 0 159
291 -23 479 509 10 184 0
292 -13 377 407 10 171 0
293 -26 637 667 10 447 0
294 -18 411 441 10 158 0
295 23 776 806 10 0 312
296 -1 419 449 10 105 0
297 17 397 427 10 0 189
298 22 538 568 10 0 287
299 13 156 186 10 0 242
300 22 587 617 10 0 49
301 18 409 439 10 0 375
302 41 217 247 10 0 88
303 5 12 42 10 0 473
304 12 188 218 10 0 27
305 -17 666 696 10 31 0
306 -11 525 555 10 239 0
307 -30 706 736 10 556 0
308 -10 938 968 10 2 0
309 5 241 271 10 0 109
310 -22 990 1020 10 235 0
311 -33 939 969 10 90 0
312 -23 910 940 10 295 0
313 27 290 320 10 0 586
314 20 346 376 0 0 620
315 24 525 555 10 0 55
316 30 72 102 10 0 96
317 -8 515 545 10 527 0
318 20 316 346 10 0 391
319 22 196 226 10 0 406
320 13 722 752 10 0 513
321 -4 212 242 10 193 0
322 -22 469 499 10 128 0
323 -11 53 83 10 265 0
324 -6 645 675 10 330 0
325 18 544 574 10 0 183
326 5 150 180 10 0 484
327 -13 152 182 10 3 0
328 -17 271 301 10 400 0
329 22 255 285 10 0 210
330 6 149 179 10 0 324
331 11 405 435 10 0 558
332 -13 624 654 10 507 0
333 -12 497 527 10 214 0
334 -23 730 760 10 85 0
335 -25 474 504 10 56 0
336 7 517 547 10 0 276
337 -23 44 74 10 72 0
338 6 640 670 10 0 363
339 -40 48 78 10 208 0
340 -15 217 247 10 530 0
341 -12 705 735 10 467 0
342 18 512 542 10 0 546
343 21 686 716 10 0 165
344 2 298 328 10 0 524
345 -31 671 701 10 259 0
346 -6 867 897 10 554 0
347 20 638 668 10 0 104
348 14 107 137 10 0 229
349 9 1070 1100 0 0 615
350 -22 720 750 10 58 0
351 -25 777 807 10 166 0
352 21 733 763 10 0 466
353 -16 919 949 10 142 0
354 -29 683 713 10 8 0
355 19 53 83 10 0 226
356 -23 582 612 10 415 0
357 4 39 69 10 0 590
358 8 409 439 10 0 408
359 -16 462 492 10 429 0
360 -12 749 779 10 248 0
361 5 541 571 10 0 115
362 -16 442 472 10 470 0
363 -6 959 989 10 338 0
364 -15 458 488 10 224 0
365 -23 998 1028 10 277 0
366 27 681 711 10 0 114
367 -10 947 977 10 10 0
368 17 151 181 10 0 472
369 -9 337 367 10 384 0
370 -20 904 934 10 154 0
371 16 909 939 0 0 623
372 10 419 449 10 0 480
373 22 855 885 0 0 605
374 -6 602 632 10 482 0
375 -18 506 536 10 301 0
376 5 413 443 10 0 578
377 12 130 160 10 0 286
378 12 84 114 10 0 63
379 9 155 185 10 0 169
380 17 334 364 10 0 117
381 -18 621 651 10 419 0
382 -26 449 479 10 469 0
383 -11 719 749 10 445 0
384 9 292 322 10 0 369
385 4 129 159 10 0 538
386 -12 253 283 10 585 0
387 2 170 200 10 0 560
388 -19 319 349 10 119 0
389 -19 808 838 10 201 0
390 24 459 489 10 0 75
391 -20 517 547 10 318 0
392 -21 723 753 10 280 0
393 21 175 205 10 0 54
394 19 151 181 10 0 510
395 32 483 513 10 0 518
396 -6 203 233 10 425 0
397 -18 843 873 10 94 0
398 18 834 864 10 0 71
399 21 31 61 10 0 587
400 17 218 248 10 0 328
401 27 324 354 0 0 617
402 3 354 384 10 0 462
403 -10 508 538 10 180 0
404 -12 230 260 10 40 0
405 -22 674 704 10 569 0
406 -22 578 608 10 319 0
407 -19 689 719 10 532 0
408 -8 752 782 10 358 0
409 14 334 364 0 0 611
410 -14 658 688 10 582 0
411 10 162 192 10 0 601
412 26 59 89 10 0 73
413 -12 843 873 10 438 0
414 19 53 83 10 0 500
415 23 121 151 10 0 356
416 -13 894 924 10 457 0
417 -11 186 216 10 420 0
418 -4 747 777 10 44 0
419 18 146 176 10 0 381
420 11 166 196 10 0 417
421 -9 501 531 10 147 0
422 -33 109 139 10 32 0
423 23 211 241 10 0 476
424 27 67 97 10 0 544
425 6 131 161 10 0 396
426 36 269 299 10 0 66
427 -15 621 651 10 478 0
428 16 885 915 10 0 579
429 16 341 371 10 0 359
430 15 78 108 10 0 122
431 6 574 604 10 0 127
432 -40 397 427 10 559 0
433 -18 829 859 10 594 0
434 -21 621 651 10 116 0
435 -42 902 932 10 18 0
436 11 304 334 10 0 494
437 12 962 992 0 0 618
438 12 499 529 10 0 413
439 14 344 374 10 0 576
440 18 98 128 10 0 149
441 -18 269 299 10 488 0
442 -14 629 659 10 509 0
443 -8 854 884 10 505 0
444 33 126 156 10 0 33
445 11 306 336 10 0 383
446 22 92 122 10 0 211
447 26 492 522 10 0 293
448 5 399 429 10 0 24
449 -9 553 583 10 216 0
450 -26 189 219 10 146 0
451 -38 577 607 10 275 0
452 2 56 86 10 0 29
453 -18 771 801 10 599 0
454 -15 289 319 10 456 0
455 23 507 537 10 0 460
456 15 150 180 10 0 454
457 13 685 715 10 0 416
458 25 111 141 10 0 112
459 -22 710 740 10 575 0
460 -23 821 851 10 455 0
461 27 485 515 10 0 237
462 -3 468 498 10 402 0
463 -34 333 363 10 240 0
464 -24 819 849 10 14 0
465 -29 648 678 10 253 0
466 -21 822 852 10 352 0
467 12 337 367 10 0 341
468 -4 729 759 10 236 0
469 26 333 363 10 0 382
470 16 242 272 10 0 362
471 -21 964 994 10 268 0
472 -17 450 480 10 368 0
473 -5 493 523 10 303 0
474 9 485 515 10 0 263
475 15 622 652 10 0 194
476 -23 525 555 10 423 0
477 -33 796 826 10 218 0
478 15 142 172 10 0 427
479 18 755 785 10 0 187
480 -10 590 620 10 372 0
481 6 133 163 10 0 566
482 6 118 148 10 0 374
483 -22 439 469 10 168 0
484 -5 882 912 10 326 0
485 17 542 572 10 0 568
486 -3 588 618 10 86 0
487 5 245 275 10 0 528
488 18 186 216 10 0 441
489 20 605 635 0 0 613
490 13 239 269 10 0 91
491 18 428 458 10 0 550
492 19 390 420 10 0 520
493 16 426 456 10 0 285
494 -11 737 767 10 436 0
495 31 515 545 10 0 496
496 -31 904 934 10 495 0
497 -19 668 698 10 600 0
498 -12 774 804 10 108 0
499 45 799 829 10 0 67
500 -19 572 602 10 414 0
501 -32 350 380 10 234 0
502 -5 600 630 10 503 0
503 5 28 58 10 0 502
504 -13 651 681 10 514 0
505 8 107 137 10 0 443
506 -16 978 1008 10 227 0
507 13 217 247 10 0 332
508 11 750 780 10 0 99
509 14 83 113 10 0 442
510 -19 237 267 10 394 0
511 -17 613 643 10 176 0
512 -46 569 599 10 160 0
513 -13 757 787 10 320 0
514 13 309 339 10 0 504
515 16 97 127 10 0 100
516 16 106 136 10 0 217
517 8 686 716 10 0 51
518 -32 706 736 10 395 0
519 -2 403 433 10 26 0
520 -19 672 702 10 492 0
521 20 391 421 10 0 260
522 -11 957 987 10 15 0
523 -16 1048 1078 10 41 0
524 -2 578 608 10 344 0
525 -15 793 823 10 535 0
526 -23 341 371 10 200 0
527 8 166 196 10 0 317
528 -5 271 301 10 487 0
529 33 288 318 10 0 223
530 15 132 162 10 0 340
531 -2 497 527 10 190 0
532 19 216 246 10 0 407
533 -11 745 775 10 243 0
534 -13 197 227 10 59 0
535 15 213 243 10 0 525
536 18 162 192 10 0 53
537 -19 694 724 10 589 0
538 -4 149 179 10 385 0
539 -6 766 796 10 591 0
540 30 117 147 0 0 616
541 -17 140 170 10 178 0
542 37 577 607 10 0 561
543 19 244 274 10 0 68
544 -27 812 842 10 424 0
545 6 508 538 0 0 604
546 -18 550 580 10 342 0
547 2 67 97 10 0 274
548 -16 272 302 10 283 0
549 -34 495 525 10 36 0
550 -18 427 457 10 491 0
551 11 22 52 10 0 131
552 27 119 149 10 0 197
553 -17 371 401 10 153 0
554 6 741 771 10 0 346
555 -8 694 724 10 157 0
556 30 594 624 10 0 307
557 12 18 48 10 0 17
558 -11 933 963 10 331 0
559 40 164 194 10 0 432
560 -2 566 596 10 387 0
561 -37 618 648 10 542 0
562 -12 432 462 10 25 0
563 -28 812 842 10 254 0
564 16 53 83 10 0 43
565 24 196 226 10 0 106
566 -6 410 440 10 481 0
567 -17 908 938 10 42 0
568 -17 880 910 10 485 0
569 22 573 603 10 0 405
570 -23 651 681 10 60 0
571 7 94 124 10 0 170
572 29 693 723 10 0 47
573 -21 722 752 10 245 0
574 14 327 357 10 0 70
575 22 115 145 10 0 459
576 -14 983 1013 10 439 0
577 13 701 731 10 0 135
578 -5 577 607 10 376 0
579 -16 938 968 10 428 0
580 9 93 123 10 0 593
581 -18 457 487 10 95 0
582 14 37 67 10 0 410
583 15 321 351 10 0 145
584 -27 524 554 10 288 0
585 12 133 163 10 0 386
586 -27 554 584 10 313 0
587 -21 147 177 10 399 0
588 -27 900 930 10 137 0
589 19 187 217 10 0 537
590 -4 167 197 10 357 0
591 6 567 597 10 0 539
592 -11 736 766 10 19 0
593 -9 730 760 10 580 0
594 18 672 702 10 0 433
595 -1 783 813 10 278 0
596 15 154 184 0 0 610
597 -25 264 294 10 196 0
598 -13 519 549 10 111 0
599 18 126 156 10 0 453
600 19 154 184 10 0 497
601 -10 305 335 10 411 0
602 -11 830 860 10 266 0
603 -14 821 851 10 269 0
604 -6 508 538 10 545 0
605 -22 855 885 10 373 0
606 -18 739 769 10 212 0
607 -17 202 232 10 28 0
608 -5 523 553 10 256 0
609 -35 865 895 10 84 0
610 -15 154 184 10 596 0
611 -14 334 364 10 409 0
612 -21 744 774 10 45 0
613 -20 605 635 10 489 0
614 -29 770 800 10 62 0
615 -9 1070 1100 10 349 0
616 -30 117 147 10 540 0
617 -27 324 354 10 401 0
618 -12 962 992 10 437 0
619 -21 1023 1053 10 4 0
620 -20 346 376 10 314 0
621 -17 394 424 10 188 0
622 -19 831 861 10 107 0
623 -16 909 939 10 371 0
624 -16 1068 1098 10 238 0
625 -22 1008 1038 10 258 0
626 -14 828 858 10 57 0
627 -42 553 583 10 82 0
DEPOT_SECTION
1
-1
EOF
