NAME: lr1_6_9
TYPE: PDPTW
COMMENT: Li & Lim PDPTW benchmark converted from SINTEF format
DIMENSION: 625
VEHICLES: 150
CAPACITY: 200
EDGE_WEIGHT_TYPE: EUC_2D
NODE_COORD_SECTION
1 150 150
2 71 268
3 183 80
4 174 238
5 166 123
6 287 293
7 140 214
8 47 203
9 247 19
10 152 29
11 86 216
12 107 29
13 212 270
14 148 157
15 291 148
16 92 241
17 162 148
18 119 254
19 266 212
20 99 226
21 56 116
22 110 31
23 175 107
24 17 0
25 96 86
26 136 228
27 100 138
28 184 277
29 16 42
30 67 175
31 72 286
32 176 235
33 116 14
34 26 27
35 37 14
36 1 11
37 74 117
38 170 53
39 154 101
40 75 191
41 227 62
42 209 269
43 207 149
44 99 105
45 6 168
46 296 211
47 254 87
48 201 175
49 268 113
50 29 8
51 159 89
52 9 30
53 175 294
54 282 76
55 90 44
56 57 7
57 176 153
58 106 243
59 207 20
60 289 143
61 166 194
62 295 123
63 85 62
64 207 237
65 136 50
66 42 221
67 208 235
68 267 29
69 206 121
70 227 5
71 60 287
72 151 133
73 222 100
74 152 77
75 225 192
76 150 104
77 296 252
78 63 170
79 106 168
80 73 81
81 97 232
82 112 43
83 135 251
84 214 6
85 252 219
86 182 284
87 259 187
88 72 20
89 153 61
90 211 174
91 199 28
92 274 136
93 226 248
94 85 75
95 52 165
96 54 136
97 34 150
98 203 36
99 37 258
100 29 130
101 40 181
102 192 150
103 61 138
104 183 88
105 122 127
106 126 266
107 165 179
108 19 290
109 30 243
110 172 198
111 209 84
112 24 261
113 181 145
114 149 76
115 206 157
116 1 81
117 47 153
118 125 148
119 109 148
120 256 286
121 15 52
122 234 107
123 108 162
124 147 240
125 290 37
126 165 256
127 188 69
128 242 70
129 93 165
130 224 61
131 72 180
132 44 286
133 47 121
134 30 145
135 283 275
136 2 238
137 289 130
138 159 266
139 198 159
140 155 93
141 201 122
142 34 5
143 103 8
144 30 149
145 278 178
146 203 183
147 276 28
148 63 130
149 199 213
150 274 6
151 107 174
152 57 123
153 14 177
154 156 182
155 168 42
156 84 231
157 272 211
158 153 226
159 250 194
160 243 136
161 56 212
162 221 145
163 52 109
164 88 190
165 11 191
166 296 235
167 175 123
168 124 174
169 271 105
170 169 236
171 127 266
172 139 31
173 160 179
174 200 26
175 59 113
176 189 197
177 76 160
178 183 44
179 45 190
180 145 38
181 271 8
182 161 242
183 230 150
184 260 64
185 44 189
186 125 168
187 120 155
188 237 171
189 120 60
190 263 291
191 246 93
192 15 259
193 250 124
194 129 77
195 188 142
196 29 139
197 241 218
198 183 23
199 217 138
200 126 42
201 136 68
202 64 91
203 148 28
204 262 164
205 103 93
206 37 159
207 75 269
208 126 127
209 103 81
210 18 196
211 88 49
212 259 14
213 60 176
214 15 88
215 178 263
216 45 74
217 209 246
218 275 263
219 37 149
220 183 43
221 59 287
222 170 93
223 167 171
224 227 192
225 236 27
226 139 110
227 243 191
228 136 295
229 132 16
230 157 84
231 162 92
232 140 18
233 4 97
234 133 153
235 150 185
236 151 113
237 71 294
238 133 187
239 136 241
240 139 146
241 184 237
242 15 178
243 41 279
244 96 96
245 230 128
246 198 100
247 160 17
248 137 212
249 180 93
250 8 227
251 189 41
252 176 263
253 263 193
254 220 43
255 296 17
256 217 43
257 150 67
258 117 155
259 113 4
260 114 259
261 38 74
262 148 172
263 139 250
264 163 150
265 112 161
266 127 77
267 147 152
268 131 222
269 43 62
270 167 193
271 157 254
272 187 129
273 96 199
274 31 68
275 234 146
276 14 204
277 121 116
278 88 110
279 25 119
280 262 14
281 108 80
282 239 84
283 107 281
284 152 241
285 183 282
286 186 26
287 175 281
288 118 38
289 189 201
290 238 294
291 250 49
292 109 299
293 128 225
294 157 221
295 69 90
296 12 10
297 109 61
298 213 299
299 11 176
300 271 106
301 140 294
302 51 2
303 158 140
304 102 155
305 75 265
306 116 240
307 272 183
308 30 226
309 27 255
310 203 166
311 205 130
312 94 93
313 248 280
314 57 127
315 16 22
316 80 133
317 75 127
318 9 239
319 110 83
320 297 43
321 247 86
322 248 41
323 102 173
324 28 141
325 246 166
326 5 189
327 216 40
328 282 104
329 44 223
330 1 145
331 253 84
332 69 134
333 24 76
334 255 203
335 94 12
336 14 165
337 164 108
338 266 203
339 114 117
340 48 141
341 28 124
342 12 275
343 8 200
344 123 76
345 108 3
346 228 217
347 253 69
348 147 43
349 180 114
350 76 221
351 250 228
352 228 276
353 29 72
354 57 192
355 166 99
356 69 208
357 179 123
358 208 297
359 241 298
360 151 172
361 216 203
362 241 208
363 219 152
364 238 214
365 173 148
366 156 57
367 157 50
368 276 66
369 112 272
370 190 181
371 224 138
372 154 207
373 111 40
374 172 2
375 125 278
376 186 228
377 191 49
378 102 81
379 246 133
380 47 143
381 220 18
382 40 1
383 135 38
384 124 299
385 36 212
386 89 61
387 60 72
388 83 188
389 182 146
390 223 198
391 11 242
392 244 13
393 274 66
394 15 219
395 294 64
396 8 4
397 102 76
398 4 296
399 141 120
400 262 80
401 78 246
402 180 98
403 139 33
404 25 191
405 188 198
406 82 100
407 3 119
408 239 295
409 80 131
410 152 258
411 181 297
412 206 130
413 241 183
414 180 106
415 131 220
416 103 260
417 148 8
418 173 152
419 235 31
420 157 12
421 296 15
422 172 225
423 57 125
424 158 83
425 51 63
426 51 217
427 254 206
428 236 108
429 224 229
430 208 117
431 176 72
432 159 287
433 149 98
434 25 64
435 135 210
436 113 188
437 142 188
438 261 232
439 277 41
440 189 240
441 11 185
442 212 45
443 231 28
444 159 42
445 159 41
446 99 73
447 110 262
448 15 2
449 72 89
450 229 188
451 232 121
452 98 129
453 139 270
454 181 277
455 281 68
456 159 300
457 143 244
458 105 252
459 288 127
460 230 80
461 76 280
462 182 81
463 61 84
464 159 199
465 280 158
466 215 295
467 38 139
468 213 119
469 37 36
470 229 179
471 81 219
472 283 65
473 229 25
474 121 246
475 129 83
476 87 183
477 274 256
478 234 213
479 46 155
480 139 206
481 283 144
482 208 47
483 114 211
484 15 209
485 107 291
486 154 299
487 101 114
488 5 195
489 120 241
490 229 40
491 83 77
492 289 79
493 177 281
494 175 251
495 80 35
496 117 79
497 3 135
498 58 240
499 210 236
500 173 64
501 93 117
502 80 86
503 125 136
504 38 44
505 211 62
506 230 135
507 45 115
508 40 236
509 143 67
510 20 245
511 220 182
512 246 123
513 300 44
514 9 63
515 53 141
516 208 208
517 173 72
518 265 78
519 143 223
520 272 70
521 126 233
522 271 145
523 184 102
524 131 78
525 7 31
526 107 39
527 110 145
528 111 98
529 251 195
530 18 151
531 296 279
532 9 122
533 33 231
534 195 9
535 25 14
536 158 291
537 297 213
538 23 218
539 117 178
540 40 192
541 205 44
542 116 245
543 281 8
544 232 45
545 266 39
546 4 294
547 88 124
548 51 278
549 26 0
550 80 67
551 128 155
552 225 210
553 18 184
554 203 283
555 289 209
556 279 189
557 135 139
558 284 72
559 132 297
560 43 52
561 119 214
562 72 36
563 228 41
564 202 161
565 162 250
566 299 153
567 202 292
568 108 298
569 238 206
570 275 146
571 194 234
572 279 36
573 238 103
574 194 11
575 265 141
576 264 35
577 285 285
578 211 239
579 233 119
580 191 234
581 64 170
582 117 168
583 265 197
584 113 62
585 82 35
586 285 283
587 122 96
588 298 135
589 290 219
590 293 62
591 119 183
592 284 244
593 214 234
594 176 70
595 94 109
596 148 299
597 2 81
598 225 73
599 157 276
600 37 126
601 208 290
602 229 25
603 278 178
604 43 52
605 241 183
606 149 76
607 274 66
608 11 191
609 159 266
610 232 45
611 43 62
612 175 251
613 214 6
614 40 1
615 173 148
616 159 89
617 57 125
618 110 145
619 289 143
620 213 119
621 103 81
622 93 117
623 230 80
624 114 259
625 238 206
PICKUP_AND_DELIVERY_SECTION
1 0 0 1206 0 0 0
2 10 207 266 10 0 243
3 13 77 148 10 0 541
4 -17 1005 1072 10 486 0
5 14 31 114 10 0 414
6 -27 536 571 10 313 0
7 -10 605 654 10 483 0
8 -26 647 723 10 101 0
9 -10 801 866 10 392 0
10 -26 902 927 10 229 0
11 25 211 235 10 0 16
12 -41 1003 1050 10 302 0
13 -9 573 641 10 580 0
14 24 7 20 10 0 363
15 11 617 685 10 0 570
16 -25 750 814 10 11 0
17 -46 741 789 10 160 0
18 -18 792 851 10 207 0
19 -22 316 379 10 46 0
20 12 306 380 10 0 161
21 -19 207 282 10 133 0
22 15 347 409 10 0 82
23 -10 1068 1135 10 174 0
24 -22 572 613 10 296 0
25 12 83 180 10 0 319
26 2 326 419 10 0 271
27 24 174 265 10 0 304
28 17 183 251 10 0 454
29 17 235 301 10 0 353
30 -18 257 326 10 95 0
31 17 386 449 10 0 461
32 33 88 126 10 0 440
33 -26 646 692 10 232 0
34 -34 836 934 10 36 0
35 19 212 304 10 0 142
36 34 469 521 10 0 34
37 -9 805 834 10 117 0
38 21 150 203 10 0 534
39 21 49 108 10 0 231
40 12 85 119 10 0 185
41 -20 784 855 10 347 0
42 -26 455 467 10 217 0
43 -14 333 391 10 267 0
44 -5 218 312 10 487 0
45 -30 722 797 10 441 0
46 22 177 245 10 0 19
47 -17 1019 1075 10 558 0
48 -15 663 752 10 478 0
49 22 844 871 10 0 428
50 -12 739 792 10 549 0
51 22 809 873 0 0 616
52 -16 378 427 10 261 0
53 -42 465 547 10 285 0
54 -21 850 892 10 280 0
55 -25 981 1033 10 56 0
56 25 387 466 10 0 55
57 -12 814 872 10 418 0
58 22 156 249 10 0 401
59 13 172 228 10 0 286
60 23 139 240 0 0 619
61 7 90 136 10 0 599
62 -22 753 817 10 575 0
63 -2 534 598 10 547 0
64 -10 472 534 10 294 0
65 -21 239 284 10 337 0
66 29 284 338 10 0 533
67 -17 805 870 10 93 0
68 -6 443 505 10 545 0
69 -15 718 804 10 430 0
70 13 348 422 10 0 563
71 -5 965 1033 10 252 0
72 23 17 25 10 0 409
73 -42 713 769 10 169 0
74 10 73 122 10 0 403
75 -31 516 607 10 362 0
76 21 46 136 10 0 236
77 -15 756 853 10 531 0
78 -7 256 305 10 206 0
79 21 203 252 10 0 591
80 -7 544 597 10 463 0
81 -14 920 976 10 305 0
82 -15 549 587 10 22 0
83 -20 468 531 10 519 0
84 35 856 904 0 0 613
85 23 282 351 10 0 556
86 3 512 545 10 0 554
87 35 115 154 10 0 346
88 -31 669 730 10 495 0
89 12 236 311 10 0 251
90 33 498 563 10 0 310
91 12 446 498 10 0 127
92 -16 794 844 10 470 0
93 17 829 906 10 0 67
94 -29 718 763 10 202 0
95 18 280 325 10 0 30
96 9 245 284 10 0 380
97 -24 362 454 10 219 0
98 18 384 440 10 0 249
99 11 803 879 10 0 308
100 18 122 182 10 0 497
101 26 262 319 10 0 8
102 6 42 81 10 0 193
103 -30 644 672 10 316 0
104 -8 871 917 10 517 0
105 1 36 76 10 0 535
106 -26 487 530 10 447 0
107 -32 797 895 10 173 0
108 -25 369 435 10 548 0
109 6 275 327 10 0 112
110 -8 824 867 10 405 0
111 13 378 416 10 0 311
112 -6 502 544 10 109 0
113 -5 757 797 10 199 0
114 10 811 819 0 0 606
115 -26 905 947 10 412 0
116 -19 305 366 10 532 0
117 9 743 821 10 0 37
118 -24 805 910 10 123 0
119 19 41 111 10 0 186
120 -11 799 820 10 408 0
121 21 166 232 10 0 514
122 24 316 390 10 0 300
123 24 618 666 10 0 118
124 4 643 701 10 0 182
125 -41 792 871 10 150 0
126 12 565 639 10 0 410
127 -12 641 683 10 91 0
128 22 121 211 10 0 331
129 13 58 87 10 0 196
130 22 466 510 10 0 598
131 -15 343 432 10 530 0
132 -15 497 610 10 596 0
133 19 107 182 10 0 21
134 -4 823 900 10 144 0
135 -22 714 794 10 290 0
136 -33 813 897 10 250 0
137 27 315 373 10 0 522
138 2 858 962 0 0 609
139 -15 749 836 10 264 0
140 33 127 179 10 0 402
141 -25 705 768 10 246 0
142 -19 713 787 10 35 0
143 -15 666 727 10 172 0
144 4 381 430 10 0 134
145 17 677 724 0 0 603
146 26 62 134 10 0 157
147 -17 248 307 10 368 0
148 21 550 604 10 0 332
149 -17 491 561 10 176 0
150 41 502 566 10 0 125
151 -14 49 125 10 582 0
152 19 149 211 10 0 507
153 17 138 240 10 0 343
154 -25 591 636 10 262 0
155 -28 622 673 10 254 0
156 -23 522 597 10 415 0
157 -26 352 397 10 146 0
158 -22 350 441 10 235 0
159 -6 861 924 10 338 0
160 46 251 284 10 0 17
161 -12 465 511 10 20 0
162 -15 1009 1055 10 506 0
163 30 106 152 10 0 502
164 12 863 963 10 0 238
165 12 704 777 0 0 608
166 -16 535 615 10 227 0
167 -21 804 871 10 399 0
168 22 35 94 10 0 370
169 42 588 677 10 0 73
170 -18 940 967 10 369 0
171 13 118 167 10 0 485
172 15 454 535 10 0 143
173 32 754 835 10 0 107
174 10 413 505 10 0 23
175 16 220 299 10 0 314
176 17 460 518 10 0 149
177 2 74 110 10 0 326
178 17 115 132 10 0 327
179 -16 441 478 10 404 0
180 10 222 292 10 0 247
181 -19 753 799 10 543 0
182 -4 853 929 10 124 0
183 -16 649 705 10 564 0
184 -8 418 478 10 505 0
185 -12 112 181 10 40 0
186 -19 842 922 10 119 0
187 -17 860 946 10 581 0
188 17 368 450 10 0 465
189 -22 499 556 10 446 0
190 2 180 231 10 0 577
191 14 518 600 10 0 573
192 -28 663 723 10 510 0
193 -6 103 195 10 102 0
194 -19 631 674 10 355 0
195 -15 1095 1158 10 451 0
196 -13 121 186 10 129 0
197 34 122 202 10 0 529
198 26 572 605 10 0 523
199 5 681 730 10 0 113
200 23 199 278 10 0 201
201 -23 591 627 10 200 0
202 29 104 152 10 0 94
203 -14 344 359 10 348 0
204 -12 866 960 10 307 0
205 13 542 621 10 0 226
206 7 113 196 10 0 78
207 18 783 862 10 0 18
208 -34 33 138 10 240 0
209 33 435 503 0 0 621
210 8 427 468 10 0 276
211 21 159 213 10 0 386
212 18 725 783 10 0 443
213 19 156 264 10 0 471
214 12 344 374 10 0 333
215 -16 762 788 10 493 0
216 9 364 451 10 0 295
217 26 358 420 10 0 42
218 33 168 224 10 0 477
219 24 367 407 10 0 97
220 -12 596 646 10 377 0
221 17 475 547 10 0 416
222 39 464 517 10 0 500
223 -32 830 915 10 234 0
224 15 292 366 10 0 325
225 -6 358 417 10 482 0
226 -13 848 900 10 205 0
227 16 101 182 10 0 166
228 18 478 535 10 0 284
229 26 238 291 10 0 10
230 19 80 151 10 0 420
231 -21 129 169 10 39 0
232 26 378 441 10 0 33
233 -8 855 922 10 407 0
234 32 17 49 10 0 223
235 22 35 65 10 0 158
236 -21 337 386 10 76 0
237 -24 551 610 10 292 0
238 -12 1064 1102 10 164 0
239 11 342 431 10 0 453
240 34 11 99 10 0 208
241 -5 744 812 10 376 0
242 -18 744 821 10 488 0
243 -10 389 464 10 2 0
244 -19 496 544 10 587 0
245 21 371 419 10 0 275
246 25 76 127 10 0 141
247 -10 336 374 10 180 0
248 12 687 737 10 0 437
249 -18 947 1020 10 98 0
250 33 168 216 10 0 136
251 -12 393 452 10 89 0
252 5 590 659 10 0 71
253 29 253 309 10 0 389
254 28 426 474 10 0 155
255 8 789 810 10 0 576
256 5 493 583 10 0 282
257 29 83 129 10 0 442
258 -25 992 1054 10 340 0
259 -13 283 328 10 417 0
260 5 781 865 0 0 624
261 16 135 216 10 0 52
262 25 22 105 10 0 154
263 -24 610 687 10 565 0
264 15 13 52 10 0 139
265 11 39 82 10 0 539
266 -9 802 888 10 526 0
267 14 3 57 10 0 43
268 21 135 201 10 0 568
269 14 819 853 0 0 611
270 -10 1008 1068 10 372 0
271 -2 501 562 10 26 0
272 -18 778 815 10 512 0
273 -24 993 1075 10 350 0
274 -17 478 548 10 279 0
275 -21 328 406 10 245 0
276 -8 576 640 10 210 0
277 -12 485 547 10 557 0
278 -16 602 695 10 406 0
279 17 146 221 10 0 274
280 21 677 749 10 0 54
281 1 475 505 10 0 595
282 -5 570 629 10 256 0
283 -25 137 230 10 458 0
284 -18 657 716 10 228 0
285 42 428 485 10 0 53
286 -13 544 616 10 59 0
287 -18 620 690 10 536 0
288 -14 213 243 10 509 0
289 -13 944 1038 10 457 0
290 22 207 262 10 0 135
291 -21 463 524 10 321 0
292 24 359 425 10 0 237
293 5 603 701 10 0 360
294 10 382 470 10 0 64
295 -9 768 815 10 216 0
296 22 409 459 10 0 24
297 17 395 429 10 0 496
298 -10 519 588 10 411 0
299 13 150 192 10 0 553
300 -24 584 621 10 122 0
301 -40 381 468 10 559 0
302 41 227 238 10 0 12
303 5 12 70 10 0 444
304 -24 184 222 10 27 0
305 14 665 698 10 0 81
306 -20 509 571 10 521 0
307 12 692 751 10 0 204
308 -11 921 984 10 99 0
309 5 203 308 10 0 342
310 -33 989 1022 10 90 0
311 -13 921 988 10 111 0
312 -13 892 957 10 449 0
313 27 292 319 10 0 6
314 -16 330 392 10 175 0
315 -5 516 563 10 448 0
316 30 72 123 10 0 103
317 37 493 567 10 0 479
318 20 321 340 10 0 484
319 -12 172 251 10 25 0
320 -29 704 771 10 572 0
321 21 201 252 10 0 291
322 11 440 529 10 0 513
323 15 53 111 10 0 476
324 -16 613 708 10 515 0
325 -15 532 586 10 224 0
326 -2 150 176 10 177 0
327 -17 132 203 10 178 0
328 19 273 299 10 0 472
329 22 244 296 10 0 498
330 -19 149 229 10 600 0
331 -22 377 462 10 128 0
332 -21 591 687 10 148 0
333 -12 488 536 10 214 0
334 -16 704 786 10 429 0
335 20 452 527 10 0 383
336 -12 515 550 10 467 0
337 21 44 105 10 0 65
338 6 615 695 10 0 159
339 31 48 109 10 0 525
340 25 204 260 10 0 258
341 -5 689 752 10 503 0
342 -5 508 546 10 309 0
343 -17 669 734 10 153 0
344 2 291 334 10 0 433
345 16 650 721 10 0 367
346 -35 858 905 10 87 0
347 20 637 669 10 0 41
348 14 107 158 10 0 203
349 -4 1047 1123 10 357 0
350 24 726 745 10 0 273
351 -19 756 827 10 589 0
352 -8 718 778 10 358 0
353 -17 906 962 10 29 0
354 -30 681 715 10 540 0
355 19 53 125 10 0 194
356 -16 568 626 10 388 0
357 4 39 130 10 0 349
358 8 377 470 10 0 352
359 27 455 498 10 0 567
360 -5 738 791 10 293 0
361 5 526 585 10 0 555
362 31 423 490 10 0 75
363 -24 931 1017 10 14 0
364 -15 437 510 10 583 0
365 9 975 1051 0 0 615
366 -13 660 733 10 490 0
367 -16 939 985 10 345 0
368 17 151 185 10 0 147
369 18 326 379 10 0 170
370 -22 906 933 10 168 0
371 -11 896 952 10 579 0
372 10 408 459 10 0 270
373 -11 843 897 10 445 0
374 -14 593 642 10 574 0
375 -21 477 564 10 432 0
376 5 400 455 10 0 241
377 12 109 182 10 0 220
378 12 84 121 10 0 585
379 9 129 210 10 0 395
380 -9 315 383 10 96 0
381 -18 610 662 10 419 0
382 38 439 489 0 0 614
383 -20 689 779 10 335 0
384 -15 283 331 10 456 0
385 4 129 200 10 0 391
386 -21 241 295 10 211 0
387 2 156 214 10 0 597
388 16 286 383 10 0 356
389 -29 794 853 10 253 0
390 24 456 493 10 0 537
391 -4 524 540 10 385 0
392 10 711 766 10 0 9
393 21 161 219 0 0 607
394 -23 151 193 10 538 0
395 -9 469 528 10 379 0
396 -6 203 241 10 425 0
397 -9 833 884 10 584 0
398 -15 816 882 10 546 0
399 21 31 98 10 0 167
400 17 196 270 10 0 439
401 -22 310 369 10 58 0
402 -33 345 394 10 140 0
403 -10 492 555 10 74 0
404 16 230 259 10 0 179
405 8 661 718 10 0 110
406 16 576 609 10 0 278
407 8 680 728 10 0 233
408 11 729 806 10 0 120
409 -23 334 363 10 72 0
410 -12 616 731 10 126 0
411 10 150 244 10 0 298
412 26 59 108 10 0 115
413 12 823 893 0 0 605
414 -14 53 120 10 5 0
415 23 107 165 10 0 156
416 -17 896 923 10 221 0
417 13 164 239 10 0 259
418 12 727 797 10 0 57
419 18 146 218 10 0 381
420 -19 141 221 10 230 0
421 -10 460 573 10 590 0
422 -7 106 143 10 571 0
423 23 199 253 0 0 617
424 27 67 125 10 0 462
425 6 131 181 10 0 396
426 36 251 318 10 0 508
427 29 600 672 10 0 511
428 -22 880 921 10 49 0
429 16 319 394 10 0 334
430 15 66 127 10 0 69
431 6 569 609 10 0 594
432 21 401 422 10 0 375
433 -2 805 883 10 344 0
434 -10 602 670 10 504 0
435 -20 884 951 10 489 0
436 11 280 358 10 0 474
437 -12 945 1009 10 248 0
438 -16 481 547 10 516 0
439 -17 317 401 10 400 0
440 -33 98 180 10 32 0
441 30 265 302 10 0 45
442 -29 633 655 10 257 0
443 -18 830 908 10 212 0
444 -5 134 148 10 303 0
445 11 286 357 10 0 373
446 22 92 171 10 0 189
447 26 474 540 10 0 106
448 5 390 437 10 0 315
449 13 551 585 10 0 312
450 -27 165 243 10 552 0
451 15 558 627 10 0 195
452 2 56 73 10 0 469
453 -11 754 818 10 239 0
454 -17 263 344 10 28 0
455 23 492 553 10 0 520
456 15 150 226 10 0 384
457 13 684 716 10 0 289
458 25 111 167 10 0 283
459 -12 703 747 10 566 0
460 26 821 851 0 0 623
461 -17 467 532 10 31 0
462 -27 460 507 10 424 0
463 7 324 373 10 0 80
464 -20 808 859 10 578 0
465 -17 622 704 10 188 0
466 -16 817 856 10 601 0
467 12 312 391 10 0 336
468 25 729 759 0 0 620
469 -2 314 382 10 452 0
470 16 226 287 10 0 92
471 -19 942 1016 10 213 0
472 -19 426 505 10 328 0
473 17 472 544 0 0 602
474 -11 475 525 10 436 0
475 -8 621 653 10 524 0
476 -15 494 587 10 323 0
477 -33 795 828 10 218 0
478 15 149 166 10 0 48
479 -37 731 809 10 317 0
480 -11 579 632 10 551 0
481 6 133 174 10 0 588
482 6 118 170 10 0 225
483 10 413 495 10 0 7
484 -20 875 920 10 318 0
485 -13 517 596 10 171 0
486 17 553 653 10 0 4
487 5 208 312 10 0 44
488 18 160 241 10 0 242
489 20 579 661 10 0 435
490 13 235 274 10 0 366
491 18 411 475 10 0 562
492 19 363 448 10 0 518
493 16 417 465 10 0 215
494 8 735 768 0 0 612
495 31 505 555 10 0 88
496 -17 894 944 10 297 0
497 -18 647 719 10 100 0
498 -22 778 800 10 329 0
499 -21 778 849 10 593 0
500 -39 560 613 10 222 0
501 15 358 371 0 0 622
502 -30 595 635 10 163 0
503 5 28 99 10 0 341
504 10 622 709 10 0 434
505 8 107 171 10 0 184
506 15 948 1038 10 0 162
507 -19 199 265 10 152 0
508 -36 734 796 10 426 0
509 14 83 170 10 0 288
510 28 200 304 10 0 192
511 -29 591 664 10 427 0
512 18 557 611 10 0 272
513 -11 729 814 10 322 0
514 -21 291 358 10 121 0
515 16 97 167 10 0 324
516 16 91 150 10 0 438
517 8 675 726 10 0 104
518 -19 696 746 10 492 0
519 20 390 447 10 0 83
520 -23 670 704 10 455 0
521 20 371 441 10 0 306
522 -27 948 995 10 137 0
523 -26 1024 1101 10 198 0
524 8 561 626 10 0 475
525 -31 788 827 10 339 0
526 9 333 378 10 0 266
527 8 144 217 0 0 618
528 16 268 305 10 0 550
529 -34 275 332 10 197 0
530 15 132 175 10 0 131
531 15 490 534 10 0 77
532 19 196 266 10 0 116
533 -29 726 794 10 66 0
534 -21 187 236 10 38 0
535 -1 194 262 10 105 0
536 18 145 209 10 0 287
537 -24 685 734 10 390 0
538 23 144 209 10 0 394
539 -11 751 811 10 265 0
540 30 117 193 10 0 354
541 -13 137 173 10 3 0
542 37 568 617 10 0 561
543 19 232 285 10 0 181
544 15 794 860 0 0 610
545 6 475 570 10 0 68
546 15 522 608 10 0 398
547 2 67 133 10 0 63
548 25 258 317 10 0 108
549 12 481 538 10 0 50
550 -16 413 471 10 528 0
551 11 22 71 10 0 480
552 27 97 171 10 0 450
553 -13 340 432 10 299 0
554 -3 713 799 10 86 0
555 -5 661 756 10 361 0
556 -23 582 637 10 85 0
557 12 18 68 10 0 277
558 17 936 961 10 0 47
559 40 149 208 10 0 301
560 31 556 606 0 0 604
561 -37 600 667 10 542 0
562 -18 402 491 10 491 0
563 -13 794 860 10 70 0
564 16 53 109 10 0 183
565 24 184 238 10 0 263
566 12 386 464 10 0 459
567 -27 893 953 10 359 0
568 -21 859 931 10 268 0
569 22 551 624 0 0 625
570 -11 632 699 10 15 0
571 7 94 126 10 0 422
572 29 685 731 10 0 320
573 -14 713 762 10 191 0
574 14 309 374 10 0 374
575 22 115 178 10 0 62
576 -8 971 1025 10 255 0
577 -2 668 763 10 190 0
578 20 546 638 10 0 464
579 11 920 986 10 0 371
580 9 93 133 10 0 13
581 17 444 500 10 0 187
582 14 37 82 10 0 151
583 15 307 366 10 0 364
584 9 515 562 10 0 397
585 -12 133 204 10 378 0
586 22 550 587 10 0 592
587 19 136 189 10 0 244
588 -6 885 946 10 481 0
589 19 175 229 10 0 351
590 10 167 248 10 0 421
591 -21 570 594 10 79 0
592 -22 728 774 10 586 0
593 21 708 783 10 0 499
594 -6 652 723 10 431 0
595 -1 779 816 10 281 0
596 15 149 192 10 0 132
597 -2 250 308 10 387 0
598 -22 514 553 10 130 0
599 -7 126 188 10 61 0
600 19 129 208 10 0 330
601 16 277 363 10 0 466
602 -17 472 544 10 473 0
603 -17 677 724 10 145 0
604 -31 556 606 10 560 0
605 -12 823 893 10 413 0
606 -10 811 819 10 114 0
607 -21 161 219 10 393 0
608 -12 704 777 10 165 0
609 -2 858 962 10 138 0
610 -15 794 860 10 544 0
611 -14 819 853 10 269 0
612 -8 735 768 10 494 0
613 -35 856 904 10 84 0
614 -38 439 489 10 382 0
615 -9 975 1051 10 365 0
616 -22 809 873 10 51 0
617 -23 199 253 10 423 0
618 -8 144 217 10 527 0
619 -23 139 240 10 60 0
620 -25 729 759 10 468 0
621 -33 435 503 10 209 0
622 -15 358 371 10 501 0
623 -26 821 851 10 460 0
624 -5 781 865 10 260 0
625 -22 551 624 10 569 0
DEPOT_SECTION
1
-1
EOF
