NAME: lr1_6_4
TYPE: PDPTW
COMMENT: Li & Lim PDPTW benchmark converted from SINTEF format
DIMENSION: 627
VEHICLES: 150
CAPACITY: 200
EDGE_WEIGHT_TYPE: EUC_2D
NODE_COORD_SECTION
1 150 150
2 71 268
3 183 80
4 174 238
5 166 123
6 287 293
7 140 214
8 47 203
9 247 19
10 152 29
11 86 216
12 107 29
13 212 270
14 148 157
15 291 148
16 92 241
17 162 148
18 119 254
19 266 212
20 99 226
21 56 116
22 110 31
23 175 107
24 17 0
25 96 86
26 136 228
27 100 138
28 184 277
29 16 42
30 67 175
31 72 286
32 176 235
33 116 14
34 26 27
35 37 14
36 1 11
37 74 117
38 170 53
39 154 101
40 75 191
41 227 62
42 209 269
43 207 149
44 99 105
45 6 168
46 296 211
47 254 87
48 201 175
49 268 113
50 29 8
51 159 89
52 9 30
53 175 294
54 282 76
55 90 44
56 57 7
57 176 153
58 106 243
59 207 20
60 289 143
61 166 194
62 295 123
63 85 62
64 207 237
65 136 50
66 42 221
67 208 235
68 267 29
69 206 121
70 227 5
71 60 287
72 151 133
73 222 100
74 152 77
75 225 192
76 150 104
77 296 252
78 63 170
79 106 168
80 73 81
81 97 232
82 112 43
83 135 251
84 214 6
85 252 219
86 182 284
87 259 187
88 72 20
89 153 61
90 211 174
91 199 28
92 274 136
93 226 248
94 85 75
95 52 165
96 54 136
97 34 150
98 203 36
99 37 258
100 29 130
101 40 181
102 192 150
103 61 138
104 183 88
105 122 127
106 126 266
107 165 179
108 19 290
109 30 243
110 172 198
111 209 84
112 24 261
113 181 145
114 149 76
115 206 157
116 1 81
117 47 153
118 125 148
119 109 148
120 256 286
121 15 52
122 234 107
123 108 162
124 147 240
125 290 37
126 165 256
127 188 69
128 242 70
129 93 165
130 224 61
131 72 180
132 44 286
133 47 121
134 30 145
135 283 275
136 2 238
137 289 130
138 159 266
139 198 159
140 155 93
141 201 122
142 34 5
143 103 8
144 30 149
145 278 178
146 203 183
147 276 28
148 63 130
149 199 213
150 274 6
151 107 174
152 57 123
153 14 177
154 156 182
155 168 42
156 84 231
157 272 211
158 153 226
159 250 194
160 243 136
161 56 212
162 221 145
163 52 109
164 88 190
165 11 191
166 296 235
167 175 123
168 124 174
169 271 105
170 169 236
171 127 266
172 139 31
173 160 179
174 200 26
175 59 113
176 189 197
177 76 160
178 183 44
179 45 190
180 145 38
181 271 8
182 161 242
183 230 150
184 260 64
185 44 189
186 125 168
187 120 155
188 237 171
189 120 60
190 263 291
191 246 93
192 15 259
193 250 124
194 129 77
195 188 142
196 29 139
197 241 218
198 183 23
199 217 138
200 126 42
201 136 68
202 64 91
203 148 28
204 262 164
205 103 93
206 37 159
207 75 269
208 126 127
209 103 81
210 18 196
211 88 49
212 259 14
213 60 176
214 15 88
215 178 263
216 45 74
217 209 246
218 275 263
219 37 149
220 183 43
221 59 287
222 170 93
223 167 171
224 227 192
225 236 27
226 139 110
227 243 191
228 136 295
229 132 16
230 157 84
231 162 92
232 140 18
233 4 97
234 133 153
235 150 185
236 151 113
237 71 294
238 133 187
239 136 241
240 139 146
241 184 237
242 15 178
243 41 279
244 96 96
245 230 128
246 198 100
247 160 17
248 137 212
249 180 93
250 8 227
251 189 41
252 176 263
253 263 193
254 220 43
255 296 17
256 217 43
257 150 67
258 117 155
259 113 4
260 114 259
261 38 74
262 148 172
263 139 250
264 163 150
265 112 161
266 127 77
267 147 152
268 131 222
269 43 62
270 167 193
271 157 254
272 187 129
273 96 199
274 31 68
275 234 146
276 14 204
277 121 116
278 88 110
279 25 119
280 262 14
281 108 80
282 239 84
283 107 281
284 152 241
285 183 282
286 186 26
287 175 281
288 118 38
289 189 201
290 238 294
291 250 49
292 109 299
293 128 225
294 157 221
295 69 90
296 12 10
297 109 61
298 213 299
299 11 176
300 271 106
301 140 294
302 51 2
303 158 140
304 102 155
305 75 265
306 116 240
307 272 183
308 30 226
309 27 255
310 203 166
311 205 130
312 94 93
313 248 280
314 57 127
315 16 22
316 80 133
317 75 127
318 9 239
319 110 83
320 297 43
321 247 86
322 248 41
323 102 173
324 28 141
325 246 166
326 5 189
327 216 40
328 282 104
329 44 223
330 1 145
331 253 84
332 69 134
333 24 76
334 255 203
335 94 12
336 14 165
337 164 108
338 266 203
339 114 117
340 48 141
341 28 124
342 12 275
343 8 200
344 123 76
345 108 3
346 228 217
347 253 69
348 147 43
349 180 114
350 76 221
351 250 228
352 228 276
353 29 72
354 57 192
355 166 99
356 69 208
357 179 123
358 208 297
359 241 298
360 151 172
361 216 203
362 241 208
363 219 152
364 238 214
365 173 148
366 156 57
367 157 50
368 276 66
369 112 272
370 190 181
371 224 138
372 154 207
373 111 40
374 172 2
375 125 278
376 186 228
377 191 49
378 102 81
379 246 133
380 47 143
381 220 18
382 40 1
383 135 38
384 124 299
385 36 212
386 89 61
387 60 72
388 83 188
389 182 146
390 223 198
391 11 242
392 244 13
393 274 66
394 15 219
395 294 64
396 8 4
397 102 76
398 4 296
399 141 120
400 262 80
401 78 246
402 180 98
403 139 33
404 25 191
405 188 198
406 82 100
407 3 119
408 239 295
409 80 131
410 152 258
411 181 297
412 206 130
413 241 183
414 180 106
415 131 220
416 103 260
417 148 8
418 173 152
419 235 31
420 157 12
421 296 15
422 172 225
423 57 125
424 158 83
425 51 63
426 51 217
427 254 206
428 236 108
429 224 229
430 208 117
431 176 72
432 159 287
433 149 98
434 25 64
435 135 210
436 113 188
437 142 188
438 261 232
439 277 41
440 189 240
441 11 185
442 212 45
443 231 28
444 159 42
445 159 41
446 99 73
447 110 262
448 15 2
449 72 89
450 229 188
451 232 121
452 98 129
453 139 270
454 181 277
455 281 68
456 159 300
457 143 244
458 105 252
459 288 127
460 230 80
461 76 280
462 182 81
463 61 84
464 159 199
465 280 158
466 215 295
467 38 139
468 213 119
469 37 36
470 229 179
471 81 219
472 283 65
473 229 25
474 121 246
475 129 83
476 87 183
477 274 256
478 234 213
479 46 155
480 139 206
481 283 144
482 208 47
483 114 211
484 15 209
485 107 291
486 154 299
487 101 114
488 5 195
489 120 241
490 229 40
491 83 77
492 289 79
493 177 281
494 175 251
495 80 35
496 117 79
497 3 135
498 58 240
499 210 236
500 173 64
501 93 117
502 80 86
503 125 136
504 38 44
505 211 62
506 230 135
507 45 115
508 40 236
509 143 67
510 20 245
511 220 182
512 246 123
513 300 44
514 9 63
515 53 141
516 208 208
517 173 72
518 265 78
519 143 223
520 272 70
521 126 233
522 271 145
523 184 102
524 131 78
525 7 31
526 107 39
527 110 145
528 111 98
529 251 195
530 18 151
531 296 279
532 9 122
533 33 231
534 195 9
535 25 14
536 158 291
537 297 213
538 23 218
539 117 178
540 40 192
541 205 44
542 116 245
543 281 8
544 232 45
545 266 39
546 4 294
547 88 124
548 51 278
549 26 0
550 80 67
551 128 155
552 225 210
553 18 184
554 203 283
555 289 209
556 279 189
557 135 139
558 284 72
559 132 297
560 43 52
561 119 214
562 72 36
563 228 41
564 202 161
565 162 250
566 299 153
567 202 292
568 108 298
569 238 206
570 275 146
571 194 234
572 279 36
573 238 103
574 194 11
575 265 141
576 264 35
577 285 285
578 211 239
579 233 119
580 191 234
581 64 170
582 117 168
583 265 197
584 113 62
585 82 35
586 285 283
587 122 96
588 298 135
589 290 219
590 293 62
591 119 183
592 284 244
593 214 234
594 176 70
595 94 109
596 148 299
597 2 81
598 225 73
599 157 276
600 37 126
601 208 290
602 64 170
603 136 241
604 72 286
605 122 127
606 151 113
607 157 84
608 289 130
609 294 64
610 228 41
611 106 168
612 119 183
613 126 42
614 27 255
615 208 117
616 15 52
617 25 64
618 274 66
619 234 107
620 64 91
621 63 130
622 48 141
623 96 199
624 181 277
625 80 86
626 153 226
627 179 123
PICKUP_AND_DELIVERY_SECTION
1 0 0 1206 0 0 0
2 -27 0 1054 10 461 0
3 -5 0 1119 10 303 0
4 21 0 1105 10 0 126
5 14 31 41 10 0 598
6 14 0 998 10 0 531
7 -12 0 1132 10 248 0
8 29 0 1081 10 0 66
9 -17 828 838 10 473 0
10 10 909 919 10 0 367
11 25 0 1105 10 0 30
12 -20 0 1068 10 335 0
13 -17 602 612 10 28 0
14 24 7 17 10 0 187
15 -23 646 656 10 60 0
16 -27 777 787 10 401 0
17 -3 0 1184 10 389 0
18 -18 817 827 10 599 0
19 -21 0 1065 10 537 0
20 -20 0 1105 10 521 0
21 -17 0 1097 10 279 0
22 -22 373 383 10 373 0
23 17 0 1147 10 0 418
24 11 587 597 10 0 549
25 12 0 1113 10 0 397
26 -22 367 377 10 67 0
27 -22 0 1145 10 258 0
28 17 0 1065 10 0 13
29 -29 0 1024 10 525 0
30 -25 0 1110 10 11 0
31 17 0 1040 0 0 604
32 33 0 1108 10 0 565
33 -31 0 1056 10 259 0
34 -15 0 1022 10 80 0
35 19 253 263 10 0 295
36 34 490 500 10 0 50
37 24 814 824 10 0 332
38 21 0 1097 10 0 444
39 21 0 1147 10 0 222
40 12 0 1111 10 0 131
41 -6 0 1080 10 102 0
42 -8 456 466 10 358 0
43 -19 0 1139 10 107 0
44 4 0 1128 10 0 209
45 21 0 1051 10 0 407
46 -30 206 216 10 556 0
47 7 0 1075 10 0 191
48 -5 0 1140 10 199 0
49 22 0 1073 10 0 492
50 -34 761 771 10 36 0
51 22 0 1135 10 0 57
52 -22 0 1011 10 296 0
53 16 0 1050 10 0 554
54 -17 866 876 10 558 0
55 -12 0 1075 10 378 0
56 25 0 1026 10 0 302
57 -22 0 1170 10 51 0
58 22 0 1094 10 0 267
59 13 0 1055 10 0 381
60 23 0 1057 10 0 15
61 7 108 118 10 0 499
62 29 780 790 10 0 204
63 3 0 1087 10 0 211
64 -5 0 1092 10 376 0
65 -10 0 1096 10 180 0
66 -29 306 316 10 8 0
67 22 0 1094 10 0 26
68 -11 0 1028 10 291 0
69 -46 0 1133 10 160 0
70 -11 0 1032 10 420 0
71 -11 0 1033 10 99 0
72 23 17 27 10 0 91
73 18 736 746 10 0 176
74 10 0 1123 10 0 433
75 26 0 1111 10 0 470
76 -21 0 1150 10 399 0
77 -16 799 809 10 227 0
78 19 0 1107 10 0 380
79 21 0 1149 0 0 611
80 15 0 1093 10 0 34
81 -19 943 953 10 213 0
82 42 0 1083 10 0 344
83 -15 0 1094 10 453 0
84 -14 0 1039 10 574 0
85 -22 0 1073 10 586 0
86 -15 0 1059 10 456 0
87 35 0 1081 10 0 253
88 -14 0 1045 10 386 0
89 12 0 1107 10 0 366
90 33 0 1131 10 0 481
91 -23 0 1065 10 72 0
92 -21 814 824 10 321 0
93 17 0 1072 10 0 438
94 -2 0 1097 10 387 0
95 18 297 307 10 0 117
96 9 260 270 10 0 144
97 15 0 1080 10 0 219
98 -12 0 1071 10 377 0
99 11 0 1040 10 0 71
100 -19 0 1074 10 600 0
101 -11 0 1082 10 265 0
102 6 42 52 10 0 41
103 9 0 1107 10 0 177
104 35 0 1126 10 0 517
105 1 0 1160 0 0 605
106 27 0 1078 10 0 171
107 19 0 1164 10 0 43
108 12 0 1005 10 0 546
109 6 296 306 10 0 404
110 29 0 1144 10 0 270
111 -18 0 1108 10 419 0
112 -20 0 1029 10 318 0
113 -9 772 782 10 349 0
114 -19 810 820 10 201 0
115 -17 0 1140 10 282 0
116 -12 0 1032 10 214 0
117 -18 777 787 10 95 0
118 -8 0 1171 10 527 0
119 -14 0 1155 10 409 0
120 31 0 1024 10 0 290
121 21 0 1030 0 0 616
122 24 0 1102 0 0 619
123 24 637 647 10 0 304
124 -16 0 1106 10 375 0
125 -25 826 836 10 576 0
126 -21 597 607 10 4 0
127 15 0 1107 10 0 249
128 22 0 1075 10 0 184
129 13 0 1138 10 0 240
130 -8 0 1081 10 505 0
131 -12 0 1113 10 40 0
132 37 0 1024 10 0 221
133 19 112 122 10 0 341
134 23 0 1076 10 0 530
135 -16 0 1014 10 429 0
136 -14 0 1024 10 582 0
137 27 0 1056 0 0 608
138 2 0 1080 10 0 271
139 23 0 1148 10 0 379
140 33 148 158 10 0 541
141 -16 0 1138 10 428 0
142 16 0 1011 10 0 406
143 -27 0 1047 10 288 0
144 -9 0 1076 10 96 0
145 17 0 1065 10 0 555
146 -20 0 1134 10 310 0
147 9 0 1021 10 0 572
148 21 0 1107 0 0 621
149 13 0 1117 10 0 362
150 41 0 1006 10 0 421
151 21 49 59 10 0 532
152 -23 0 1100 10 423 0
153 -9 0 1058 10 242 0
154 20 0 1164 10 0 577
155 -12 0 1087 10 500 0
156 -17 555 565 10 306 0
157 8 0 1060 10 0 529
158 18 0 1120 0 0 626
159 4 0 1087 10 0 166
160 46 0 1102 10 0 69
161 -22 0 1084 10 329 0
162 9 0 1125 10 0 275
163 30 106 116 10 0 233
164 12 908 918 10 0 238
165 -5 0 1052 10 326 0
166 -4 0 1028 10 159 0
167 23 0 1160 10 0 462
168 22 0 1161 10 0 388
169 42 627 637 10 0 459
170 -16 0 1108 10 493 0
171 -27 0 1078 10 106 0
172 15 0 1077 10 0 403
173 -17 0 1166 10 476 0
174 -25 0 1063 10 286 0
175 -20 0 1098 10 314 0
176 -18 0 1135 10 73 0
177 -9 0 1122 10 103 0
178 17 119 129 10 0 198
179 35 0 1084 10 0 394
180 10 252 262 10 0 65
181 -3 0 1010 10 402 0
182 -13 886 896 10 422 0
183 -9 672 682 10 223 0
184 -22 0 1057 10 128 0
185 -11 0 1084 10 551 0
186 27 0 1166 10 0 479
187 -24 0 1166 10 14 0
188 17 0 1107 10 0 363
189 -15 522 532 10 535 0
190 -9 0 1016 10 580 0
191 -7 0 1085 10 47 0
192 -16 0 1023 10 391 0
193 4 143 153 10 0 328
194 -11 0 1121 10 266 0
195 -16 1148 1158 10 573 0
196 25 0 1075 10 0 324
197 -6 0 1083 10 338 0
198 -17 0 1065 10 178 0
199 5 0 1128 10 0 48
200 23 0 1086 0 0 613
201 19 0 1113 10 0 114
202 29 0 1092 0 0 620
203 17 346 356 10 0 232
204 -29 0 1084 10 62 0
205 -22 576 586 10 446 0
206 -33 0 1083 10 250 0
207 -18 818 828 10 237 0
208 40 33 43 10 0 424
209 -4 0 1113 10 44 0
210 -21 442 452 10 343 0
211 -3 0 1078 10 63 0
212 18 749 759 10 0 255
213 19 0 1103 10 0 81
214 12 0 1048 10 0 116
215 -17 0 1080 10 287 0
216 -26 403 413 10 469 0
217 26 0 1084 10 0 440
218 33 0 1028 10 0 477
219 -15 0 1083 10 97 0
220 -19 0 1085 10 355 0
221 -37 0 1032 10 132 0
222 -21 0 1136 10 39 0
223 9 0 1169 10 0 183
224 -15 0 1109 10 264 0
225 21 0 1046 10 0 544
226 -19 0 1155 10 383 0
227 16 101 111 10 0 77
228 18 0 1051 10 0 301
229 -29 0 1061 10 257 0
230 19 0 1130 0 0 607
231 2 0 1137 10 0 337
232 -17 0 1064 10 203 0
233 -30 0 1041 10 163 0
234 32 17 27 10 0 276
235 22 0 1161 10 0 262
236 4 356 366 0 0 606
237 18 0 1032 10 0 207
238 -12 0 1156 10 164 0
239 11 0 1104 0 0 603
240 -13 0 1185 10 129 0
241 -27 0 1103 10 313 0
242 9 0 1059 10 0 153
243 11 0 1028 10 0 398
244 33 0 1120 10 0 425
245 21 0 1114 10 0 512
246 25 0 1127 10 0 460
247 -11 0 1063 10 445 0
248 12 0 1133 10 0 7
249 -15 0 1132 10 127 0
250 33 187 197 10 0 206
251 12 0 1081 10 0 442
252 5 0 1081 10 0 294
253 -35 0 1076 10 87 0
254 28 0 1069 10 0 482
255 -18 0 999 10 212 0
256 -13 0 1070 10 417 0
257 29 0 1113 10 0 229
258 22 0 1163 10 0 27
259 31 0 1046 10 0 33
260 5 0 1082 10 0 464
261 16 0 1061 10 0 274
262 -22 0 1174 10 235 0
263 17 0 1096 10 0 457
264 15 13 23 10 0 224
265 11 39 49 10 0 101
266 11 0 1120 10 0 194
267 -22 0 1193 10 58 0
268 21 0 1122 10 0 519
269 14 0 1058 10 0 463
270 -29 0 1150 10 110 0
271 -2 0 1092 10 138 0
272 -25 792 802 10 468 0
273 16 0 1124 0 0 623
274 -16 0 1052 10 261 0
275 -9 0 1112 10 162 0
276 -32 0 1050 10 234 0
277 23 511 521 10 0 475
278 -32 644 654 10 597 0
279 17 178 188 10 0 21
280 21 0 1020 10 0 543
281 -31 0 1115 10 339 0
282 17 0 1086 10 0 115
283 16 137 147 10 0 536
284 -20 0 1105 10 578 0
285 42 0 1060 10 0 571
286 25 0 1067 10 0 174
287 17 0 1063 10 0 215
288 27 223 233 10 0 143
289 21 0 1132 10 0 405
290 -31 0 1028 10 120 0
291 11 489 499 10 0 68
292 24 0 1042 10 0 568
293 5 0 1118 10 0 561
294 -5 0 1125 10 252 0
295 -19 786 796 10 35 0
296 22 0 1000 10 0 52
297 -24 0 1099 10 315 0
298 -11 0 1035 10 408 0
299 13 0 1055 10 0 441
300 22 0 1068 10 0 465
301 -18 0 1052 10 228 0
302 -25 0 1018 10 56 0
303 5 12 22 10 0 3
304 -24 0 1148 10 123 0
305 14 0 1059 10 0 474
306 17 0 1100 10 0 156
307 12 0 1070 10 0 583
308 -28 0 1054 10 510 0
309 5 0 1035 0 0 614
310 20 1000 1010 10 0 146
311 -26 0 1138 10 412 0
312 19 0 1117 10 0 319
313 27 0 1034 10 0 241
314 20 0 1101 10 0 175
315 24 0 1011 10 0 297
316 -37 0 1124 10 317 0
317 37 0 1118 10 0 316
318 20 0 1030 10 0 112
319 -19 0 1118 10 312 0
320 -11 0 1015 10 322 0
321 21 222 232 10 0 92
322 11 0 1050 10 0 320
323 15 53 63 10 0 356
324 -25 0 1074 10 196 0
325 18 0 1099 10 0 588
326 5 156 166 10 0 165
327 41 162 172 10 0 443
328 -4 281 291 10 193 0
329 22 0 1068 10 0 161
330 -7 0 1047 10 336 0
331 -14 0 1074 10 439 0
332 -24 0 1114 10 37 0
333 23 507 517 10 0 487
334 32 0 1079 10 0 413
335 20 484 494 10 0 12
336 7 0 1060 10 0 330
337 -2 0 1152 10 231 0
338 6 0 1069 10 0 197
339 31 0 1148 10 0 281
340 25 0 1094 0 0 622
341 -19 0 1072 10 133 0
342 18 0 1010 10 0 508
343 21 0 1046 10 0 210
344 -42 0 1118 10 82 0
345 -9 0 1044 10 526 0
346 -22 0 1094 10 351 0
347 20 0 1065 10 0 400
348 14 113 123 10 0 509
349 9 0 1150 10 0 113
350 -36 730 740 10 426 0
351 22 0 1070 10 0 346
352 -10 0 1048 10 567 0
353 -13 0 1053 10 514 0
354 33 0 1094 10 0 553
355 19 53 63 10 0 220
356 -15 0 1097 10 323 0
357 4 0 1157 0 0 627
358 8 0 1038 10 0 42
359 27 0 1023 10 0 466
360 -35 0 1174 10 410 0
361 -15 0 1112 10 478 0
362 -13 0 1089 10 149 0
363 -17 969 979 10 188 0
364 -24 0 1088 10 390 0
365 -13 0 1173 10 511 0
366 -12 0 1103 10 89 0
367 -10 957 967 10 10 0
368 17 0 1045 10 0 518
369 -25 347 357 10 458 0
370 -22 0 1146 10 569 0
371 -15 0 1122 10 506 0
372 -12 0 1139 10 435 0
373 22 0 1080 10 0 22
374 9 612 622 10 0 534
375 16 0 1066 10 0 124
376 5 0 1111 10 0 64
377 12 0 1087 10 0 98
378 12 84 94 10 0 55
379 -23 0 1099 10 139 0
380 -19 0 1093 10 78 0
381 -13 0 1047 10 59 0
382 -31 0 1011 10 495 0
383 19 0 1083 10 0 226
384 9 0 1045 10 0 489
385 4 0 1067 10 0 538
386 14 0 1089 10 0 88
387 2 0 1077 10 0 94
388 -22 0 1119 10 168 0
389 3 818 828 10 0 17
390 24 0 1109 10 0 364
391 16 527 537 10 0 192
392 10 0 1030 10 0 490
393 21 185 195 0 0 618
394 -35 0 1045 10 179 0
395 32 493 503 0 0 609
396 29 203 213 10 0 448
397 -12 853 863 10 25 0
398 -11 0 990 10 243 0
399 21 31 41 10 0 76
400 -20 0 1064 10 347 0
401 27 0 1076 10 0 16
402 3 0 1136 10 0 181
403 -15 0 1079 10 172 0
404 -6 0 1065 10 109 0
405 -21 0 1135 10 289 0
406 -16 0 1112 10 142 0
407 -21 0 1046 10 45 0
408 11 0 1026 10 0 298
409 14 0 1124 10 0 119
410 35 0 1088 10 0 360
411 10 0 1046 10 0 601
412 26 59 69 10 0 311
413 -32 853 863 10 334 0
414 19 0 1143 10 0 523
415 -18 131 141 10 480 0
416 -27 904 914 10 471 0
417 13 196 206 10 0 256
418 -17 0 1173 10 23 0
419 18 0 1050 10 0 111
420 11 0 1058 10 0 70
421 -41 0 998 10 150 0
422 13 0 1118 10 0 182
423 23 0 1100 10 0 152
424 -40 0 1129 10 208 0
425 -33 0 1065 10 244 0
426 36 0 1077 10 0 350
427 -7 631 641 10 450 0
428 16 0 1101 10 0 141
429 16 0 1088 10 0 135
430 15 0 1130 0 0 615
431 6 584 594 10 0 594
432 21 0 1059 10 0 494
433 -10 0 1144 10 74 0
434 10 0 1045 0 0 617
435 12 0 1135 10 0 372
436 -10 0 1143 10 483 0
437 -19 0 1158 10 539 0
438 -17 509 519 10 93 0
439 14 0 1029 10 0 331
440 -26 0 1098 10 217 0
441 -13 0 1053 10 299 0
442 -12 639 649 10 251 0
443 -41 0 1050 10 327 0
444 -21 0 1088 10 38 0
445 11 0 1087 10 0 247
446 22 0 1104 10 0 205
447 -37 502 512 10 542 0
448 -29 0 996 10 396 0
449 13 563 573 10 0 528
450 7 0 1109 10 0 427
451 15 0 1110 10 0 579
452 2 56 66 10 0 507
453 15 0 1076 10 0 83
454 15 0 1066 0 0 624
455 -27 517 527 10 472 0
456 15 150 160 10 0 86
457 -17 0 1102 10 263 0
458 25 111 121 10 0 369
459 -42 720 730 10 169 0
460 -25 0 1090 10 246 0
461 27 495 505 10 0 2
462 -23 0 1120 10 167 0
463 -14 343 353 10 269 0
464 -5 0 1147 10 260 0
465 -22 0 1066 10 300 0
466 -27 0 1038 10 359 0
467 -16 0 1084 10 515 0
468 25 739 749 10 0 272
469 26 0 1036 10 0 216
470 -26 252 262 10 75 0
471 27 0 1099 10 0 416
472 27 0 1039 10 0 455
473 17 503 513 10 0 9
474 -14 0 1096 10 305 0
475 -23 0 1126 10 277 0
476 17 0 1125 10 0 173
477 -33 0 1033 10 218 0
478 15 0 1091 10 0 361
479 -27 765 775 10 186 0
480 18 0 1139 10 0 415
481 -33 0 1063 10 90 0
482 -28 0 1078 10 254 0
483 10 449 459 10 0 436
484 -18 0 1049 10 488 0
485 -40 552 562 10 559 0
486 -15 0 1047 10 596 0
487 -23 0 1136 10 333 0
488 18 0 1045 10 0 484
489 -9 0 1101 10 384 0
490 -10 0 1061 10 392 0
491 -15 0 1097 10 501 0
492 -22 0 1040 10 49 0
493 16 436 446 10 0 170
494 -21 0 1092 10 432 0
495 31 0 1062 10 0 382
496 -31 0 1118 10 560 0
497 7 0 1049 10 0 595
498 20 0 1068 10 0 548
499 -7 0 1092 10 61 0
500 12 0 1107 10 0 155
501 15 0 1131 10 0 491
502 32 610 620 0 0 625
503 5 0 1168 10 0 550
504 -12 0 1042 10 585 0
505 8 107 117 10 0 130
506 15 0 1115 10 0 371
507 -2 0 1086 10 452 0
508 -18 0 1057 10 342 0
509 -14 0 1113 10 348 0
510 28 0 1035 10 0 308
511 13 0 1120 10 0 365
512 -21 0 1097 10 245 0
513 3 0 1013 10 0 520
514 13 0 1031 10 0 353
515 16 0 1099 10 0 467
516 16 116 126 10 0 552
517 -35 0 1115 10 104 0
518 -17 716 726 10 368 0
519 -21 413 423 10 268 0
520 -3 0 1051 10 513 0
521 20 0 1110 10 0 20
522 26 0 1075 10 0 570
523 -19 0 1138 10 414 0
524 -19 588 598 10 587 0
525 29 0 1010 10 0 29
526 9 351 361 10 0 345
527 8 0 1156 10 0 118
528 -13 0 1131 10 449 0
529 -8 0 1086 10 157 0
530 -23 0 1064 10 134 0
531 -14 0 1002 10 6 0
532 -21 0 1053 10 151 0
533 -30 755 765 10 540 0
534 -9 0 1048 10 374 0
535 15 223 233 10 0 189
536 -16 0 1055 10 283 0
537 21 704 714 10 0 19
538 -4 159 169 10 385 0
539 19 776 786 10 0 437
540 30 0 1079 10 0 533
541 -33 0 1077 10 140 0
542 37 0 1096 10 0 447
543 -21 0 1003 10 280 0
544 -21 822 832 10 225 0
545 6 0 1036 10 0 590
546 -12 0 991 10 108 0
547 -12 0 1129 10 557 0
548 -20 282 292 10 498 0
549 -11 0 1002 10 24 0
550 -5 437 447 10 503 0
551 11 22 32 10 0 185
552 -16 0 1100 10 516 0
553 -33 0 1060 10 354 0
554 -16 0 1053 10 53 0
555 -17 0 1045 10 145 0
556 30 0 1062 10 0 46
557 12 0 1178 10 0 547
558 17 0 1041 10 0 54
559 40 174 184 10 0 485
560 31 0 1051 10 0 496
561 -5 0 1125 10 293 0
562 7 0 1058 10 0 584
563 16 0 1062 0 0 610
564 16 53 63 10 0 589
565 -33 206 216 10 32 0
566 12 420 430 10 0 575
567 10 0 1045 10 0 352
568 -24 0 1043 10 292 0
569 22 0 1092 10 0 370
570 -26 0 1071 10 522 0
571 -42 0 1102 10 285 0
572 -9 0 1024 10 147 0
573 16 732 742 10 0 195
574 14 0 1051 10 0 84
575 -12 0 1081 10 566 0
576 25 0 1035 10 0 125
577 -20 0 1006 10 154 0
578 20 0 1089 10 0 284
579 -15 0 1108 10 451 0
580 9 93 103 10 0 190
581 17 0 1108 0 0 602
582 14 37 47 10 0 136
583 -12 331 341 10 307 0
584 -7 0 1101 10 562 0
585 12 133 143 10 0 504
586 22 0 1007 10 0 85
587 19 0 1136 10 0 524
588 -18 910 920 10 325 0
589 -16 0 1040 10 564 0
590 -6 0 1029 10 545 0
591 6 0 1151 0 0 612
592 -21 0 1033 10 593 0
593 21 0 1091 10 0 592
594 -6 0 1112 10 431 0
595 -7 793 803 10 497 0
596 15 0 1047 10 0 486
597 32 0 1033 10 0 278
598 -14 0 1089 10 5 0
599 18 126 136 10 0 18
600 19 164 174 10 0 100
601 -10 315 325 10 411 0
602 -17 0 1108 10 581 0
603 -11 0 1104 10 239 0
604 -17 0 1040 10 31 0
605 -1 0 1160 10 105 0
606 -4 356 366 10 236 0
607 -19 0 1130 10 230 0
608 -27 0 1056 10 137 0
609 -32 493 503 10 395 0
610 -16 0 1062 10 563 0
611 -21 0 1149 10 79 0
612 -6 0 1151 10 591 0
613 -23 0 1086 10 200 0
614 -5 0 1035 10 309 0
615 -15 0 1130 10 430 0
616 -21 0 1030 10 121 0
617 -10 0 1045 10 434 0
618 -21 185 195 10 393 0
619 -24 0 1102 10 122 0
620 -29 0 1092 10 202 0
621 -21 0 1107 10 148 0
622 -25 0 1094 10 340 0
623 -16 0 1124 10 273 0
624 -15 0 1066 10 454 0
625 -32 610 620 10 502 0
626 -18 0 1120 10 158 0
627 -4 0 1157 10 357 0
DEPOT_SECTION
1
-1
EOF
