NAME: lr1_6_7
TYPE: PDPTW
COMMENT: Li & Lim PDPTW benchmark converted from SINTEF format
DIMENSION: 625
VEHICLES: 150
CAPACITY: 200
EDGE_WEIGHT_TYPE: EUC_2D
NODE_COORD_SECTION
1 150 150
2 71 268
3 183 80
4 174 238
5 166 123
6 287 293
7 140 214
8 47 203
9 247 19
10 152 29
11 86 216
12 107 29
13 212 270
14 148 157
15 291 148
16 92 241
17 162 148
18 119 254
19 266 212
20 99 226
21 56 116
22 110 31
23 175 107
24 17 0
25 96 86
26 136 228
27 100 138
28 184 277
29 16 42
30 67 175
31 72 286
32 176 235
33 116 14
34 26 27
35 37 14
36 1 11
37 74 117
38 170 53
39 154 101
40 75 191
41 227 62
42 209 269
43 207 149
44 99 105
45 6 168
46 296 211
47 254 87
48 201 175
49 268 113
50 29 8
51 159 89
52 9 30
53 175 294
54 282 76
55 90 44
56 57 7
57 176 153
58 106 243
59 207 20
60 289 143
61 166 194
62 295 123
63 85 62
64 207 237
65 136 50
66 42 221
67 208 235
68 267 29
69 206 121
70 227 5
71 60 287
72 151 133
73 222 100
74 152 77
75 225 192
76 150 104
77 296 252
78 63 170
79 106 168
80 73 81
81 97 232
82 112 43
83 135 251
84 214 6
85 252 219
86 182 284
87 259 187
88 72 20
89 153 61
90 211 174
91 199 28
92 274 136
93 226 248
94 85 75
95 52 165
96 54 136
97 34 150
98 203 36
99 37 258
100 29 130
101 40 181
102 192 150
103 61 138
104 183 88
105 122 127
106 126 266
107 165 179
108 19 290
109 30 243
110 172 198
111 209 84
112 24 261
113 181 145
114 149 76
115 206 157
116 1 81
117 47 153
118 125 148
119 109 148
120 256 286
121 15 52
122 234 107
123 108 162
124 147 240
125 290 37
126 165 256
127 188 69
128 242 70
129 93 165
130 224 61
131 72 180
132 44 286
133 47 121
134 30 145
135 283 275
136 2 238
137 289 130
138 159 266
139 198 159
140 155 93
141 201 122
142 34 5
143 103 8
144 30 149
145 278 178
146 203 183
147 276 28
148 63 130
149 199 213
150 274 6
151 107 174
152 57 123
153 14 177
154 156 182
155 168 42
156 84 231
157 272 211
158 153 226
159 250 194
160 243 136
161 56 212
162 221 145
163 52 109
164 88 190
165 11 191
166 296 235
167 175 123
168 124 174
169 271 105
170 169 236
171 127 266
172 139 31
173 160 179
174 200 26
175 59 113
176 189 197
177 76 160
178 183 44
179 45 190
180 145 38
181 271 8
182 161 242
183 230 150
184 260 64
185 44 189
186 125 168
187 120 155
188 237 171
189 120 60
190 263 291
191 246 93
192 15 259
193 250 124
194 129 77
195 188 142
196 29 139
197 241 218
198 183 23
199 217 138
200 126 42
201 136 68
202 64 91
203 148 28
204 262 164
205 103 93
206 37 159
207 75 269
208 126 127
209 103 81
210 18 196
211 88 49
212 259 14
213 60 176
214 15 88
215 178 263
216 45 74
217 209 246
218 275 263
219 37 149
220 183 43
221 59 287
222 170 93
223 167 171
224 227 192
225 236 27
226 139 110
227 243 191
228 136 295
229 132 16
230 157 84
231 162 92
232 140 18
233 4 97
234 133 153
235 150 185
236 151 113
237 71 294
238 133 187
239 136 241
240 139 146
241 184 237
242 15 178
243 41 279
244 96 96
245 230 128
246 198 100
247 160 17
248 137 212
249 180 93
250 8 227
251 189 41
252 176 263
253 263 193
254 220 43
255 296 17
256 217 43
257 150 67
258 117 155
259 113 4
260 114 259
261 38 74
262 148 172
263 139 250
264 163 150
265 112 161
266 127 77
267 147 152
268 131 222
269 43 62
270 167 193
271 157 254
272 187 129
273 96 199
274 31 68
275 234 146
276 14 204
277 121 116
278 88 110
279 25 119
280 262 14
281 108 80
282 239 84
283 107 281
284 152 241
285 183 282
286 186 26
287 175 281
288 118 38
289 189 201
290 238 294
291 250 49
292 109 299
293 128 225
294 157 221
295 69 90
296 12 10
297 109 61
298 213 299
299 11 176
300 271 106
301 140 294
302 51 2
303 158 140
304 102 155
305 75 265
306 116 240
307 272 183
308 30 226
309 27 255
310 203 166
311 205 130
312 94 93
313 248 280
314 57 127
315 16 22
316 80 133
317 75 127
318 9 239
319 110 83
320 297 43
321 247 86
322 248 41
323 102 173
324 28 141
325 246 166
326 5 189
327 216 40
328 282 104
329 44 223
330 1 145
331 253 84
332 69 134
333 24 76
334 255 203
335 94 12
336 14 165
337 164 108
338 266 203
339 114 117
340 48 141
341 28 124
342 12 275
343 8 200
344 123 76
345 108 3
346 228 217
347 253 69
348 147 43
349 180 114
350 76 221
351 250 228
352 228 276
353 29 72
354 57 192
355 166 99
356 69 208
357 179 123
358 208 297
359 241 298
360 151 172
361 216 203
362 241 208
363 219 152
364 238 214
365 173 148
366 156 57
367 157 50
368 276 66
369 112 272
370 190 181
371 224 138
372 154 207
373 111 40
374 172 2
375 125 278
376 186 228
377 191 49
378 102 81
379 246 133
380 47 143
381 220 18
382 40 1
383 135 38
384 124 299
385 36 212
386 89 61
387 60 72
388 83 188
389 182 146
390 223 198
391 11 242
392 244 13
393 274 66
394 15 219
395 294 64
396 8 4
397 102 76
398 4 296
399 141 120
400 262 80
401 78 246
402 180 98
403 139 33
404 25 191
405 188 198
406 82 100
407 3 119
408 239 295
409 80 131
410 152 258
411 181 297
412 206 130
413 241 183
414 180 106
415 131 220
416 103 260
417 148 8
418 173 152
419 235 31
420 157 12
421 296 15
422 172 225
423 57 125
424 158 83
425 51 63
426 51 217
427 254 206
428 236 108
429 224 229
430 208 117
431 176 72
432 159 287
433 149 98
434 25 64
435 135 210
436 113 188
437 142 188
438 261 232
439 277 41
440 189 240
441 11 185
442 212 45
443 231 28
444 159 42
445 159 41
446 99 73
447 110 262
448 15 2
449 72 89
450 229 188
451 232 121
452 98 129
453 139 270
454 181 277
455 281 68
456 159 300
457 143 244
458 105 252
459 288 127
460 230 80
461 76 280
462 182 81
463 61 84
464 159 199
465 280 158
466 215 295
467 38 139
468 213 119
469 37 36
470 229 179
471 81 219
472 283 65
473 229 25
474 121 246
475 129 83
476 87 183
477 274 256
478 234 213
479 46 155
480 139 206
481 283 144
482 208 47
483 114 211
484 15 209
485 107 291
486 154 299
487 101 114
488 5 195
489 120 241
490 229 40
491 83 77
492 289 79
493 177 281
494 175 251
495 80 35
496 117 79
497 3 135
498 58 240
499 210 236
500 173 64
501 93 117
502 80 86
503 125 136
504 38 44
505 211 62
506 230 135
507 45 115
508 40 236
509 143 67
510 20 245
511 220 182
512 246 123
513 300 44
514 9 63
515 53 141
516 208 208
517 173 72
518 265 78
519 143 223
520 272 70
521 126 233
522 271 145
523 184 102
524 131 78
525 7 31
526 107 39
527 110 145
528 111 98
529 251 195
530 18 151
531 296 279
532 9 122
533 33 231
534 195 9
535 25 14
536 158 291
537 297 213
538 23 218
539 117 178
540 40 192
541 205 44
542 116 245
543 281 8
544 232 45
545 266 39
546 4 294
547 88 124
548 51 278
549 26 0
550 80 67
551 128 155
552 225 210
553 18 184
554 203 283
555 289 209
556 279 189
557 135 139
558 284 72
559 132 297
560 43 52
561 119 214
562 72 36
563 228 41
564 202 161
565 162 250
566 299 153
567 202 292
568 108 298
569 238 206
570 275 146
571 194 234
572 279 36
573 238 103
574 194 11
575 265 141
576 264 35
577 285 285
578 211 239
579 233 119
580 191 234
581 64 170
582 117 168
583 265 197
584 113 62
585 82 35
586 285 283
587 122 96
588 298 135
589 290 219
590 293 62
591 119 183
592 284 244
593 214 234
594 176 70
595 94 109
596 148 299
597 2 81
598 225 73
599 157 276
600 37 126
601 208 290
602 24 261
603 9 30
604 211 239
605 219 152
606 37 14
607 293 62
608 159 287
609 9 239
610 143 223
611 82 100
612 1 81
613 242 70
614 175 281
615 6 168
616 283 144
617 232 45
618 159 199
619 72 286
620 296 235
621 263 193
622 119 183
623 180 106
624 160 179
625 246 123
PICKUP_AND_DELIVERY_SECTION
1 0 0 1206 0 0 0
2 -27 221 251 10 401 0
3 13 0 1119 10 0 104
4 -15 0 1105 10 596 0
5 14 31 61 10 0 282
6 14 0 998 10 0 93
7 24 0 1132 10 0 126
8 -13 670 700 10 129 0
9 21 818 848 10 0 381
10 -9 899 929 10 374 0
11 25 208 238 10 0 156
12 -26 1011 1041 10 229 0
13 -17 592 622 10 28 0
14 24 7 37 10 0 483
15 -26 636 666 10 522 0
16 -23 767 797 10 415 0
17 -29 0 1184 10 141 0
18 42 807 837 10 0 293
19 11 333 363 10 0 438
20 -26 0 1105 10 447 0
21 -19 0 1097 10 152 0
22 -23 363 393 10 200 0
23 17 0 1147 10 0 246
24 11 577 607 10 0 142
25 12 83 113 10 0 475
26 2 357 387 10 0 171
27 -19 0 1145 10 119 0
28 17 0 1065 10 0 13
29 17 253 283 10 0 595
30 3 0 1110 10 0 581
31 17 0 1040 0 0 619
32 33 0 1108 10 0 170
33 -20 654 684 10 335 0
34 -29 0 1022 10 525 0
35 19 243 273 0 0 606
36 34 480 510 10 0 63
37 -12 804 834 10 585 0
38 21 0 1097 10 0 51
39 21 49 79 10 0 230
40 12 85 115 10 0 66
41 -11 0 1080 10 322 0
42 17 446 476 10 0 217
43 22 347 377 10 0 272
44 4 0 1128 10 0 205
45 21 744 774 0 0 615
46 22 196 226 10 0 555
47 7 0 1075 10 0 347
48 -5 0 1140 10 361 0
49 -42 843 873 10 169 0
50 -5 751 781 10 448 0
51 -21 826 856 10 38 0
52 6 0 1011 0 0 603
53 -27 0 1050 10 359 0
54 26 856 886 10 0 357
55 -10 0 1075 10 496 0
56 25 0 1026 10 0 562
57 -12 0 1170 10 418 0
58 22 0 1094 10 0 369
59 -17 0 1055 10 178 0
60 23 0 1057 10 0 575
61 -29 98 128 10 270 0
62 -27 770 800 10 137 0
63 -34 0 1087 10 36 0
64 -18 0 1092 10 440 0
65 16 0 1096 10 0 288
66 -12 296 326 10 40 0
67 22 0 1094 10 0 593
68 -13 459 489 10 490 0
69 -15 0 1133 10 451 0
70 13 370 400 10 0 91
71 -15 0 1033 10 546 0
72 23 17 47 10 0 355
73 -22 726 756 10 130 0
74 -10 0 1123 10 114 0
75 -27 0 1111 10 552 0
76 -25 0 1150 10 433 0
77 -19 789 819 10 589 0
78 19 0 1107 10 0 95
79 -8 212 242 10 118 0
80 -22 556 586 10 446 0
81 -14 933 963 10 416 0
82 -9 0 1083 10 526 0
83 -4 0 1094 10 124 0
84 -18 865 895 10 419 0
85 -31 301 331 10 362 0
86 3 513 543 10 0 376
87 -18 0 1081 10 204 0
88 32 684 714 10 0 495
89 12 0 1107 10 0 367
90 -28 0 1131 10 183 0
91 -13 0 1065 10 70 0
92 -26 804 834 10 460 0
93 -14 853 883 10 6 0
94 -12 726 756 10 378 0
95 -19 287 317 10 78 0
96 -19 250 280 10 600 0
97 15 0 1080 10 0 479
98 -23 0 1071 10 184 0
99 -11 826 856 10 243 0
100 18 0 1074 10 0 340
101 -19 0 1082 10 276 0
102 6 42 72 10 0 310
103 -16 643 673 10 175 0
104 -13 879 909 10 3 0
105 1 36 66 10 0 121
106 -18 0 1078 10 228 0
107 -20 0 1164 10 521 0
108 -18 0 1005 10 398 0
109 6 286 316 10 0 342
110 -10 830 860 10 372 0
111 13 382 412 10 0 365
112 8 0 1029 0 0 602
113 20 762 792 10 0 311
114 10 800 830 10 0 74
115 -29 911 941 10 427 0
116 21 321 351 0 0 612
117 9 767 797 10 0 380
118 8 0 1171 10 0 79
119 19 0 1155 10 0 27
120 -22 0 1024 10 351 0
121 -1 166 196 10 105 0
122 24 338 368 10 0 573
123 24 627 657 10 0 187
124 4 0 1106 10 0 83
125 1 816 846 10 0 576
126 -24 587 617 10 7 0
127 15 0 1107 10 0 254
128 22 0 1075 0 0 613
129 13 0 1138 10 0 8
130 22 473 503 10 0 73
131 27 0 1113 10 0 538
132 37 539 569 10 0 168
133 -16 107 137 10 515 0
134 23 0 1076 10 0 527
135 -15 0 1014 10 531 0
136 -14 0 1024 10 308 0
137 27 329 359 10 0 62
138 2 0 1080 10 0 493
139 23 0 1148 10 0 430
140 -27 138 168 10 424 0
141 29 0 1138 10 0 17
142 -11 735 765 10 24 0
143 -13 0 1047 10 417 0
144 -17 0 1076 10 153 0
145 17 685 715 10 0 413
146 26 0 1134 10 0 370
147 -29 0 1021 10 572 0
148 -13 0 1107 10 507 0
149 -16 511 541 10 429 0
150 -19 519 549 10 543 0
151 -14 49 79 10 582 0
152 19 0 1100 10 0 21
153 17 138 168 10 0 144
154 20 598 628 10 0 389
155 -14 0 1087 10 509 0
156 -25 545 575 10 11 0
157 -16 359 389 10 227 0
158 18 0 1120 10 0 565
159 -32 877 907 10 334 0
160 -29 0 1102 10 523 0
161 10 0 1084 10 0 273
162 9 1017 1047 10 0 195
163 30 106 136 10 0 332
164 -33 898 928 10 354 0
165 12 0 1052 10 0 484
166 25 560 590 0 0 620
167 -41 823 853 10 327 0
168 -37 0 1161 10 132 0
169 42 617 647 10 0 49
170 -33 939 969 10 32 0
171 -2 0 1078 10 26 0
172 15 0 1077 10 0 231
173 32 0 1166 0 0 624
174 -14 0 1063 10 220 0
175 16 0 1098 10 0 103
176 17 0 1135 10 0 390
177 2 0 1122 10 0 219
178 17 111 141 10 0 59
179 -19 0 1084 10 213 0
180 10 242 272 10 0 203
181 36 0 1010 10 0 212
182 -15 876 906 10 453 0
183 28 662 692 10 0 90
184 23 433 463 10 0 98
185 13 0 1084 10 0 540
186 -11 867 897 10 436 0
187 -24 888 918 10 123 0
188 -34 0 1107 10 465 0
189 -22 512 542 10 319 0
190 2 0 1016 10 0 586
191 14 0 1085 10 0 482
192 -33 678 708 10 250 0
193 4 133 163 10 0 328
194 11 0 1121 10 0 226
195 -9 1128 1158 10 162 0
196 25 0 1075 10 0 299
197 -22 0 1083 10 569 0
198 26 0 1065 10 0 574
199 -16 0 1128 10 564 0
200 23 0 1086 10 0 22
201 19 0 1113 10 0 344
202 29 0 1092 10 0 463
203 -10 336 366 10 180 0
204 18 0 1084 10 0 87
205 -4 566 596 10 44 0
206 7 0 1083 10 0 467
207 -18 808 838 10 237 0
208 -12 33 63 10 557 0
209 -18 0 1113 10 491 0
210 8 432 462 10 0 488
211 21 0 1078 10 0 269
212 -36 739 769 10 181 0
213 19 0 1103 10 0 179
214 -2 0 1048 10 452 0
215 -8 0 1080 10 494 0
216 -14 393 423 10 386 0
217 -17 0 1084 10 42 0
218 33 0 1028 10 0 346
219 -2 372 402 10 177 0
220 14 0 1085 10 0 174
221 17 496 526 10 0 508
222 -4 476 506 10 236 0
223 -21 0 1169 10 289 0
224 15 0 1109 10 0 511
225 -21 372 402 10 443 0
226 -11 0 1155 10 194 0
227 16 101 131 10 0 157
228 18 0 1051 10 0 106
229 26 249 279 10 0 12
230 -21 100 130 10 39 0
231 -15 0 1137 10 172 0
232 26 0 1064 10 0 345
233 -7 874 904 10 336 0
234 32 17 47 10 0 304
235 -16 0 1161 10 238 0
236 4 346 376 10 0 222
237 18 566 596 10 0 207
238 16 0 1156 10 0 235
239 -13 372 402 10 457 0
240 34 0 1185 10 0 277
241 14 0 1103 10 0 499
242 9 0 1059 10 0 553
243 11 0 1028 10 0 99
244 33 0 1120 10 0 584
245 21 380 410 10 0 579
246 -17 87 117 10 23 0
247 24 340 370 10 0 444
248 -21 0 1133 10 268 0
249 2 0 1132 10 0 442
250 33 177 207 10 0 192
251 -17 0 1081 10 473 0
252 -18 0 1081 10 301 0
253 29 0 1076 0 0 621
254 -15 435 465 10 127 0
255 8 0 999 10 0 421
256 -16 0 1070 10 428 0
257 29 0 1113 10 0 445
258 -16 0 1163 10 388 0
259 -11 291 321 10 420 0
260 -12 808 838 10 435 0
261 -32 0 1061 10 597 0
262 25 22 52 10 0 360
263 17 633 663 10 0 284
264 15 13 43 10 0 325
265 11 39 69 10 0 329
266 -8 830 860 10 524 0
267 -19 0 1193 10 539 0
268 21 0 1122 10 0 248
269 -21 0 1058 10 211 0
270 29 0 1150 10 0 61
271 8 0 1092 10 0 294
272 -22 782 812 10 43 0
273 -10 1019 1049 10 161 0
274 -6 0 1052 10 425 0
275 -26 352 382 10 412 0
276 19 0 1050 10 0 101
277 -34 501 531 10 240 0
278 -26 634 664 10 469 0
279 17 168 198 10 0 532
280 -6 698 728 10 545 0
281 -5 0 1115 10 487 0
282 -14 584 614 10 5 0
283 16 137 167 10 0 292
284 -17 671 701 10 263 0
285 42 0 1060 10 0 571
286 25 0 1067 10 0 534
287 17 640 670 0 0 614
288 -16 213 243 10 65 0
289 21 976 1006 10 0 223
290 -22 219 249 10 298 0
291 -5 479 509 10 303 0
292 -16 0 1042 10 283 0
293 -42 0 1118 10 18 0
294 -8 0 1125 10 271 0
295 -23 776 806 10 423 0
296 22 0 1000 10 0 549
297 -19 397 427 10 312 0
298 22 0 1035 10 0 290
299 -25 0 1055 10 196 0
300 22 0 1068 10 0 472
301 18 409 439 10 0 252
302 -15 0 1018 10 535 0
303 5 12 42 10 0 291
304 -32 188 218 10 234 0
305 -25 666 696 10 458 0
306 17 0 1100 10 0 489
307 12 0 1070 10 0 529
308 14 0 1054 10 0 136
309 -4 0 1035 10 385 0
310 -6 990 1020 10 102 0
311 -20 0 1138 10 113 0
312 19 0 1117 10 0 297
313 27 290 320 10 0 577
314 20 0 1101 10 0 503
315 24 0 1011 10 0 504
316 -2 0 1124 10 547 0
317 37 0 1118 10 0 409
318 20 0 1030 0 0 609
319 22 196 226 10 0 189
320 -3 722 752 10 513 0
321 21 212 242 10 0 331
322 11 469 499 10 0 41
323 15 53 83 10 0 476
324 25 0 1074 10 0 497
325 -15 0 1099 10 264 0
326 5 150 180 10 0 343
327 41 152 182 10 0 167
328 -4 271 301 10 193 0
329 -11 0 1068 10 265 0
330 -15 0 1047 10 530 0
331 -21 0 1074 10 321 0
332 -30 624 654 10 163 0
333 -12 497 527 10 341 0
334 32 0 1079 10 0 159
335 20 474 504 10 0 33
336 7 0 1060 10 0 233
337 21 0 1152 10 0 462
338 6 0 1069 10 0 537
339 31 0 1148 10 0 501
340 -18 0 1094 10 100 0
341 12 0 1072 10 0 333
342 -6 512 542 10 109 0
343 -5 0 1046 10 326 0
344 -19 0 1118 10 201 0
345 -26 0 1044 10 232 0
346 -33 0 1094 10 218 0
347 -7 0 1065 10 47 0
348 14 107 137 10 0 403
349 -3 1070 1100 10 402 0
350 -11 720 750 10 551 0
351 22 0 1070 10 0 120
352 21 733 763 10 0 567
353 -8 919 949 10 407 0
354 33 0 1094 10 0 164
355 -23 53 83 10 72 0
356 17 0 1097 10 0 426
357 -26 0 1157 10 54 0
358 8 0 1038 10 0 408
359 27 462 492 10 0 53
360 -25 0 1174 10 262 0
361 5 541 571 10 0 48
362 31 0 1089 10 0 85
363 8 959 989 0 0 605
364 -15 0 1088 10 478 0
365 -13 0 1173 10 111 0
366 -12 681 711 10 500 0
367 -12 947 977 10 89 0
368 17 151 181 10 0 455
369 -22 337 367 10 58 0
370 -26 904 934 10 146 0
371 -15 0 1122 10 506 0
372 10 0 1139 10 0 110
373 -19 855 885 10 383 0
374 9 602 632 10 0 10
375 -17 0 1066 10 568 0
376 -3 0 1111 10 86 0
377 12 130 160 10 0 541
378 12 84 114 10 0 94
379 9 0 1099 10 0 468
380 -9 0 1093 10 117 0
381 -21 0 1047 10 9 0
382 -29 0 1011 10 396 0
383 19 0 1083 10 0 373
384 -40 292 322 10 559 0
385 4 0 1067 10 0 309
386 14 253 283 10 0 216
387 2 0 1077 10 0 560
388 16 319 349 10 0 258
389 -20 808 838 10 154 0
390 -17 0 1109 10 176 0
391 16 517 547 10 0 471
392 -14 0 1030 10 439 0
393 21 175 205 10 0 558
394 19 0 1045 10 0 510
395 -19 483 513 10 492 0
396 29 203 233 10 0 382
397 -13 843 873 10 449 0
398 18 834 864 10 0 108
399 21 31 61 10 0 431
400 17 0 1064 10 0 520
401 27 0 1076 10 0 2
402 3 0 1136 10 0 349
403 -14 0 1079 10 348 0
404 16 230 260 10 0 441
405 -16 0 1135 10 470 0
406 16 0 1112 0 0 611
407 8 0 1046 10 0 353
408 -8 0 1026 10 358 0
409 -37 0 1124 10 317 0
410 35 0 1088 10 0 486
411 10 0 1046 10 0 536
412 26 59 89 10 0 275
413 -17 843 873 10 145 0
414 19 0 1143 0 0 623
415 23 121 151 10 0 16
416 14 894 924 10 0 81
417 13 186 216 10 0 143
418 12 747 777 10 0 57
419 18 146 176 10 0 84
420 11 0 1058 10 0 259
421 -8 0 998 10 255 0
422 13 0 1118 10 0 580
423 23 0 1100 10 0 295
424 27 0 1129 10 0 140
425 6 0 1065 10 0 274
426 -17 0 1077 10 356 0
427 29 621 651 10 0 115
428 16 0 1101 10 0 256
429 16 341 371 10 0 149
430 -23 0 1130 10 139 0
431 -21 574 604 10 399 0
432 21 0 1059 0 0 608
433 25 829 859 10 0 76
434 -13 621 651 10 514 0
435 12 0 1135 10 0 260
436 11 304 334 10 0 186
437 -18 962 992 10 480 0
438 -11 499 529 10 19 0
439 14 0 1029 10 0 392
440 18 0 1098 10 0 64
441 -16 0 1053 10 404 0
442 -2 629 659 10 249 0
443 21 0 1050 10 0 225
444 -24 0 1088 10 247 0
445 -29 0 1087 10 257 0
446 22 92 122 10 0 80
447 26 492 522 10 0 20
448 5 0 996 10 0 50
449 13 553 583 10 0 397
450 -16 0 1109 10 516 0
451 15 577 607 10 0 69
452 2 56 86 10 0 214
453 15 771 801 10 0 182
454 15 0 1066 10 0 601
455 -17 507 537 10 368 0
456 -18 150 180 10 599 0
457 13 0 1102 10 0 239
458 25 111 141 10 0 305
459 23 710 740 10 0 588
460 26 0 1090 10 0 92
461 -25 485 515 10 548 0
462 -21 0 1120 10 337 0
463 -29 333 363 10 202 0
464 12 0 1147 0 0 618
465 34 648 678 10 0 188
466 -6 822 852 10 554 0
467 -7 337 367 10 206 0
468 -9 729 759 10 379 0
469 26 0 1036 10 0 278
470 16 242 272 10 0 405
471 -16 0 1099 10 391 0
472 -22 450 480 10 300 0
473 17 493 523 10 0 251
474 9 0 1096 10 0 485
475 -12 0 1126 10 25 0
476 -15 0 1125 10 323 0
477 -12 0 1033 10 592 0
478 15 142 172 10 0 364
479 -15 755 785 10 97 0
480 18 0 1139 10 0 437
481 6 133 163 0 0 616
482 -14 0 1078 10 191 0
483 -24 439 469 10 14 0
484 -12 882 912 10 165 0
485 -9 542 572 10 474 0
486 -35 588 618 10 410 0
487 5 0 1136 10 0 281
488 -8 0 1045 10 210 0
489 -17 605 635 10 306 0
490 13 0 1061 10 0 68
491 18 0 1097 10 0 209
492 19 390 420 10 0 395
493 -2 426 456 10 138 0
494 8 0 1092 10 0 215
495 -32 0 1062 10 88 0
496 10 0 1118 10 0 55
497 -25 668 698 10 324 0
498 -36 774 804 10 533 0
499 -14 0 1092 10 241 0
500 12 0 1107 10 0 366
501 -31 350 380 10 339 0
502 -12 600 630 10 550 0
503 -20 0 1168 10 314 0
504 -24 0 1042 10 315 0
505 8 107 137 10 0 518
506 15 978 1008 10 0 371
507 13 0 1086 10 0 148
508 -17 0 1057 10 221 0
509 14 83 113 10 0 155
510 -19 0 1035 10 394 0
511 -15 613 643 10 224 0
512 18 0 1097 0 0 625
513 3 0 1013 10 0 320
514 13 309 339 10 0 434
515 16 97 127 10 0 133
516 16 106 136 10 0 450
517 8 0 1115 10 0 594
518 -8 706 736 10 505 0
519 20 403 433 0 0 610
520 -17 672 702 10 400 0
521 20 391 421 10 0 107
522 26 0 1075 10 0 15
523 29 0 1138 10 0 160
524 8 578 608 10 0 266
525 29 0 1010 10 0 34
526 9 341 371 10 0 82
527 -23 0 1156 10 134 0
528 16 0 1131 10 0 587
529 -12 0 1086 10 307 0
530 15 132 162 10 0 330
531 15 497 527 10 0 135
532 -17 216 246 10 279 0
533 36 745 775 10 0 498
534 -25 0 1048 10 286 0
535 15 213 243 10 0 302
536 -10 0 1055 10 411 0
537 -6 694 724 10 338 0
538 -27 149 179 10 131 0
539 19 766 796 10 0 267
540 -13 117 147 10 185 0
541 -12 140 170 10 377 0
542 37 577 607 10 0 561
543 19 0 1003 10 0 150
544 15 812 842 0 0 617
545 6 0 1036 10 0 280
546 15 550 580 10 0 71
547 2 0 1129 10 0 316
548 25 272 302 10 0 461
549 -22 0 1002 10 296 0
550 12 427 457 10 0 502
551 11 22 52 10 0 350
552 27 119 149 10 0 75
553 -9 0 1060 10 242 0
554 6 0 1053 10 0 466
555 -22 0 1045 10 46 0
556 30 0 1062 10 0 583
557 12 0 1178 10 0 208
558 -21 933 963 10 393 0
559 40 164 194 10 0 384
560 -2 0 1051 10 387 0
561 -37 618 648 10 542 0
562 -25 0 1058 10 56 0
563 16 812 842 10 0 598
564 16 53 83 10 0 199
565 -18 196 226 10 158 0
566 -14 410 440 10 570 0
567 -21 0 1045 10 352 0
568 17 880 910 10 0 375
569 22 0 1092 10 0 197
570 14 0 1071 10 0 566
571 -42 0 1102 10 285 0
572 29 0 1024 10 0 147
573 -24 722 752 10 122 0
574 -26 327 357 10 198 0
575 -23 0 1081 10 60 0
576 -1 983 1013 10 125 0
577 -27 0 1006 10 313 0
578 20 0 1089 0 0 604
579 -21 0 1108 10 245 0
580 -13 93 123 10 422 0
581 -3 0 1108 10 30 0
582 14 37 67 10 0 151
583 -30 321 351 10 556 0
584 -33 0 1101 10 244 0
585 12 133 163 10 0 37
586 -2 0 1007 10 190 0
587 -16 0 1136 10 528 0
588 -23 900 930 10 459 0
589 19 0 1040 10 0 77
590 10 0 1029 0 0 607
591 6 567 597 0 0 622
592 12 736 766 10 0 477
593 -22 0 1091 10 67 0
594 -8 0 1112 10 517 0
595 -17 783 813 10 29 0
596 15 0 1047 10 0 4
597 32 0 1033 10 0 261
598 -16 0 1089 10 563 0
599 18 126 156 10 0 456
600 19 154 184 10 0 96
601 -15 305 335 10 454 0
602 -8 0 1029 10 112 0
603 -6 0 1011 10 52 0
604 -20 0 1089 10 578 0
605 -8 959 989 10 363 0
606 -19 243 273 10 35 0
607 -10 0 1029 10 590 0
608 -21 0 1059 10 432 0
609 -20 0 1030 10 318 0
610 -20 403 433 10 519 0
611 -16 0 1112 10 406 0
612 -21 321 351 10 116 0
613 -22 0 1075 10 128 0
614 -17 640 670 10 287 0
615 -21 744 774 10 45 0
616 -6 133 163 10 481 0
617 -15 812 842 10 544 0
618 -12 0 1147 10 464 0
619 -17 0 1040 10 31 0
620 -25 560 590 10 166 0
621 -29 0 1076 10 253 0
622 -6 567 597 10 591 0
623 -19 0 1143 10 414 0
624 -32 0 1166 10 173 0
625 -18 0 1097 10 512 0
DEPOT_SECTION
1
-1
EOF
