NAME: lr2_6_9
TYPE: PDPTW
COMMENT: Li & Lim PDPTW benchmark converted from SINTEF format
DIMENSION: 605
VEHICLES: 150
CAPACITY: 1000
EDGE_WEIGHT_TYPE: EUC_2D
NODE_COORD_SECTION
1 150 150
2 133 187
3 277 41
4 284 244
5 38 139
6 117 178
7 241 298
8 76 221
9 175 251
10 45 115
11 216 203
12 178 263
13 51 2
14 274 6
15 232 121
16 110 83
17 275 263
18 114 211
19 61 84
20 80 35
21 298 135
22 60 72
23 75 127
24 102 173
25 276 28
26 165 179
27 289 143
28 69 134
29 61 138
30 283 144
31 97 232
32 120 241
33 173 64
34 176 263
35 117 168
36 184 102
37 157 221
38 108 3
39 29 8
40 136 241
41 16 42
42 183 282
43 154 299
44 136 68
45 230 80
46 151 172
47 136 50
48 8 200
49 72 20
50 57 125
51 208 47
52 262 14
53 139 250
54 220 18
55 191 234
56 111 40
57 227 5
58 265 141
59 272 211
60 56 116
61 170 93
62 120 155
63 3 119
64 208 290
65 285 283
66 290 37
67 180 106
68 29 139
69 37 159
70 201 175
71 128 155
72 94 93
73 3 135
74 279 36
75 46 155
76 15 178
77 15 219
78 275 146
79 268 113
80 207 149
81 179 123
82 103 8
83 176 235
84 253 84
85 51 217
86 114 259
87 212 45
88 276 66
89 243 136
90 160 17
91 183 80
92 177 281
93 123 76
94 80 86
95 299 153
96 40 236
97 38 74
98 289 130
99 147 152
100 243 191
101 9 239
102 238 103
103 236 108
104 189 197
105 64 91
106 159 266
107 281 68
108 78 246
109 211 239
110 7 31
111 140 18
112 69 208
113 105 252
114 99 105
115 166 123
116 139 146
117 261 232
118 92 241
119 107 174
120 173 148
121 72 286
122 236 27
123 106 243
124 63 170
125 136 228
126 246 166
127 102 81
128 271 105
129 93 117
130 227 192
131 262 80
132 205 44
133 278 178
134 17 0
135 116 14
136 119 254
137 107 281
138 86 216
139 189 201
140 263 291
141 11 191
142 192 150
143 131 222
144 108 80
145 259 187
146 297 43
147 112 43
148 182 146
149 205 130
150 289 209
151 157 254
152 291 148
153 201 122
154 244 13
155 162 148
156 20 245
157 60 287
158 213 119
159 234 146
160 231 28
161 288 127
162 82 35
163 159 300
164 296 252
165 207 20
166 122 96
167 133 153
168 54 136
169 28 141
170 208 208
171 2 81
172 8 4
173 30 145
174 186 26
175 83 77
176 203 283
177 129 83
178 172 198
179 157 12
180 52 109
181 237 171
182 126 42
183 24 261
184 250 49
185 40 1
186 96 86
187 223 198
188 188 198
189 107 291
190 181 277
191 239 295
192 229 40
193 198 159
194 297 213
195 220 43
196 295 123
197 57 192
198 36 212
199 45 74
200 117 155
201 168 42
202 296 235
203 116 245
204 254 206
205 241 183
206 118 38
207 51 63
208 44 189
209 183 43
210 141 120
211 37 126
212 290 219
213 224 138
214 25 64
215 194 11
216 100 138
217 88 49
218 57 127
219 25 191
220 217 43
221 96 96
222 135 139
223 41 279
224 217 138
225 18 196
226 30 149
227 224 61
228 248 280
229 94 12
230 18 184
231 266 39
232 103 81
233 125 148
234 28 124
235 293 62
236 213 299
237 158 291
238 12 10
239 53 141
240 208 297
241 227 62
242 209 84
243 226 248
244 238 214
245 102 76
246 220 182
247 88 110
248 224 229
249 219 152
250 102 155
251 246 93
252 175 123
253 43 52
254 151 113
255 184 237
256 274 256
257 266 212
258 117 79
259 26 27
260 256 286
261 157 276
262 107 29
263 229 179
264 162 92
265 135 38
266 283 275
267 108 298
268 11 242
269 5 189
270 225 192
271 187 129
272 14 165
273 214 6
274 152 241
275 200 26
276 202 161
277 211 174
278 81 219
279 255 203
280 31 68
281 139 270
282 85 75
283 88 190
284 140 294
285 225 210
286 166 99
287 140 214
288 251 195
289 246 133
290 59 113
291 113 62
292 72 89
293 247 19
294 135 251
295 159 41
296 73 81
297 125 136
298 24 76
299 84 231
300 206 121
301 242 70
302 76 160
303 18 151
304 11 185
305 109 148
306 126 233
307 121 116
308 110 31
309 107 39
310 181 297
311 96 199
312 34 5
313 252 219
314 234 107
315 51 278
316 239 84
317 172 2
318 153 226
319 112 272
320 110 145
321 175 294
322 202 292
323 282 104
324 160 179
325 143 223
326 263 193
327 14 177
328 127 77
329 188 69
330 159 287
331 47 153
332 274 136
333 175 281
334 26 0
335 126 127
336 232 45
337 38 44
338 183 44
339 296 17
340 2 238
341 149 76
342 57 7
343 280 158
344 131 78
345 131 220
346 128 225
347 250 194
348 76 280
349 9 122
350 203 166
351 235 31
352 120 60
353 136 295
354 119 183
355 1 11
356 283 65
357 274 66
358 247 86
359 167 171
360 262 164
361 222 100
362 271 106
363 233 119
364 37 149
365 150 185
366 93 165
367 203 36
368 124 299
369 241 208
370 108 162
371 80 67
372 139 31
373 4 296
374 170 53
375 253 69
376 246 123
377 183 88
378 230 135
379 148 8
380 159 199
381 148 299
382 159 89
383 109 299
384 250 228
385 211 62
386 300 44
387 210 236
388 172 225
389 12 275
390 180 93
391 29 72
392 75 265
393 174 238
394 166 194
395 271 8
396 158 140
397 267 29
398 15 52
399 15 88
400 154 207
401 15 2
402 126 266
403 175 107
404 44 223
405 15 209
406 289 79
407 194 234
408 132 16
409 83 188
410 152 77
411 216 40
412 9 63
413 206 157
414 287 293
415 58 240
416 184 277
417 162 250
418 82 100
419 27 255
420 230 128
421 19 290
422 154 101
423 265 78
424 40 181
425 229 188
426 119 214
427 190 181
428 228 41
429 152 29
430 99 226
431 142 188
432 209 269
433 52 165
434 63 130
435 37 36
436 23 218
437 129 77
438 180 98
439 114 117
440 151 133
441 221 145
442 30 226
443 182 81
444 45 190
445 195 9
446 72 36
447 90 44
448 121 246
449 282 76
450 150 67
451 4 97
452 188 142
453 285 285
454 163 150
455 272 183
456 279 189
457 148 172
458 155 93
459 181 145
460 147 43
461 75 191
462 150 104
463 103 260
464 234 213
465 9 30
466 125 168
467 165 256
468 176 153
469 16 22
470 156 182
471 88 124
472 176 72
473 85 62
474 71 268
475 110 262
476 109 61
477 229 25
478 186 228
479 173 72
480 198 100
481 164 108
482 284 72
483 98 129
484 167 193
485 34 150
486 161 242
487 139 110
488 265 197
489 241 218
490 238 294
491 94 109
492 8 227
493 25 119
494 238 206
495 1 145
496 208 117
497 47 203
498 4 294
499 199 213
500 74 117
501 156 57
502 189 240
503 1 81
504 89 61
505 122 127
506 260 64
507 15 259
508 112 161
509 60 176
510 264 35
511 189 41
512 158 83
513 56 212
514 228 217
515 157 50
516 37 14
517 116 240
518 225 73
519 125 278
520 14 204
521 296 279
522 215 295
523 135 210
524 80 131
525 157 84
526 29 130
527 250 124
528 143 67
529 69 90
530 47 143
531 106 168
532 266 203
533 124 174
534 33 231
535 67 175
536 132 297
537 230 150
538 208 235
539 183 23
540 149 98
541 228 276
542 113 4
543 203 183
544 6 168
545 127 266
546 176 70
547 271 145
548 148 157
549 180 114
550 25 14
551 99 73
552 209 246
553 207 237
554 75 269
555 152 258
556 37 258
557 42 221
558 143 244
559 87 183
560 212 270
561 113 188
562 294 64
563 296 15
564 159 42
565 48 141
566 11 176
567 148 28
568 173 152
569 40 192
570 272 70
571 71 294
572 296 211
573 248 41
574 259 14
575 5 195
576 30 243
577 80 133
578 57 123
579 153 61
580 72 180
581 59 287
582 147 240
583 191 49
584 44 286
585 169 236
586 254 87
587 182 284
588 101 114
589 281 8
590 103 93
591 64 170
592 47 121
593 139 33
594 139 206
595 145 38
596 137 212
597 206 130
598 111 98
599 43 62
600 214 234
601 199 28
602 15 219
603 188 198
604 167 193
605 183 88
PICKUP_AND_DELIVERY_SECTION
1 0 0 4823 0 0 0
2 -8 4122 4539 10 183 0
3 -41 1333 1541 10 411 0
4 -24 2821 3187 10 383 0
5 12 1361 1454 10 0 48
6 19 3036 3211 10 0 324
7 -2 1834 1979 10 140 0
8 24 2734 3150 10 0 86
9 8 2940 3074 10 0 196
10 -18 843 1011 10 526 0
11 -46 2175 2271 10 89 0
12 -25 3008 3193 10 457 0
13 -14 879 977 10 504 0
14 41 2023 2251 10 0 339
15 15 2358 2379 10 0 382
16 22 833 858 10 0 158
17 33 436 1021 10 0 266
18 -34 1585 2048 10 116 0
19 7 1153 1635 10 0 259
20 -9 1913 2328 10 199 0
21 -8 3586 3736 10 522 0
22 2 342 1142 10 0 97
23 37 1908 2332 10 0 63
24 15 53 461 10 0 523
25 9 1098 1123 10 0 562
26 -24 3099 3670 10 370 0
27 -15 561 654 10 496 0
28 -8 2393 2718 10 320 0
29 -10 2370 2894 10 400 0
30 6 297 769 10 0 139
31 -17 3506 4077 10 267 0
32 -37 2362 2601 10 203 0
33 12 2151 2543 10 0 479
34 -17 2300 2698 10 517 0
35 14 37 512 10 0 436
36 -2 4063 4439 10 390 0
37 -12 1543 1861 10 250 0
38 -11 2606 2880 10 134 0
39 -22 2737 3390 10 238 0
40 11 1457 1635 10 0 558
41 17 875 1265 10 0 82
42 42 1777 1875 10 0 594
43 17 2107 2716 10 0 178
44 19 2295 2580 10 0 233
45 -13 3042 3647 10 192 0
46 -21 2882 3233 10 299 0
47 16 718 1375 10 0 579
48 -12 2658 2953 10 5 0
49 -20 2464 3131 10 229 0
50 23 833 973 10 0 225
51 6 378 567 10 0 357
52 21 2587 3120 10 0 66
53 17 2292 2892 10 0 467
54 38 2367 2721 10 0 154
55 9 349 398 10 0 237
56 22 3309 3647 10 0 429
57 -10 1469 1611 10 235 0
58 22 295 627 10 0 362
59 8 1275 1720 10 0 380
60 22 840 1119 10 0 75
61 39 1644 2280 10 0 537
62 -19 3551 3670 10 124 0
63 -37 2463 3168 10 23 0
64 -13 1112 1452 10 388 0
65 22 2075 2473 10 0 532
66 -21 3116 3534 10 52 0
67 19 73 353 10 0 98
68 25 227 860 10 0 349
69 7 423 629 10 0 498
70 -16 2483 3179 10 102 0
71 11 84 96 10 0 434
72 -18 3454 3942 10 175 0
73 -19 2623 2840 10 509 0
74 -19 2710 2952 10 589 0
75 -22 2810 3351 10 60 0
76 -23 2882 3382 10 173 0
77 19 344 869 0 0 602
78 -9 2474 2854 10 289 0
79 -17 3250 3611 10 333 0
80 22 1255 1643 10 0 486
81 4 76 241 10 0 187
82 -17 2741 2833 10 41 0
83 33 181 531 10 0 381
84 11 1463 1894 10 0 314
85 -4 911 1364 10 198 0
86 -24 3125 3463 10 8 0
87 -11 2248 2908 10 573 0
88 17 495 716 10 0 395
89 46 839 1303 10 0 11
90 -26 1221 1621 10 445 0
91 13 187 517 10 0 506
92 -27 1661 1864 10 228 0
93 2 1074 1427 10 0 601
94 -16 2231 2690 10 219 0
95 -19 1602 1798 10 323 0
96 -17 2959 3161 10 121 0
97 -2 540 782 10 22 0
98 -19 994 1761 10 67 0
99 14 3 546 10 0 575
100 16 230 583 10 0 145
101 20 925 1720 10 0 571
102 16 2761 3138 10 0 70
103 16 3403 3797 10 0 441
104 17 1816 2096 10 0 277
105 29 299 616 10 0 337
106 -22 3286 3991 10 538 0
107 -8 1985 2191 10 385 0
108 27 1019 1695 10 0 555
109 -8 2110 2625 10 151 0
110 -31 2929 3533 10 253 0
111 26 1542 1737 10 0 372
112 17 2352 2424 10 0 141
113 25 304 588 10 0 274
114 4 661 1458 10 0 129
115 14 31 456 10 0 160
116 34 11 118 10 0 18
117 12 1764 2349 10 0 456
118 -28 2938 3316 10 156 0
119 -22 49 345 10 533 0
120 -18 3985 4120 10 574 0
121 17 1581 1756 10 0 96
122 21 1418 1678 10 0 397
123 -13 646 978 10 545 0
124 19 1022 1219 10 0 62
125 2 1318 1659 10 0 466
126 18 2025 2448 10 0 255
127 12 147 526 10 0 503
128 42 2447 2611 10 0 455
129 -4 1243 1675 10 114 0
130 15 1093 1542 10 0 248
131 17 702 1161 10 0 358
132 9 556 687 10 0 241
133 17 2591 3012 10 0 600
134 11 2125 2614 10 0 38
135 -7 2330 3021 10 446 0
136 -11 2942 3631 10 556 0
137 -21 331 773 10 143 0
138 25 683 1101 10 0 560
139 -6 3764 4166 10 30 0
140 2 707 912 10 0 7
141 -17 2896 3030 10 112 0
142 6 42 505 10 0 288
143 21 341 1001 10 0 137
144 -15 1808 2110 10 308 0
145 -16 241 679 10 100 0
146 -3 2784 3113 10 386 0
147 -26 2031 2512 10 424 0
148 -14 3220 3367 10 524 0
149 -15 3556 4079 10 281 0
150 23 2656 3014 10 0 256
151 8 2002 2249 10 0 109
152 -34 2347 2857 10 343 0
153 29 2742 3153 10 0 487
154 -38 2854 3050 10 54 0
155 -18 2991 3130 10 361 0
156 28 642 1376 10 0 118
157 -13 3763 4222 10 208 0
158 -22 2739 3212 10 16 0
159 38 1370 1565 10 0 270
160 -14 3367 3589 10 115 0
161 23 2704 3100 10 0 279
162 -12 248 820 10 186 0
163 15 363 839 10 0 190
164 -8 3117 3316 10 240 0
165 13 745 857 10 0 295
166 19 519 780 10 0 341
167 32 17 365 10 0 304
168 9 950 1166 10 0 513
169 -8 2437 2843 10 344 0
170 16 169 796 10 0 464
171 32 954 1282 10 0 599
172 29 658 971 10 0 451
173 23 3333 3562 10 0 76
174 -12 1979 2659 10 371 0
175 18 1631 1912 10 0 72
176 6 2744 3307 10 0 360
177 15 2273 2822 10 0 234
178 -17 3282 3480 10 43 0
179 11 569 882 10 0 245
180 30 253 596 10 0 592
181 17 1492 1783 10 0 246
182 -10 805 1106 10 410 0
183 8 1805 2375 10 0 2
184 11 1843 2107 10 0 423
185 38 1672 2040 10 0 391
186 12 211 458 10 0 162
187 -4 1565 2227 10 81 0
188 8 2577 2936 0 0 603
189 -34 2166 2289 10 489 0
190 -15 980 1450 10 163 0
191 11 2782 3358 10 0 514
192 13 684 1350 10 0 45
193 -2 3111 3231 10 264 0
194 21 2555 3119 10 0 413
195 -18 1582 2017 10 367 0
196 -8 2895 3382 10 9 0
197 33 2595 2990 10 0 278
198 4 331 788 10 0 85
199 9 1384 1879 10 0 20
200 -14 4085 4096 10 442 0
201 -2 2217 2967 10 593 0
202 25 2037 2565 10 0 347
203 37 2175 2563 10 0 32
204 -21 2309 2782 10 330 0
205 -23 3251 3616 10 345 0
206 -14 578 1247 10 460 0
207 6 366 775 10 0 217
208 13 237 667 10 0 157
209 -19 2439 2532 10 525 0
210 21 31 434 10 0 458
211 19 428 921 10 0 303
212 19 697 919 10 0 353
213 -35 3523 3867 10 273 0
214 -34 2285 2806 10 355 0
215 -12 1111 1621 10 583 0
216 24 685 1074 10 0 292
217 -6 585 905 10 207 0
218 20 1071 1816 10 0 580
219 16 923 1035 10 0 94
220 -12 2030 2272 10 511 0
221 33 1957 2200 10 0 590
222 12 18 368 10 0 226
223 -30 1520 1893 10 569 0
224 -14 2562 3082 10 251 0
225 -23 1614 1963 10 50 0
226 -12 1419 1827 10 222 0
227 22 1775 2132 10 0 459
228 27 1020 1423 10 0 92
229 20 1863 2049 10 0 49
230 -1 1503 1584 10 505 0
231 6 1997 2183 10 0 375
232 33 1795 1954 10 0 529
233 -19 3346 3516 10 44 0
234 -15 2849 2913 10 177 0
235 10 419 1040 10 0 57
236 22 1809 2615 10 0 547
237 -9 368 1049 10 55 0
238 22 1604 1865 10 0 39
239 16 97 715 10 0 327
240 8 1559 1833 10 0 164
241 -9 2911 3646 10 132 0
242 -4 1365 1814 10 254 0
243 -18 3183 3759 10 284 0
244 -31 1654 2132 10 369 0
245 -11 3176 3692 10 179 0
246 -17 2285 2739 10 181 0
247 -20 2442 2749 10 325 0
248 -15 1343 1505 10 130 0
249 8 3849 3943 10 0 350
250 12 763 865 10 0 37
251 14 2049 2419 10 0 224
252 -9 3189 3513 10 518 0
253 31 2225 2422 10 0 110
254 4 1264 1624 10 0 242
255 -18 2960 3266 10 126 0
256 -23 3111 3381 10 150 0
257 -15 1169 1611 10 488 0
258 -10 3593 3760 10 595 0
259 -7 3392 3686 10 19 0
260 -18 3066 3408 10 502 0
261 -7 412 598 10 394 0
262 -12 4080 4130 10 447 0
263 16 882 1173 10 0 326
264 2 579 610 10 0 193
265 -17 2692 3178 10 567 0
266 -33 2935 3100 10 17 0
267 17 3547 3615 10 0 31
268 16 1929 2327 10 0 463
269 5 505 786 10 0 492
270 -38 2090 2400 10 159 0
271 8 3027 3347 10 0 568
272 7 2068 2191 10 0 405
273 35 3286 3754 10 0 213
274 -25 2594 2895 10 113 0
275 10 1678 1997 10 0 549
276 16 120 305 10 0 470
277 -17 2009 2237 10 104 0
278 -33 3734 4094 10 197 0
279 -23 2823 3137 10 161 0
280 -26 1829 2275 10 435 0
281 15 2889 3401 10 0 149
282 -31 2729 3198 10 542 0
283 -19 3528 3777 10 520 0
284 18 1548 1846 10 0 243
285 -15 379 691 10 454 0
286 19 53 575 10 0 316
287 -7 2415 2621 10 425 0
288 -6 1050 1376 10 142 0
289 9 499 859 10 0 78
290 16 1004 1069 10 0 485
291 -33 1855 2454 10 564 0
292 -24 1916 2626 10 216 0
293 -13 3133 3533 10 563 0
294 31 1887 2106 10 0 541
295 -13 1049 1521 10 165 0
296 -16 2199 2367 10 409 0
297 5 28 676 10 0 465
298 23 1925 2167 10 0 312
299 21 2119 2358 10 0 46
300 -17 2877 3211 10 477 0
301 22 292 878 10 0 406
302 -13 245 353 10 366 0
303 -19 298 872 10 211 0
304 -32 953 1316 10 167 0
305 19 41 382 10 0 418
306 -22 1417 1834 10 365 0
307 -18 1843 2282 10 433 0
308 15 1168 1855 10 0 144
309 -21 1273 1571 10 422 0
310 10 457 963 10 0 414
311 -29 3864 4409 10 497 0
312 -23 2613 3388 10 298 0
313 23 1035 1496 10 0 427
314 -11 1113 1715 10 84 0
315 -12 1060 1239 10 461 0
316 -19 2274 2520 10 286 0
317 -27 2148 2792 10 512 0
318 18 1292 1876 10 0 478
319 -24 1188 1629 10 417 0
320 8 425 1020 10 0 28
321 16 2017 2032 10 0 596
322 -40 3493 3890 10 536 0
323 19 938 1350 10 0 95
324 -19 3073 3284 10 6 0
325 20 1432 1914 10 0 247
326 -16 1001 1248 10 263 0
327 -16 446 765 10 239 0
328 11 3272 3485 10 0 403
329 15 2416 2884 10 0 515
330 21 1536 1757 10 0 204
331 9 2697 3562 10 0 340
332 11 3048 3508 10 0 482
333 17 2496 2748 10 0 79
334 -25 1787 2291 10 342 0
335 40 33 403 10 0 483
336 15 3023 3594 10 0 363
337 -29 2477 2850 10 105 0
338 17 208 783 10 0 379
339 -41 3078 3322 10 14 0
340 -9 3216 3628 10 331 0
341 -19 2983 3536 10 166 0
342 25 1588 1827 10 0 334
343 34 2554 2748 10 0 152
344 8 2081 2664 10 0 169
345 23 226 861 10 0 205
346 5 2400 2812 10 0 426
347 -25 3363 3774 10 202 0
348 -12 1727 2271 10 421 0
349 -25 740 1111 10 68 0
350 -8 4005 4038 10 249 0
351 18 364 887 10 0 570
352 12 1747 2473 10 0 546
353 -19 1913 2136 10 212 0
354 -17 2299 2358 10 432 0
355 34 1565 2393 10 0 214
356 -5 1749 1971 10 396 0
357 -6 503 1018 10 51 0
358 -17 671 1142 10 131 0
359 -26 3338 3644 10 552 0
360 -6 3388 3914 10 176 0
361 18 2695 3235 10 0 155
362 -22 2265 2554 10 58 0
363 -15 3621 4007 10 336 0
364 24 1408 1684 10 0 591
365 22 35 904 10 0 306
366 13 58 587 10 0 302
367 18 1446 1852 10 0 195
368 -22 1106 1354 10 490 0
369 31 1794 1859 10 0 244
370 24 2359 2779 10 0 26
371 12 1545 1990 10 0 174
372 -26 1796 2157 10 111 0
373 -5 3238 3550 10 419 0
374 21 375 1038 10 0 408
375 -6 2511 2709 10 231 0
376 -29 2243 2432 10 443 0
377 35 3268 3883 0 0 605
378 -16 3850 4095 10 428 0
379 -17 682 927 10 338 0
380 -8 3157 3514 10 59 0
381 -33 359 995 10 83 0
382 -15 3259 3472 10 15 0
383 24 1429 1703 10 0 4
384 -9 3025 3309 10 448 0
385 8 227 629 10 0 107
386 3 3033 3141 10 0 146
387 -22 3213 3297 10 494 0
388 13 342 653 10 0 64
389 -6 1746 2470 10 576 0
390 2 3741 4131 10 0 36
391 -38 3512 3962 10 185 0
392 14 2596 2855 10 0 507
393 -3 3881 4424 10 585 0
394 7 291 611 10 0 261
395 -17 2724 3481 10 88 0
396 5 12 703 10 0 356
397 -21 1746 2047 10 122 0
398 21 453 881 10 0 469
399 -22 1237 1638 10 551 0
400 10 1616 1855 10 0 29
401 -13 1399 1910 10 412 0
402 -12 1757 2314 10 430 0
403 -11 4242 4567 10 328 0
404 -29 1015 1145 10 557 0
405 -7 3409 3769 10 272 0
406 -22 1385 1858 10 301 0
407 7 104 655 10 0 416
408 -21 768 1345 10 374 0
409 16 1193 1481 10 0 296
410 10 246 420 10 0 182
411 41 388 949 10 0 3
412 13 1192 1402 10 0 401
413 -21 3430 3975 10 194 0
414 -10 2187 2237 10 310 0
415 20 2944 3371 10 0 554
416 -7 648 1086 10 407 0
417 24 600 1084 10 0 319
418 -19 2276 2464 10 305 0
419 5 816 1229 10 0 373
420 -4 1346 1818 10 527 0
421 12 1536 1681 10 0 348
422 21 147 246 10 0 309
423 -11 2660 3105 10 184 0
424 26 931 1396 10 0 147
425 7 496 1137 10 0 287
426 -5 2456 2611 10 346 0
427 -23 3611 3745 10 313 0
428 16 3050 3568 10 0 378
429 -22 3604 3710 10 56 0
430 12 1306 1442 10 0 402
431 -36 3787 4029 10 534 0
432 17 1789 1897 10 0 354
433 18 1079 1339 10 0 307
434 -11 2205 2412 10 71 0
435 26 1253 1527 10 0 280
436 -14 591 721 10 35 0
437 -3 2507 2716 10 535 0
438 -21 1250 1703 10 481 0
439 31 48 516 10 0 471
440 23 17 386 10 0 588
441 -16 4007 4245 10 103 0
442 14 3564 4060 10 0 200
443 29 1651 2216 10 0 376
444 -17 1735 1944 10 530 0
445 26 686 1008 10 0 90
446 7 1536 2036 10 0 135
447 12 3820 4233 10 0 262
448 9 1979 2018 10 0 384
449 26 3303 3662 10 0 510
450 29 169 495 10 0 528
451 -29 3406 3705 10 172 0
452 -26 4351 4775 10 475 0
453 -15 2652 3073 10 521 0
454 15 13 213 10 0 285
455 -42 2533 3236 10 128 0
456 -12 2153 2723 10 117 0
457 25 22 263 10 0 12
458 -21 543 683 10 210 0
459 -22 2849 3370 10 227 0
460 14 339 602 10 0 206
461 12 300 464 10 0 315
462 21 301 374 10 0 598
463 -16 3398 3877 10 268 0
464 -16 455 802 10 170 0
465 -5 1417 1806 10 297 0
466 -2 3318 3736 10 125 0
467 -17 2307 2507 10 53 0
468 14 3197 3544 10 0 540
469 -21 1894 2422 10 398 0
470 -16 2383 2525 10 276 0
471 -31 142 509 10 439 0
472 -26 2212 2504 10 539 0
473 3 2043 2489 10 0 491
474 10 695 1193 10 0 584
475 26 1855 2204 10 0 452
476 17 1511 1783 10 0 501
477 17 1901 2167 10 0 300
478 -18 1452 1972 10 318 0
479 -12 2551 3054 10 33 0
480 25 183 631 10 0 597
481 21 44 517 10 0 438
482 -11 3656 3931 10 332 0
483 -40 89 359 10 335 0
484 29 3991 4312 0 0 604
485 -16 1562 1705 10 290 0
486 -22 3408 3718 10 80 0
487 -29 3297 3695 10 153 0
488 15 1098 1594 10 0 257
489 34 366 927 10 0 189
490 22 762 1111 10 0 368
491 -3 3026 3357 10 473 0
492 -5 652 880 10 269 0
493 17 656 810 10 0 544
494 22 2153 2550 10 0 387
495 -30 503 690 10 577 0
496 15 244 502 10 0 27
497 29 2458 3021 10 0 311
498 -7 2111 2412 10 69 0
499 -21 1848 2361 10 531 0
500 -11 3189 3366 10 561 0
501 -17 2591 2981 10 476 0
502 18 185 693 10 0 260
503 -12 1213 1471 10 127 0
504 14 708 1437 10 0 13
505 1 36 612 10 0 230
506 -13 1745 1839 10 91 0
507 -14 2294 3247 10 392 0
508 11 39 302 10 0 553
509 19 578 1104 10 0 73
510 -26 3826 4157 10 449 0
511 12 1387 1991 10 0 220
512 27 108 432 10 0 317
513 -9 1907 1993 10 168 0
514 -11 3427 3626 10 191 0
515 -15 3596 4100 10 329 0
516 19 723 1339 10 0 550
517 17 1999 2322 10 0 34
518 9 1999 2270 10 0 252
519 16 1878 2287 10 0 586
520 19 2357 2508 10 0 283
521 15 1978 2122 10 0 453
522 8 3188 3504 10 0 21
523 -15 3436 3901 10 24 0
524 14 1258 1532 10 0 148
525 19 300 623 10 0 209
526 18 416 742 10 0 10
527 4 390 795 10 0 420
528 -29 154 513 10 450 0
529 -33 3160 3169 10 232 0
530 17 1079 1713 10 0 444
531 21 710 1106 10 0 499
532 -22 2603 2640 10 65 0
533 22 35 285 10 0 119
534 36 2866 3216 10 0 431
535 3 1067 1264 10 0 437
536 40 629 802 10 0 322
537 -39 2552 2860 10 61 0
538 22 3218 3482 10 0 106
539 26 2233 2478 10 0 472
540 -14 3204 3550 10 468 0
541 -31 2913 3070 10 294 0
542 31 1078 1367 10 0 282
543 26 62 720 10 0 587
544 -17 2942 3133 10 493 0
545 13 493 606 10 0 123
546 -12 2558 2938 10 352 0
547 -22 3803 3970 10 236 0
548 24 7 162 10 0 582
549 -10 4216 4467 10 275 0
550 -19 783 1042 10 516 0
551 22 252 588 10 0 399
552 26 1255 1855 10 0 359
553 -11 1884 2139 10 508 0
554 -20 3165 3418 10 415 0
555 -27 2463 2923 10 108 0
556 11 3263 3464 10 0 136
557 29 967 1521 10 0 404
558 -11 2789 2811 10 40 0
559 -22 1933 2387 10 572 0
560 -25 2164 2690 10 138 0
561 11 1118 1432 10 0 500
562 -9 1744 2241 10 25 0
563 13 2028 2103 10 0 293
564 33 391 740 10 0 291
565 -19 723 1132 10 578 0
566 13 375 993 10 0 581
567 17 1155 1657 10 0 265
568 -8 2915 3179 10 271 0
569 30 183 840 10 0 223
570 -18 2436 3057 10 351 0
571 -20 2113 2532 10 101 0
572 22 538 1154 10 0 559
573 11 1798 2075 10 0 87
574 18 2862 3170 10 0 120
575 -14 472 1133 10 99 0
576 6 1039 1371 10 0 389
577 30 94 482 10 0 495
578 19 460 982 10 0 565
579 -16 750 1440 10 47 0
580 -20 1376 1720 10 218 0
581 -13 1936 2155 10 566 0
582 -24 2461 2917 10 548 0
583 12 431 731 10 0 215
584 -10 2077 2352 10 474 0
585 3 3713 3917 10 0 393
586 -16 3986 4501 10 519 0
587 -26 1804 2423 10 543 0
588 -23 819 1258 10 440 0
589 19 856 1213 10 0 74
590 -33 2194 2456 10 221 0
591 -24 1817 1960 10 364 0
592 -30 173 765 10 180 0
593 2 1846 2338 10 0 201
594 -42 2252 2588 10 42 0
595 10 868 1184 10 0 258
596 -16 2530 3165 10 321 0
597 -25 155 321 10 480 0
598 -21 1105 1186 10 462 0
599 -32 3020 3667 10 171 0
600 -17 2860 3101 10 133 0
601 -2 1677 2096 10 93 0
602 -19 344 869 10 77 0
603 -8 2577 2936 10 188 0
604 -29 3991 4312 10 484 0
605 -35 3268 3883 10 377 0
DEPOT_SECTION
1
-1
EOF
