NAME: lr2_6_5
TYPE: PDPTW
COMMENT: Li & Lim PDPTW benchmark converted from SINTEF format
DIMENSION: 607
VEHICLES: 150
CAPACITY: 1000
EDGE_WEIGHT_TYPE: EUC_2D
NODE_COORD_SECTION
1 150 150
2 133 187
3 277 41
4 284 244
5 38 139
6 117 178
7 241 298
8 76 221
9 175 251
10 45 115
11 216 203
12 178 263
13 51 2
14 274 6
15 232 121
16 110 83
17 275 263
18 114 211
19 61 84
20 80 35
21 298 135
22 60 72
23 75 127
24 102 173
25 276 28
26 165 179
27 289 143
28 69 134
29 61 138
30 283 144
31 97 232
32 120 241
33 173 64
34 176 263
35 117 168
36 184 102
37 157 221
38 108 3
39 29 8
40 136 241
41 16 42
42 183 282
43 154 299
44 136 68
45 230 80
46 151 172
47 136 50
48 8 200
49 72 20
50 57 125
51 208 47
52 262 14
53 139 250
54 220 18
55 191 234
56 111 40
57 227 5
58 265 141
59 272 211
60 56 116
61 170 93
62 120 155
63 3 119
64 208 290
65 285 283
66 290 37
67 180 106
68 29 139
69 37 159
70 201 175
71 128 155
72 94 93
73 3 135
74 279 36
75 46 155
76 15 178
77 15 219
78 275 146
79 268 113
80 207 149
81 179 123
82 103 8
83 176 235
84 253 84
85 51 217
86 114 259
87 212 45
88 276 66
89 243 136
90 160 17
91 183 80
92 177 281
93 123 76
94 80 86
95 299 153
96 40 236
97 38 74
98 289 130
99 147 152
100 243 191
101 9 239
102 238 103
103 236 108
104 189 197
105 64 91
106 159 266
107 281 68
108 78 246
109 211 239
110 7 31
111 140 18
112 69 208
113 105 252
114 99 105
115 166 123
116 139 146
117 261 232
118 92 241
119 107 174
120 173 148
121 72 286
122 236 27
123 106 243
124 63 170
125 136 228
126 246 166
127 102 81
128 271 105
129 93 117
130 227 192
131 262 80
132 205 44
133 278 178
134 17 0
135 116 14
136 119 254
137 107 281
138 86 216
139 189 201
140 263 291
141 11 191
142 192 150
143 131 222
144 108 80
145 259 187
146 297 43
147 112 43
148 182 146
149 205 130
150 289 209
151 157 254
152 291 148
153 201 122
154 244 13
155 162 148
156 20 245
157 60 287
158 213 119
159 234 146
160 231 28
161 288 127
162 82 35
163 159 300
164 296 252
165 207 20
166 122 96
167 133 153
168 54 136
169 28 141
170 208 208
171 2 81
172 8 4
173 30 145
174 186 26
175 83 77
176 203 283
177 129 83
178 172 198
179 157 12
180 52 109
181 237 171
182 126 42
183 24 261
184 250 49
185 40 1
186 96 86
187 223 198
188 188 198
189 107 291
190 181 277
191 239 295
192 229 40
193 198 159
194 297 213
195 220 43
196 295 123
197 57 192
198 36 212
199 45 74
200 117 155
201 168 42
202 296 235
203 116 245
204 254 206
205 241 183
206 118 38
207 51 63
208 44 189
209 183 43
210 141 120
211 37 126
212 290 219
213 224 138
214 25 64
215 194 11
216 100 138
217 88 49
218 57 127
219 25 191
220 217 43
221 96 96
222 135 139
223 41 279
224 217 138
225 18 196
226 30 149
227 224 61
228 248 280
229 94 12
230 18 184
231 266 39
232 103 81
233 125 148
234 28 124
235 293 62
236 213 299
237 158 291
238 12 10
239 53 141
240 208 297
241 227 62
242 209 84
243 226 248
244 238 214
245 102 76
246 220 182
247 88 110
248 224 229
249 219 152
250 102 155
251 246 93
252 175 123
253 43 52
254 151 113
255 184 237
256 274 256
257 266 212
258 117 79
259 26 27
260 256 286
261 157 276
262 107 29
263 229 179
264 162 92
265 135 38
266 283 275
267 108 298
268 11 242
269 5 189
270 225 192
271 187 129
272 14 165
273 214 6
274 152 241
275 200 26
276 202 161
277 211 174
278 81 219
279 255 203
280 31 68
281 139 270
282 85 75
283 88 190
284 140 294
285 225 210
286 166 99
287 140 214
288 251 195
289 246 133
290 59 113
291 113 62
292 72 89
293 247 19
294 135 251
295 159 41
296 73 81
297 125 136
298 24 76
299 84 231
300 206 121
301 242 70
302 76 160
303 18 151
304 11 185
305 109 148
306 126 233
307 121 116
308 110 31
309 107 39
310 181 297
311 96 199
312 34 5
313 252 219
314 234 107
315 51 278
316 239 84
317 172 2
318 153 226
319 112 272
320 110 145
321 175 294
322 202 292
323 282 104
324 160 179
325 143 223
326 263 193
327 14 177
328 127 77
329 188 69
330 159 287
331 47 153
332 274 136
333 175 281
334 26 0
335 126 127
336 232 45
337 38 44
338 183 44
339 296 17
340 2 238
341 149 76
342 57 7
343 280 158
344 131 78
345 131 220
346 128 225
347 250 194
348 76 280
349 9 122
350 203 166
351 235 31
352 120 60
353 136 295
354 119 183
355 1 11
356 283 65
357 274 66
358 247 86
359 167 171
360 262 164
361 222 100
362 271 106
363 233 119
364 37 149
365 150 185
366 93 165
367 203 36
368 124 299
369 241 208
370 108 162
371 80 67
372 139 31
373 4 296
374 170 53
375 253 69
376 246 123
377 183 88
378 230 135
379 148 8
380 159 199
381 148 299
382 159 89
383 109 299
384 250 228
385 211 62
386 300 44
387 210 236
388 172 225
389 12 275
390 180 93
391 29 72
392 75 265
393 174 238
394 166 194
395 271 8
396 158 140
397 267 29
398 15 52
399 15 88
400 154 207
401 15 2
402 126 266
403 175 107
404 44 223
405 15 209
406 289 79
407 194 234
408 132 16
409 83 188
410 152 77
411 216 40
412 9 63
413 206 157
414 287 293
415 58 240
416 184 277
417 162 250
418 82 100
419 27 255
420 230 128
421 19 290
422 154 101
423 265 78
424 40 181
425 229 188
426 119 214
427 190 181
428 228 41
429 152 29
430 99 226
431 142 188
432 209 269
433 52 165
434 63 130
435 37 36
436 23 218
437 129 77
438 180 98
439 114 117
440 151 133
441 221 145
442 30 226
443 182 81
444 45 190
445 195 9
446 72 36
447 90 44
448 121 246
449 282 76
450 150 67
451 4 97
452 188 142
453 285 285
454 163 150
455 272 183
456 279 189
457 148 172
458 155 93
459 181 145
460 147 43
461 75 191
462 150 104
463 103 260
464 234 213
465 9 30
466 125 168
467 165 256
468 176 153
469 16 22
470 156 182
471 88 124
472 176 72
473 85 62
474 71 268
475 110 262
476 109 61
477 229 25
478 186 228
479 173 72
480 198 100
481 164 108
482 284 72
483 98 129
484 167 193
485 34 150
486 161 242
487 139 110
488 265 197
489 241 218
490 238 294
491 94 109
492 8 227
493 25 119
494 238 206
495 1 145
496 208 117
497 47 203
498 4 294
499 199 213
500 74 117
501 156 57
502 189 240
503 1 81
504 89 61
505 122 127
506 260 64
507 15 259
508 112 161
509 60 176
510 264 35
511 189 41
512 158 83
513 56 212
514 228 217
515 157 50
516 37 14
517 116 240
518 225 73
519 125 278
520 14 204
521 296 279
522 215 295
523 135 210
524 80 131
525 157 84
526 29 130
527 250 124
528 143 67
529 69 90
530 47 143
531 106 168
532 266 203
533 124 174
534 33 231
535 67 175
536 132 297
537 230 150
538 208 235
539 183 23
540 149 98
541 228 276
542 113 4
543 203 183
544 6 168
545 127 266
546 176 70
547 271 145
548 148 157
549 180 114
550 25 14
551 99 73
552 209 246
553 207 237
554 75 269
555 152 258
556 37 258
557 42 221
558 143 244
559 87 183
560 212 270
561 113 188
562 294 64
563 296 15
564 159 42
565 48 141
566 11 176
567 148 28
568 173 152
569 40 192
570 272 70
571 71 294
572 296 211
573 248 41
574 259 14
575 5 195
576 30 243
577 80 133
578 57 123
579 153 61
580 72 180
581 59 287
582 147 240
583 191 49
584 44 286
585 169 236
586 254 87
587 182 284
588 101 114
589 281 8
590 103 93
591 64 170
592 47 121
593 139 33
594 139 206
595 145 38
596 137 212
597 206 130
598 111 98
599 43 62
600 214 234
601 199 28
602 221 145
603 226 248
604 119 254
605 295 123
606 90 44
607 172 198
PICKUP_AND_DELIVERY_SECTION
1 0 0 4823 0 0 0
2 -15 4210 4450 10 24 0
3 14 1317 1557 10 0 66
4 -30 2884 3124 10 456 0
5 -20 1288 1528 10 218 0
6 19 3004 3244 10 0 324
7 -16 1787 2027 10 64 0
8 -5 2822 3062 10 419 0
9 -10 2887 3127 10 310 0
10 -21 807 1047 10 143 0
11 -23 2103 2343 10 313 0
12 18 2981 3221 10 0 86
13 41 808 1048 10 0 391
14 -19 2017 2257 10 589 0
15 -17 2249 2489 10 316 0
16 22 726 966 10 0 598
17 33 608 848 10 0 92
18 10 1696 1936 10 0 151
19 7 1274 1514 10 0 134
20 -19 2000 2240 10 286 0
21 -17 3541 3781 10 482 0
22 2 622 862 10 0 503
23 37 2000 2240 10 0 76
24 15 93 333 10 0 2
25 9 991 1231 10 0 201
26 -46 3265 3505 10 28 0
27 23 488 728 10 0 358
28 46 2436 2676 10 0 26
29 -24 2512 2752 10 216 0
30 6 413 653 10 0 573
31 -16 3672 3912 10 321 0
32 -19 2362 2602 10 124 0
33 -2 2227 2467 10 593 0
34 -25 2379 2619 10 138 0
35 14 37 277 10 0 381
36 29 4131 4371 10 0 403
37 10 1582 1822 10 0 387
38 -20 2623 2863 10 135 0
39 24 2944 3184 10 0 110
40 -16 1426 1666 10 137 0
41 17 950 1190 10 0 312
42 -35 1706 1946 10 145 0
43 -21 2291 2531 10 119 0
44 -12 2317 2557 10 579 0
45 -28 3224 3464 10 537 0
46 -21 2937 3177 10 531 0
47 -27 927 1167 10 206 0
48 -6 2685 2925 10 354 0
49 -12 2677 2917 10 334 0
50 23 783 1023 10 0 437
51 6 353 593 10 0 549
52 -26 2733 2973 10 570 0
53 17 2472 2712 10 0 558
54 38 2424 2664 10 0 375
55 9 254 494 10 0 553
56 -19 3358 3598 10 265 0
57 -25 1420 1660 10 480 0
58 22 341 581 10 0 455
59 8 1377 1617 10 0 271
60 -22 859 1099 10 533 0
61 39 1842 2082 10 0 144
62 24 3491 3731 10 0 233
63 8 2695 2935 10 0 544
64 16 1162 1402 10 0 7
65 -15 2154 2394 10 521 0
66 -14 3205 3445 10 3 0
67 19 93 333 10 0 122
68 25 423 663 10 0 433
69 7 406 646 10 0 269
70 10 2711 2951 10 0 224
71 11 22 262 10 0 600
72 -6 3578 3818 10 207 0
73 -25 2612 2852 10 169 0
74 -18 2711 2951 10 351 0
75 -29 2961 3201 10 497 0
76 -37 3012 3252 10 23 0
77 19 486 726 10 0 581
78 -22 2544 2784 10 362 0
79 22 3311 3551 10 0 360
80 -21 1329 1569 10 420 0
81 4 39 279 10 0 132
82 16 2667 2907 10 0 259
83 -24 236 476 10 548 0
84 -26 1558 1798 10 597 0
85 36 1018 1258 10 0 373
86 -18 3174 3414 10 12 0
87 -26 2458 2698 10 539 0
88 -41 486 726 10 411 0
89 46 951 1191 10 0 131
90 24 1301 1541 10 0 599
91 13 232 472 10 0 215
92 -33 1642 1882 10 17 0
93 -14 1130 1370 10 99 0
94 -16 2341 2581 10 418 0
95 -4 1580 1820 10 527 0
96 -15 2940 3180 10 498 0
97 -22 541 781 10 551 0
98 27 1258 1498 10 0 227
99 14 3 243 10 0 93
100 16 287 527 10 0 260
101 20 1203 1443 10 0 383
102 -17 2829 3069 10 517 0
103 -22 3480 3720 10 382 0
104 17 1836 2076 10 0 540
105 29 338 578 10 0 451
106 2 3518 3758 10 0 393
107 -27 1968 2208 10 356 0
108 27 1237 1477 10 0 319
109 -22 2247 2487 10 572 0
110 -24 3111 3351 10 39 0
111 26 1520 1760 10 0 282
112 17 2268 2508 10 0 197
113 25 326 566 10 0 353
114 -23 940 1180 10 440 0
115 14 31 271 10 0 165
116 34 11 251 10 0 435
117 -7 1937 2177 10 425 0
118 -4 3007 3247 10 198 0
119 21 77 317 10 0 43
120 -10 3932 4172 10 341 0
121 17 1549 1789 10 0 405
122 -19 1428 1668 10 67 0
123 22 692 932 10 0 294
124 19 1000 1240 10 0 32
125 2 1368 1608 10 0 523
126 -7 2117 2357 10 407 0
127 12 216 456 10 0 280
128 42 2409 2649 10 0 161
129 -19 1339 1579 10 525 0
130 -25 1198 1438 10 457 0
131 -46 812 1052 10 89 0
132 -4 502 742 10 81 0
133 -14 2682 2922 10 251 0
134 -7 2250 2490 10 19 0
135 20 2555 2795 10 0 38
136 42 3167 3407 0 0 604
137 16 432 672 10 0 40
138 25 772 1012 10 0 34
139 -3 3845 4085 10 585 0
140 2 689 929 10 0 191
141 12 2843 3083 10 0 173
142 6 48 288 10 0 560
143 21 551 791 10 0 10
144 -39 1839 2079 10 61 0
145 35 340 580 10 0 42
146 -15 2828 3068 10 454 0
147 42 2151 2391 10 0 546
148 -24 3173 3413 10 187 0
149 -3 3698 3938 10 386 0
150 -16 2715 2955 10 276 0
151 -10 2006 2246 10 18 0
152 11 2482 2722 10 0 347
153 -18 2827 3067 10 594 0
154 -25 2832 3072 10 174 0
155 -19 2941 3181 10 509 0
156 28 889 1129 10 0 576
157 15 3873 4113 10 0 278
158 -19 2855 3095 10 592 0
159 38 1348 1588 10 0 506
160 -10 3358 3598 10 300 0
161 -42 2782 3022 10 128 0
162 12 414 654 10 0 226
163 15 481 721 10 0 416
164 -22 3097 3337 10 494 0
165 -14 681 921 10 115 0
166 -21 530 770 10 210 0
167 32 17 257 10 0 545
168 9 938 1178 10 0 307
169 25 2520 2760 10 0 73
170 16 362 602 10 0 552
171 32 998 1238 10 0 465
172 -21 695 935 10 398 0
173 -12 3328 3568 10 141 0
174 25 2199 2439 10 0 154
175 -5 1651 1891 10 396 0
176 6 2905 3145 10 0 431
177 -8 2427 2667 10 320 0
178 29 3261 3501 0 0 607
179 11 605 845 10 0 309
180 -19 305 545 10 305 0
181 17 1518 1758 10 0 376
182 23 835 1075 10 0 476
183 -23 1970 2210 10 436 0
184 -32 1855 2095 10 562 0
185 -13 1736 1976 10 412 0
186 12 215 455 10 0 399
187 24 1776 2016 10 0 148
188 -16 2636 2876 10 409 0
189 -18 2107 2347 10 571 0
190 15 1095 1335 10 0 236
191 -2 2950 3190 10 140 0
192 13 897 1137 10 0 231
193 -5 3051 3291 10 478 0
194 -14 2717 2957 10 414 0
195 28 1679 1919 10 0 473
196 29 3019 3259 0 0 605
197 -17 2673 2913 10 112 0
198 4 439 679 10 0 118
199 9 1512 1752 10 0 352
200 -21 3971 4211 10 434 0
201 -9 2472 2712 10 25 0
202 -22 2181 2421 10 490 0
203 -17 2249 2489 10 559 0
204 -27 2425 2665 10 228 0
205 12 3314 3554 10 0 427
206 27 793 1033 10 0 47
207 6 451 691 10 0 72
208 13 332 572 10 0 268
209 -33 2366 2606 10 397 0
210 21 31 271 10 0 166
211 -2 555 795 10 471 0
212 19 688 928 10 0 240
213 -11 3575 3815 10 257 0
214 -23 2426 2666 10 298 0
215 -13 1246 1486 10 91 0
216 24 760 1000 10 0 29
217 21 625 865 10 0 524
218 20 1324 1564 10 0 5
219 16 859 1099 10 0 273
220 5 2031 2271 10 0 574
221 33 1959 2199 10 0 296
222 12 18 258 10 0 439
223 -33 1587 1827 10 492 0
224 -10 2702 2942 10 70 0
225 8 1669 1909 10 0 272
226 -12 1503 1743 10 162 0
227 -27 1834 2074 10 98 0
228 27 1102 1342 10 0 204
229 20 1836 2076 10 0 258
230 -21 1423 1663 10 462 0
231 -13 1970 2210 10 192 0
232 -14 1755 1995 10 504 0
233 -24 3311 3551 10 62 0
234 -21 2761 3001 10 422 0
235 10 609 849 10 0 339
236 -15 2092 2332 10 190 0
237 18 589 829 10 0 400
238 -15 1615 1855 10 550 0
239 16 270 510 10 0 578
240 -19 1576 1816 10 212 0
241 16 3159 3399 10 0 586
242 -23 1469 1709 10 345 0
243 17 3351 3591 0 0 603
244 15 1773 2013 10 0 350
245 -27 3314 3554 10 501 0
246 13 2392 2632 10 0 413
247 1 2476 2716 10 0 359
248 -33 1304 1544 10 288 0
249 -20 3776 4016 10 459 0
250 12 694 934 10 0 568
251 14 2114 2354 10 0 133
252 -26 3231 3471 10 270 0
253 31 2203 2443 10 0 337
254 4 1324 1564 10 0 380
255 -12 2993 3233 10 596 0
256 -13 3126 3366 10 453 0
257 11 1270 1510 10 0 213
258 -20 3556 3796 10 229 0
259 -16 3419 3659 10 82 0
260 -16 3117 3357 10 100 0
261 18 385 625 10 0 561
262 -9 3985 4225 10 291 0
263 16 908 1148 10 0 326
264 2 474 714 10 0 595
265 19 2815 3055 10 0 56
266 -6 2897 3137 10 532 0
267 17 3461 3701 10 0 463
268 -13 2008 2248 10 208 0
269 -7 525 765 10 69 0
270 26 2125 2365 10 0 252
271 -8 3067 3307 10 59 0
272 -8 2010 2250 10 225 0
273 -16 3400 3640 10 219 0
274 -40 2624 2864 10 536 0
275 10 1718 1958 10 0 344
276 16 93 333 10 0 150
277 -22 2003 2243 10 365 0
278 -15 3794 4034 10 157 0
279 -15 2860 3100 10 496 0
280 -12 1932 2172 10 127 0
281 -20 3025 3265 10 325 0
282 -26 2844 3084 10 111 0
283 -9 3532 3772 10 331 0
284 -26 1577 1817 10 543 0
285 -18 415 655 10 502 0
286 19 94 334 10 0 20
287 -17 2398 2638 10 493 0
288 33 1093 1333 10 0 248
289 9 559 799 10 0 332
290 16 916 1156 10 0 466
291 9 2034 2274 10 0 262
292 13 2151 2391 10 0 370
293 -15 3213 3453 10 336 0
294 -22 1877 2117 10 123 0
295 -13 1165 1405 10 379 0
296 -33 2163 2403 10 221 0
297 5 28 268 10 0 516
298 23 1926 2166 10 0 214
299 21 2118 2358 10 0 470
300 10 2924 3164 10 0 160
301 22 465 705 10 0 357
302 2 179 419 10 0 566
303 15 465 705 10 0 584
304 30 1015 1255 10 0 452
305 19 91 331 10 0 180
306 -24 1505 1745 10 417 0
307 -9 1943 2183 10 168 0
308 15 1392 1632 10 0 371
309 -11 1302 1542 10 179 0
310 10 590 830 10 0 9
311 -20 4017 4257 10 415 0
312 -17 2880 3120 10 41 0
313 23 1145 1385 10 0 11
314 24 1294 1534 10 0 406
315 25 1030 1270 10 0 557
316 17 2277 2517 10 0 15
317 -8 2350 2590 10 385 0
318 18 1464 1704 10 0 346
319 -27 1289 1529 10 108 0
320 8 603 843 10 0 177
321 16 1905 2145 10 0 31
322 10 3572 3812 10 0 484
323 19 1024 1264 10 0 518
324 -19 3058 3298 10 6 0
325 20 1553 1793 10 0 281
326 -16 1004 1244 10 263 0
327 17 485 725 10 0 348
328 11 3259 3499 10 0 429
329 -15 2530 2770 10 372 0
330 -9 1526 1766 10 368 0
331 9 3010 3250 10 0 283
332 -9 3158 3398 10 289 0
333 -3 2502 2742 10 587 0
334 12 1919 2159 10 0 49
335 40 33 273 10 0 505
336 15 3188 3428 10 0 293
337 -31 2543 2783 10 253 0
338 17 375 615 10 0 491
339 -10 3080 3320 10 235 0
340 -30 3302 3542 10 569 0
341 10 3140 3380 10 0 120
342 25 1588 1828 10 0 401
343 34 2531 2771 10 0 514
344 -10 2252 2492 10 275 0
345 23 423 663 10 0 242
346 -18 2486 2726 10 318 0
347 -11 3449 3689 10 152 0
348 -17 1879 2119 10 327 0
349 -30 806 1046 10 577 0
350 -15 3901 4141 10 244 0
351 18 505 745 10 0 74
352 -9 1990 2230 10 199 0
353 -25 1904 2144 10 113 0
354 6 2208 2448 10 0 48
355 34 1859 2099 10 0 469
356 27 1740 1980 10 0 107
357 -22 641 881 10 301 0
358 -23 787 1027 10 27 0
359 -1 3371 3611 10 247 0
360 -22 3531 3771 10 79 0
361 -27 2845 3085 10 580 0
362 22 2290 2530 10 0 78
363 -35 3694 3934 10 377 0
364 -29 1426 1666 10 450 0
365 22 61 301 10 0 277
366 13 116 356 10 0 474
367 18 1529 1769 10 0 468
368 9 1110 1350 10 0 330
369 31 1706 1946 10 0 487
370 -13 2449 2689 10 292 0
371 -15 1647 1887 10 308 0
372 15 1857 2097 10 0 329
373 -36 3274 3514 10 85 0
374 21 587 827 10 0 445
375 -38 2490 2730 10 54 0
376 -17 2217 2457 10 181 0
377 35 3455 3695 10 0 363
378 -13 3853 4093 10 563 0
379 13 685 925 10 0 295
380 -4 3215 3455 10 254 0
381 -14 557 797 10 35 0
382 22 3245 3485 10 0 103
383 -20 1446 1686 10 101 0
384 22 3047 3287 10 0 538
385 8 308 548 10 0 317
386 3 2967 3207 10 0 149
387 -10 3135 3375 10 37 0
388 13 378 618 10 0 499
389 -12 1988 2228 10 421 0
390 -17 3816 4056 10 477 0
391 -41 3617 3857 10 13 0
392 -6 2606 2846 10 495 0
393 -2 4033 4273 10 106 0
394 7 331 571 10 0 464
395 -7 2982 3222 10 423 0
396 5 12 252 10 0 175
397 33 1776 2016 10 0 209
398 21 547 787 10 0 172
399 -12 1318 1558 10 186 0
400 -18 1615 1855 10 237 0
401 -25 1535 1775 10 342 0
402 -9 1916 2156 10 448 0
403 -29 4285 4525 10 36 0
404 -11 960 1200 10 508 0
405 -17 3469 3709 10 121 0
406 -24 1502 1742 10 314 0
407 7 259 499 10 0 126
408 26 937 1177 10 0 446
409 16 1217 1457 10 0 188
410 10 213 453 10 0 528
411 41 548 788 10 0 88
412 13 1177 1417 10 0 185
413 -13 3582 3822 10 246 0
414 14 2092 2332 10 0 194
415 20 3038 3278 10 0 311
416 -15 747 987 10 163 0
417 24 722 962 10 0 306
418 16 2250 2490 10 0 94
419 5 902 1142 10 0 8
420 21 1462 1702 10 0 80
421 12 1489 1729 10 0 389
422 21 77 317 10 0 234
423 7 2763 3003 10 0 395
424 26 1043 1283 10 0 426
425 7 696 936 10 0 117
426 -26 2414 2654 10 424 0
427 -12 3558 3798 10 205 0
428 16 3189 3429 10 0 510
429 -11 3537 3777 10 328 0
430 12 1254 1494 10 0 467
431 -6 3788 4028 10 176 0
432 17 1723 1963 10 0 541
433 -25 1089 1329 10 68 0
434 21 2188 2428 10 0 200
435 -34 1270 1510 10 116 0
436 23 536 776 10 0 183
437 -23 2491 2731 10 50 0
438 3 1357 1597 10 0 511
439 -12 75 315 10 222 0
440 23 17 257 10 0 114
441 9 4006 4246 0 0 602
442 -11 3692 3932 10 556 0
443 -25 1814 2054 10 565 0
444 35 1720 1960 10 0 520
445 -21 727 967 10 374 0
446 -26 1666 1906 10 408 0
447 12 3907 4147 0 0 606
448 9 1879 2119 10 0 402
449 26 3362 3602 10 0 547
450 29 212 452 10 0 364
451 -29 3435 3675 10 105 0
452 -30 4507 4747 10 304 0
453 13 2742 2982 10 0 256
454 15 13 253 10 0 146
455 -22 2765 3005 10 58 0
456 30 2318 2558 10 0 4
457 25 22 262 10 0 130
458 33 493 733 10 0 583
459 20 2989 3229 10 0 249
460 14 351 591 10 0 530
461 12 262 502 10 0 507
462 21 217 457 10 0 230
463 -17 3517 3757 10 267 0
464 -7 508 748 10 394 0
465 -32 1491 1731 10 171 0
466 -16 3407 3647 10 290 0
467 -12 2287 2527 10 430 0
468 -18 3250 3490 10 367 0
469 -34 2038 2278 10 355 0
470 -21 2334 2574 10 299 0
471 2 205 445 10 0 211
472 6 2238 2478 10 0 500
473 -28 2146 2386 10 195 0
474 -13 824 1064 10 366 0
475 26 1909 2149 10 0 519
476 -23 1527 1767 10 182 0
477 17 1914 2154 10 0 390
478 5 1592 1832 10 0 193
479 8 2683 2923 10 0 515
480 25 287 527 10 0 57
481 21 57 297 10 0 529
482 17 3673 3913 10 0 21
483 2 104 344 10 0 575
484 -10 4032 4272 10 322 0
485 -27 1514 1754 10 512 0
486 -8 3443 3683 10 522 0
487 -31 3376 3616 10 369 0
488 -34 1226 1466 10 489 0
489 34 527 767 10 0 488
490 22 817 1057 10 0 202
491 -17 3072 3312 10 338 0
492 33 646 886 10 0 223
493 17 613 853 10 0 287
494 22 2232 2472 10 0 164
495 6 476 716 10 0 392
496 15 253 493 10 0 279
497 29 2619 2859 10 0 75
498 15 2142 2382 10 0 96
499 -13 1984 2224 10 388 0
500 -6 3158 3398 10 472 0
501 27 2666 2906 10 0 245
502 18 319 559 10 0 285
503 -2 1222 1462 10 22 0
504 14 952 1192 10 0 232
505 -40 36 276 10 335 0
506 -38 1672 1912 10 159 0
507 -12 2651 2891 10 461 0
508 11 39 279 10 0 404
509 19 721 961 10 0 155
510 -16 3872 4112 10 428 0
511 -3 1569 1809 10 438 0
512 27 150 390 10 0 485
513 -5 1830 2070 10 588 0
514 -34 3407 3647 10 343 0
515 -8 3728 3968 10 479 0
516 -5 911 1151 10 297 0
517 17 2041 2281 10 0 102
518 -19 2015 2255 10 323 0
519 -26 1963 2203 10 475 0
520 -35 2312 2552 10 444 0
521 15 1930 2170 10 0 65
522 8 3226 3466 10 0 486
523 -2 3548 3788 10 125 0
524 -21 1275 1515 10 217 0
525 19 342 582 10 0 129
526 18 459 699 10 0 535
527 4 472 712 10 0 95
528 -10 213 453 10 410 0
529 -21 3045 3285 10 481 0
530 -14 1276 1516 10 460 0
531 21 788 1028 10 0 46
532 6 2502 2742 10 0 266
533 22 35 275 10 0 60
534 36 2921 3161 10 0 554
535 -18 1045 1285 10 526 0
536 40 595 835 10 0 274
537 28 2586 2826 10 0 45
538 -22 3230 3470 10 384 0
539 26 2235 2475 10 0 87
540 -17 3257 3497 10 104 0
541 -17 2871 3111 10 432 0
542 31 1103 1343 10 0 567
543 26 220 460 10 0 284
544 -8 2918 3158 10 63 0
545 -32 430 670 10 167 0
546 -42 2628 2868 10 147 0
547 -26 3766 4006 10 449 0
548 24 7 247 10 0 83
549 -6 4222 4462 10 51 0
550 15 792 1032 10 0 238
551 22 300 540 10 0 97
552 -16 1435 1675 10 170 0
553 -9 1891 2131 10 55 0
554 -36 3172 3412 10 534 0
555 35 2573 2813 10 0 582
556 11 3243 3483 10 0 442
557 -25 1124 1364 10 315 0
558 -17 2680 2920 10 53 0
559 17 2040 2280 10 0 203
560 -6 2307 2547 10 142 0
561 -18 1155 1395 10 261 0
562 32 1873 2113 10 0 184
563 13 1945 2185 10 0 378
564 33 445 685 10 0 591
565 25 808 1048 10 0 443
566 -2 564 804 10 302 0
567 -31 1286 1526 10 542 0
568 -12 2927 3167 10 250 0
569 30 392 632 10 0 340
570 26 2626 2866 10 0 52
571 18 2203 2443 10 0 189
572 22 726 966 10 0 109
573 -6 1816 2056 10 30 0
574 -5 2896 3136 10 220 0
575 -2 682 922 10 483 0
576 -28 1085 1325 10 156 0
577 30 168 408 10 0 349
578 -16 601 841 10 239 0
579 12 975 1215 10 0 44
580 27 1428 1668 10 0 361
581 -19 1926 2166 10 77 0
582 -35 2569 2809 10 555 0
583 -33 461 701 10 458 0
584 -15 2094 2334 10 303 0
585 3 3695 3935 10 0 139
586 -16 4124 4364 10 241 0
587 3 1993 2233 10 0 333
588 5 918 1158 10 0 513
589 19 914 1154 10 0 14
590 -12 2205 2445 10 601 0
591 -33 1769 2009 10 564 0
592 19 349 589 10 0 158
593 2 1972 2212 10 0 33
594 18 2300 2540 10 0 153
595 -2 906 1146 10 264 0
596 12 2728 2968 10 0 255
597 26 118 358 10 0 84
598 -22 1026 1266 10 16 0
599 -24 3223 3463 10 90 0
600 -11 2861 3101 10 71 0
601 12 1767 2007 10 0 590
602 -9 4006 4246 10 441 0
603 -17 3351 3591 10 243 0
604 -42 3167 3407 10 136 0
605 -29 3019 3259 10 196 0
606 -12 3907 4147 10 447 0
607 -29 3261 3501 10 178 0
DEPOT_SECTION
1
-1
EOF
