NAME: lr2_6_3
TYPE: PDPTW
COMMENT: Li & Lim PDPTW benchmark converted from SINTEF format
DIMENSION: 603
VEHICLES: 150
CAPACITY: 1000
EDGE_WEIGHT_TYPE: EUC_2D
NODE_COORD_SECTION
1 150 150
2 133 187
3 277 41
4 284 244
5 38 139
6 117 178
7 241 298
8 76 221
9 175 251
10 45 115
11 216 203
12 178 263
13 51 2
14 274 6
15 232 121
16 110 83
17 275 263
18 114 211
19 61 84
20 80 35
21 298 135
22 60 72
23 75 127
24 102 173
25 276 28
26 165 179
27 289 143
28 69 134
29 61 138
30 283 144
31 97 232
32 120 241
33 173 64
34 176 263
35 117 168
36 184 102
37 157 221
38 108 3
39 29 8
40 136 241
41 16 42
42 183 282
43 154 299
44 136 68
45 230 80
46 151 172
47 136 50
48 8 200
49 72 20
50 57 125
51 208 47
52 262 14
53 139 250
54 220 18
55 191 234
56 111 40
57 227 5
58 265 141
59 272 211
60 56 116
61 170 93
62 120 155
63 3 119
64 208 290
65 285 283
66 290 37
67 180 106
68 29 139
69 37 159
70 201 175
71 128 155
72 94 93
73 3 135
74 279 36
75 46 155
76 15 178
77 15 219
78 275 146
79 268 113
80 207 149
81 179 123
82 103 8
83 176 235
84 253 84
85 51 217
86 114 259
87 212 45
88 276 66
89 243 136
90 160 17
91 183 80
92 177 281
93 123 76
94 80 86
95 299 153
96 40 236
97 38 74
98 289 130
99 147 152
100 243 191
101 9 239
102 238 103
103 236 108
104 189 197
105 64 91
106 159 266
107 281 68
108 78 246
109 211 239
110 7 31
111 140 18
112 69 208
113 105 252
114 99 105
115 166 123
116 139 146
117 261 232
118 92 241
119 107 174
120 173 148
121 72 286
122 236 27
123 106 243
124 63 170
125 136 228
126 246 166
127 102 81
128 271 105
129 93 117
130 227 192
131 262 80
132 205 44
133 278 178
134 17 0
135 116 14
136 119 254
137 107 281
138 86 216
139 189 201
140 263 291
141 11 191
142 192 150
143 131 222
144 108 80
145 259 187
146 297 43
147 112 43
148 182 146
149 205 130
150 289 209
151 157 254
152 291 148
153 201 122
154 244 13
155 162 148
156 20 245
157 60 287
158 213 119
159 234 146
160 231 28
161 288 127
162 82 35
163 159 300
164 296 252
165 207 20
166 122 96
167 133 153
168 54 136
169 28 141
170 208 208
171 2 81
172 8 4
173 30 145
174 186 26
175 83 77
176 203 283
177 129 83
178 172 198
179 157 12
180 52 109
181 237 171
182 126 42
183 24 261
184 250 49
185 40 1
186 96 86
187 223 198
188 188 198
189 107 291
190 181 277
191 239 295
192 229 40
193 198 159
194 297 213
195 220 43
196 295 123
197 57 192
198 36 212
199 45 74
200 117 155
201 168 42
202 296 235
203 116 245
204 254 206
205 241 183
206 118 38
207 51 63
208 44 189
209 183 43
210 141 120
211 37 126
212 290 219
213 224 138
214 25 64
215 194 11
216 100 138
217 88 49
218 57 127
219 25 191
220 217 43
221 96 96
222 135 139
223 41 279
224 217 138
225 18 196
226 30 149
227 224 61
228 248 280
229 94 12
230 18 184
231 266 39
232 103 81
233 125 148
234 28 124
235 293 62
236 213 299
237 158 291
238 12 10
239 53 141
240 208 297
241 227 62
242 209 84
243 226 248
244 238 214
245 102 76
246 220 182
247 88 110
248 224 229
249 219 152
250 102 155
251 246 93
252 175 123
253 43 52
254 151 113
255 184 237
256 274 256
257 266 212
258 117 79
259 26 27
260 256 286
261 157 276
262 107 29
263 229 179
264 162 92
265 135 38
266 283 275
267 108 298
268 11 242
269 5 189
270 225 192
271 187 129
272 14 165
273 214 6
274 152 241
275 200 26
276 202 161
277 211 174
278 81 219
279 255 203
280 31 68
281 139 270
282 85 75
283 88 190
284 140 294
285 225 210
286 166 99
287 140 214
288 251 195
289 246 133
290 59 113
291 113 62
292 72 89
293 247 19
294 135 251
295 159 41
296 73 81
297 125 136
298 24 76
299 84 231
300 206 121
301 242 70
302 76 160
303 18 151
304 11 185
305 109 148
306 126 233
307 121 116
308 110 31
309 107 39
310 181 297
311 96 199
312 34 5
313 252 219
314 234 107
315 51 278
316 239 84
317 172 2
318 153 226
319 112 272
320 110 145
321 175 294
322 202 292
323 282 104
324 160 179
325 143 223
326 263 193
327 14 177
328 127 77
329 188 69
330 159 287
331 47 153
332 274 136
333 175 281
334 26 0
335 126 127
336 232 45
337 38 44
338 183 44
339 296 17
340 2 238
341 149 76
342 57 7
343 280 158
344 131 78
345 131 220
346 128 225
347 250 194
348 76 280
349 9 122
350 203 166
351 235 31
352 120 60
353 136 295
354 119 183
355 1 11
356 283 65
357 274 66
358 247 86
359 167 171
360 262 164
361 222 100
362 271 106
363 233 119
364 37 149
365 150 185
366 93 165
367 203 36
368 124 299
369 241 208
370 108 162
371 80 67
372 139 31
373 4 296
374 170 53
375 253 69
376 246 123
377 183 88
378 230 135
379 148 8
380 159 199
381 148 299
382 159 89
383 109 299
384 250 228
385 211 62
386 300 44
387 210 236
388 172 225
389 12 275
390 180 93
391 29 72
392 75 265
393 174 238
394 166 194
395 271 8
396 158 140
397 267 29
398 15 52
399 15 88
400 154 207
401 15 2
402 126 266
403 175 107
404 44 223
405 15 209
406 289 79
407 194 234
408 132 16
409 83 188
410 152 77
411 216 40
412 9 63
413 206 157
414 287 293
415 58 240
416 184 277
417 162 250
418 82 100
419 27 255
420 230 128
421 19 290
422 154 101
423 265 78
424 40 181
425 229 188
426 119 214
427 190 181
428 228 41
429 152 29
430 99 226
431 142 188
432 209 269
433 52 165
434 63 130
435 37 36
436 23 218
437 129 77
438 180 98
439 114 117
440 151 133
441 221 145
442 30 226
443 182 81
444 45 190
445 195 9
446 72 36
447 90 44
448 121 246
449 282 76
450 150 67
451 4 97
452 188 142
453 285 285
454 163 150
455 272 183
456 279 189
457 148 172
458 155 93
459 181 145
460 147 43
461 75 191
462 150 104
463 103 260
464 234 213
465 9 30
466 125 168
467 165 256
468 176 153
469 16 22
470 156 182
471 88 124
472 176 72
473 85 62
474 71 268
475 110 262
476 109 61
477 229 25
478 186 228
479 173 72
480 198 100
481 164 108
482 284 72
483 98 129
484 167 193
485 34 150
486 161 242
487 139 110
488 265 197
489 241 218
490 238 294
491 94 109
492 8 227
493 25 119
494 238 206
495 1 145
496 208 117
497 47 203
498 4 294
499 199 213
500 74 117
501 156 57
502 189 240
503 1 81
504 89 61
505 122 127
506 260 64
507 15 259
508 112 161
509 60 176
510 264 35
511 189 41
512 158 83
513 56 212
514 228 217
515 157 50
516 37 14
517 116 240
518 225 73
519 125 278
520 14 204
521 296 279
522 215 295
523 135 210
524 80 131
525 157 84
526 29 130
527 250 124
528 143 67
529 69 90
530 47 143
531 106 168
532 266 203
533 124 174
534 33 231
535 67 175
536 132 297
537 230 150
538 208 235
539 183 23
540 149 98
541 228 276
542 113 4
543 203 183
544 6 168
545 127 266
546 176 70
547 271 145
548 148 157
549 180 114
550 25 14
551 99 73
552 209 246
553 207 237
554 75 269
555 152 258
556 37 258
557 42 221
558 143 244
559 87 183
560 212 270
561 113 188
562 294 64
563 296 15
564 159 42
565 48 141
566 11 176
567 148 28
568 173 152
569 40 192
570 272 70
571 71 294
572 296 211
573 248 41
574 259 14
575 5 195
576 30 243
577 80 133
578 57 123
579 153 61
580 72 180
581 59 287
582 147 240
583 191 49
584 44 286
585 169 236
586 254 87
587 182 284
588 101 114
589 281 8
590 103 93
591 64 170
592 47 121
593 139 33
594 139 206
595 145 38
596 137 212
597 206 130
598 111 98
599 43 62
600 214 234
601 199 28
602 107 29
603 40 236
PICKUP_AND_DELIVERY_SECTION
1 0 0 4823 0 0 0
2 -14 4261 4400 10 392 0
3 14 0 4646 10 0 506
4 12 0 4650 10 0 538
5 12 0 4701 10 0 169
6 19 3050 3197 10 0 526
7 27 0 4640 10 0 333
8 -25 2889 2994 10 405 0
9 -24 0 4709 10 417 0
10 13 889 964 10 0 355
11 5 2170 2277 10 0 161
12 18 3060 3142 10 0 287
13 41 0 4635 10 0 49
14 -18 0 4623 10 351 0
15 15 0 4727 10 0 378
16 22 817 875 10 0 90
17 33 669 787 10 0 117
18 10 0 4743 10 0 548
19 -12 1356 1432 10 127 0
20 -40 2051 2189 10 335 0
21 -19 0 4665 10 212 0
22 2 702 781 10 0 253
23 37 2074 2166 10 0 370
24 15 0 4760 10 0 495
25 9 1078 1143 10 0 254
26 19 0 4781 10 0 104
27 -15 0 4674 10 464 0
28 -17 2516 2595 10 121 0
29 9 0 4724 10 0 259
30 6 481 585 10 0 423
31 -11 0 4716 10 71 0
32 -17 2416 2548 10 53 0
33 12 2278 2416 10 0 379
34 -42 0 4698 10 42 0
35 -23 0 4776 10 50 0
36 -16 4201 4301 10 428 0
37 10 1634 1771 10 0 189
38 16 0 4661 10 0 449
39 24 3026 3101 10 0 540
40 -25 1532 1561 10 138 0
41 17 1000 1141 10 0 447
42 42 0 4677 10 0 34
43 17 0 4664 10 0 322
44 -19 2397 2478 10 67 0
45 26 0 4707 10 0 192
46 -12 3000 3115 10 583 0
47 16 0 4713 10 0 195
48 -37 2733 2878 10 584 0
49 -41 0 4662 10 13 0
50 23 841 965 10 0 35
51 6 0 4695 10 0 251
52 21 0 4637 10 0 386
53 17 0 4713 10 0 32
54 -25 2474 2614 10 174 0
55 9 0 4720 10 0 137
56 -5 0 4697 10 297 0
57 -33 0 4649 10 397 0
58 22 0 4698 10 0 84
59 8 1466 1528 10 0 270
60 22 934 1024 10 0 185
61 -3 1873 2051 10 438 0
62 -8 0 4783 10 233 0
63 -13 2766 2865 10 566 0
64 16 0 4662 10 0 453
65 22 2200 2348 10 0 369
66 -31 3282 3368 10 542 0
67 19 144 283 10 0 44
68 -12 0 4692 10 234 0
69 7 0 4700 10 0 265
70 -22 2787 2875 10 80 0
71 11 22 179 10 0 31
72 -12 0 4734 10 250 0
73 -24 0 4666 10 230 0
74 -12 0 4641 10 601 0
75 -19 3051 3111 10 349 0
76 9 0 4676 10 0 446
77 19 0 4662 10 0 556
78 -2 2567 2761 10 140 0
79 22 3350 3512 10 0 480
80 22 0 4756 10 0 70
81 4 63 254 10 0 131
82 16 0 4664 10 0 179
83 33 249 462 10 0 190
84 -22 0 4691 10 58 0
85 36 0 4694 10 0 415
86 5 0 4699 10 0 136
87 -26 0 4692 10 111 0
88 17 0 4662 10 0 375
89 -12 0 4719 10 205 0
90 -22 1345 1498 10 16 0
91 13 0 4736 10 0 443
92 -12 0 4680 10 467 0
93 2 0 4735 10 0 154
94 -31 0 4719 10 439 0
95 12 0 4664 10 0 452
96 11 0 4674 0 0 603
97 -12 0 4678 10 399 0
98 27 0 4673 10 0 196
99 14 3 100 10 0 318
100 16 365 448 10 0 288
101 -18 0 4647 10 389 0
102 16 0 4714 10 0 406
103 -35 3545 3656 10 273 0
104 -19 0 4752 10 26 0
105 29 0 4709 10 0 418
106 -2 3607 3670 10 274 0
107 23 2048 2129 10 0 361
108 -19 0 4693 10 305 0
109 -16 2321 2414 10 321 0
110 29 0 4627 10 0 516
111 26 1572 1707 10 0 87
112 -18 0 4714 10 433 0
113 -18 0 4702 10 571 0
114 4 0 4745 10 0 180
115 14 34 217 10 0 458
116 34 11 108 10 0 320
117 -33 2010 2103 10 17 0
118 -18 0 4706 10 373 0
119 21 134 260 10 0 306
120 -18 0 4790 10 360 0
121 17 1568 1770 10 0 28
122 -36 0 4663 10 395 0
123 22 760 863 10 0 430
124 19 1092 1148 10 0 502
125 2 1412 1564 10 0 582
126 18 0 4716 10 0 149
127 12 305 368 10 0 19
128 -5 0 4684 10 396 0
129 15 0 4748 10 0 581
130 -15 1244 1391 10 488 0
131 -4 867 996 10 81 0
132 9 0 4694 10 0 586
133 17 2762 2841 10 0 455
134 -25 0 4613 10 565 0
135 20 2616 2735 10 0 482
136 -5 3210 3363 10 86 0
137 -9 460 644 10 55 0
138 25 821 964 10 0 40
139 21 0 4749 10 0 416
140 2 744 874 10 0 78
141 -9 2895 3031 10 507 0
142 6 0 4771 10 0 187
143 -32 647 694 10 167 0
144 1 1896 2022 10 0 529
145 35 402 518 10 0 326
146 -9 0 4632 10 309 0
147 -26 0 4700 10 435 0
148 -32 3230 3357 10 324 0
149 -18 3732 3903 10 126 0
150 23 0 4662 10 0 441
151 8 2054 2198 10 0 600
152 -28 0 4672 10 537 0
153 29 2889 3005 10 0 155
154 -2 2918 2987 10 93 0
155 -29 3004 3117 10 153 0
156 -15 0 4652 10 498 0
157 -30 3953 4032 10 577 0
158 25 0 4743 10 0 289
159 38 1387 1548 10 0 420
160 21 3440 3516 10 0 252
161 -5 2853 2950 10 11 0
162 -4 0 4680 10 226 0
163 -18 537 666 10 237 0
164 -27 0 4635 10 228 0
165 -9 732 871 10 549 0
166 -22 567 732 10 382 0
167 32 37 101 10 0 143
168 9 0 4716 10 0 331
169 -12 2592 2688 10 5 0
170 16 413 551 10 0 456
171 32 0 4650 10 0 173
172 29 790 840 10 0 476
173 -32 3395 3501 10 171 0
174 25 2273 2364 10 0 54
175 18 0 4714 10 0 391
176 6 2946 3105 10 0 236
177 -14 2484 2611 10 215 0
178 29 0 4761 10 0 191
179 -16 0 4675 10 82 0
180 -4 0 4707 10 114 0
181 -4 0 4724 10 347 0
182 23 0 4703 10 0 241
183 8 1985 2196 10 0 348
184 -5 1880 2069 10 220 0
185 -22 1851 1862 10 60 0
186 -33 292 378 10 221 0
187 -6 1841 1952 10 142 0
188 8 0 4752 10 0 545
189 -10 2178 2277 10 37 0
190 -33 1199 1231 10 83 0
191 -29 0 4643 10 178 0
192 -26 0 4678 10 45 0
193 23 0 4765 10 0 213
194 -33 0 4654 10 277 0
195 -16 1746 1852 10 47 0
196 -27 3047 3231 10 98 0
197 33 0 4711 10 0 283
198 4 526 593 10 0 595
199 -17 1572 1692 10 530 0
200 22 0 4780 10 0 444
201 26 0 4704 10 0 511
202 -12 0 4645 10 266 0
203 -22 2309 2428 10 533 0
204 -26 2499 2591 10 552 0
205 12 0 4717 10 0 89
206 -21 858 968 10 422 0
207 -18 517 625 10 282 0
208 13 422 481 10 0 478
209 14 0 4702 10 0 573
210 -15 0 4782 10 485 0
211 19 0 4698 10 0 451
212 19 0 4657 10 0 21
213 -23 0 4739 10 193 0
214 10 0 4662 10 0 292
215 14 1293 1439 10 0 177
216 24 804 956 10 0 557
217 21 0 4695 10 0 296
218 -19 1367 1521 10 578 0
219 -2 905 1053 10 471 0
220 5 0 4687 10 0 184
221 33 0 4737 10 0 186
222 12 18 189 10 0 505
223 11 0 4645 10 0 315
224 -11 2767 2876 10 257 0
225 -26 0 4674 10 424 0
226 4 0 4693 10 0 162
227 -17 1906 2002 10 567 0
228 27 1176 1268 10 0 164
229 -19 0 4665 10 589 0
230 24 0 4677 10 0 73
231 -27 2070 2111 10 512 0
232 33 0 4730 10 0 504
233 8 0 4788 10 0 62
234 12 0 4689 10 0 68
235 -8 0 4646 10 339 0
236 -6 0 4652 10 176 0
237 18 644 774 10 0 163
238 22 1688 1781 10 0 523
239 -18 0 4716 10 594 0
240 8 1620 1771 10 0 494
241 -23 3234 3324 10 182 0
242 -26 1542 1637 10 597 0
243 -17 0 4689 10 432 0
244 15 1855 1932 10 0 413
245 -15 3431 3437 10 303 0
246 13 2456 2567 10 0 249
247 -22 2533 2658 10 551 0
248 16 0 4705 10 0 466
249 -13 3855 3938 10 246 0
250 12 0 4765 10 0 72
251 -6 2191 2278 10 51 0
252 -21 0 4777 10 160 0
253 -2 2256 2391 10 22 0
254 -9 1411 1477 10 25 0
255 -2 3040 3187 10 302 0
256 10 0 4650 10 0 521
257 11 0 4682 10 0 224
258 -2 0 4735 10 593 0
259 -9 3490 3588 10 29 0
260 -9 3140 3334 10 368 0
261 18 0 4687 10 0 558
262 20 4032 4178 0 0 602
263 -15 948 1108 10 454 0
264 -21 0 4754 10 481 0
265 -7 0 4700 10 69 0
266 12 0 4631 10 0 202
267 17 3520 3641 10 0 383
268 -29 0 4647 10 497 0
269 -18 592 699 10 575 0
270 -8 2179 2311 10 59 0
271 8 0 4771 10 0 323
272 -30 2052 2208 10 304 0
273 35 0 4656 10 0 103
274 2 2671 2818 10 0 106
275 -19 1799 1877 10 525 0
276 16 141 285 10 0 425
277 33 0 4748 10 0 194
278 -24 3865 3963 10 364 0
279 32 2930 3030 10 0 384
280 -23 0 4669 10 307 0
281 15 0 4693 10 0 522
282 18 0 4714 10 0 207
283 -33 0 4740 10 197 0
284 18 0 4669 10 0 381
285 27 0 4717 10 0 414
286 -17 0 4760 10 338 0
287 -18 0 4749 10 12 0
288 -16 1137 1290 10 100 0
289 -25 0 4716 10 158 0
290 -3 0 4715 10 473 0
291 -13 2115 2193 10 412 0
292 -10 0 4714 10 214 0
293 -13 3259 3407 10 563 0
294 31 1944 2049 10 0 475
295 -12 1228 1342 10 579 0
296 -21 2234 2332 10 217 0
297 5 69 160 10 0 56
298 23 0 4667 10 0 311
299 21 2181 2295 10 0 492
300 10 0 4750 10 0 376
301 -21 0 4692 10 357 0
302 2 286 311 10 0 255
303 15 0 4681 10 0 245
304 30 1052 1217 10 0 272
305 19 0 4772 10 0 108
306 -21 0 4727 10 119 0
307 23 0 4769 10 0 280
308 15 1460 1564 10 0 316
309 9 0 4694 10 0 146
310 10 665 755 10 0 519
311 -23 4063 4210 10 298 0
312 16 0 4628 10 0 342
313 23 0 4690 10 0 387
314 24 1359 1468 10 0 518
315 -11 0 4652 10 223 0
316 -15 2352 2441 10 308 0
317 -32 2416 2523 10 562 0
318 -14 1515 1652 10 99 0
319 -13 0 4686 10 366 0
320 -34 642 803 10 116 0
321 16 1955 2094 10 0 109
322 -17 3651 3732 10 43 0
323 -8 1120 1168 10 271 0
324 32 3129 3228 10 0 148
325 -14 0 4740 10 463 0
326 -35 1093 1155 10 145 0
327 -19 0 4675 10 520 0
328 -10 3354 3404 10 341 0
329 -27 2573 2727 10 356 0
330 21 1599 1693 10 0 365
331 -9 3051 3208 10 168 0
332 -22 3230 3325 10 572 0
333 -27 0 4680 10 7 0
334 -17 0 4619 10 493 0
335 40 0 4780 10 0 20
336 -15 3233 3383 10 372 0
337 10 2599 2727 10 0 437
338 17 439 551 10 0 286
339 8 3136 3263 10 0 235
340 -5 3352 3492 10 588 0
341 10 3202 3318 10 0 328
342 -16 0 4643 10 312 0
343 -30 2565 2737 10 427 0
344 -6 0 4739 10 472 0
345 23 470 617 10 0 509
346 5 0 4735 10 0 535
347 4 3515 3623 10 0 181
348 -8 0 4664 10 183 0
349 19 0 4670 10 0 75
350 20 0 4758 10 0 459
351 18 548 702 10 0 14
352 12 2081 2139 10 0 500
353 -7 0 4668 10 394 0
354 -24 0 4768 10 469 0
355 -13 1892 2066 10 10 0
356 27 0 4656 10 0 329
357 21 0 4664 10 0 301
358 21 814 999 10 0 479
359 -14 3452 3530 10 468 0
360 18 3621 3681 10 0 120
361 -23 2916 3015 10 107 0
362 -17 0 4685 10 477 0
363 11 0 4725 10 0 570
364 24 0 4700 10 0 278
365 -21 0 4778 10 330 0
366 13 201 270 10 0 319
367 -33 1568 1730 10 564 0
368 9 1179 1280 10 0 260
369 -22 0 4706 10 65 0
370 -37 2515 2623 10 23 0
371 -6 1688 1847 10 465 0
372 15 0 4694 10 0 336
373 18 0 4607 10 0 118
374 -26 0 4714 10 539 0
375 -17 0 4682 10 88 0
376 -10 0 4714 10 300 0
377 35 0 4743 10 0 546
378 -15 0 4732 10 15 0
379 -12 0 4671 10 33 0
380 -6 3265 3406 10 532 0
381 -18 0 4664 10 284 0
382 22 0 4752 10 0 166
383 -17 0 4659 10 267 0
384 -32 3088 3245 10 279 0
385 8 0 4706 10 0 568
386 -21 0 4630 10 52 0
387 -23 3175 3336 10 313 0
388 -12 0 4735 10 461 0
389 18 0 4627 10 0 101
390 2 3870 4002 10 0 403
391 -18 0 4670 10 175 0
392 14 0 4676 10 0 2
393 21 0 4722 10 0 457
394 7 0 4767 10 0 353
395 36 0 4627 10 0 122
396 5 12 98 10 0 128
397 33 0 4645 10 0 57
398 -16 615 720 10 598 0
399 12 0 4665 10 0 97
400 -27 0 4756 10 402 0
401 5 1601 1708 10 0 590
402 27 0 4695 10 0 400
403 -2 4366 4443 10 390 0
404 22 1036 1124 10 0 419
405 25 0 4666 10 0 8
406 -16 1541 1703 10 102 0
407 7 340 418 10 0 490
408 26 0 4678 10 0 574
409 16 1273 1400 10 0 561
410 10 243 423 10 0 460
411 41 601 736 10 0 450
412 13 0 4648 10 0 291
413 -15 3644 3761 10 244 0
414 -27 2149 2276 10 285 0
415 -36 3079 3236 10 85 0
416 -21 783 951 10 139 0
417 24 0 4713 10 0 9
418 -29 0 4729 10 105 0
419 -22 0 4652 10 404 0
420 -38 1534 1629 10 159 0
421 -2 1560 1658 10 483 0
422 21 167 227 10 0 206
423 -6 0 4678 10 30 0
424 26 0 4699 10 0 225
425 -16 776 856 10 276 0
426 16 0 4742 10 0 448
427 30 0 4763 10 0 343
428 16 3254 3363 10 0 36
429 -17 3595 3719 10 559 0
430 -22 1320 1428 10 123 0
431 -30 0 4775 10 486 0
432 17 1745 1942 10 0 243
433 18 0 4714 10 0 112
434 -15 2209 2408 10 550 0
435 26 0 4653 10 0 147
436 -19 0 4669 10 592 0
437 -10 0 4738 10 337 0
438 3 0 4753 10 0 61
439 31 0 4765 10 0 94
440 -21 0 4796 10 462 0
441 -23 0 4742 10 150 0
442 -11 0 4671 10 508 0
443 -13 1867 2001 10 91 0
444 -22 1768 1912 10 200 0
445 26 0 4665 10 0 501
446 -9 0 4675 10 76 0
447 -17 0 4692 10 41 0
448 -16 1951 2047 10 426 0
449 -16 3432 3532 10 38 0
450 -41 0 4730 10 411 0
451 -19 0 4658 10 211 0
452 -12 4603 4652 10 95 0
453 -16 0 4623 10 64 0
454 15 0 4800 10 0 263
455 -17 0 4687 10 133 0
456 -16 0 4679 10 170 0
457 -21 0 4791 10 393 0
458 -14 558 668 10 115 0
459 -20 0 4782 10 350 0
460 -10 415 526 10 410 0
461 12 313 450 10 0 388
462 21 0 4767 10 0 440
463 14 0 4694 10 0 325
464 15 0 4708 10 0 27
465 6 0 4628 10 0 371
466 -16 3492 3562 10 248 0
467 12 0 4706 10 0 92
468 14 0 4787 10 0 359
469 24 2066 2250 10 0 354
470 20 2405 2503 10 0 503
471 2 242 408 10 0 219
472 6 2286 2430 10 0 344
473 3 2181 2350 10 0 290
474 10 0 4671 10 0 487
475 -31 0 4695 10 294 0
476 -29 0 4716 10 172 0
477 17 0 4666 10 0 362
478 -13 1637 1787 10 208 0
479 -21 2763 2842 10 358 0
480 -22 0 4744 10 79 0
481 21 132 223 10 0 264
482 -20 0 4658 10 135 0
483 2 182 266 10 0 421
484 29 0 4767 10 0 541
485 15 0 4697 10 0 210
486 30 3539 3587 10 0 431
487 -10 0 4772 10 474 0
488 15 0 4689 10 0 130
489 -26 573 720 10 543 0
490 -7 0 4645 10 407 0
491 -21 3131 3253 10 531 0
492 -21 0 4652 10 299 0
493 17 688 779 10 0 334
494 -8 2282 2421 10 240 0
495 -15 0 4664 10 24 0
496 15 324 423 10 0 527
497 29 0 4698 10 0 268
498 15 2165 2359 10 0 156
499 13 2074 2135 10 0 547
500 -12 0 4731 10 352 0
501 -26 2712 2860 10 445 0
502 -19 0 4715 10 124 0
503 -20 0 4649 10 470 0
504 -33 0 4706 10 232 0
505 -12 62 228 10 222 0
506 -14 0 4674 10 3 0
507 9 2704 2837 10 0 141
508 11 90 227 10 0 442
509 -23 767 916 10 345 0
510 -14 3929 4055 10 528 0
511 -26 1616 1761 10 201 0
512 27 168 372 10 0 231
513 10 1899 2001 10 0 544
514 32 0 4711 10 0 553
515 -36 3775 3922 10 534 0
516 -29 979 1083 10 110 0
517 -3 2105 2216 10 585 0
518 -24 2086 2183 10 314 0
519 -10 2067 2098 10 310 0
520 19 0 4667 10 0 327
521 -10 0 4619 10 256 0
522 -15 0 4655 10 281 0
523 -22 0 4752 10 238 0
524 14 1340 1449 10 0 554
525 19 0 4747 10 0 275
526 -19 0 4691 10 6 0
527 -15 537 647 10 496 0
528 14 256 411 10 0 510
529 -1 0 4713 10 144 0
530 17 1334 1457 10 0 199
531 21 0 4766 10 0 491
532 6 2565 2678 10 0 380
533 22 87 197 10 0 203
534 36 0 4671 10 0 515
535 -5 1115 1216 10 346 0
536 40 0 4665 10 0 555
537 28 2650 2762 10 0 152
538 -12 3289 3411 10 4 0
539 26 2273 2437 10 0 374
540 -24 3321 3432 10 39 0
541 -29 2927 3056 10 484 0
542 31 0 4663 10 0 66
543 26 321 359 10 0 489
544 -10 0 4668 10 513 0
545 -8 454 646 10 188 0
546 -35 0 4729 10 377 0
547 -13 0 4692 10 499 0
548 -10 0 4806 10 18 0
549 9 0 4767 10 0 165
550 15 850 975 10 0 434
551 22 398 442 10 0 247
552 26 1514 1595 10 0 204
553 -32 0 4709 10 514 0
554 -14 0 4673 10 524 0
555 -40 0 4705 10 536 0
556 -19 0 4657 10 77 0
557 -24 0 4684 10 216 0
558 -18 0 4719 10 261 0
559 17 2117 2204 10 0 429
560 21 2350 2505 10 0 587
561 -16 1189 1362 10 409 0
562 32 1930 2055 10 0 317
563 13 2001 2129 10 0 293
564 33 530 601 10 0 367
565 25 858 998 10 0 134
566 13 0 4672 10 0 63
567 17 0 4691 10 0 227
568 -8 2945 3149 10 385 0
569 30 0 4696 10 0 576
570 -11 0 4668 10 363 0
571 18 2288 2357 10 0 113
572 22 737 955 10 0 332
573 -14 0 4667 10 209 0
574 -26 0 4639 10 408 0
575 18 0 4662 10 0 269
576 -30 1130 1281 10 569 0
577 30 0 4741 10 0 157
578 19 0 4717 10 0 218
579 12 1047 1143 10 0 295
580 -17 0 4730 10 591 0
581 -15 1999 2093 10 129 0
582 -2 0 4723 10 125 0
583 12 0 4704 10 0 46
584 37 2125 2304 10 0 48
585 3 0 4725 10 0 517
586 -9 0 4692 10 132 0
587 -21 0 4676 10 560 0
588 5 993 1083 10 0 340
589 19 977 1092 10 0 229
590 -5 2280 2369 10 401 0
591 17 0 4725 10 0 580
592 19 442 496 10 0 436
593 2 0 4696 10 0 258
594 18 2333 2507 10 0 239
595 -4 0 4701 10 198 0
596 12 2784 2912 10 0 599
597 26 186 289 10 0 242
598 16 0 4748 10 0 398
599 -12 3270 3417 10 596 0
600 -8 2886 3075 10 151 0
601 12 1793 1980 10 0 74
602 -20 4032 4178 10 262 0
603 -11 0 4674 10 96 0
DEPOT_SECTION
1
-1
EOF
