NAME: lr2_6_8
TYPE: PDPTW
COMMENT: Li & Lim PDPTW benchmark converted from SINTEF format
DIMENSION: 607
VEHICLES: 150
CAPACITY: 1000
EDGE_WEIGHT_TYPE: EUC_2D
NODE_COORD_SECTION
1 150 150
2 133 187
3 277 41
4 284 244
5 38 139
6 117 178
7 241 298
8 76 221
9 175 251
10 45 115
11 216 203
12 178 263
13 51 2
14 274 6
15 232 121
16 110 83
17 275 263
18 114 211
19 61 84
20 80 35
21 298 135
22 60 72
23 75 127
24 102 173
25 276 28
26 165 179
27 289 143
28 69 134
29 61 138
30 283 144
31 97 232
32 120 241
33 173 64
34 176 263
35 117 168
36 184 102
37 157 221
38 108 3
39 29 8
40 136 241
41 16 42
42 183 282
43 154 299
44 136 68
45 230 80
46 151 172
47 136 50
48 8 200
49 72 20
50 57 125
51 208 47
52 262 14
53 139 250
54 220 18
55 191 234
56 111 40
57 227 5
58 265 141
59 272 211
60 56 116
61 170 93
62 120 155
63 3 119
64 208 290
65 285 283
66 290 37
67 180 106
68 29 139
69 37 159
70 201 175
71 128 155
72 94 93
73 3 135
74 279 36
75 46 155
76 15 178
77 15 219
78 275 146
79 268 113
80 207 149
81 179 123
82 103 8
83 176 235
84 253 84
85 51 217
86 114 259
87 212 45
88 276 66
89 243 136
90 160 17
91 183 80
92 177 281
93 123 76
94 80 86
95 299 153
96 40 236
97 38 74
98 289 130
99 147 152
100 243 191
101 9 239
102 238 103
103 236 108
104 189 197
105 64 91
106 159 266
107 281 68
108 78 246
109 211 239
110 7 31
111 140 18
112 69 208
113 105 252
114 99 105
115 166 123
116 139 146
117 261 232
118 92 241
119 107 174
120 173 148
121 72 286
122 236 27
123 106 243
124 63 170
125 136 228
126 246 166
127 102 81
128 271 105
129 93 117
130 227 192
131 262 80
132 205 44
133 278 178
134 17 0
135 116 14
136 119 254
137 107 281
138 86 216
139 189 201
140 263 291
141 11 191
142 192 150
143 131 222
144 108 80
145 259 187
146 297 43
147 112 43
148 182 146
149 205 130
150 289 209
151 157 254
152 291 148
153 201 122
154 244 13
155 162 148
156 20 245
157 60 287
158 213 119
159 234 146
160 231 28
161 288 127
162 82 35
163 159 300
164 296 252
165 207 20
166 122 96
167 133 153
168 54 136
169 28 141
170 208 208
171 2 81
172 8 4
173 30 145
174 186 26
175 83 77
176 203 283
177 129 83
178 172 198
179 157 12
180 52 109
181 237 171
182 126 42
183 24 261
184 250 49
185 40 1
186 96 86
187 223 198
188 188 198
189 107 291
190 181 277
191 239 295
192 229 40
193 198 159
194 297 213
195 220 43
196 295 123
197 57 192
198 36 212
199 45 74
200 117 155
201 168 42
202 296 235
203 116 245
204 254 206
205 241 183
206 118 38
207 51 63
208 44 189
209 183 43
210 141 120
211 37 126
212 290 219
213 224 138
214 25 64
215 194 11
216 100 138
217 88 49
218 57 127
219 25 191
220 217 43
221 96 96
222 135 139
223 41 279
224 217 138
225 18 196
226 30 149
227 224 61
228 248 280
229 94 12
230 18 184
231 266 39
232 103 81
233 125 148
234 28 124
235 293 62
236 213 299
237 158 291
238 12 10
239 53 141
240 208 297
241 227 62
242 209 84
243 226 248
244 238 214
245 102 76
246 220 182
247 88 110
248 224 229
249 219 152
250 102 155
251 246 93
252 175 123
253 43 52
254 151 113
255 184 237
256 274 256
257 266 212
258 117 79
259 26 27
260 256 286
261 157 276
262 107 29
263 229 179
264 162 92
265 135 38
266 283 275
267 108 298
268 11 242
269 5 189
270 225 192
271 187 129
272 14 165
273 214 6
274 152 241
275 200 26
276 202 161
277 211 174
278 81 219
279 255 203
280 31 68
281 139 270
282 85 75
283 88 190
284 140 294
285 225 210
286 166 99
287 140 214
288 251 195
289 246 133
290 59 113
291 113 62
292 72 89
293 247 19
294 135 251
295 159 41
296 73 81
297 125 136
298 24 76
299 84 231
300 206 121
301 242 70
302 76 160
303 18 151
304 11 185
305 109 148
306 126 233
307 121 116
308 110 31
309 107 39
310 181 297
311 96 199
312 34 5
313 252 219
314 234 107
315 51 278
316 239 84
317 172 2
318 153 226
319 112 272
320 110 145
321 175 294
322 202 292
323 282 104
324 160 179
325 143 223
326 263 193
327 14 177
328 127 77
329 188 69
330 159 287
331 47 153
332 274 136
333 175 281
334 26 0
335 126 127
336 232 45
337 38 44
338 183 44
339 296 17
340 2 238
341 149 76
342 57 7
343 280 158
344 131 78
345 131 220
346 128 225
347 250 194
348 76 280
349 9 122
350 203 166
351 235 31
352 120 60
353 136 295
354 119 183
355 1 11
356 283 65
357 274 66
358 247 86
359 167 171
360 262 164
361 222 100
362 271 106
363 233 119
364 37 149
365 150 185
366 93 165
367 203 36
368 124 299
369 241 208
370 108 162
371 80 67
372 139 31
373 4 296
374 170 53
375 253 69
376 246 123
377 183 88
378 230 135
379 148 8
380 159 199
381 148 299
382 159 89
383 109 299
384 250 228
385 211 62
386 300 44
387 210 236
388 172 225
389 12 275
390 180 93
391 29 72
392 75 265
393 174 238
394 166 194
395 271 8
396 158 140
397 267 29
398 15 52
399 15 88
400 154 207
401 15 2
402 126 266
403 175 107
404 44 223
405 15 209
406 289 79
407 194 234
408 132 16
409 83 188
410 152 77
411 216 40
412 9 63
413 206 157
414 287 293
415 58 240
416 184 277
417 162 250
418 82 100
419 27 255
420 230 128
421 19 290
422 154 101
423 265 78
424 40 181
425 229 188
426 119 214
427 190 181
428 228 41
429 152 29
430 99 226
431 142 188
432 209 269
433 52 165
434 63 130
435 37 36
436 23 218
437 129 77
438 180 98
439 114 117
440 151 133
441 221 145
442 30 226
443 182 81
444 45 190
445 195 9
446 72 36
447 90 44
448 121 246
449 282 76
450 150 67
451 4 97
452 188 142
453 285 285
454 163 150
455 272 183
456 279 189
457 148 172
458 155 93
459 181 145
460 147 43
461 75 191
462 150 104
463 103 260
464 234 213
465 9 30
466 125 168
467 165 256
468 176 153
469 16 22
470 156 182
471 88 124
472 176 72
473 85 62
474 71 268
475 110 262
476 109 61
477 229 25
478 186 228
479 173 72
480 198 100
481 164 108
482 284 72
483 98 129
484 167 193
485 34 150
486 161 242
487 139 110
488 265 197
489 241 218
490 238 294
491 94 109
492 8 227
493 25 119
494 238 206
495 1 145
496 208 117
497 47 203
498 4 294
499 199 213
500 74 117
501 156 57
502 189 240
503 1 81
504 89 61
505 122 127
506 260 64
507 15 259
508 112 161
509 60 176
510 264 35
511 189 41
512 158 83
513 56 212
514 228 217
515 157 50
516 37 14
517 116 240
518 225 73
519 125 278
520 14 204
521 296 279
522 215 295
523 135 210
524 80 131
525 157 84
526 29 130
527 250 124
528 143 67
529 69 90
530 47 143
531 106 168
532 266 203
533 124 174
534 33 231
535 67 175
536 132 297
537 230 150
538 208 235
539 183 23
540 149 98
541 228 276
542 113 4
543 203 183
544 6 168
545 127 266
546 176 70
547 271 145
548 148 157
549 180 114
550 25 14
551 99 73
552 209 246
553 207 237
554 75 269
555 152 258
556 37 258
557 42 221
558 143 244
559 87 183
560 212 270
561 113 188
562 294 64
563 296 15
564 159 42
565 48 141
566 11 176
567 148 28
568 173 152
569 40 192
570 272 70
571 71 294
572 296 211
573 248 41
574 259 14
575 5 195
576 30 243
577 80 133
578 57 123
579 153 61
580 72 180
581 59 287
582 147 240
583 191 49
584 44 286
585 169 236
586 254 87
587 182 284
588 101 114
589 281 8
590 103 93
591 64 170
592 47 121
593 139 33
594 139 206
595 145 38
596 137 212
597 206 130
598 111 98
599 43 62
600 214 234
601 199 28
602 139 146
603 230 135
604 112 43
605 182 146
606 166 123
607 199 213
PICKUP_AND_DELIVERY_SECTION
1 0 0 4823 0 0 0
2 16 4210 4450 10 0 457
3 -13 0 4646 10 91 0
4 12 0 4650 10 0 490
5 12 0 4701 10 0 575
6 -16 3004 3244 10 47 0
7 -17 0 4640 10 243 0
8 -42 0 4711 10 136 0
9 8 0 4709 10 0 325
10 -17 0 4703 10 493 0
11 5 0 4729 10 0 538
12 -13 0 4697 10 558 0
13 41 0 4635 10 0 452
14 41 0 4623 10 0 441
15 15 0 4727 10 0 80
16 -12 0 4735 10 127 0
17 -18 608 848 10 164 0
18 -16 0 4743 10 321 0
19 7 0 4703 10 0 185
20 31 2000 2240 10 0 162
21 -7 0 4665 10 425 0
22 -10 0 4694 10 275 0
23 -19 2000 2240 10 578 0
24 15 0 4760 10 0 50
25 -3 0 4638 10 386 0
26 -10 0 4781 10 256 0
27 -16 0 4674 10 276 0
28 46 0 4731 10 0 410
29 9 0 4724 10 0 290
30 6 413 653 10 0 521
31 -18 0 4716 10 353 0
32 -16 2362 2602 10 170 0
33 -41 2227 2467 10 411 0
34 -24 0 4698 10 62 0
35 -16 0 4776 10 311 0
36 -29 4131 4371 10 105 0
37 10 0 4742 10 0 46
38 16 0 4661 10 0 227
39 -29 2944 3184 10 110 0
40 -14 1426 1666 10 463 0
41 -5 950 1190 10 588 0
42 42 0 4677 10 0 240
43 -22 0 4664 10 236 0
44 -24 2317 2557 10 314 0
45 26 0 4707 10 0 142
46 -10 0 4791 10 37 0
47 16 0 4713 10 0 6
48 21 0 4663 10 0 436
49 32 0 4662 10 0 253
50 -15 0 4717 10 24 0
51 6 0 4695 10 0 329
52 21 0 4637 10 0 574
53 -29 0 4713 10 178 0
54 -13 2424 2664 10 563 0
55 -5 0 4720 10 346 0
56 22 0 4697 10 0 372
57 13 0 4649 10 0 510
58 -16 0 4698 10 263 0
59 -26 0 4677 10 597 0
60 22 859 1099 10 0 76
61 39 1842 2082 10 0 99
62 24 0 4783 10 0 34
63 -26 2695 2935 10 424 0
64 -21 0 4662 10 119 0
65 22 2154 2394 10 0 432
66 -19 3205 3445 10 589 0
67 19 0 4760 10 0 286
68 25 0 4692 10 0 265
69 7 0 4700 10 0 364
70 -17 0 4757 10 517 0
71 11 0 4791 10 0 557
72 -10 0 4734 10 337 0
73 -10 0 4666 10 513 0
74 -23 0 4641 10 506 0
75 -27 0 4709 10 580 0
76 -22 0 4676 10 60 0
77 -5 0 4662 10 269 0
78 -23 2544 2784 10 193 0
79 22 3311 3551 10 0 360
80 -15 0 4756 10 15 0
81 4 39 279 10 0 371
82 -6 0 4664 10 465 0
83 -2 0 4725 10 106 0
84 -21 0 4691 10 358 0
85 36 0 4694 10 0 593
86 5 0 4699 10 0 448
87 -14 0 4692 10 460 0
88 -26 0 4662 10 570 0
89 46 0 4719 10 0 413
90 -33 0 4680 10 564 0
91 13 0 4736 10 0 3
92 16 0 4680 10 0 522
93 2 0 4735 10 0 437
94 -14 0 4719 10 209 0
95 -33 0 4664 10 277 0
96 11 0 4674 10 0 368
97 16 0 4678 10 0 516
98 -32 0 4673 10 279 0
99 -39 0 4810 10 61 0
100 16 0 4712 10 0 109
101 20 0 4647 10 0 281
102 16 0 4714 10 0 501
103 16 0 4718 10 0 390
104 17 0 4752 10 0 294
105 29 0 4709 10 0 36
106 2 0 4697 10 0 83
107 -17 0 4659 10 131 0
108 -18 0 4693 10 319 0
109 -16 2247 2487 10 100 0
110 29 0 4627 10 0 39
111 26 1520 1760 10 0 301
112 -22 0 4714 10 533 0
113 -20 0 4702 10 470 0
114 4 0 4745 10 0 341
115 14 0 4782 0 0 606
116 34 11 251 0 0 602
117 -34 1937 2177 10 343 0
118 -15 0 4706 10 157 0
119 21 77 317 10 0 64
120 -14 0 4790 10 255 0
121 -18 1549 1789 10 373 0
122 -36 0 4663 10 395 0
123 -21 692 932 10 139 0
124 -40 1000 1240 10 335 0
125 2 1368 1608 10 0 246
126 -4 0 4716 10 527 0
127 12 216 456 10 0 16
128 -27 0 4684 10 285 0
129 15 0 4748 10 0 328
130 -29 0 4726 10 326 0
131 17 0 4681 10 0 107
132 -17 0 4694 10 567 0
133 17 0 4682 10 0 384
134 -5 0 4613 10 297 0
135 20 2555 2795 10 0 435
136 42 3167 3407 10 0 8
137 -27 0 4676 10 348 0
138 -5 0 4722 10 419 0
139 21 0 4749 10 0 123
140 2 0 4633 10 0 502
141 12 0 4669 10 0 340
142 -26 0 4771 10 45 0
143 -27 0 4739 10 402 0
144 -17 1839 2079 10 316 0
145 35 0 4698 10 0 196
146 13 0 4632 10 0 293
147 42 0 4700 0 0 604
148 3 3173 3413 0 0 605
149 30 3698 3938 10 0 459
150 23 0 4662 10 0 388
151 8 0 4709 10 0 383
152 11 0 4672 10 0 289
153 -9 2827 3067 10 549 0
154 -7 2832 3072 10 423 0
155 -14 2941 3181 10 468 0
156 28 0 4652 10 0 584
157 15 3873 4113 10 0 118
158 25 0 4743 10 0 361
159 -31 0 4729 10 369 0
160 -11 3358 3598 10 573 0
161 -22 0 4674 10 494 0
162 -31 0 4680 10 20 0
163 -8 481 721 10 188 0
164 18 0 4635 10 0 17
165 -12 0 4672 10 583 0
166 19 530 770 10 0 531
167 32 17 257 10 0 223
168 9 0 4716 10 0 512
169 25 2520 2760 10 0 309
170 16 362 602 10 0 32
171 32 0 4650 10 0 242
172 -22 0 4610 10 238 0
173 23 3328 3568 10 0 175
174 -12 2199 2439 10 601 0
175 -23 0 4714 10 173 0
176 -17 0 4670 10 416 0
177 -7 2427 2667 10 586 0
178 29 0 4761 10 0 53
179 -6 0 4675 10 472 0
180 30 0 4707 10 0 182
181 17 0 4724 10 0 537
182 -30 0 4703 10 180 0
183 8 0 4646 10 0 278
184 11 1855 2095 10 0 408
185 -7 0 4628 10 19 0
186 -23 215 455 10 307 0
187 -12 0 4726 10 523 0
188 8 0 4752 10 0 163
189 -12 2107 2347 10 467 0
190 -4 1095 1335 10 198 0
191 11 0 4643 10 0 359
192 -8 0 4678 10 385 0
193 23 0 4765 10 0 78
194 21 0 4654 10 0 454
195 28 0 4686 10 0 446
196 -35 3019 3259 10 145 0
197 33 0 4711 10 0 206
198 4 439 679 10 0 190
199 9 1512 1752 10 0 491
200 22 0 4780 10 0 508
201 26 0 4704 10 0 367
202 -15 0 4645 10 488 0
203 -13 2249 2489 10 545 0
204 -15 2425 2665 10 464 0
205 12 0 4717 10 0 270
206 -33 0 4697 10 197 0
207 6 0 4682 10 0 505
208 13 0 4701 10 0 262
209 14 0 4702 10 0 94
210 -12 0 4782 10 283 0
211 -35 0 4698 10 444 0
212 19 0 4657 10 0 489
213 -21 0 4739 10 420 0
214 10 0 4662 10 0 469
215 -21 1246 1486 10 462 0
216 24 760 1000 10 0 370
217 -5 0 4695 10 396 0
218 -33 0 4718 10 232 0
219 16 0 4682 10 0 392
220 -21 0 4687 10 374 0
221 -15 0 4737 10 296 0
222 -31 0 4795 10 439 0
223 -32 0 4645 10 167 0
224 5 2702 2942 10 0 568
225 -13 0 4674 10 366 0
226 4 0 4693 10 0 272
227 -16 0 4698 10 38 0
228 27 1102 1342 10 0 244
229 -26 0 4665 10 539 0
230 -19 0 4677 10 592 0
231 6 1970 2210 10 0 363
232 33 0 4730 10 0 218
233 8 0 4788 10 0 405
234 -30 0 4689 10 569 0
235 10 0 4646 10 0 241
236 22 0 4652 10 0 43
237 -5 589 829 10 478 0
238 22 1615 1855 10 0 172
239 -25 0 4716 10 565 0
240 -42 0 4655 10 42 0
241 -10 0 4697 10 235 0
242 -32 0 4725 10 171 0
243 17 0 4689 10 0 7
244 -27 1773 2013 10 228 0
245 -29 3314 3554 10 497 0
246 -2 2392 2632 10 125 0
247 1 0 4740 10 0 418
248 -11 0 4705 10 257 0
249 -15 3776 4016 10 336 0
250 12 0 4765 10 0 535
251 14 0 4702 10 0 481
252 23 0 4777 10 0 496
253 -32 0 4668 10 49 0
254 4 1324 1564 10 0 473
255 14 2993 3233 10 0 120
256 10 0 4650 10 0 26
257 11 0 4682 10 0 248
258 10 0 4735 10 0 382
259 16 3419 3659 10 0 312
260 -11 0 4641 10 332 0
261 -29 0 4687 10 484 0
262 -13 0 4685 10 208 0
263 16 908 1148 10 0 58
264 -9 0 4754 10 331 0
265 -25 0 4700 10 68 0
266 12 0 4631 10 0 453
267 17 0 4660 10 0 430
268 -19 0 4647 10 305 0
269 5 0 4663 10 0 77
270 -12 2125 2365 10 205 0
271 8 0 4771 10 0 313
272 -4 0 4677 10 226 0
273 35 0 4656 10 0 300
274 -21 0 4722 10 330 0
275 10 0 4680 10 0 22
276 16 93 333 10 0 27
277 33 0 4748 10 0 95
278 -8 3794 4034 10 183 0
279 32 0 4696 10 0 98
280 27 0 4669 10 0 477
281 -20 0 4693 10 101 0
282 -13 0 4714 10 292 0
283 12 0 4740 10 0 210
284 -14 0 4669 10 442 0
285 27 0 4717 10 0 128
286 -19 0 4760 10 67 0
287 24 0 4749 10 0 543
288 33 1093 1333 10 0 514
289 -11 0 4716 10 152 0
290 -9 0 4715 10 29 0
291 9 2034 2274 10 0 447
292 13 0 4714 10 0 282
293 -13 3213 3453 10 146 0
294 -17 1877 2117 10 104 0
295 -25 1165 1405 10 540 0
296 15 0 4710 10 0 221
297 5 0 4785 10 0 134
298 23 0 4667 10 0 398
299 21 0 4709 10 0 587
300 -35 0 4750 10 273 0
301 -26 0 4692 10 111 0
302 2 179 419 10 0 417
303 15 0 4681 10 0 308
304 30 1015 1255 10 0 576
305 19 0 4772 10 0 268
306 20 0 4727 10 0 394
307 23 0 4769 10 0 186
308 -15 0 4688 10 303 0
309 -25 0 4694 10 169 0
310 -10 0 4663 10 322 0
311 16 4017 4257 10 0 35
312 -16 0 4628 10 259 0
313 -8 0 4690 10 271 0
314 24 1294 1534 10 0 44
315 -15 0 4652 10 498 0
316 17 0 4703 10 0 144
317 -34 0 4664 10 355 0
318 -26 1464 1704 10 475 0
319 18 0 4686 10 0 108
320 8 0 4773 10 0 492
321 16 0 4667 10 0 18
322 10 0 4662 10 0 310
323 19 0 4674 10 0 376
324 -12 3058 3298 10 380 0
325 -8 0 4740 10 9 0
326 29 1004 1244 10 0 130
327 17 0 4675 10 0 519
328 -15 3259 3499 10 129 0
329 -6 0 4724 10 51 0
330 21 0 4676 10 0 274
331 9 0 4710 10 0 264
332 11 0 4689 10 0 260
333 17 0 4680 10 0 536
334 -13 0 4619 10 391 0
335 40 0 4780 10 0 124
336 15 3188 3428 10 0 249
337 10 0 4659 10 0 72
338 -23 375 615 10 440 0
339 -18 0 4616 10 351 0
340 -12 0 4641 10 141 0
341 -4 3140 3380 10 114 0
342 -23 0 4643 10 529 0
343 34 0 4683 10 0 117
344 -14 0 4739 10 504 0
345 -4 0 4741 10 582 0
346 5 0 4735 10 0 55
347 -20 0 4704 10 350 0
348 27 0 4664 10 0 137
349 19 0 4670 10 0 595
350 20 0 4758 10 0 347
351 18 505 745 10 0 339
352 -25 1990 2230 10 480 0
353 18 0 4668 10 0 31
354 6 0 4768 10 0 526
355 34 0 4610 10 0 317
356 27 0 4656 10 0 449
357 21 0 4664 10 0 562
358 21 787 1027 10 0 84
359 -11 3371 3611 10 191 0
360 -22 3531 3771 10 79 0
361 -25 0 4726 10 158 0
362 -26 0 4685 10 547 0
363 -6 0 4725 10 231 0
364 -7 0 4700 10 69 0
365 -3 0 4778 10 585 0
366 13 0 4755 10 0 225
367 -26 0 4688 10 201 0
368 -11 0 4662 10 96 0
369 31 0 4706 10 0 159
370 -24 0 4770 10 216 0
371 -4 0 4705 10 81 0
372 -22 0 4694 10 56 0
373 18 0 4607 10 0 121
374 21 0 4714 10 0 220
375 -33 0 4682 10 458 0
376 -19 0 4714 10 323 0
377 35 0 4743 10 0 443
378 15 0 4732 0 0 603
379 13 0 4671 10 0 428
380 12 3215 3455 10 0 324
381 15 0 4664 10 0 554
382 -10 0 4752 10 258 0
383 -8 0 4659 10 151 0
384 -17 0 4687 10 133 0
385 8 0 4706 10 0 192
386 3 0 4630 10 0 25
387 45 0 4709 10 0 414
388 -23 0 4735 10 150 0
389 -9 0 4627 10 507 0
390 -16 0 4749 10 103 0
391 13 0 4670 10 0 334
392 -16 0 4676 10 219 0
393 -7 0 4722 10 407 0
394 -20 0 4767 10 306 0
395 36 0 4627 10 0 122
396 5 0 4801 10 0 217
397 -21 0 4645 10 422 0
398 -23 547 787 10 298 0
399 12 0 4665 10 0 550
400 -30 0 4756 10 486 0
401 5 0 4613 10 0 445
402 27 0 4695 10 0 143
403 17 0 4764 10 0 479
404 22 960 1200 10 0 555
405 -8 0 4666 10 233 0
406 -17 1502 1742 10 482 0
407 7 0 4719 10 0 393
408 -11 0 4678 10 184 0
409 -11 1217 1457 10 561 0
410 -46 0 4740 10 28 0
411 41 0 4685 10 0 33
412 -23 0 4648 10 451 0
413 -46 3582 3822 10 89 0
414 -45 0 4615 10 387 0
415 -2 3038 3278 10 471 0
416 17 0 4682 10 0 176
417 -2 0 4713 10 302 0
418 -1 0 4729 10 247 0
419 5 0 4652 10 0 138
420 21 0 4731 10 0 213
421 -11 1489 1729 10 556 0
422 21 77 317 10 0 397
423 7 0 4678 10 0 154
424 26 0 4699 10 0 63
425 7 0 4726 10 0 21
426 -10 0 4742 10 474 0
427 -18 0 4763 10 594 0
428 -13 0 4679 10 379 0
429 10 3537 3777 10 0 450
430 -17 0 4722 10 267 0
431 -17 0 4775 10 581 0
432 -22 0 4681 10 65 0
433 18 0 4714 10 0 524
434 21 2188 2428 10 0 438
435 -20 0 4653 10 135 0
436 -21 0 4669 10 48 0
437 -2 0 4738 10 93 0
438 -21 0 4753 10 434 0
439 31 0 4765 10 0 222
440 23 0 4796 10 0 338
441 -41 0 4742 10 14 0
442 14 0 4671 10 0 284
443 -35 1814 2054 10 377 0
444 35 1720 1960 10 0 211
445 -5 0 4665 10 401 0
446 -28 0 4675 10 195 0
447 -9 0 4692 10 291 0
448 -5 0 4713 10 86 0
449 -27 0 4662 10 356 0
450 -10 0 4730 10 429 0
451 23 0 4658 10 0 412
452 -41 4507 4747 10 13 0
453 -12 0 4623 10 266 0
454 -21 0 4800 10 194 0
455 12 0 4687 10 0 600
456 30 0 4679 10 0 572
457 -16 0 4791 10 2 0
458 33 493 733 10 0 375
459 -30 0 4782 10 149 0
460 14 351 591 10 0 87
461 12 0 4728 10 0 495
462 21 0 4767 10 0 215
463 14 0 4694 10 0 40
464 15 0 4708 10 0 204
465 6 0 4628 10 0 82
466 -24 3407 3647 10 548 0
467 12 0 4706 10 0 189
468 14 0 4787 10 0 155
469 -10 2038 2278 10 214 0
470 20 0 4781 10 0 113
471 2 205 445 10 0 415
472 6 2238 2478 10 0 179
473 -4 2146 2386 10 254 0
474 10 0 4671 10 0 426
475 26 0 4695 10 0 318
476 -15 0 4716 10 485 0
477 -27 0 4666 10 280 0
478 5 0 4728 10 0 237
479 -17 0 4732 10 403 0
480 25 0 4744 10 0 352
481 -14 0 4769 10 251 0
482 17 0 4658 10 0 406
483 2 104 344 10 0 544
484 29 0 4767 10 0 261
485 15 0 4697 10 0 476
486 30 3443 3683 10 0 400
487 -12 0 4772 10 579 0
488 15 0 4689 10 0 202
489 -19 0 4700 10 212 0
490 -12 0 4645 10 4 0
491 -9 3072 3312 10 199 0
492 -8 0 4652 10 320 0
493 17 0 4685 10 0 10
494 22 0 4709 10 0 161
495 -12 0 4664 10 461 0
496 -23 253 493 10 252 0
497 29 0 4698 10 0 245
498 15 0 4608 10 0 315
499 13 0 4734 0 0 607
500 -30 0 4731 10 577 0
501 -16 0 4720 10 102 0
502 -2 0 4715 10 140 0
503 21 0 4649 10 0 542
504 14 0 4706 10 0 344
505 -6 0 4777 10 207 0
506 23 0 4674 10 0 74
507 9 0 4640 10 0 389
508 -22 0 4774 10 200 0
509 19 0 4720 10 0 534
510 -13 0 4652 10 57 0
511 12 1569 1809 10 0 599
512 -9 0 4746 10 168 0
513 10 0 4701 10 0 73
514 -33 0 4711 10 288 0
515 8 0 4713 10 0 546
516 -16 911 1151 10 97 0
517 17 2041 2281 10 0 70
518 -14 2015 2255 10 528 0
519 -17 0 4683 10 327 0
520 -13 0 4667 10 566 0
521 -6 0 4619 10 30 0
522 -16 0 4655 10 92 0
523 12 0 4752 10 0 187
524 -18 1275 1515 10 433 0
525 -16 0 4747 10 598 0
526 -6 0 4691 10 354 0
527 4 0 4710 10 0 126
528 14 213 453 10 0 518
529 23 0 4713 10 0 342
530 -13 1276 1516 10 590 0
531 -19 0 4766 10 166 0
532 6 0 4686 10 0 560
533 22 35 275 10 0 112
534 -19 0 4671 10 509 0
535 -12 1045 1285 10 250 0
536 -17 0 4665 10 333 0
537 -17 2586 2826 10 181 0
538 -5 3230 3470 10 11 0
539 26 2235 2475 10 0 229
540 25 0 4761 10 0 295
541 -26 2871 3111 10 552 0
542 -21 0 4663 10 503 0
543 -24 0 4751 10 287 0
544 -2 0 4668 10 483 0
545 13 430 670 10 0 203
546 -8 0 4729 10 515 0
547 26 0 4692 10 0 362
548 24 0 4806 10 0 466
549 9 0 4767 10 0 153
550 -12 792 1032 10 399 0
551 22 300 540 10 0 559
552 26 1435 1675 10 0 541
553 -12 0 4709 10 596 0
554 -15 0 4673 10 381 0
555 -22 0 4705 10 404 0
556 11 0 4657 10 0 421
557 -11 0 4684 10 71 0
558 13 0 4719 10 0 12
559 -22 0 4742 10 551 0
560 -6 0 4678 10 532 0
561 11 1155 1395 10 0 409
562 -21 1873 2113 10 357 0
563 13 1945 2185 10 0 54
564 33 0 4705 10 0 90
565 25 0 4711 10 0 239
566 13 0 4672 10 0 520
567 17 0 4691 10 0 132
568 -5 2927 3167 10 224 0
569 30 0 4696 10 0 234
570 26 0 4668 10 0 88
571 -17 0 4649 10 591 0
572 -30 726 966 10 456 0
573 11 0 4667 10 0 160
574 -21 0 4639 10 52 0
575 -12 0 4662 10 5 0
576 -30 1085 1325 10 304 0
577 30 0 4741 10 0 500
578 19 0 4717 10 0 23
579 12 0 4724 10 0 487
580 27 0 4730 10 0 75
581 17 0 4649 10 0 431
582 4 0 4723 10 0 345
583 12 0 4704 10 0 165
584 -28 0 4641 10 156 0
585 3 0 4725 10 0 365
586 7 0 4692 10 0 177
587 -21 0 4676 10 299 0
588 5 0 4753 10 0 41
589 19 0 4620 10 0 66
590 13 0 4740 10 0 530
591 17 0 4725 10 0 571
592 19 0 4706 10 0 230
593 -36 0 4696 10 85 0
594 18 2300 2540 10 0 427
595 -19 0 4701 10 349 0
596 12 0 4750 10 0 553
597 26 118 358 10 0 59
598 16 0 4748 10 0 525
599 -12 3223 3463 10 511 0
600 -12 0 4708 10 455 0
601 12 1767 2007 10 0 174
602 -34 11 251 10 116 0
603 -15 0 4732 10 378 0
604 -42 0 4700 10 147 0
605 -3 3173 3413 10 148 0
606 -14 0 4782 10 115 0
607 -13 0 4734 10 499 0
DEPOT_SECTION
1
-1
EOF
