NAME: lr2_6_2
TYPE: PDPTW
COMMENT: Li & Lim PDPTW benchmark converted from SINTEF format
DIMENSION: 609
VEHICLES: 150
CAPACITY: 1000
EDGE_WEIGHT_TYPE: EUC_2D
NODE_COORD_SECTION
1 150 150
2 133 187
3 277 41
4 284 244
5 38 139
6 117 178
7 241 298
8 76 221
9 175 251
10 45 115
11 216 203
12 178 263
13 51 2
14 274 6
15 232 121
16 110 83
17 275 263
18 114 211
19 61 84
20 80 35
21 298 135
22 60 72
23 75 127
24 102 173
25 276 28
26 165 179
27 289 143
28 69 134
29 61 138
30 283 144
31 97 232
32 120 241
33 173 64
34 176 263
35 117 168
36 184 102
37 157 221
38 108 3
39 29 8
40 136 241
41 16 42
42 183 282
43 154 299
44 136 68
45 230 80
46 151 172
47 136 50
48 8 200
49 72 20
50 57 125
51 208 47
52 262 14
53 139 250
54 220 18
55 191 234
56 111 40
57 227 5
58 265 141
59 272 211
60 56 116
61 170 93
62 120 155
63 3 119
64 208 290
65 285 283
66 290 37
67 180 106
68 29 139
69 37 159
70 201 175
71 128 155
72 94 93
73 3 135
74 279 36
75 46 155
76 15 178
77 15 219
78 275 146
79 268 113
80 207 149
81 179 123
82 103 8
83 176 235
84 253 84
85 51 217
86 114 259
87 212 45
88 276 66
89 243 136
90 160 17
91 183 80
92 177 281
93 123 76
94 80 86
95 299 153
96 40 236
97 38 74
98 289 130
99 147 152
100 243 191
101 9 239
102 238 103
103 236 108
104 189 197
105 64 91
106 159 266
107 281 68
108 78 246
109 211 239
110 7 31
111 140 18
112 69 208
113 105 252
114 99 105
115 166 123
116 139 146
117 261 232
118 92 241
119 107 174
120 173 148
121 72 286
122 236 27
123 106 243
124 63 170
125 136 228
126 246 166
127 102 81
128 271 105
129 93 117
130 227 192
131 262 80
132 205 44
133 278 178
134 17 0
135 116 14
136 119 254
137 107 281
138 86 216
139 189 201
140 263 291
141 11 191
142 192 150
143 131 222
144 108 80
145 259 187
146 297 43
147 112 43
148 182 146
149 205 130
150 289 209
151 157 254
152 291 148
153 201 122
154 244 13
155 162 148
156 20 245
157 60 287
158 213 119
159 234 146
160 231 28
161 288 127
162 82 35
163 159 300
164 296 252
165 207 20
166 122 96
167 133 153
168 54 136
169 28 141
170 208 208
171 2 81
172 8 4
173 30 145
174 186 26
175 83 77
176 203 283
177 129 83
178 172 198
179 157 12
180 52 109
181 237 171
182 126 42
183 24 261
184 250 49
185 40 1
186 96 86
187 223 198
188 188 198
189 107 291
190 181 277
191 239 295
192 229 40
193 198 159
194 297 213
195 220 43
196 295 123
197 57 192
198 36 212
199 45 74
200 117 155
201 168 42
202 296 235
203 116 245
204 254 206
205 241 183
206 118 38
207 51 63
208 44 189
209 183 43
210 141 120
211 37 126
212 290 219
213 224 138
214 25 64
215 194 11
216 100 138
217 88 49
218 57 127
219 25 191
220 217 43
221 96 96
222 135 139
223 41 279
224 217 138
225 18 196
226 30 149
227 224 61
228 248 280
229 94 12
230 18 184
231 266 39
232 103 81
233 125 148
234 28 124
235 293 62
236 213 299
237 158 291
238 12 10
239 53 141
240 208 297
241 227 62
242 209 84
243 226 248
244 238 214
245 102 76
246 220 182
247 88 110
248 224 229
249 219 152
250 102 155
251 246 93
252 175 123
253 43 52
254 151 113
255 184 237
256 274 256
257 266 212
258 117 79
259 26 27
260 256 286
261 157 276
262 107 29
263 229 179
264 162 92
265 135 38
266 283 275
267 108 298
268 11 242
269 5 189
270 225 192
271 187 129
272 14 165
273 214 6
274 152 241
275 200 26
276 202 161
277 211 174
278 81 219
279 255 203
280 31 68
281 139 270
282 85 75
283 88 190
284 140 294
285 225 210
286 166 99
287 140 214
288 251 195
289 246 133
290 59 113
291 113 62
292 72 89
293 247 19
294 135 251
295 159 41
296 73 81
297 125 136
298 24 76
299 84 231
300 206 121
301 242 70
302 76 160
303 18 151
304 11 185
305 109 148
306 126 233
307 121 116
308 110 31
309 107 39
310 181 297
311 96 199
312 34 5
313 252 219
314 234 107
315 51 278
316 239 84
317 172 2
318 153 226
319 112 272
320 110 145
321 175 294
322 202 292
323 282 104
324 160 179
325 143 223
326 263 193
327 14 177
328 127 77
329 188 69
330 159 287
331 47 153
332 274 136
333 175 281
334 26 0
335 126 127
336 232 45
337 38 44
338 183 44
339 296 17
340 2 238
341 149 76
342 57 7
343 280 158
344 131 78
345 131 220
346 128 225
347 250 194
348 76 280
349 9 122
350 203 166
351 235 31
352 120 60
353 136 295
354 119 183
355 1 11
356 283 65
357 274 66
358 247 86
359 167 171
360 262 164
361 222 100
362 271 106
363 233 119
364 37 149
365 150 185
366 93 165
367 203 36
368 124 299
369 241 208
370 108 162
371 80 67
372 139 31
373 4 296
374 170 53
375 253 69
376 246 123
377 183 88
378 230 135
379 148 8
380 159 199
381 148 299
382 159 89
383 109 299
384 250 228
385 211 62
386 300 44
387 210 236
388 172 225
389 12 275
390 180 93
391 29 72
392 75 265
393 174 238
394 166 194
395 271 8
396 158 140
397 267 29
398 15 52
399 15 88
400 154 207
401 15 2
402 126 266
403 175 107
404 44 223
405 15 209
406 289 79
407 194 234
408 132 16
409 83 188
410 152 77
411 216 40
412 9 63
413 206 157
414 287 293
415 58 240
416 184 277
417 162 250
418 82 100
419 27 255
420 230 128
421 19 290
422 154 101
423 265 78
424 40 181
425 229 188
426 119 214
427 190 181
428 228 41
429 152 29
430 99 226
431 142 188
432 209 269
433 52 165
434 63 130
435 37 36
436 23 218
437 129 77
438 180 98
439 114 117
440 151 133
441 221 145
442 30 226
443 182 81
444 45 190
445 195 9
446 72 36
447 90 44
448 121 246
449 282 76
450 150 67
451 4 97
452 188 142
453 285 285
454 163 150
455 272 183
456 279 189
457 148 172
458 155 93
459 181 145
460 147 43
461 75 191
462 150 104
463 103 260
464 234 213
465 9 30
466 125 168
467 165 256
468 176 153
469 16 22
470 156 182
471 88 124
472 176 72
473 85 62
474 71 268
475 110 262
476 109 61
477 229 25
478 186 228
479 173 72
480 198 100
481 164 108
482 284 72
483 98 129
484 167 193
485 34 150
486 161 242
487 139 110
488 265 197
489 241 218
490 238 294
491 94 109
492 8 227
493 25 119
494 238 206
495 1 145
496 208 117
497 47 203
498 4 294
499 199 213
500 74 117
501 156 57
502 189 240
503 1 81
504 89 61
505 122 127
506 260 64
507 15 259
508 112 161
509 60 176
510 264 35
511 189 41
512 158 83
513 56 212
514 228 217
515 157 50
516 37 14
517 116 240
518 225 73
519 125 278
520 14 204
521 296 279
522 215 295
523 135 210
524 80 131
525 157 84
526 29 130
527 250 124
528 143 67
529 69 90
530 47 143
531 106 168
532 266 203
533 124 174
534 33 231
535 67 175
536 132 297
537 230 150
538 208 235
539 183 23
540 149 98
541 228 276
542 113 4
543 203 183
544 6 168
545 127 266
546 176 70
547 271 145
548 148 157
549 180 114
550 25 14
551 99 73
552 209 246
553 207 237
554 75 269
555 152 258
556 37 258
557 42 221
558 143 244
559 87 183
560 212 270
561 113 188
562 294 64
563 296 15
564 159 42
565 48 141
566 11 176
567 148 28
568 173 152
569 40 192
570 272 70
571 71 294
572 296 211
573 248 41
574 259 14
575 5 195
576 30 243
577 80 133
578 57 123
579 153 61
580 72 180
581 59 287
582 147 240
583 191 49
584 44 286
585 169 236
586 254 87
587 182 284
588 101 114
589 281 8
590 103 93
591 64 170
592 47 121
593 139 33
594 139 206
595 145 38
596 137 212
597 206 130
598 111 98
599 43 62
600 214 234
601 199 28
602 43 62
603 184 102
604 109 299
605 275 146
606 229 25
607 120 155
608 88 110
609 190 181
PICKUP_AND_DELIVERY_SECTION
1 0 0 4823 0 0 0
2 -19 4261 4400 10 211 0
3 -18 0 4646 10 367 0
4 12 0 4650 10 0 42
5 -9 0 4701 10 29 0
6 -12 3050 3197 10 596 0
7 -33 1855 1958 10 17 0
8 -17 2889 2994 10 559 0
9 8 0 4709 10 0 470
10 -21 889 964 10 481 0
11 5 2170 2277 10 0 58
12 -35 3060 3142 10 555 0
13 41 863 994 10 0 298
14 -8 0 4623 10 385 0
15 15 2286 2451 10 0 376
16 -19 817 875 10 166 0
17 33 669 787 10 0 7
18 -15 0 4743 10 498 0
19 -33 1356 1432 10 458 0
20 -24 2051 2189 10 469 0
21 7 3585 3736 10 0 249
22 -27 702 781 10 512 0
23 37 2074 2166 10 0 245
24 -21 0 4760 10 119 0
25 9 1078 1143 10 0 386
26 19 3357 3413 10 0 359
27 23 563 652 10 0 467
28 46 2516 2595 10 0 73
29 9 0 4724 10 0 5
30 6 481 585 10 0 378
31 11 0 4716 10 0 118
32 -10 2416 2548 10 400 0
33 -25 2278 2416 10 174 0
34 5 2404 2593 10 0 532
35 14 82 219 10 0 168
36 29 4201 4301 0 0 603
37 10 1634 1771 10 0 322
38 -15 0 4661 10 296 0
39 -19 3026 3101 10 516 0
40 11 1532 1561 10 0 553
41 17 1000 1141 10 0 307
42 -12 1778 1875 10 4 0
43 -7 0 4664 10 425 0
44 -16 2397 2478 10 47 0
45 -19 0 4707 10 406 0
46 2 3000 3115 10 0 193
47 16 1000 1093 10 0 44
48 -29 2733 2878 10 497 0
49 -12 0 4662 10 447 0
50 23 841 965 10 0 93
51 6 393 553 10 0 375
52 -6 2775 2931 10 231 0
53 -10 2541 2643 10 310 0
54 -33 2474 2614 10 397 0
55 9 274 474 10 0 294
56 -26 0 4697 10 201 0
57 13 0 4649 10 0 74
58 -5 0 4698 10 11 0
59 8 1466 1528 10 0 246
60 22 934 1024 10 0 588
61 -19 1873 2051 10 305 0
62 24 3538 3683 0 0 607
63 -1 2766 2865 10 144 0
64 16 1196 1367 10 0 453
65 -2 2200 2348 10 140 0
66 -13 3282 3368 10 146 0
67 19 144 283 10 0 275
68 25 493 594 10 0 96
69 7 454 597 10 0 304
70 -18 2787 2875 10 353 0
71 11 22 179 10 0 561
72 -12 3657 3740 10 222 0
73 -46 2690 2774 10 28 0
74 -13 2744 2918 10 57 0
75 -4 3051 3111 10 198 0
76 -18 3096 3168 10 389 0
77 -22 0 4662 10 404 0
78 14 2567 2761 0 0 605
79 -21 3350 3512 10 357 0
80 -17 0 4756 10 517 0
81 -5 63 254 10 396 0
82 16 2735 2838 10 0 451
83 33 249 462 10 0 113
84 11 0 4691 10 0 323
85 -23 0 4694 10 436 0
86 -3 3248 3339 10 585 0
87 30 0 4692 10 0 351
88 -22 558 653 10 301 0
89 -15 0 4719 10 454 0
90 24 1345 1498 10 0 372
91 13 266 438 10 0 573
92 -23 0 4680 10 150 0
93 -23 0 4735 10 50 0
94 -24 0 4719 10 500 0
95 12 1651 1749 10 0 117
96 -25 0 4674 10 68 0
97 16 0 4678 10 0 309
98 -7 1304 1451 10 586 0
99 14 3 100 10 0 443
100 -16 365 448 10 276 0
101 20 1256 1389 10 0 584
102 -17 0 4714 10 131 0
103 -14 3545 3656 10 251 0
104 17 0 4752 10 0 490
105 29 0 4709 10 0 491
106 -21 3607 3670 10 600 0
107 23 2048 2129 10 0 332
108 27 0 4693 10 0 324
109 -16 2321 2414 10 213 0
110 -12 0 4627 10 127 0
111 -11 1572 1707 10 179 0
112 17 2345 2430 10 0 537
113 -33 0 4702 10 83 0
114 -23 1036 1084 10 440 0
115 14 34 217 10 0 423
116 34 11 108 10 0 219
117 -12 2010 2103 10 95 0
118 -11 3018 3235 10 31 0
119 21 134 260 10 0 24
120 -20 0 4790 10 459 0
121 -16 1568 1770 10 268 0
122 21 1492 1605 10 0 510
123 22 760 863 10 0 485
124 -32 1092 1148 10 167 0
125 2 1412 1564 10 0 139
126 18 0 4716 10 0 499
127 12 305 368 10 0 110
128 -17 2458 2599 10 316 0
129 -21 0 4748 10 217 0
130 15 1244 1391 10 0 369
131 17 867 996 10 0 102
132 9 0 4694 10 0 195
133 17 2762 2841 10 0 152
134 -1 2325 2415 10 505 0
135 -12 2616 2735 10 334 0
136 42 3210 3363 10 0 536
137 -27 460 644 10 402 0
138 -21 821 964 10 143 0
139 -2 3895 4034 10 125 0
140 2 744 874 10 0 65
141 -29 2895 3031 10 557 0
142 6 87 249 10 0 347
143 21 647 694 10 0 138
144 1 1896 2022 10 0 63
145 35 402 518 10 0 527
146 13 2892 3004 10 0 66
147 -14 0 4700 10 504 0
148 -21 3230 3357 10 299 0
149 -23 3732 3903 10 161 0
150 23 0 4662 10 0 92
151 -16 2054 2198 10 248 0
152 -17 0 4672 10 133 0
153 29 2889 3005 10 0 361
154 -18 2918 2987 10 574 0
155 -16 3004 3117 10 321 0
156 28 932 1086 10 0 581
157 15 3953 4032 10 0 392
158 -14 2926 3024 10 209 0
159 38 1387 1548 10 0 363
160 21 3440 3516 10 0 403
161 23 2853 2950 10 0 149
162 -6 0 4680 10 465 0
163 15 537 666 10 0 368
164 18 0 4635 10 0 202
165 13 732 871 10 0 563
166 19 567 732 10 0 16
167 32 37 101 10 0 124
168 -14 1009 1108 10 35 0
169 -19 2592 2688 10 509 0
170 16 413 551 10 0 285
171 -29 1082 1154 10 172 0
172 29 790 840 10 0 171
173 -11 3395 3501 10 508 0
174 25 2273 2364 10 0 33
175 18 1701 1841 10 0 291
176 6 2946 3105 10 0 281
177 -17 2484 2611 10 567 0
178 29 0 4761 10 0 348
179 11 0 4675 10 0 111
180 30 359 490 10 0 419
181 17 1592 1683 10 0 514
182 23 888 1022 10 0 501
183 -16 1985 2196 10 290 0
184 -19 1880 2069 10 589 0
185 38 1851 1862 10 0 337
186 12 292 378 10 0 253
187 -33 1841 1952 10 277 0
188 8 0 4752 10 0 414
189 -9 2178 2277 10 448 0
190 15 1199 1231 10 0 203
191 -18 3003 3137 10 284 0
192 13 946 1087 10 0 227
193 -2 3120 3221 10 46 0
194 21 0 4654 10 0 243
195 -9 1746 1852 10 132 0
196 -32 3047 3231 10 562 0
197 33 0 4711 10 0 269
198 4 526 593 10 0 75
199 9 1572 1692 10 0 429
200 -13 0 4780 10 208 0
201 26 0 4704 10 0 56
202 -18 2213 2389 10 164 0
203 -15 2309 2428 10 190 0
204 29 2499 2591 10 0 441
205 -24 0 4717 10 314 0
206 -21 858 968 10 462 0
207 -31 517 625 10 439 0
208 13 422 481 10 0 200
209 14 0 4702 10 0 158
210 -22 0 4782 10 382 0
211 19 639 711 10 0 2
212 -15 0 4657 10 464 0
213 16 0 4739 10 0 109
214 -34 2495 2597 10 355 0
215 14 1293 1439 10 0 241
216 24 804 956 10 0 278
217 21 699 791 10 0 129
218 20 1367 1521 10 0 569
219 -34 905 1053 10 116 0
220 -17 0 4687 10 338 0
221 -13 2035 2123 10 366 0
222 12 18 189 10 0 72
223 -25 0 4645 10 315 0
224 -11 2767 2876 10 257 0
225 8 1736 1841 10 0 426
226 4 1582 1664 10 0 287
227 -13 1906 2002 10 192 0
228 27 1176 1268 10 0 330
229 20 1885 2028 10 0 390
230 24 1478 1608 10 0 346
231 6 2070 2111 10 0 52
232 33 0 4730 10 0 598
233 -5 3379 3484 10 478 0
234 -16 2816 2946 10 418 0
235 10 0 4646 10 0 362
236 22 0 4652 10 0 486
237 18 644 774 10 0 475
238 22 1688 1781 10 0 335
239 -3 0 4716 10 438 0
240 8 1620 1771 10 0 432
241 -14 3234 3324 10 215 0
242 -4 1542 1637 10 254 0
243 -21 3419 3524 10 194 0
244 -9 1855 1932 10 289 0
245 -37 3431 3437 10 23 0
246 -8 2456 2567 10 59 0
247 1 2533 2658 0 0 608
248 16 1384 1464 10 0 151
249 -7 3855 3938 10 21 0
250 12 766 861 10 0 286
251 14 2191 2278 10 0 103
252 -14 3299 3402 10 468 0
253 -12 2256 2391 10 186 0
254 4 1411 1477 10 0 242
255 -3 3040 3187 10 587 0
256 -31 3174 3317 10 260 0
257 11 0 4682 10 0 224
258 -19 0 4735 10 525 0
259 -16 3490 3588 10 312 0
260 31 3140 3334 10 0 256
261 -14 0 4687 10 463 0
262 -10 4032 4178 10 341 0
263 16 948 1108 10 0 519
264 2 523 665 10 0 280
265 -7 0 4700 10 446 0
266 12 2992 3042 10 0 538
267 -18 3520 3641 10 571 0
268 16 0 4647 10 0 121
269 -33 592 699 10 197 0
270 26 2179 2311 10 0 560
271 -15 3130 3245 10 488 0
272 7 2052 2208 10 0 413
273 -16 3451 3590 10 428 0
274 -20 2671 2818 10 325 0
275 -19 1799 1877 10 67 0
276 16 141 285 10 0 100
277 33 0 4748 10 0 187
278 -24 3865 3963 10 216 0
279 32 2930 3030 10 0 452
280 -2 1987 2117 10 264 0
281 -6 3102 3188 10 176 0
282 18 0 4714 10 0 336
283 12 0 4740 10 0 444
284 18 1662 1733 10 0 191
285 -16 0 4717 10 170 0
286 -12 0 4760 10 250 0
287 -4 0 4749 10 226 0
288 33 1137 1290 10 0 552
289 9 0 4716 10 0 244
290 16 0 4715 10 0 183
291 -18 2115 2193 10 175 0
292 13 0 4714 10 0 515
293 -10 3259 3407 10 300 0
294 -9 1944 2049 10 55 0
295 -21 1228 1342 10 374 0
296 15 2234 2332 10 0 38
297 5 69 160 10 0 592
298 -41 0 4667 10 13 0
299 21 2181 2295 10 0 148
300 10 2965 3124 10 0 293
301 22 498 672 10 0 88
302 2 286 311 10 0 578
303 -30 0 4681 10 577 0
304 -7 1052 1217 10 69 0
305 19 0 4772 10 0 61
306 -24 1556 1694 10 417 0
307 -17 0 4769 10 41 0
308 -14 1460 1564 10 528 0
309 -16 0 4694 10 97 0
310 10 665 755 10 0 53
311 -9 4063 4210 10 331 0
312 16 2943 3058 10 0 259
313 23 0 4690 10 0 466
314 24 1359 1468 10 0 205
315 25 0 4652 10 0 223
316 17 2352 2441 10 0 128
317 9 2416 2523 10 0 339
318 -13 1515 1652 10 388 0
319 18 0 4686 10 0 582
320 8 642 803 10 0 424
321 16 1955 2094 10 0 155
322 -10 3651 3732 10 37 0
323 -11 1120 1168 10 84 0
324 -27 3129 3228 10 108 0
325 20 1603 1743 10 0 274
326 29 1093 1155 10 0 393
327 17 544 667 10 0 405
328 -21 3354 3404 10 422 0
329 -13 2573 2727 10 379 0
330 -27 1599 1693 10 228 0
331 9 3051 3208 10 0 311
332 -23 3230 3325 10 107 0
333 17 0 4680 10 0 350
334 12 0 4619 10 0 135
335 -22 0 4780 10 238 0
336 -18 3233 3383 10 282 0
337 -38 2599 2727 10 185 0
338 17 439 551 10 0 220
339 -9 3136 3263 10 317 0
340 -21 3352 3492 10 544 0
341 10 3202 3318 10 0 262
342 -21 1648 1768 10 398 0
343 -9 2565 2737 10 518 0
344 -29 0 4739 10 450 0
345 -25 470 617 10 457 0
346 -24 2523 2690 10 230 0
347 -6 3515 3623 10 142 0
348 -29 0 4664 10 178 0
349 19 857 994 10 0 548
350 -17 0 4758 10 333 0
351 -30 548 702 10 87 0
352 -26 2081 2139 10 408 0
353 18 1970 2079 10 0 70
354 -12 2274 2382 10 523 0
355 34 1892 2066 10 0 214
356 -21 1794 1926 10 358 0
357 21 695 827 10 0 79
358 21 814 999 10 0 356
359 -19 3452 3530 10 26 0
360 -22 3621 3681 10 494 0
361 -29 2916 3015 10 153 0
362 -10 2325 2495 10 235 0
363 -38 0 4725 10 159 0
364 24 1490 1602 10 0 531
365 22 140 222 10 0 409
366 13 201 270 10 0 221
367 18 1568 1730 10 0 3
368 -15 1179 1280 10 163 0
369 -15 0 4706 10 130 0
370 -17 2515 2623 10 591 0
371 -14 1688 1847 10 460 0
372 -24 1903 2050 10 90 0
373 -36 3343 3446 10 534 0
374 21 622 792 10 0 295
375 -6 2564 2657 10 51 0
376 -15 0 4714 10 15 0
377 -6 3540 3611 10 472 0
378 -6 0 4732 10 30 0
379 13 0 4671 10 0 329
380 -20 3265 3406 10 415 0
381 15 0 4664 10 0 568
382 22 0 4752 10 0 210
383 24 0 4659 0 0 604
384 22 3088 3245 10 0 394
385 8 383 473 10 0 14
386 -9 2997 3176 10 25 0
387 45 3175 3336 10 0 522
388 13 420 576 10 0 318
389 18 2030 2186 10 0 76
390 -20 3870 4002 10 229 0
391 -21 3660 3814 10 503 0
392 -15 0 4676 10 157 0
393 -29 4114 4191 10 326 0
394 -22 0 4767 10 384 0
395 -12 0 4627 10 583 0
396 5 12 98 10 0 81
397 33 1843 1950 10 0 54
398 21 615 720 10 0 342
399 -22 1389 1486 10 551 0
400 10 1668 1802 10 0 32
401 -13 1601 1708 10 412 0
402 27 0 4695 10 0 137
403 -21 4366 4443 10 160 0
404 22 1036 1124 10 0 77
405 -17 3536 3642 10 327 0
406 19 1541 1703 10 0 45
407 7 340 418 10 0 431
408 26 1030 1083 10 0 352
409 -22 1273 1400 10 365 0
410 10 243 423 10 0 564
411 41 601 736 10 0 480
412 13 1208 1387 10 0 401
413 -7 3644 3761 10 272 0
414 -8 2149 2276 10 188 0
415 20 3079 3236 10 0 380
416 17 783 951 10 0 502
417 24 767 918 10 0 306
418 16 2295 2445 10 0 234
419 -30 937 1107 10 180 0
420 21 1534 1629 10 0 455
421 12 1560 1658 10 0 474
422 21 167 227 10 0 328
423 -14 2804 2962 10 115 0
424 -8 1081 1245 10 320 0
425 7 776 856 10 0 43
426 -8 2462 2606 10 225 0
427 30 3596 3759 0 0 609
428 16 3254 3363 10 0 273
429 -9 3595 3719 10 199 0
430 12 1320 1428 10 0 513
431 -7 3856 3960 10 407 0
432 -8 1745 1942 10 240 0
433 18 1147 1270 10 0 520
434 -13 2209 2408 10 590 0
435 -15 0 4653 10 550 0
436 23 0 4669 10 0 85
437 11 0 4738 10 0 546
438 3 1420 1533 10 0 239
439 31 0 4765 10 0 207
440 23 28 108 10 0 114
441 -29 4051 4201 10 204 0
442 -9 0 4671 10 507 0
443 -14 1867 2001 10 99 0
444 -12 1768 1912 10 283 0
445 26 796 897 10 0 570
446 7 1723 1849 10 0 265
447 12 0 4692 10 0 49
448 9 1951 2047 10 0 189
449 -12 3432 3532 10 601 0
450 29 279 385 10 0 344
451 -16 3517 3594 10 82 0
452 -32 4603 4652 10 279 0
453 -16 2840 2885 10 64 0
454 15 13 200 10 0 89
455 -21 0 4687 10 420 0
456 30 0 4679 10 0 547
457 25 47 130 10 0 345
458 33 558 668 10 0 19
459 20 0 4782 10 0 120
460 14 415 526 10 0 371
461 12 313 450 10 0 565
462 21 305 370 10 0 206
463 14 0 4694 10 0 261
464 15 534 723 10 0 212
465 6 1514 1709 10 0 162
466 -23 3492 3562 10 313 0
467 -23 2339 2474 10 27 0
468 14 3319 3422 10 0 252
469 24 2066 2250 10 0 20
470 -8 2405 2503 10 9 0
471 -2 242 408 10 483 0
472 6 2286 2430 10 0 377
473 3 2181 2350 10 0 542
474 -12 0 4671 10 421 0
475 -18 1971 2088 10 237 0
476 17 1555 1739 10 0 539
477 17 0 4666 0 0 606
478 5 1637 1787 10 0 233
479 -2 2763 2842 10 593 0
480 -41 0 4744 10 411 0
481 21 132 223 10 0 10
482 -23 3752 3835 10 506 0
483 2 182 266 10 0 471
484 -34 0 4767 10 489 0
485 -22 1553 1715 10 123 0
486 -22 3539 3587 10 236 0
487 -23 3438 3553 10 529 0
488 15 1269 1422 10 0 271
489 34 573 720 10 0 484
490 -17 0 4645 10 104 0
491 -29 3131 3253 10 105 0
492 33 0 4652 10 0 556
493 17 688 779 10 0 566
494 22 2282 2421 10 0 360
495 6 555 638 10 0 576
496 -26 324 423 10 597 0
497 29 2655 2824 10 0 48
498 15 2165 2359 10 0 18
499 -18 2074 2135 10 126 0
500 24 0 4731 10 0 94
501 -23 2712 2860 10 182 0
502 -17 0 4715 10 416 0
503 21 0 4649 10 0 391
504 14 0 4706 10 0 147
505 1 62 228 10 0 134
506 23 0 4674 10 0 482
507 9 2704 2837 10 0 442
508 11 90 227 10 0 173
509 19 767 916 10 0 169
510 -21 3929 4055 10 122 0
511 -9 1616 1761 10 549 0
512 27 168 372 10 0 22
513 -12 1899 2001 10 430 0
514 -17 0 4711 10 181 0
515 -13 3775 3922 10 292 0
516 19 979 1083 10 0 39
517 17 2105 2216 10 0 80
518 9 2086 2183 10 0 343
519 -16 2067 2098 10 263 0
520 -18 0 4667 10 433 0
521 -22 0 4619 10 572 0
522 -45 3267 3425 10 387 0
523 12 0 4752 10 0 354
524 14 1340 1449 10 0 540
525 19 0 4747 10 0 258
526 18 528 631 10 0 575
527 -35 537 647 10 145 0
528 14 256 411 10 0 308
529 23 3111 3218 10 0 487
530 17 1334 1457 10 0 580
531 -24 0 4766 10 364 0
532 -5 2565 2678 10 34 0
533 22 87 197 10 0 535
534 36 0 4671 10 0 373
535 -22 1115 1216 10 533 0
536 -42 0 4665 10 136 0
537 -17 2650 2762 10 112 0
538 -12 3289 3411 10 266 0
539 -17 2273 2437 10 476 0
540 -14 3321 3432 10 524 0
541 -13 2927 3056 10 545 0
542 -3 0 4663 10 473 0
543 26 321 359 10 0 594
544 21 0 4668 10 0 340
545 13 454 646 10 0 541
546 -11 0 4729 10 437 0
547 -30 3830 3943 10 456 0
548 -19 0 4806 10 349 0
549 9 0 4767 10 0 511
550 15 850 975 10 0 435
551 22 398 442 10 0 399
552 -33 1514 1595 10 288 0
553 -11 0 4709 10 40 0
554 -13 3216 3367 10 558 0
555 35 2615 2771 10 0 12
556 -33 0 4657 10 492 0
557 29 0 4684 10 0 141
558 13 2750 2850 10 0 554
559 17 2117 2204 10 0 8
560 -26 2350 2505 10 270 0
561 -11 1189 1362 10 71 0
562 32 1930 2055 10 0 196
563 -13 2001 2129 10 165 0
564 -10 530 601 10 410 0
565 -12 858 998 10 461 0
566 -17 0 4672 10 493 0
567 17 0 4691 10 0 177
568 -15 2945 3149 10 381 0
569 -20 0 4696 10 218 0
570 -26 2698 2794 10 445 0
571 18 2288 2357 10 0 267
572 22 737 955 10 0 521
573 -13 0 4667 10 91 0
574 18 0 4639 10 0 154
575 -18 0 4662 10 526 0
576 -6 1130 1281 10 495 0
577 30 229 347 10 0 303
578 -2 636 806 10 302 0
579 -10 1047 1143 10 595 0
580 -17 0 4730 10 530 0
581 -28 1999 2093 10 156 0
582 -18 2652 2725 10 319 0
583 12 0 4704 10 0 395
584 -20 2125 2304 10 101 0
585 3 0 4725 10 0 86
586 7 0 4692 10 0 98
587 3 0 4676 10 0 255
588 -22 993 1083 10 60 0
589 19 977 1092 10 0 184
590 13 2280 2369 10 0 434
591 17 1846 1931 10 0 370
592 -5 442 496 10 297 0
593 2 0 4696 10 0 479
594 -26 2333 2507 10 543 0
595 10 937 1115 10 0 579
596 12 2784 2912 10 0 6
597 26 186 289 10 0 496
598 -33 0 4748 10 232 0
599 14 3270 3417 0 0 602
600 21 2886 3075 10 0 106
601 12 1793 1980 10 0 449
602 -14 3270 3417 10 599 0
603 -29 4201 4301 10 36 0
604 -24 0 4659 10 383 0
605 -14 2567 2761 10 78 0
606 -17 0 4666 10 477 0
607 -24 3538 3683 10 62 0
608 -1 2533 2658 10 247 0
609 -30 3596 3759 10 427 0
DEPOT_SECTION
1
-1
EOF
