NAME: lr2_6_7
TYPE: PDPTW
COMMENT: Li & Lim PDPTW benchmark converted from SINTEF format
DIMENSION: 607
VEHICLES: 150
CAPACITY: 1000
EDGE_WEIGHT_TYPE: EUC_2D
NODE_COORD_SECTION
1 150 150
2 133 187
3 277 41
4 284 244
5 38 139
6 117 178
7 241 298
8 76 221
9 175 251
10 45 115
11 216 203
12 178 263
13 51 2
14 274 6
15 232 121
16 110 83
17 275 263
18 114 211
19 61 84
20 80 35
21 298 135
22 60 72
23 75 127
24 102 173
25 276 28
26 165 179
27 289 143
28 69 134
29 61 138
30 283 144
31 97 232
32 120 241
33 173 64
34 176 263
35 117 168
36 184 102
37 157 221
38 108 3
39 29 8
40 136 241
41 16 42
42 183 282
43 154 299
44 136 68
45 230 80
46 151 172
47 136 50
48 8 200
49 72 20
50 57 125
51 208 47
52 262 14
53 139 250
54 220 18
55 191 234
56 111 40
57 227 5
58 265 141
59 272 211
60 56 116
61 170 93
62 120 155
63 3 119
64 208 290
65 285 283
66 290 37
67 180 106
68 29 139
69 37 159
70 201 175
71 128 155
72 94 93
73 3 135
74 279 36
75 46 155
76 15 178
77 15 219
78 275 146
79 268 113
80 207 149
81 179 123
82 103 8
83 176 235
84 253 84
85 51 217
86 114 259
87 212 45
88 276 66
89 243 136
90 160 17
91 183 80
92 177 281
93 123 76
94 80 86
95 299 153
96 40 236
97 38 74
98 289 130
99 147 152
100 243 191
101 9 239
102 238 103
103 236 108
104 189 197
105 64 91
106 159 266
107 281 68
108 78 246
109 211 239
110 7 31
111 140 18
112 69 208
113 105 252
114 99 105
115 166 123
116 139 146
117 261 232
118 92 241
119 107 174
120 173 148
121 72 286
122 236 27
123 106 243
124 63 170
125 136 228
126 246 166
127 102 81
128 271 105
129 93 117
130 227 192
131 262 80
132 205 44
133 278 178
134 17 0
135 116 14
136 119 254
137 107 281
138 86 216
139 189 201
140 263 291
141 11 191
142 192 150
143 131 222
144 108 80
145 259 187
146 297 43
147 112 43
148 182 146
149 205 130
150 289 209
151 157 254
152 291 148
153 201 122
154 244 13
155 162 148
156 20 245
157 60 287
158 213 119
159 234 146
160 231 28
161 288 127
162 82 35
163 159 300
164 296 252
165 207 20
166 122 96
167 133 153
168 54 136
169 28 141
170 208 208
171 2 81
172 8 4
173 30 145
174 186 26
175 83 77
176 203 283
177 129 83
178 172 198
179 157 12
180 52 109
181 237 171
182 126 42
183 24 261
184 250 49
185 40 1
186 96 86
187 223 198
188 188 198
189 107 291
190 181 277
191 239 295
192 229 40
193 198 159
194 297 213
195 220 43
196 295 123
197 57 192
198 36 212
199 45 74
200 117 155
201 168 42
202 296 235
203 116 245
204 254 206
205 241 183
206 118 38
207 51 63
208 44 189
209 183 43
210 141 120
211 37 126
212 290 219
213 224 138
214 25 64
215 194 11
216 100 138
217 88 49
218 57 127
219 25 191
220 217 43
221 96 96
222 135 139
223 41 279
224 217 138
225 18 196
226 30 149
227 224 61
228 248 280
229 94 12
230 18 184
231 266 39
232 103 81
233 125 148
234 28 124
235 293 62
236 213 299
237 158 291
238 12 10
239 53 141
240 208 297
241 227 62
242 209 84
243 226 248
244 238 214
245 102 76
246 220 182
247 88 110
248 224 229
249 219 152
250 102 155
251 246 93
252 175 123
253 43 52
254 151 113
255 184 237
256 274 256
257 266 212
258 117 79
259 26 27
260 256 286
261 157 276
262 107 29
263 229 179
264 162 92
265 135 38
266 283 275
267 108 298
268 11 242
269 5 189
270 225 192
271 187 129
272 14 165
273 214 6
274 152 241
275 200 26
276 202 161
277 211 174
278 81 219
279 255 203
280 31 68
281 139 270
282 85 75
283 88 190
284 140 294
285 225 210
286 166 99
287 140 214
288 251 195
289 246 133
290 59 113
291 113 62
292 72 89
293 247 19
294 135 251
295 159 41
296 73 81
297 125 136
298 24 76
299 84 231
300 206 121
301 242 70
302 76 160
303 18 151
304 11 185
305 109 148
306 126 233
307 121 116
308 110 31
309 107 39
310 181 297
311 96 199
312 34 5
313 252 219
314 234 107
315 51 278
316 239 84
317 172 2
318 153 226
319 112 272
320 110 145
321 175 294
322 202 292
323 282 104
324 160 179
325 143 223
326 263 193
327 14 177
328 127 77
329 188 69
330 159 287
331 47 153
332 274 136
333 175 281
334 26 0
335 126 127
336 232 45
337 38 44
338 183 44
339 296 17
340 2 238
341 149 76
342 57 7
343 280 158
344 131 78
345 131 220
346 128 225
347 250 194
348 76 280
349 9 122
350 203 166
351 235 31
352 120 60
353 136 295
354 119 183
355 1 11
356 283 65
357 274 66
358 247 86
359 167 171
360 262 164
361 222 100
362 271 106
363 233 119
364 37 149
365 150 185
366 93 165
367 203 36
368 124 299
369 241 208
370 108 162
371 80 67
372 139 31
373 4 296
374 170 53
375 253 69
376 246 123
377 183 88
378 230 135
379 148 8
380 159 199
381 148 299
382 159 89
383 109 299
384 250 228
385 211 62
386 300 44
387 210 236
388 172 225
389 12 275
390 180 93
391 29 72
392 75 265
393 174 238
394 166 194
395 271 8
396 158 140
397 267 29
398 15 52
399 15 88
400 154 207
401 15 2
402 126 266
403 175 107
404 44 223
405 15 209
406 289 79
407 194 234
408 132 16
409 83 188
410 152 77
411 216 40
412 9 63
413 206 157
414 287 293
415 58 240
416 184 277
417 162 250
418 82 100
419 27 255
420 230 128
421 19 290
422 154 101
423 265 78
424 40 181
425 229 188
426 119 214
427 190 181
428 228 41
429 152 29
430 99 226
431 142 188
432 209 269
433 52 165
434 63 130
435 37 36
436 23 218
437 129 77
438 180 98
439 114 117
440 151 133
441 221 145
442 30 226
443 182 81
444 45 190
445 195 9
446 72 36
447 90 44
448 121 246
449 282 76
450 150 67
451 4 97
452 188 142
453 285 285
454 163 150
455 272 183
456 279 189
457 148 172
458 155 93
459 181 145
460 147 43
461 75 191
462 150 104
463 103 260
464 234 213
465 9 30
466 125 168
467 165 256
468 176 153
469 16 22
470 156 182
471 88 124
472 176 72
473 85 62
474 71 268
475 110 262
476 109 61
477 229 25
478 186 228
479 173 72
480 198 100
481 164 108
482 284 72
483 98 129
484 167 193
485 34 150
486 161 242
487 139 110
488 265 197
489 241 218
490 238 294
491 94 109
492 8 227
493 25 119
494 238 206
495 1 145
496 208 117
497 47 203
498 4 294
499 199 213
500 74 117
501 156 57
502 189 240
503 1 81
504 89 61
505 122 127
506 260 64
507 15 259
508 112 161
509 60 176
510 264 35
511 189 41
512 158 83
513 56 212
514 228 217
515 157 50
516 37 14
517 116 240
518 225 73
519 125 278
520 14 204
521 296 279
522 215 295
523 135 210
524 80 131
525 157 84
526 29 130
527 250 124
528 143 67
529 69 90
530 47 143
531 106 168
532 266 203
533 124 174
534 33 231
535 67 175
536 132 297
537 230 150
538 208 235
539 183 23
540 149 98
541 228 276
542 113 4
543 203 183
544 6 168
545 127 266
546 176 70
547 271 145
548 148 157
549 180 114
550 25 14
551 99 73
552 209 246
553 207 237
554 75 269
555 152 258
556 37 258
557 42 221
558 143 244
559 87 183
560 212 270
561 113 188
562 294 64
563 296 15
564 159 42
565 48 141
566 11 176
567 148 28
568 173 152
569 40 192
570 272 70
571 71 294
572 296 211
573 248 41
574 259 14
575 5 195
576 30 243
577 80 133
578 57 123
579 153 61
580 72 180
581 59 287
582 147 240
583 191 49
584 44 286
585 169 236
586 254 87
587 182 284
588 101 114
589 281 8
590 103 93
591 64 170
592 47 121
593 139 33
594 139 206
595 145 38
596 137 212
597 206 130
598 111 98
599 43 62
600 214 234
601 199 28
602 205 130
603 285 283
604 157 276
605 88 110
606 167 171
607 133 187
PICKUP_AND_DELIVERY_SECTION
1 0 0 4823 0 0 0
2 16 4210 4450 0 0 607
3 14 0 4646 10 0 103
4 -12 0 4650 10 431 0
5 -8 0 4701 10 151 0
6 -9 3004 3244 10 448 0
7 27 0 4640 10 0 212
8 24 2822 3062 10 0 319
9 8 0 4709 10 0 24
10 13 807 1047 10 0 341
11 5 2103 2343 10 0 204
12 -15 2981 3221 10 521 0
13 41 0 4635 10 0 510
14 -21 0 4623 10 481 0
15 15 0 4727 10 0 547
16 22 726 966 10 0 79
17 33 608 848 10 0 454
18 10 0 4743 10 0 318
19 7 1274 1514 10 0 291
20 31 2000 2240 10 0 491
21 7 0 4665 10 0 363
22 -12 622 862 10 186 0
23 -15 2000 2240 10 296 0
24 -8 0 4760 10 9 0
25 9 991 1231 10 0 406
26 -29 0 4781 10 178 0
27 -26 0 4674 10 597 0
28 -2 2436 2676 10 471 0
29 -25 0 4724 10 565 0
30 6 413 653 10 0 70
31 -25 0 4716 10 138 0
32 -17 2362 2602 10 517 0
33 -11 2227 2467 10 295 0
34 5 0 4698 10 0 381
35 -4 0 4776 10 226 0
36 -23 4131 4371 10 161 0
37 10 1582 1822 10 0 554
38 -6 0 4661 10 465 0
39 24 2944 3184 10 0 438
40 11 1426 1666 10 0 584
41 -22 950 1190 10 551 0
42 42 0 4677 10 0 587
43 17 0 4664 10 0 470
44 -6 2317 2557 10 472 0
45 26 0 4707 10 0 459
46 -16 2937 3177 10 102 0
47 16 0 4713 10 0 308
48 -36 2685 2925 10 85 0
49 -27 0 4662 10 280 0
50 23 783 1023 10 0 328
51 6 0 4695 10 0 329
52 21 0 4637 10 0 235
53 17 0 4713 10 0 163
54 38 2424 2664 10 0 449
55 9 0 4720 10 0 523
56 -18 0 4697 10 282 0
57 -13 0 4649 10 379 0
58 22 0 4698 10 0 568
59 -16 1377 1617 10 100 0
60 -5 859 1099 10 297 0
61 -14 1842 2082 10 215 0
62 24 0 4783 10 0 334
63 8 2695 2935 10 0 259
64 16 0 4662 10 0 463
65 22 2154 2394 0 0 603
66 1 3205 3445 10 0 356
67 19 93 333 10 0 376
68 25 0 4692 10 0 171
69 -24 0 4700 10 364 0
70 -6 2711 2951 10 30 0
71 11 22 262 10 0 302
72 19 0 4734 10 0 540
73 7 0 4666 10 0 210
74 29 0 4641 10 0 323
75 -5 2961 3201 10 346 0
76 9 0 4676 10 0 544
77 -33 0 4662 10 492 0
78 14 2544 2784 10 0 488
79 -22 3311 3551 10 16 0
80 -4 0 4756 10 254 0
81 4 39 279 10 0 88
82 16 0 4664 10 0 477
83 33 236 476 10 0 203
84 -17 0 4691 10 131 0
85 36 0 4694 10 0 48
86 -20 0 4699 10 415 0
87 -12 0 4692 10 511 0
88 -4 0 4662 10 81 0
89 -15 0 4719 10 177 0
90 24 1301 1541 10 0 590
91 13 0 4736 10 0 241
92 -17 0 4680 10 416 0
93 -28 0 4735 10 195 0
94 -16 0 4719 10 268 0
95 -9 0 4664 10 549 0
96 11 0 4674 10 0 311
97 -27 0 4678 10 580 0
98 27 0 4673 10 0 358
99 14 3 243 10 0 442
100 16 287 527 10 0 59
101 20 0 4647 10 0 399
102 16 0 4714 10 0 46
103 -14 3480 3720 10 3 0
104 -23 0 4752 10 313 0
105 -17 0 4709 10 493 0
106 -34 3518 3758 10 343 0
107 -22 1968 2208 10 301 0
108 -13 0 4693 10 388 0
109 -25 2247 2487 10 202 0
110 29 0 4627 10 0 300
111 26 1520 1760 10 0 450
112 -33 0 4714 10 197 0
113 -17 0 4702 10 581 0
114 4 0 4745 10 0 127
115 14 31 271 10 0 231
116 34 11 251 10 0 320
117 12 1937 2177 10 0 522
118 -12 0 4706 10 283 0
119 21 77 317 10 0 366
120 -23 0 4790 10 506 0
121 17 1549 1789 10 0 217
122 -19 0 4663 10 286 0
123 22 692 932 10 0 267
124 19 1000 1240 10 0 430
125 2 1368 1608 10 0 519
126 -21 0 4716 10 560 0
127 -4 216 456 10 114 0
128 42 0 4684 10 0 518
129 -14 0 4748 10 524 0
130 -35 1198 1438 10 145 0
131 17 812 1052 10 0 84
132 9 0 4694 10 0 586
133 17 2682 2922 10 0 260
134 -15 0 4613 10 550 0
135 -19 2555 2795 10 516 0
136 -16 3167 3407 10 321 0
137 -27 432 672 10 402 0
138 25 772 1012 10 0 31
139 21 0 4749 10 0 394
140 2 689 929 10 0 572
141 12 2843 3083 10 0 436
142 -11 0 4771 10 553 0
143 -22 551 791 10 533 0
144 1 1839 2079 10 0 305
145 35 340 580 10 0 130
146 -13 0 4632 10 165 0
147 -14 0 4700 10 504 0
148 -32 3173 3413 10 324 0
149 30 3698 3938 0 0 602
150 23 0 4662 10 0 464
151 8 2006 2246 10 0 5
152 11 0 4672 10 0 375
153 -12 2827 3067 10 579 0
154 -13 2832 3072 10 192 0
155 25 2941 3181 10 0 380
156 -25 0 4652 10 315 0
157 15 3873 4113 10 0 474
158 -15 0 4743 10 496 0
159 -9 1348 1588 10 441 0
160 -24 3358 3598 10 469 0
161 23 2782 3022 10 0 36
162 -13 0 4680 10 412 0
163 -17 481 721 10 53 0
164 -18 0 4635 10 237 0
165 13 681 921 10 0 146
166 19 530 770 10 0 220
167 32 17 257 10 0 198
168 9 0 4716 10 0 232
169 25 2520 2760 10 0 503
170 16 362 602 10 0 353
171 -25 0 4650 10 68 0
172 29 695 935 10 0 337
173 -31 3328 3568 10 294 0
174 -18 2199 2439 10 351 0
175 -6 0 4714 10 495 0
176 6 2905 3145 10 0 413
177 15 2427 2667 10 0 89
178 29 0 4761 10 0 26
179 11 0 4675 10 0 336
180 30 0 4707 10 0 371
181 -45 0 4724 10 387 0
182 23 0 4703 10 0 213
183 -19 1970 2210 10 509 0
184 -33 1855 2095 10 564 0
185 -21 1736 1976 10 398 0
186 12 215 455 10 0 22
187 24 1776 2016 10 0 499
188 8 0 4752 10 0 484
189 17 2107 2347 10 0 520
190 15 1095 1335 10 0 536
191 11 0 4643 10 0 453
192 13 0 4678 10 0 154
193 -14 0 4765 10 468 0
194 21 0 4654 10 0 600
195 28 1679 1919 10 0 93
196 29 3019 3259 10 0 332
197 33 0 4711 10 0 112
198 -32 439 679 10 167 0
199 -17 1512 1752 10 530 0
200 22 0 4780 10 0 404
201 -19 0 4704 10 525 0
202 25 0 4645 10 0 109
203 -33 2249 2489 10 83 0
204 -5 2425 2665 10 11 0
205 12 0 4717 10 0 288
206 27 793 1033 10 0 595
207 6 451 691 10 0 355
208 13 332 572 10 0 569
209 14 0 4702 10 0 601
210 -7 0 4782 10 73 0
211 19 0 4698 10 0 578
212 -27 0 4657 10 7 0
213 -23 0 4739 10 182 0
214 -31 0 4662 10 439 0
215 14 1246 1486 10 0 61
216 24 760 1000 10 0 327
217 -17 0 4695 10 121 0
218 -12 1324 1564 10 234 0
219 -12 859 1099 10 461 0
220 -19 0 4687 10 166 0
221 -19 0 4737 10 592 0
222 12 18 258 10 0 483
223 -3 0 4645 10 535 0
224 -22 2702 2942 10 227 0
225 -18 0 4674 10 373 0
226 4 0 4693 10 0 35
227 22 1834 2074 10 0 224
228 -4 1102 1342 10 582 0
229 -25 0 4665 10 342 0
230 24 0 4677 10 0 391
231 -14 1970 2210 10 115 0
232 -9 0 4730 10 168 0
233 8 0 4788 10 0 561
234 12 0 4689 10 0 218
235 -21 0 4646 10 52 0
236 22 0 4652 10 0 360
237 18 589 829 10 0 164
238 22 1615 1855 10 0 428
239 16 0 4716 10 0 577
240 -26 1576 1816 10 552 0
241 -13 3159 3399 10 91 0
242 -23 1469 1709 10 252 0
243 17 0 4689 10 0 248
244 15 1773 2013 10 0 417
245 -24 3314 3554 10 500 0
246 -22 2392 2632 10 362 0
247 1 2476 2716 0 0 605
248 -17 0 4705 10 243 0
249 -31 3776 4016 10 369 0
250 -16 0 4765 10 290 0
251 -26 2114 2354 10 570 0
252 23 0 4777 10 0 242
253 31 2203 2443 10 0 408
254 4 1324 1564 10 0 80
255 14 2993 3233 10 0 502
256 -25 0 4650 10 457 0
257 11 0 4682 10 0 541
258 -21 0 4735 10 422 0
259 -8 3419 3659 10 63 0
260 -17 3117 3357 10 133 0
261 18 0 4687 0 0 604
262 -17 3985 4225 10 591 0
263 -16 908 1148 10 276 0
264 2 0 4754 10 0 386
265 -16 0 4700 10 312 0
266 -13 0 4631 10 558 0
267 -22 3461 3701 10 123 0
268 16 0 4647 10 0 94
269 5 525 765 10 0 372
270 26 2125 2365 10 0 456
271 -25 0 4771 10 480 0
272 -30 2010 2250 10 304 0
273 35 0 4656 10 0 573
274 2 2624 2864 10 0 325
275 -16 1718 1958 10 598 0
276 16 93 333 10 0 263
277 33 0 4748 10 0 285
278 -26 3794 4034 10 475 0
279 32 2860 3100 10 0 585
280 27 0 4669 10 0 49
281 -23 0 4693 10 345 0
282 18 0 4714 10 0 56
283 12 0 4740 10 0 118
284 18 0 4669 10 0 467
285 -33 0 4717 10 277 0
286 19 0 4760 10 0 122
287 -17 0 4749 10 333 0
288 -12 1093 1333 10 205 0
289 9 0 4716 10 0 537
290 16 0 4715 10 0 250
291 -7 2034 2274 10 19 0
292 -5 0 4714 10 419 0
293 -12 3213 3453 10 583 0
294 31 1877 2117 10 0 173
295 11 1165 1405 10 0 33
296 15 2163 2403 10 0 23
297 5 28 268 10 0 60
298 -21 0 4667 10 340 0
299 -5 2118 2358 10 478 0
300 -29 0 4750 10 110 0
301 22 0 4692 10 0 107
302 -11 179 419 10 71 0
303 -35 0 4681 10 444 0
304 30 1015 1255 10 0 272
305 -1 0 4772 10 144 0
306 20 0 4727 10 0 596
307 23 0 4769 10 0 452
308 -16 1392 1632 10 47 0
309 9 0 4694 10 0 403
310 10 590 830 10 0 347
311 -11 4017 4257 10 96 0
312 16 0 4628 10 0 265
313 23 0 4690 10 0 104
314 24 1294 1534 10 0 357
315 25 0 4652 10 0 156
316 -21 2277 2517 10 420 0
317 -19 2350 2590 10 589 0
318 -10 1464 1704 10 18 0
319 -24 0 4686 10 8 0
320 -34 603 843 10 116 0
321 16 1905 2145 10 0 136
322 -6 3572 3812 10 532 0
323 -29 1024 1264 10 74 0
324 32 3058 3298 10 0 148
325 -2 0 4740 10 274 0
326 29 1004 1244 10 0 494
327 -24 0 4675 10 216 0
328 -23 3259 3499 10 50 0
329 -6 2530 2770 10 51 0
330 21 1526 1766 10 0 485
331 9 3010 3250 10 0 466
332 -29 3158 3398 10 196 0
333 17 0 4680 10 0 287
334 -24 0 4619 10 62 0
335 40 0 4780 10 0 505
336 -11 3188 3428 10 179 0
337 -29 2543 2783 10 172 0
338 -27 375 615 10 512 0
339 -32 3080 3320 10 562 0
340 21 3302 3542 10 0 298
341 -13 3140 3380 10 10 0
342 25 0 4643 10 0 229
343 34 2531 2771 10 0 106
344 8 0 4739 10 0 462
345 23 423 663 10 0 281
346 5 0 4735 10 0 75
347 -10 3449 3689 10 310 0
348 27 0 4664 10 0 421
349 19 0 4670 10 0 374
350 20 0 4758 10 0 486
351 18 505 745 10 0 174
352 12 1990 2230 10 0 418
353 -16 0 4668 10 170 0
354 6 0 4768 10 0 433
355 -6 1859 2099 10 207 0
356 -1 0 4656 10 66 0
357 -24 0 4664 10 314 0
358 -27 787 1027 10 98 0
359 9 3371 3611 0 0 606
360 -22 3531 3771 10 236 0
361 -29 2845 3085 10 443 0
362 22 0 4685 10 0 246
363 -7 0 4725 10 21 0
364 24 0 4700 10 0 69
365 -7 0 4778 10 407 0
366 -21 116 356 10 119 0
367 -23 1529 1769 10 440 0
368 9 1110 1350 10 0 400
369 31 0 4706 10 0 249
370 24 2449 2689 10 0 437
371 -30 1647 1887 10 180 0
372 -5 0 4694 10 269 0
373 18 0 4607 10 0 225
374 -19 0 4714 10 349 0
375 -11 0 4682 10 152 0
376 -19 0 4714 10 67 0
377 -10 0 4743 10 513 0
378 -5 0 4732 10 396 0
379 13 0 4671 10 0 57
380 -25 3215 3455 10 155 0
381 -5 0 4664 10 34 0
382 22 0 4752 10 0 411
383 -17 0 4659 10 432 0
384 -12 3047 3287 10 455 0
385 -5 0 4706 10 588 0
386 -2 0 4630 10 264 0
387 45 3135 3375 10 0 181
388 13 0 4735 10 0 108
389 18 0 4627 10 0 529
390 -17 3816 4056 10 567 0
391 -24 0 4670 10 230 0
392 -18 0 4676 10 571 0
393 21 0 4722 10 0 594
394 -21 0 4767 10 139 0
395 -18 0 4627 10 574 0
396 5 12 252 10 0 378
397 -14 0 4645 10 528 0
398 21 547 787 10 0 185
399 -20 0 4665 10 101 0
400 -9 0 4756 10 368 0
401 5 1535 1775 10 0 542
402 27 0 4695 10 0 137
403 -9 4285 4525 10 309 0
404 -22 960 1200 10 200 0
405 -9 0 4666 10 507 0
406 -9 1502 1742 10 25 0
407 7 259 499 10 0 365
408 -31 0 4678 10 253 0
409 16 1217 1457 10 0 566
410 10 213 453 10 0 460
411 -22 548 788 10 382 0
412 13 0 4648 10 0 162
413 -6 3582 3822 10 176 0
414 -24 2092 2332 10 548 0
415 20 3038 3278 10 0 86
416 17 747 987 10 0 92
417 -15 0 4713 10 244 0
418 -12 0 4729 10 352 0
419 5 0 4652 10 0 292
420 21 1462 1702 10 0 316
421 -27 1489 1729 10 348 0
422 21 77 317 10 0 258
423 -4 0 4678 10 527 0
424 -6 0 4699 10 576 0
425 7 696 936 10 0 489
426 16 0 4742 10 0 534
427 30 0 4763 10 0 543
428 -22 3189 3429 10 238 0
429 10 3537 3777 10 0 546
430 -19 1254 1494 10 124 0
431 12 0 4775 10 0 4
432 17 1723 1963 10 0 383
433 -6 0 4714 10 354 0
434 -3 2188 2428 10 473 0
435 26 0 4653 10 0 593
436 -12 0 4669 10 141 0
437 -24 0 4738 10 370 0
438 -24 0 4753 10 39 0
439 31 0 4765 10 0 214
440 23 0 4796 10 0 367
441 9 0 4742 10 0 159
442 -14 0 4671 10 99 0
443 29 1814 2054 10 0 361
444 35 1720 1960 10 0 303
445 26 0 4665 10 0 482
446 7 0 4675 10 0 515
447 12 0 4692 10 0 487
448 9 1879 2119 10 0 6
449 -38 3362 3602 10 54 0
450 -26 0 4730 10 111 0
451 23 0 4658 10 0 599
452 -23 4507 4747 10 307 0
453 -11 0 4623 10 191 0
454 -33 0 4800 10 17 0
455 12 0 4687 10 0 384
456 -26 0 4679 10 270 0
457 25 0 4791 10 0 256
458 33 493 733 10 0 476
459 -26 0 4782 10 45 0
460 -10 351 591 10 410 0
461 12 262 502 10 0 219
462 -8 0 4767 10 344 0
463 -16 0 4694 10 64 0
464 -23 0 4708 10 150 0
465 6 0 4628 10 0 38
466 -9 3407 3647 10 331 0
467 -18 0 4706 10 284 0
468 14 0 4787 10 0 193
469 24 2038 2278 10 0 160
470 -17 2334 2574 10 43 0
471 2 205 445 10 0 28
472 6 2238 2478 10 0 44
473 3 2146 2386 10 0 434
474 -15 0 4671 10 157 0
475 26 0 4695 10 0 278
476 -33 0 4716 10 458 0
477 -16 0 4666 10 82 0
478 5 1592 1832 10 0 299
479 -27 2683 2923 10 501 0
480 25 0 4744 10 0 271
481 21 57 297 10 0 14
482 -26 0 4658 10 445 0
483 -12 104 344 10 222 0
484 -8 0 4767 10 188 0
485 -21 0 4697 10 330 0
486 -20 3443 3683 10 350 0
487 -12 0 4772 10 447 0
488 -14 0 4689 10 78 0
489 -7 527 767 10 425 0
490 -13 0 4645 10 545 0
491 -31 3072 3312 10 20 0
492 33 0 4652 10 0 77
493 17 613 853 10 0 105
494 -29 2232 2472 10 326 0
495 6 0 4664 10 0 175
496 15 253 493 10 0 158
497 29 0 4698 10 0 559
498 15 2142 2382 10 0 556
499 -24 1984 2224 10 187 0
500 24 0 4731 10 0 245
501 27 2666 2906 10 0 479
502 -14 0 4715 10 255 0
503 -25 0 4649 10 169 0
504 14 0 4706 10 0 147
505 -40 36 276 10 335 0
506 23 0 4674 10 0 120
507 9 2651 2891 10 0 405
508 11 39 279 10 0 575
509 19 721 961 10 0 183
510 -41 3872 4112 10 13 0
511 12 1569 1809 10 0 87
512 27 150 390 10 0 338
513 10 1830 2070 10 0 377
514 -22 0 4711 10 538 0
515 -7 3728 3968 10 446 0
516 19 911 1151 10 0 135
517 17 2041 2281 10 0 32
518 -42 2015 2255 10 128 0
519 -2 1963 2203 10 125 0
520 -17 0 4667 10 189 0
521 15 0 4619 10 0 12
522 -12 0 4655 10 117 0
523 -9 0 4752 10 55 0
524 14 1275 1515 10 0 129
525 19 0 4747 10 0 201
526 -29 0 4691 10 557 0
527 4 472 712 10 0 423
528 14 213 453 10 0 397
529 -18 0 4713 10 389 0
530 17 1276 1516 10 0 199
531 -35 0 4766 10 555 0
532 6 2502 2742 10 0 322
533 22 35 275 10 0 143
534 -16 0 4671 10 426 0
535 3 1045 1285 10 0 223
536 -15 0 4665 10 190 0
537 -9 2586 2826 10 289 0
538 22 3230 3470 10 0 514
539 -13 2235 2475 10 563 0
540 -19 3257 3497 10 72 0
541 -11 2871 3111 10 257 0
542 -5 0 4663 10 401 0
543 -30 220 460 10 427 0
544 -9 0 4668 10 76 0
545 13 430 670 10 0 490
546 -10 0 4729 10 429 0
547 -15 0 4692 10 15 0
548 24 0 4806 10 0 414
549 9 0 4767 10 0 95
550 15 792 1032 10 0 134
551 22 300 540 10 0 41
552 26 1435 1675 10 0 240
553 11 0 4709 10 0 142
554 -10 0 4673 10 37 0
555 35 0 4705 10 0 531
556 -15 0 4657 10 498 0
557 29 0 4684 10 0 526
558 13 0 4719 10 0 266
559 -29 2040 2280 10 497 0
560 21 2307 2547 10 0 126
561 -8 1155 1395 10 233 0
562 32 1873 2113 10 0 339
563 13 1945 2185 10 0 539
564 33 445 685 10 0 184
565 25 808 1048 10 0 29
566 -16 0 4672 10 409 0
567 17 0 4691 10 0 390
568 -22 2927 3167 10 58 0
569 -13 0 4696 10 208 0
570 26 0 4668 10 0 251
571 18 2203 2443 10 0 392
572 -2 726 966 10 140 0
573 -35 0 4667 10 273 0
574 18 0 4639 10 0 395
575 -11 0 4662 10 508 0
576 6 1085 1325 10 0 424
577 -16 0 4741 10 239 0
578 -19 0 4717 10 211 0
579 12 975 1215 10 0 153
580 27 0 4730 10 0 97
581 17 1926 2166 10 0 113
582 4 0 4723 10 0 228
583 12 0 4704 10 0 293
584 -11 2094 2334 10 40 0
585 -32 0 4725 10 279 0
586 -9 0 4692 10 132 0
587 -42 0 4676 10 42 0
588 5 918 1158 10 0 385
589 19 914 1154 10 0 317
590 -24 2205 2445 10 90 0
591 17 0 4725 10 0 262
592 19 349 589 10 0 221
593 -26 0 4696 10 435 0
594 -21 2300 2540 10 393 0
595 -27 0 4701 10 206 0
596 -20 2728 2968 10 306 0
597 26 118 358 10 0 27
598 16 0 4748 10 0 275
599 -23 3223 3463 10 451 0
600 -21 2861 3101 10 194 0
601 -14 1767 2007 10 209 0
602 -30 3698 3938 10 149 0
603 -22 2154 2394 10 65 0
604 -18 0 4687 10 261 0
605 -1 2476 2716 10 247 0
606 -9 3371 3611 10 359 0
607 -16 4210 4450 10 2 0
DEPOT_SECTION
1
-1
EOF
