NAME: lr2_6_6
TYPE: PDPTW
COMMENT: Li & Lim PDPTW benchmark converted from SINTEF format
DIMENSION: 605
VEHICLES: 150
CAPACITY: 1000
EDGE_WEIGHT_TYPE: EUC_2D
NODE_COORD_SECTION
1 150 150
2 133 187
3 277 41
4 284 244
5 38 139
6 117 178
7 241 298
8 76 221
9 175 251
10 45 115
11 216 203
12 178 263
13 51 2
14 274 6
15 232 121
16 110 83
17 275 263
18 114 211
19 61 84
20 80 35
21 298 135
22 60 72
23 75 127
24 102 173
25 276 28
26 165 179
27 289 143
28 69 134
29 61 138
30 283 144
31 97 232
32 120 241
33 173 64
34 176 263
35 117 168
36 184 102
37 157 221
38 108 3
39 29 8
40 136 241
41 16 42
42 183 282
43 154 299
44 136 68
45 230 80
46 151 172
47 136 50
48 8 200
49 72 20
50 57 125
51 208 47
52 262 14
53 139 250
54 220 18
55 191 234
56 111 40
57 227 5
58 265 141
59 272 211
60 56 116
61 170 93
62 120 155
63 3 119
64 208 290
65 285 283
66 290 37
67 180 106
68 29 139
69 37 159
70 201 175
71 128 155
72 94 93
73 3 135
74 279 36
75 46 155
76 15 178
77 15 219
78 275 146
79 268 113
80 207 149
81 179 123
82 103 8
83 176 235
84 253 84
85 51 217
86 114 259
87 212 45
88 276 66
89 243 136
90 160 17
91 183 80
92 177 281
93 123 76
94 80 86
95 299 153
96 40 236
97 38 74
98 289 130
99 147 152
100 243 191
101 9 239
102 238 103
103 236 108
104 189 197
105 64 91
106 159 266
107 281 68
108 78 246
109 211 239
110 7 31
111 140 18
112 69 208
113 105 252
114 99 105
115 166 123
116 139 146
117 261 232
118 92 241
119 107 174
120 173 148
121 72 286
122 236 27
123 106 243
124 63 170
125 136 228
126 246 166
127 102 81
128 271 105
129 93 117
130 227 192
131 262 80
132 205 44
133 278 178
134 17 0
135 116 14
136 119 254
137 107 281
138 86 216
139 189 201
140 263 291
141 11 191
142 192 150
143 131 222
144 108 80
145 259 187
146 297 43
147 112 43
148 182 146
149 205 130
150 289 209
151 157 254
152 291 148
153 201 122
154 244 13
155 162 148
156 20 245
157 60 287
158 213 119
159 234 146
160 231 28
161 288 127
162 82 35
163 159 300
164 296 252
165 207 20
166 122 96
167 133 153
168 54 136
169 28 141
170 208 208
171 2 81
172 8 4
173 30 145
174 186 26
175 83 77
176 203 283
177 129 83
178 172 198
179 157 12
180 52 109
181 237 171
182 126 42
183 24 261
184 250 49
185 40 1
186 96 86
187 223 198
188 188 198
189 107 291
190 181 277
191 239 295
192 229 40
193 198 159
194 297 213
195 220 43
196 295 123
197 57 192
198 36 212
199 45 74
200 117 155
201 168 42
202 296 235
203 116 245
204 254 206
205 241 183
206 118 38
207 51 63
208 44 189
209 183 43
210 141 120
211 37 126
212 290 219
213 224 138
214 25 64
215 194 11
216 100 138
217 88 49
218 57 127
219 25 191
220 217 43
221 96 96
222 135 139
223 41 279
224 217 138
225 18 196
226 30 149
227 224 61
228 248 280
229 94 12
230 18 184
231 266 39
232 103 81
233 125 148
234 28 124
235 293 62
236 213 299
237 158 291
238 12 10
239 53 141
240 208 297
241 227 62
242 209 84
243 226 248
244 238 214
245 102 76
246 220 182
247 88 110
248 224 229
249 219 152
250 102 155
251 246 93
252 175 123
253 43 52
254 151 113
255 184 237
256 274 256
257 266 212
258 117 79
259 26 27
260 256 286
261 157 276
262 107 29
263 229 179
264 162 92
265 135 38
266 283 275
267 108 298
268 11 242
269 5 189
270 225 192
271 187 129
272 14 165
273 214 6
274 152 241
275 200 26
276 202 161
277 211 174
278 81 219
279 255 203
280 31 68
281 139 270
282 85 75
283 88 190
284 140 294
285 225 210
286 166 99
287 140 214
288 251 195
289 246 133
290 59 113
291 113 62
292 72 89
293 247 19
294 135 251
295 159 41
296 73 81
297 125 136
298 24 76
299 84 231
300 206 121
301 242 70
302 76 160
303 18 151
304 11 185
305 109 148
306 126 233
307 121 116
308 110 31
309 107 39
310 181 297
311 96 199
312 34 5
313 252 219
314 234 107
315 51 278
316 239 84
317 172 2
318 153 226
319 112 272
320 110 145
321 175 294
322 202 292
323 282 104
324 160 179
325 143 223
326 263 193
327 14 177
328 127 77
329 188 69
330 159 287
331 47 153
332 274 136
333 175 281
334 26 0
335 126 127
336 232 45
337 38 44
338 183 44
339 296 17
340 2 238
341 149 76
342 57 7
343 280 158
344 131 78
345 131 220
346 128 225
347 250 194
348 76 280
349 9 122
350 203 166
351 235 31
352 120 60
353 136 295
354 119 183
355 1 11
356 283 65
357 274 66
358 247 86
359 167 171
360 262 164
361 222 100
362 271 106
363 233 119
364 37 149
365 150 185
366 93 165
367 203 36
368 124 299
369 241 208
370 108 162
371 80 67
372 139 31
373 4 296
374 170 53
375 253 69
376 246 123
377 183 88
378 230 135
379 148 8
380 159 199
381 148 299
382 159 89
383 109 299
384 250 228
385 211 62
386 300 44
387 210 236
388 172 225
389 12 275
390 180 93
391 29 72
392 75 265
393 174 238
394 166 194
395 271 8
396 158 140
397 267 29
398 15 52
399 15 88
400 154 207
401 15 2
402 126 266
403 175 107
404 44 223
405 15 209
406 289 79
407 194 234
408 132 16
409 83 188
410 152 77
411 216 40
412 9 63
413 206 157
414 287 293
415 58 240
416 184 277
417 162 250
418 82 100
419 27 255
420 230 128
421 19 290
422 154 101
423 265 78
424 40 181
425 229 188
426 119 214
427 190 181
428 228 41
429 152 29
430 99 226
431 142 188
432 209 269
433 52 165
434 63 130
435 37 36
436 23 218
437 129 77
438 180 98
439 114 117
440 151 133
441 221 145
442 30 226
443 182 81
444 45 190
445 195 9
446 72 36
447 90 44
448 121 246
449 282 76
450 150 67
451 4 97
452 188 142
453 285 285
454 163 150
455 272 183
456 279 189
457 148 172
458 155 93
459 181 145
460 147 43
461 75 191
462 150 104
463 103 260
464 234 213
465 9 30
466 125 168
467 165 256
468 176 153
469 16 22
470 156 182
471 88 124
472 176 72
473 85 62
474 71 268
475 110 262
476 109 61
477 229 25
478 186 228
479 173 72
480 198 100
481 164 108
482 284 72
483 98 129
484 167 193
485 34 150
486 161 242
487 139 110
488 265 197
489 241 218
490 238 294
491 94 109
492 8 227
493 25 119
494 238 206
495 1 145
496 208 117
497 47 203
498 4 294
499 199 213
500 74 117
501 156 57
502 189 240
503 1 81
504 89 61
505 122 127
506 260 64
507 15 259
508 112 161
509 60 176
510 264 35
511 189 41
512 158 83
513 56 212
514 228 217
515 157 50
516 37 14
517 116 240
518 225 73
519 125 278
520 14 204
521 296 279
522 215 295
523 135 210
524 80 131
525 157 84
526 29 130
527 250 124
528 143 67
529 69 90
530 47 143
531 106 168
532 266 203
533 124 174
534 33 231
535 67 175
536 132 297
537 230 150
538 208 235
539 183 23
540 149 98
541 228 276
542 113 4
543 203 183
544 6 168
545 127 266
546 176 70
547 271 145
548 148 157
549 180 114
550 25 14
551 99 73
552 209 246
553 207 237
554 75 269
555 152 258
556 37 258
557 42 221
558 143 244
559 87 183
560 212 270
561 113 188
562 294 64
563 296 15
564 159 42
565 48 141
566 11 176
567 148 28
568 173 152
569 40 192
570 272 70
571 71 294
572 296 211
573 248 41
574 259 14
575 5 195
576 30 243
577 80 133
578 57 123
579 153 61
580 72 180
581 59 287
582 147 240
583 191 49
584 44 286
585 169 236
586 254 87
587 182 284
588 101 114
589 281 8
590 103 93
591 64 170
592 47 121
593 139 33
594 139 206
595 145 38
596 137 212
597 206 130
598 111 98
599 43 62
600 214 234
601 199 28
602 126 127
603 126 266
604 1 145
605 129 77
PICKUP_AND_DELIVERY_SECTION
1 0 0 4823 0 0 0
2 -18 4210 4450 10 319 0
3 -41 0 4646 10 14 0
4 12 0 4650 10 0 572
5 12 0 4701 10 0 239
6 -14 3004 3244 10 255 0
7 -17 1787 2027 10 432 0
8 24 2822 3062 10 0 281
9 -25 0 4709 10 68 0
10 -5 807 1047 10 297 0
11 5 2103 2343 10 0 109
12 -20 2981 3221 10 325 0
13 -21 808 1048 10 217 0
14 41 0 4623 10 0 3
15 15 2249 2489 10 0 78
16 22 726 966 10 0 473
17 33 608 848 10 0 288
18 10 0 4743 10 0 524
19 -33 1274 1514 10 232 0
20 -6 2000 2240 10 465 0
21 -15 3541 3781 10 308 0
22 2 622 862 10 0 193
23 37 2000 2240 10 0 429
24 -34 0 4760 10 116 0
25 9 991 1231 10 0 160
26 -12 3265 3505 10 523 0
27 23 488 728 10 0 413
28 46 2436 2676 10 0 575
29 9 0 4724 10 0 169
30 6 413 653 10 0 98
31 -16 0 4716 10 170 0
32 -9 2362 2602 10 448 0
33 -13 2227 2467 10 379 0
34 -27 2379 2619 10 228 0
35 -22 37 277 10 533 0
36 -25 4131 4371 10 510 0
37 -30 1582 1822 10 569 0
38 16 0 4661 10 0 105
39 -12 2944 3184 10 186 0
40 11 1426 1666 10 0 324
41 -2 950 1190 10 93 0
42 42 1706 1946 10 0 453
43 17 0 4664 10 0 490
44 19 2317 2557 10 0 515
45 -17 0 4707 10 88 0
46 -27 2937 3177 10 285 0
47 16 927 1167 10 0 574
48 21 2685 2925 10 0 599
49 -21 0 4662 10 503 0
50 -1 783 1023 10 505 0
51 6 353 593 10 0 573
52 -14 2733 2973 10 209 0
53 17 2472 2712 10 0 86
54 -12 2424 2664 10 579 0
55 9 254 494 10 0 85
56 22 0 4697 10 0 147
57 -9 0 4649 10 317 0
58 22 0 4698 10 0 347
59 8 1377 1617 10 0 257
60 22 859 1099 10 0 565
61 -4 1842 2082 10 114 0
62 -17 3491 3731 10 112 0
63 -1 2695 2935 10 144 0
64 16 1162 1402 10 0 463
65 22 2154 2394 10 0 486
66 -11 3205 3445 10 184 0
67 -4 93 333 10 81 0
68 25 423 663 10 0 9
69 -13 406 646 10 208 0
70 -31 2711 2951 10 439 0
71 11 22 262 10 0 531
72 19 3578 3818 10 0 307
73 -33 2612 2852 10 221 0
74 -11 2711 2951 10 295 0
75 -15 2961 3201 10 129 0
76 -12 3012 3252 10 141 0
77 -25 0 4662 10 315 0
78 -15 2544 2784 10 15 0
79 -21 3311 3551 10 374 0
80 -9 0 4756 10 309 0
81 4 39 279 10 0 67
82 -19 2667 2907 10 525 0
83 33 236 476 10 0 509
84 -30 0 4691 10 87 0
85 -9 0 4694 10 55 0
86 -17 3174 3414 10 53 0
87 30 0 4692 10 0 84
88 17 486 726 10 0 45
89 -4 0 4719 10 527 0
90 24 1301 1541 10 0 282
91 13 232 472 10 0 586
92 16 0 4680 10 0 311
93 2 0 4735 10 0 41
94 -12 0 4719 10 162 0
95 12 1580 1820 10 0 427
96 11 0 4674 10 0 558
97 16 0 4678 10 0 229
98 -6 1258 1498 10 30 0
99 14 3 243 10 0 198
100 16 287 527 10 0 489
101 20 1203 1443 10 0 183
102 16 0 4714 10 0 128
103 -26 3480 3720 10 539 0
104 17 0 4752 10 0 394
105 -16 0 4709 10 38 0
106 -14 3518 3758 10 414 0
107 23 1968 2208 10 0 146
108 27 0 4693 10 0 534
109 -5 2247 2487 10 11 0
110 29 0 4627 10 0 399
111 -33 1520 1760 10 564 0
112 17 2268 2508 10 0 62
113 -18 0 4702 10 261 0
114 4 940 1180 10 0 61
115 14 31 271 10 0 153
116 34 11 251 10 0 24
117 -22 1937 2177 10 236 0
118 -8 3007 3247 10 240 0
119 21 77 317 10 0 302
120 -9 0 4790 10 441 0
121 17 1549 1789 10 0 581
122 21 1428 1668 10 0 291
123 22 692 932 10 0 173
124 19 1000 1240 10 0 444
125 -12 1368 1608 10 461 0
126 -38 0 4716 10 159 0
127 12 216 456 10 0 207
128 -16 2409 2649 10 102 0
129 15 0 4748 10 0 75
130 -2 1198 1438 10 140 0
131 -8 812 1052 10 385 0
132 -11 0 4694 10 179 0
133 17 2682 2922 10 0 243
134 11 2250 2490 10 0 135
135 -11 2555 2795 10 134 0
136 -16 3167 3407 10 426 0
137 -24 432 672 10 287 0
138 -26 772 1012 10 543 0
139 -31 3845 4085 10 369 0
140 2 689 929 10 0 130
141 12 2843 3083 10 0 76
142 6 48 288 10 0 203
143 21 551 791 10 0 304
144 1 1839 2079 10 0 63
145 -15 340 580 10 454 0
146 -23 2828 3068 10 107 0
147 -22 0 4700 10 56 0
148 -13 3173 3413 10 590 0
149 -5 3698 3938 10 224 0
150 -15 0 4662 10 163 0
151 -15 2006 2246 10 190 0
152 11 0 4672 10 0 548
153 -14 2827 3067 10 115 0
154 10 2832 3072 10 0 332
155 -2 2941 3181 10 264 0
156 28 889 1129 10 0 478
157 -16 3873 4113 10 519 0
158 25 2855 3095 10 0 452
159 38 1348 1588 10 0 126
160 -9 3358 3598 10 25 0
161 -12 2782 3022 10 601 0
162 12 0 4680 10 0 94
163 15 481 721 10 0 150
164 -19 0 4635 10 212 0
165 -14 681 921 10 460 0
166 19 530 770 10 0 252
167 32 17 257 10 0 305
168 9 938 1178 10 0 177
169 -9 2520 2760 10 29 0
170 16 362 602 10 0 31
171 -13 998 1238 10 412 0
172 29 695 935 10 0 451
173 -22 3328 3568 10 123 0
174 -14 2199 2439 10 504 0
175 -29 1651 1891 10 450 0
176 -24 2905 3145 10 383 0
177 -9 2427 2667 10 168 0
178 -6 0 4761 10 576 0
179 11 0 4675 10 0 132
180 30 305 545 10 0 211
181 -15 1518 1758 10 496 0
182 23 835 1075 10 0 595
183 -20 1970 2210 10 101 0
184 11 1855 2095 10 0 66
185 38 1736 1976 10 0 447
186 12 215 455 10 0 39
187 24 1776 2016 10 0 359
188 8 0 4752 10 0 431
189 17 2107 2347 10 0 415
190 15 1095 1335 10 0 151
191 -10 2950 3190 10 256 0
192 -21 897 1137 10 357 0
193 -2 3051 3291 10 22 0
194 21 0 4654 10 0 263
195 28 1679 1919 10 0 443
196 29 3019 3259 10 0 547
197 33 0 4711 10 0 270
198 -14 439 679 10 99 0
199 -19 1512 1752 10 286 0
200 22 0 4780 10 0 213
201 -26 0 4704 10 408 0
202 25 2181 2421 10 0 260
203 -6 2249 2489 10 142 0
204 -34 2425 2665 10 343 0
205 12 0 4717 10 0 248
206 -26 793 1033 10 445 0
207 -12 451 691 10 127 0
208 13 332 572 10 0 69
209 14 0 4702 10 0 52
210 -17 0 4782 10 567 0
211 -30 555 795 10 180 0
212 19 0 4657 10 0 164
213 -22 0 4739 10 200 0
214 -21 2426 2666 10 422 0
215 14 1246 1486 10 0 518
216 -8 760 1000 10 320 0
217 21 625 865 10 0 13
218 -19 1324 1564 10 592 0
219 16 859 1099 10 0 571
220 -12 0 4687 10 250 0
221 33 1959 2199 10 0 73
222 12 18 258 10 0 483
223 11 0 4645 10 0 299
224 5 2702 2942 10 0 149
225 8 1669 1909 10 0 344
226 -17 1503 1743 10 493 0
227 22 1834 2074 10 0 472
228 27 1102 1342 10 0 34
229 -16 1836 2076 10 97 0
230 -19 1423 1663 10 349 0
231 -23 1970 2210 10 506 0
232 33 0 4730 10 0 19
233 8 3311 3551 10 0 466
234 12 2761 3001 10 0 245
235 10 0 4646 10 0 477
236 22 0 4652 10 0 117
237 18 589 829 10 0 310
238 22 1615 1855 10 0 470
239 -12 0 4716 10 5 0
240 8 1576 1816 10 0 118
241 16 3159 3399 10 0 403
242 13 1469 1709 10 0 491
243 -17 3351 3591 10 133 0
244 -13 1773 2013 10 366 0
245 -12 3314 3554 10 234 0
246 -18 2392 2632 10 318 0
247 1 2476 2716 10 0 341
248 -12 1304 1544 10 205 0
249 -2 3776 4016 10 593 0
250 12 694 934 10 0 220
251 -9 2114 2354 10 289 0
252 -19 3231 3471 10 166 0
253 -10 2203 2443 10 410 0
254 -5 1324 1564 10 588 0
255 14 2993 3233 10 0 6
256 10 3126 3366 10 0 191
257 -8 0 4682 10 59 0
258 -23 0 4735 10 440 0
259 -19 3419 3659 10 516 0
260 -25 3117 3357 10 202 0
261 18 0 4687 10 0 113
262 -15 3985 4225 10 303 0
263 -21 908 1148 10 194 0
264 2 474 714 10 0 155
265 -12 0 4700 10 371 0
266 12 2897 3137 10 0 522
267 17 3461 3701 10 0 278
268 -23 0 4647 10 436 0
269 5 525 765 10 0 404
270 -33 2125 2365 10 197 0
271 -12 3067 3307 10 334 0
272 -24 2010 2250 10 364 0
273 -15 3400 3640 10 336 0
274 2 2624 2864 10 0 541
275 -17 1718 1958 10 476 0
276 16 93 333 10 0 416
277 33 0 4748 10 0 459
278 -17 3794 4034 10 267 0
279 -18 2860 3100 10 376 0
280 27 1932 2172 10 0 542
281 -24 3025 3265 10 8 0
282 -24 0 4714 10 90 0
283 12 0 4740 10 0 434
284 -24 1577 1817 10 417 0
285 27 0 4717 10 0 46
286 19 0 4760 10 0 199
287 24 0 4749 10 0 137
288 -33 1093 1333 10 17 0
289 9 0 4716 10 0 251
290 16 0 4715 10 0 409
291 -21 2034 2274 10 122 0
292 -16 0 4714 10 312 0
293 -8 3213 3453 10 339 0
294 31 1877 2117 10 0 554
295 11 1165 1405 10 0 74
296 -7 2163 2403 10 446 0
297 5 28 268 10 0 10
298 23 0 4667 10 0 337
299 -11 2118 2358 10 223 0
300 -6 2924 3164 10 354 0
301 22 465 705 10 0 375
302 -21 179 419 10 119 0
303 15 0 4681 10 0 262
304 -21 1015 1255 10 143 0
305 -32 0 4772 10 167 0
306 -11 1505 1745 10 556 0
307 -19 0 4769 10 72 0
308 15 1392 1632 10 0 21
309 9 0 4694 10 0 80
310 -18 590 830 10 237 0
311 -16 4017 4257 10 92 0
312 16 2880 3120 10 0 292
313 23 0 4690 10 0 322
314 24 1294 1534 10 0 384
315 25 0 4652 10 0 77
316 -15 2277 2517 10 378 0
317 9 2350 2590 10 0 57
318 18 1464 1704 10 0 246
319 18 0 4686 10 0 2
320 8 603 843 10 0 216
321 -25 1905 2145 10 457 0
322 -23 3572 3812 10 313 0
323 -41 1024 1264 10 411 0
324 -11 3058 3298 10 40 0
325 20 1553 1793 10 0 12
326 -22 1004 1244 10 365 0
327 17 485 725 10 0 368
328 11 3259 3499 10 0 487
329 -18 2530 2770 10 526 0
330 -7 1526 1766 10 425 0
331 -11 3010 3250 10 508 0
332 -10 3158 3398 10 154 0
333 -15 0 4680 10 464 0
334 12 0 4619 10 0 271
335 40 0 4780 0 0 602
336 15 3188 3428 10 0 273
337 -23 2543 2783 10 298 0
338 17 375 615 10 0 372
339 8 3080 3320 10 0 293
340 21 3302 3542 10 0 520
341 -1 3140 3380 10 247 0
342 25 1588 1828 10 0 549
343 34 2531 2771 10 0 204
344 -8 0 4739 10 225 0
345 23 423 663 10 0 389
346 -3 2486 2726 10 587 0
347 -22 3449 3689 10 58 0
348 27 0 4664 10 0 560
349 19 806 1046 10 0 230
350 -22 0 4758 10 538 0
351 18 505 745 10 0 562
352 12 1990 2230 10 0 529
353 18 1904 2144 10 0 475
354 6 2208 2448 10 0 300
355 -24 1859 2099 10 469 0
356 27 1740 1980 10 0 397
357 21 641 881 10 0 192
358 21 787 1027 10 0 570
359 -24 3371 3611 10 187 0
360 -22 3531 3771 10 362 0
361 -21 2845 3085 10 481 0
362 22 2290 2530 10 0 360
363 -21 0 4725 10 420 0
364 24 1426 1666 10 0 272
365 22 61 301 10 0 326
366 13 116 356 10 0 244
367 18 1529 1769 10 0 544
368 -17 1110 1350 10 327 0
369 31 0 4706 10 0 139
370 -3 2449 2689 10 438 0
371 12 1647 1887 10 0 265
372 -17 1857 2097 10 338 0
373 -13 3274 3514 10 388 0
374 21 587 827 10 0 79
375 -22 2490 2730 10 301 0
376 18 0 4714 10 0 279
377 35 3455 3695 10 0 390
378 15 0 4732 10 0 316
379 13 0 4671 10 0 33
380 -4 3215 3455 10 582 0
381 -40 0 4664 10 536 0
382 22 0 4752 10 0 559
383 24 0 4659 10 0 176
384 -24 3047 3287 10 314 0
385 8 308 548 10 0 131
386 -19 2967 3207 10 406 0
387 -12 3135 3375 10 455 0
388 13 378 618 10 0 373
389 -23 1988 2228 10 345 0
390 -35 3816 4056 10 377 0
391 -15 3617 3857 10 550 0
392 -7 0 4676 10 407 0
393 -3 4033 4273 10 585 0
394 -17 0 4767 10 104 0
395 36 0 4627 10 0 423
396 5 12 252 10 0 418
397 -27 1776 2016 10 356 0
398 21 547 787 10 0 435
399 -29 1318 1558 10 110 0
400 -13 1615 1855 10 566 0
401 -33 1535 1775 10 458 0
402 27 0 4695 0 0 603
403 -16 4285 4525 10 241 0
404 -5 960 1200 10 269 0
405 -33 3469 3709 10 492 0
406 19 1502 1742 10 0 386
407 7 259 499 10 0 392
408 26 937 1177 10 0 201
409 -16 1217 1457 10 290 0
410 10 213 453 10 0 253
411 41 548 788 10 0 323
412 13 1177 1417 10 0 171
413 -23 3582 3822 10 27 0
414 14 2092 2332 10 0 106
415 -17 3038 3278 10 189 0
416 -16 747 987 10 276 0
417 24 722 962 10 0 284
418 -5 2250 2490 10 396 0
419 5 902 1142 10 0 594
420 21 1462 1702 10 0 363
421 12 1489 1729 10 0 584
422 21 77 317 10 0 214
423 -36 2763 3003 10 395 0
424 26 1043 1283 10 0 498
425 7 696 936 10 0 330
426 16 2414 2654 10 0 136
427 -12 3558 3798 10 95 0
428 16 3189 3429 10 0 480
429 -37 3537 3777 10 23 0
430 12 1254 1494 10 0 561
431 -8 3788 4028 10 188 0
432 17 1723 1963 10 0 7
433 -19 1089 1329 10 578 0
434 -12 2188 2428 10 283 0
435 -21 0 4653 10 398 0
436 23 0 4669 10 0 268
437 11 0 4738 0 0 605
438 3 1357 1597 10 0 370
439 31 0 4765 10 0 70
440 23 17 257 10 0 258
441 9 4006 4246 10 0 120
442 -29 0 4671 10 557 0
443 -28 1814 2054 10 195 0
444 -19 1720 1960 10 124 0
445 26 727 967 10 0 206
446 7 1666 1906 10 0 296
447 -38 0 4692 10 185 0
448 9 1879 2119 10 0 32
449 26 3362 3602 10 0 482
450 29 212 452 10 0 175
451 -29 3435 3675 10 172 0
452 -25 4507 4747 10 158 0
453 -42 2742 2982 10 42 0
454 15 13 253 10 0 145
455 12 0 4687 10 0 387
456 -26 0 4679 10 597 0
457 25 22 262 10 0 321
458 33 493 733 10 0 401
459 -33 0 4782 10 277 0
460 14 351 591 10 0 165
461 12 262 502 10 0 125
462 21 217 457 10 0 512
463 -16 0 4694 10 64 0
464 15 508 748 10 0 333
465 6 1491 1731 10 0 20
466 -8 3407 3647 10 233 0
467 12 2287 2527 10 0 555
468 -12 3250 3490 10 568 0
469 24 2038 2278 10 0 355
470 -22 2334 2574 10 238 0
471 2 205 445 10 0 546
472 -22 2238 2478 10 227 0
473 -22 2146 2386 10 16 0
474 -17 0 4671 10 517 0
475 -18 1909 2149 10 353 0
476 17 1527 1767 10 0 275
477 -10 0 4666 10 235 0
478 -28 1592 1832 10 156 0
479 -17 2683 2923 10 530 0
480 -16 0 4744 10 428 0
481 21 57 297 10 0 361
482 -26 3673 3913 10 449 0
483 -12 104 344 10 222 0
484 -12 0 4767 10 596 0
485 15 1514 1754 10 0 513
486 -22 3443 3683 10 65 0
487 -11 3376 3616 10 328 0
488 -13 1226 1466 10 545 0
489 -16 527 767 10 100 0
490 -17 0 4645 10 43 0
491 -13 3072 3312 10 242 0
492 33 0 4652 10 0 405
493 17 613 853 10 0 226
494 -27 2232 2472 10 580 0
495 6 476 716 0 0 604
496 15 253 493 10 0 181
497 29 2619 2859 10 0 507
498 -26 2142 2382 10 424 0
499 13 1984 2224 10 0 553
500 24 0 4731 10 0 540
501 -3 2666 2906 10 535 0
502 -32 0 4715 10 514 0
503 21 0 4649 10 0 49
504 14 0 4706 10 0 174
505 1 36 276 10 0 50
506 23 0 4674 10 0 231
507 -29 2651 2891 10 497 0
508 11 39 279 10 0 331
509 -33 721 961 10 83 0
510 25 3872 4112 10 0 36
511 12 1569 1809 10 0 583
512 -21 150 390 10 462 0
513 -15 1830 2070 10 485 0
514 32 0 4711 10 0 502
515 -19 3728 3968 10 44 0
516 19 911 1151 10 0 259
517 17 2041 2281 10 0 474
518 -14 2015 2255 10 215 0
519 16 1963 2203 10 0 157
520 -21 0 4667 10 340 0
521 -26 0 4619 10 552 0
522 -12 3226 3466 10 266 0
523 12 0 4752 10 0 26
524 -10 1275 1515 10 18 0
525 19 0 4747 10 0 82
526 18 459 699 10 0 329
527 4 472 712 10 0 89
528 14 213 453 10 0 551
529 -12 3045 3285 10 352 0
530 17 1276 1516 10 0 479
531 -11 0 4766 10 71 0
532 6 2502 2742 10 0 600
533 22 35 275 10 0 35
534 -27 0 4671 10 108 0
535 3 1045 1285 10 0 501
536 40 0 4665 10 0 381
537 -16 2586 2826 10 598 0
538 22 3230 3470 10 0 350
539 26 2235 2475 10 0 103
540 -24 3257 3497 10 500 0
541 -2 2871 3111 10 274 0
542 -27 0 4663 10 280 0
543 26 220 460 10 0 138
544 -18 0 4668 10 367 0
545 13 430 670 10 0 488
546 -2 0 4729 10 471 0
547 -29 3766 4006 10 196 0
548 -11 0 4806 10 152 0
549 -25 0 4767 10 342 0
550 15 792 1032 10 0 391
551 -14 300 540 10 528 0
552 26 1435 1675 10 0 521
553 -13 0 4709 10 499 0
554 -31 3172 3412 10 294 0
555 -12 2573 2813 10 467 0
556 11 0 4657 10 0 306
557 29 0 4684 10 0 442
558 -11 2680 2920 10 96 0
559 -22 2040 2280 10 382 0
560 -27 2307 2547 10 348 0
561 -12 1155 1395 10 430 0
562 -18 1873 2113 10 351 0
563 -19 1945 2185 10 589 0
564 33 445 685 10 0 111
565 -22 808 1048 10 60 0
566 13 0 4672 10 0 400
567 17 0 4691 10 0 210
568 12 2927 3167 10 0 468
569 30 0 4696 10 0 37
570 -21 2626 2866 10 358 0
571 -16 2203 2443 10 219 0
572 -12 726 966 10 4 0
573 -6 0 4667 10 51 0
574 -16 0 4639 10 47 0
575 -46 0 4662 10 28 0
576 6 1085 1325 10 0 178
577 30 168 408 10 0 591
578 19 601 841 10 0 433
579 12 975 1215 10 0 54
580 27 0 4730 10 0 494
581 -17 1926 2166 10 121 0
582 4 2569 2809 10 0 380
583 -12 0 4704 10 511 0
584 -12 2094 2334 10 421 0
585 3 0 4725 10 0 393
586 -13 0 4692 10 91 0
587 3 0 4676 10 0 346
588 5 918 1158 10 0 254
589 19 914 1154 10 0 563
590 13 2205 2445 10 0 148
591 -30 1769 2009 10 577 0
592 19 349 589 10 0 218
593 2 0 4696 10 0 249
594 -5 2300 2540 10 419 0
595 -23 906 1146 10 182 0
596 12 2728 2968 10 0 484
597 26 118 358 10 0 456
598 16 0 4748 10 0 537
599 -21 3223 3463 10 48 0
600 -6 2861 3101 10 532 0
601 12 1767 2007 10 0 161
602 -40 0 4780 10 335 0
603 -27 0 4695 10 402 0
604 -6 476 716 10 495 0
605 -11 0 4738 10 437 0
DEPOT_SECTION
1
-1
EOF
