NAME: lr2_6_4
TYPE: PDPTW
COMMENT: Li & Lim PDPTW benchmark converted from SINTEF format
DIMENSION: 603
VEHICLES: 150
CAPACITY: 1000
EDGE_WEIGHT_TYPE: EUC_2D
NODE_COORD_SECTION
1 150 150
2 133 187
3 277 41
4 284 244
5 38 139
6 117 178
7 241 298
8 76 221
9 175 251
10 45 115
11 216 203
12 178 263
13 51 2
14 274 6
15 232 121
16 110 83
17 275 263
18 114 211
19 61 84
20 80 35
21 298 135
22 60 72
23 75 127
24 102 173
25 276 28
26 165 179
27 289 143
28 69 134
29 61 138
30 283 144
31 97 232
32 120 241
33 173 64
34 176 263
35 117 168
36 184 102
37 157 221
38 108 3
39 29 8
40 136 241
41 16 42
42 183 282
43 154 299
44 136 68
45 230 80
46 151 172
47 136 50
48 8 200
49 72 20
50 57 125
51 208 47
52 262 14
53 139 250
54 220 18
55 191 234
56 111 40
57 227 5
58 265 141
59 272 211
60 56 116
61 170 93
62 120 155
63 3 119
64 208 290
65 285 283
66 290 37
67 180 106
68 29 139
69 37 159
70 201 175
71 128 155
72 94 93
73 3 135
74 279 36
75 46 155
76 15 178
77 15 219
78 275 146
79 268 113
80 207 149
81 179 123
82 103 8
83 176 235
84 253 84
85 51 217
86 114 259
87 212 45
88 276 66
89 243 136
90 160 17
91 183 80
92 177 281
93 123 76
94 80 86
95 299 153
96 40 236
97 38 74
98 289 130
99 147 152
100 243 191
101 9 239
102 238 103
103 236 108
104 189 197
105 64 91
106 159 266
107 281 68
108 78 246
109 211 239
110 7 31
111 140 18
112 69 208
113 105 252
114 99 105
115 166 123
116 139 146
117 261 232
118 92 241
119 107 174
120 173 148
121 72 286
122 236 27
123 106 243
124 63 170
125 136 228
126 246 166
127 102 81
128 271 105
129 93 117
130 227 192
131 262 80
132 205 44
133 278 178
134 17 0
135 116 14
136 119 254
137 107 281
138 86 216
139 189 201
140 263 291
141 11 191
142 192 150
143 131 222
144 108 80
145 259 187
146 297 43
147 112 43
148 182 146
149 205 130
150 289 209
151 157 254
152 291 148
153 201 122
154 244 13
155 162 148
156 20 245
157 60 287
158 213 119
159 234 146
160 231 28
161 288 127
162 82 35
163 159 300
164 296 252
165 207 20
166 122 96
167 133 153
168 54 136
169 28 141
170 208 208
171 2 81
172 8 4
173 30 145
174 186 26
175 83 77
176 203 283
177 129 83
178 172 198
179 157 12
180 52 109
181 237 171
182 126 42
183 24 261
184 250 49
185 40 1
186 96 86
187 223 198
188 188 198
189 107 291
190 181 277
191 239 295
192 229 40
193 198 159
194 297 213
195 220 43
196 295 123
197 57 192
198 36 212
199 45 74
200 117 155
201 168 42
202 296 235
203 116 245
204 254 206
205 241 183
206 118 38
207 51 63
208 44 189
209 183 43
210 141 120
211 37 126
212 290 219
213 224 138
214 25 64
215 194 11
216 100 138
217 88 49
218 57 127
219 25 191
220 217 43
221 96 96
222 135 139
223 41 279
224 217 138
225 18 196
226 30 149
227 224 61
228 248 280
229 94 12
230 18 184
231 266 39
232 103 81
233 125 148
234 28 124
235 293 62
236 213 299
237 158 291
238 12 10
239 53 141
240 208 297
241 227 62
242 209 84
243 226 248
244 238 214
245 102 76
246 220 182
247 88 110
248 224 229
249 219 152
250 102 155
251 246 93
252 175 123
253 43 52
254 151 113
255 184 237
256 274 256
257 266 212
258 117 79
259 26 27
260 256 286
261 157 276
262 107 29
263 229 179
264 162 92
265 135 38
266 283 275
267 108 298
268 11 242
269 5 189
270 225 192
271 187 129
272 14 165
273 214 6
274 152 241
275 200 26
276 202 161
277 211 174
278 81 219
279 255 203
280 31 68
281 139 270
282 85 75
283 88 190
284 140 294
285 225 210
286 166 99
287 140 214
288 251 195
289 246 133
290 59 113
291 113 62
292 72 89
293 247 19
294 135 251
295 159 41
296 73 81
297 125 136
298 24 76
299 84 231
300 206 121
301 242 70
302 76 160
303 18 151
304 11 185
305 109 148
306 126 233
307 121 116
308 110 31
309 107 39
310 181 297
311 96 199
312 34 5
313 252 219
314 234 107
315 51 278
316 239 84
317 172 2
318 153 226
319 112 272
320 110 145
321 175 294
322 202 292
323 282 104
324 160 179
325 143 223
326 263 193
327 14 177
328 127 77
329 188 69
330 159 287
331 47 153
332 274 136
333 175 281
334 26 0
335 126 127
336 232 45
337 38 44
338 183 44
339 296 17
340 2 238
341 149 76
342 57 7
343 280 158
344 131 78
345 131 220
346 128 225
347 250 194
348 76 280
349 9 122
350 203 166
351 235 31
352 120 60
353 136 295
354 119 183
355 1 11
356 283 65
357 274 66
358 247 86
359 167 171
360 262 164
361 222 100
362 271 106
363 233 119
364 37 149
365 150 185
366 93 165
367 203 36
368 124 299
369 241 208
370 108 162
371 80 67
372 139 31
373 4 296
374 170 53
375 253 69
376 246 123
377 183 88
378 230 135
379 148 8
380 159 199
381 148 299
382 159 89
383 109 299
384 250 228
385 211 62
386 300 44
387 210 236
388 172 225
389 12 275
390 180 93
391 29 72
392 75 265
393 174 238
394 166 194
395 271 8
396 158 140
397 267 29
398 15 52
399 15 88
400 154 207
401 15 2
402 126 266
403 175 107
404 44 223
405 15 209
406 289 79
407 194 234
408 132 16
409 83 188
410 152 77
411 216 40
412 9 63
413 206 157
414 287 293
415 58 240
416 184 277
417 162 250
418 82 100
419 27 255
420 230 128
421 19 290
422 154 101
423 265 78
424 40 181
425 229 188
426 119 214
427 190 181
428 228 41
429 152 29
430 99 226
431 142 188
432 209 269
433 52 165
434 63 130
435 37 36
436 23 218
437 129 77
438 180 98
439 114 117
440 151 133
441 221 145
442 30 226
443 182 81
444 45 190
445 195 9
446 72 36
447 90 44
448 121 246
449 282 76
450 150 67
451 4 97
452 188 142
453 285 285
454 163 150
455 272 183
456 279 189
457 148 172
458 155 93
459 181 145
460 147 43
461 75 191
462 150 104
463 103 260
464 234 213
465 9 30
466 125 168
467 165 256
468 176 153
469 16 22
470 156 182
471 88 124
472 176 72
473 85 62
474 71 268
475 110 262
476 109 61
477 229 25
478 186 228
479 173 72
480 198 100
481 164 108
482 284 72
483 98 129
484 167 193
485 34 150
486 161 242
487 139 110
488 265 197
489 241 218
490 238 294
491 94 109
492 8 227
493 25 119
494 238 206
495 1 145
496 208 117
497 47 203
498 4 294
499 199 213
500 74 117
501 156 57
502 189 240
503 1 81
504 89 61
505 122 127
506 260 64
507 15 259
508 112 161
509 60 176
510 264 35
511 189 41
512 158 83
513 56 212
514 228 217
515 157 50
516 37 14
517 116 240
518 225 73
519 125 278
520 14 204
521 296 279
522 215 295
523 135 210
524 80 131
525 157 84
526 29 130
527 250 124
528 143 67
529 69 90
530 47 143
531 106 168
532 266 203
533 124 174
534 33 231
535 67 175
536 132 297
537 230 150
538 208 235
539 183 23
540 149 98
541 228 276
542 113 4
543 203 183
544 6 168
545 127 266
546 176 70
547 271 145
548 148 157
549 180 114
550 25 14
551 99 73
552 209 246
553 207 237
554 75 269
555 152 258
556 37 258
557 42 221
558 143 244
559 87 183
560 212 270
561 113 188
562 294 64
563 296 15
564 159 42
565 48 141
566 11 176
567 148 28
568 173 152
569 40 192
570 272 70
571 71 294
572 296 211
573 248 41
574 259 14
575 5 195
576 30 243
577 80 133
578 57 123
579 153 61
580 72 180
581 59 287
582 147 240
583 191 49
584 44 286
585 169 236
586 254 87
587 182 284
588 101 114
589 281 8
590 103 93
591 64 170
592 47 121
593 139 33
594 139 206
595 145 38
596 137 212
597 206 130
598 111 98
599 43 62
600 214 234
601 199 28
602 165 179
603 148 8
PICKUP_AND_DELIVERY_SECTION
1 0 0 4823 0 0 0
2 -16 4261 4400 10 311 0
3 -34 0 4646 10 343 0
4 -17 0 4650 10 243 0
5 12 0 4701 10 0 173
6 19 3050 3197 10 0 118
7 -4 0 4640 10 582 0
8 -18 0 4711 10 282 0
9 8 0 4709 10 0 151
10 13 0 4703 10 0 245
11 5 0 4729 10 0 285
12 18 0 4697 10 0 555
13 -15 0 4635 10 308 0
14 41 0 4623 10 0 66
15 15 0 4727 10 0 61
16 -20 0 4735 10 218 0
17 33 669 787 10 0 257
18 10 0 4743 10 0 485
19 -12 0 4703 10 186 0
20 -8 2051 2189 10 515 0
21 -22 0 4665 10 494 0
22 -33 0 4694 10 564 0
23 -23 2074 2166 10 50 0
24 15 0 4760 10 0 99
25 -26 0 4638 10 449 0
26 19 0 4781 0 0 602
27 -25 0 4674 10 202 0
28 -10 0 4731 10 410 0
29 -27 0 4724 10 512 0
30 6 481 585 10 0 397
31 11 0 4716 10 0 86
32 -3 2416 2548 10 587 0
33 -14 2278 2416 10 251 0
34 5 0 4698 10 0 137
35 -18 0 4776 10 75 0
36 -20 4201 4301 10 375 0
37 -2 0 4742 10 46 0
38 16 0 4661 10 0 185
39 -32 3026 3101 10 49 0
40 -6 1532 1561 10 354 0
41 17 1000 1141 10 0 105
42 42 0 4677 10 0 294
43 -15 0 4664 10 381 0
44 -16 2397 2478 10 102 0
45 26 0 4707 10 0 600
46 2 0 4791 10 0 37
47 -2 0 4713 10 593 0
48 -12 0 4663 10 141 0
49 32 0 4662 10 0 39
50 23 0 4717 10 0 23
51 -25 0 4695 10 158 0
52 21 0 4637 10 0 386
53 -10 0 4713 10 400 0
54 38 2474 2614 10 0 356
55 -2 0 4720 10 140 0
56 22 0 4697 10 0 247
57 13 0 4649 10 0 301
58 -4 0 4698 10 347 0
59 8 0 4677 10 0 279
60 22 934 1024 10 0 210
61 -15 1873 2051 10 15 0
62 -32 0 4783 10 167 0
63 8 2766 2865 10 0 298
64 16 0 4662 10 0 484
65 -18 2200 2348 10 284 0
66 -41 3282 3368 10 14 0
67 19 0 4760 10 0 487
68 25 0 4692 10 0 366
69 -11 0 4700 10 508 0
70 10 0 4757 10 0 332
71 11 0 4791 10 0 404
72 -22 0 4734 10 227 0
73 7 0 4666 10 0 223
74 -11 0 4641 10 184 0
75 18 0 4709 10 0 35
76 9 0 4676 10 0 340
77 -23 0 4662 10 451 0
78 -29 2567 2761 10 204 0
79 -11 3350 3512 10 152 0
80 -15 0 4756 10 244 0
81 4 63 254 10 0 540
82 16 0 4664 10 0 229
83 -22 0 4725 10 538 0
84 -21 0 4691 10 358 0
85 36 0 4694 10 0 125
86 -11 0 4699 10 31 0
87 -26 0 4692 10 111 0
88 -13 0 4662 10 146 0
89 -4 0 4719 10 527 0
90 -9 0 4680 10 317 0
91 -15 0 4736 10 378 0
92 16 0 4680 10 0 467
93 2 0 4735 10 0 583
94 32 0 4719 10 0 446
95 -16 0 4664 10 170 0
96 11 0 4674 10 0 250
97 16 0 4678 10 0 157
98 -29 0 4673 10 326 0
99 -15 0 4810 10 24 0
100 16 0 4712 10 0 563
101 -6 0 4647 10 495 0
102 16 0 4714 10 0 44
103 -23 0 4718 10 193 0
104 17 0 4752 10 0 452
105 -17 0 4709 10 41 0
106 -22 0 4697 10 123 0
107 23 0 4659 10 0 115
108 27 0 4693 10 0 359
109 -29 2321 2414 10 443 0
110 -19 0 4627 10 516 0
111 26 1572 1707 10 0 87
112 -3 0 4714 10 473 0
113 -23 0 4702 10 345 0
114 -16 0 4745 10 598 0
115 -23 0 4782 10 107 0
116 34 11 108 10 0 127
117 12 2010 2103 10 0 432
118 -19 0 4706 10 6 0
119 21 134 260 10 0 169
120 -16 0 4790 10 263 0
121 17 1568 1770 10 0 320
122 -3 0 4663 10 438 0
123 22 760 863 10 0 106
124 -22 1092 1148 10 200 0
125 -36 1412 1564 10 85 0
126 -22 0 4716 10 384 0
127 -34 305 368 10 116 0
128 42 0 4684 10 0 316
129 15 0 4748 10 0 138
130 -33 0 4726 10 277 0
131 17 0 4681 10 0 215
132 9 0 4694 10 0 275
133 -23 0 4682 10 150 0
134 11 0 4613 10 0 355
135 20 2616 2735 10 0 428
136 42 3210 3363 10 0 380
137 -5 0 4676 10 34 0
138 -15 0 4722 10 129 0
139 21 0 4749 10 0 249
140 2 0 4633 10 0 55
141 12 0 4669 10 0 48
142 6 0 4771 10 0 155
143 -24 0 4739 10 287 0
144 -8 1896 2022 10 385 0
145 35 0 4698 10 0 235
146 13 0 4632 10 0 88
147 -40 0 4700 10 335 0
148 3 3230 3357 10 0 459
149 -23 3732 3903 10 161 0
150 23 0 4662 10 0 133
151 -8 0 4709 10 9 0
152 11 0 4672 10 0 79
153 29 2889 3005 10 0 271
154 -32 2918 2987 10 562 0
155 -6 3004 3117 10 142 0
156 -30 0 4652 10 304 0
157 -16 3953 4032 10 97 0
158 25 0 4743 10 0 51
159 -16 0 4729 10 276 0
160 -5 3440 3516 10 220 0
161 23 0 4674 10 0 149
162 12 0 4680 10 0 278
163 15 537 666 10 0 260
164 18 0 4635 10 0 413
165 -7 0 4672 10 586 0
166 19 567 732 10 0 349
167 32 37 101 10 0 62
168 -19 0 4716 10 525 0
169 -21 2592 2688 10 119 0
170 16 413 551 10 0 95
171 32 0 4650 10 0 348
172 -31 0 4610 10 542 0
173 -12 3395 3501 10 5 0
174 25 2273 2364 10 0 372
175 -18 0 4714 10 351 0
176 -18 0 4670 10 237 0
177 -8 2484 2611 10 344 0
178 -40 0 4761 10 536 0
179 11 0 4675 10 0 601
180 30 0 4707 10 0 526
181 17 0 4724 10 0 376
182 -26 0 4703 10 445 0
183 -24 0 4646 10 230 0
184 11 1880 2069 10 0 74
185 -16 0 4628 10 38 0
186 12 292 378 10 0 19
187 24 0 4726 10 0 537
188 8 0 4752 10 0 572
189 17 2178 2277 10 0 299
190 -22 1199 1231 10 533 0
191 11 0 4643 10 0 521
192 -41 0 4678 10 411 0
193 23 0 4765 10 0 103
194 21 0 4654 10 0 488
195 -19 0 4686 10 265 0
196 -10 3047 3231 10 256 0
197 -16 0 4711 10 409 0
198 4 526 593 10 0 523
199 -16 1572 1692 10 241 0
200 22 0 4780 10 0 124
201 -15 0 4704 10 329 0
202 25 0 4645 10 0 27
203 37 2309 2428 10 0 346
204 29 2499 2591 10 0 78
205 12 0 4717 10 0 357
206 -6 0 4697 10 472 0
207 -24 0 4682 10 500 0
208 13 0 4701 10 0 283
209 -23 0 4702 10 252 0
210 -22 0 4782 10 60 0
211 -16 0 4698 10 290 0
212 19 0 4657 10 0 532
213 -16 0 4739 10 248 0
214 10 0 4662 10 0 474
215 -17 1293 1439 10 131 0
216 24 804 956 10 0 578
217 -27 0 4695 10 501 0
218 20 0 4718 10 0 16
219 -11 0 4682 10 556 0
220 5 0 4687 10 0 160
221 -12 0 4737 10 447 0
222 12 0 4795 10 0 309
223 -7 0 4645 10 73 0
224 -18 2767 2876 10 361 0
225 -23 0 4674 10 436 0
226 -35 0 4693 10 444 0
227 22 0 4698 10 0 72
228 27 1176 1268 10 0 255
229 -16 0 4665 10 82 0
230 24 0 4677 10 0 183
231 -19 2070 2111 10 323 0
232 -9 0 4730 10 549 0
233 -19 0 4788 10 305 0
234 12 0 4689 10 0 599
235 -35 0 4646 10 145 0
236 22 0 4652 10 0 407
237 18 644 774 10 0 176
238 -6 1688 1781 10 465 0
239 -25 0 4716 10 565 0
240 8 0 4655 10 0 414
241 16 0 4697 10 0 199
242 13 0 4725 10 0 468
243 17 0 4689 10 0 4
244 15 1855 1932 10 0 80
245 -13 3431 3437 10 10 0
246 -45 2456 2567 10 387 0
247 -22 0 4740 10 56 0
248 16 0 4705 10 0 213
249 -21 3855 3938 10 139 0
250 -11 0 4765 10 96 0
251 14 0 4702 10 0 33
252 23 0 4777 10 0 209
253 31 0 4668 10 0 529
254 -11 1411 1477 10 295 0
255 -27 3040 3187 10 228 0
256 10 0 4650 10 0 196
257 -33 0 4682 10 17 0
258 -12 0 4735 10 371 0
259 -13 3490 3588 10 590 0
260 -15 0 4641 10 163 0
261 18 0 4687 10 0 267
262 20 0 4685 10 0 342
263 16 948 1108 10 0 120
264 -15 0 4754 10 336 0
265 19 0 4700 10 0 195
266 -21 0 4631 10 330 0
267 -18 0 4660 10 261 0
268 -33 0 4647 10 492 0
269 5 0 4663 10 0 419
270 -9 2179 2311 10 518 0
271 -29 0 4771 10 153 0
272 -2 0 4677 10 471 0
273 -17 0 4656 10 482 0
274 2 0 4722 10 0 368
275 -9 0 4680 10 132 0
276 16 141 285 10 0 159
277 33 0 4748 10 0 130
278 -12 3865 3963 10 162 0
279 -8 0 4696 10 59 0
280 -19 0 4669 10 592 0
281 15 0 4693 10 0 325
282 18 0 4714 10 0 8
283 -13 0 4740 10 208 0
284 18 0 4669 10 0 65
285 -5 0 4717 10 11 0
286 -8 0 4760 10 479 0
287 24 0 4749 10 0 143
288 33 1137 1290 10 0 360
289 -21 0 4716 10 420 0
290 16 0 4715 10 0 211
291 -12 2115 2193 10 352 0
292 13 0 4714 10 0 505
293 -12 3259 3407 10 455 0
294 -42 1944 2049 10 42 0
295 11 1228 1342 10 0 254
296 -35 0 4710 10 377 0
297 5 0 4785 10 0 520
298 -8 0 4667 10 63 0
299 -17 0 4709 10 189 0
300 10 0 4750 10 0 546
301 -13 0 4692 10 57 0
302 2 286 311 10 0 557
303 15 0 4681 10 0 373
304 30 1052 1217 10 0 156
305 19 0 4772 10 0 233
306 -24 0 4727 10 417 0
307 23 0 4769 10 0 401
308 15 0 4688 10 0 13
309 -12 0 4694 10 222 0
310 -13 0 4663 10 545 0
311 16 4063 4210 10 0 2
312 16 0 4628 10 0 337
313 -30 0 4690 10 427 0
314 -11 1359 1468 10 363 0
315 -6 0 4652 10 576 0
316 -42 0 4703 10 128 0
317 9 0 4664 10 0 90
318 -27 1515 1652 10 580 0
319 18 0 4686 10 0 594
320 -17 0 4773 10 121 0
321 16 0 4667 10 0 486
322 -13 0 4662 10 558 0
323 19 0 4674 10 0 231
324 -12 3129 3228 10 568 0
325 -15 0 4740 10 281 0
326 29 1093 1155 10 0 98
327 17 0 4675 10 0 575
328 -33 3354 3404 10 458 0
329 15 0 4724 10 0 201
330 21 0 4676 10 0 266
331 9 0 4710 10 0 466
332 -10 0 4689 10 70 0
333 17 0 4680 10 0 475
334 -17 0 4619 10 476 0
335 40 0 4780 10 0 147
336 15 3233 3383 10 0 264
337 -16 0 4659 10 312 0
338 -2 439 551 10 390 0
339 -25 0 4616 10 510 0
340 -9 0 4641 10 76 0
341 -26 3202 3318 10 408 0
342 -20 0 4643 10 262 0
343 34 0 4683 10 0 3
344 8 0 4739 10 0 177
345 23 0 4741 10 0 113
346 -37 0 4735 10 203 0
347 4 0 4704 10 0 58
348 -32 0 4664 10 171 0
349 -19 0 4670 10 166 0
350 -15 0 4758 10 454 0
351 18 548 702 10 0 175
352 12 2081 2139 10 0 291
353 18 0 4668 10 0 560
354 6 0 4768 10 0 40
355 -11 0 4610 10 134 0
356 -38 0 4656 10 54 0
357 -12 0 4664 10 205 0
358 21 814 999 10 0 84
359 -27 3452 3530 10 108 0
360 -33 3621 3681 10 288 0
361 18 0 4726 10 0 224
362 22 0 4685 10 0 589
363 11 0 4725 10 0 314
364 24 0 4700 10 0 433
365 22 0 4778 10 0 402
366 -25 0 4755 10 68 0
367 -5 0 4688 10 396 0
368 -2 0 4662 10 274 0
369 -34 0 4706 10 489 0
370 24 0 4770 10 0 591
371 12 0 4705 10 0 258
372 -25 0 4694 10 174 0
373 -15 0 4607 10 303 0
374 -17 0 4714 10 567 0
375 20 0 4682 10 0 36
376 -17 0 4714 10 181 0
377 35 0 4743 10 0 296
378 15 0 4732 10 0 91
379 13 0 4671 0 0 603
380 -42 3265 3406 10 136 0
381 15 0 4664 10 0 43
382 22 0 4752 10 0 460
383 -9 0 4659 10 448 0
384 22 0 4687 10 0 126
385 8 0 4706 10 0 144
386 -21 0 4630 10 52 0
387 45 0 4709 10 0 246
388 -18 0 4735 10 502 0
389 18 0 4627 10 0 534
390 2 0 4749 10 0 338
391 -12 0 4670 10 399 0
392 -21 0 4676 10 398 0
393 -8 0 4722 10 522 0
394 -3 0 4767 10 585 0
395 -19 0 4627 10 406 0
396 5 0 4801 10 0 367
397 -6 0 4645 10 30 0
398 21 615 720 10 0 392
399 12 0 4665 10 0 391
400 10 0 4756 10 0 53
401 -23 0 4613 10 307 0
402 -22 0 4695 10 365 0
403 -26 0 4764 10 570 0
404 -11 1036 1124 10 71 0
405 25 0 4666 10 0 421
406 19 1541 1703 10 0 395
407 -22 0 4719 10 236 0
408 26 0 4678 10 0 341
409 16 1273 1400 10 0 197
410 10 0 4740 10 0 28
411 41 0 4685 10 0 192
412 13 0 4648 10 0 507
413 -18 3644 3761 10 164 0
414 -8 0 4615 10 240 0
415 -17 3079 3236 10 517 0
416 17 0 4682 10 0 463
417 24 0 4713 10 0 306
418 16 0 4729 10 0 588
419 -5 0 4652 10 269 0
420 21 0 4731 10 0 289
421 -25 1560 1658 10 405 0
422 21 167 227 10 0 528
423 7 0 4678 10 0 511
424 -16 0 4699 10 426 0
425 -25 0 4726 10 480 0
426 16 0 4742 10 0 424
427 30 0 4763 10 0 313
428 -20 0 4679 10 135 0
429 10 3595 3719 10 0 595
430 -24 0 4722 10 548 0
431 12 0 4775 10 0 457
432 -12 0 4681 10 117 0
433 -24 0 4714 10 364 0
434 21 2209 2408 10 0 493
435 -24 0 4653 10 469 0
436 23 0 4669 10 0 225
437 -26 0 4738 10 539 0
438 3 0 4753 10 0 122
439 -23 0 4765 10 440 0
440 23 0 4796 10 0 439
441 -32 0 4742 10 514 0
442 -18 0 4671 10 571 0
443 29 1867 2001 10 0 109
444 35 1768 1912 10 0 226
445 26 0 4665 10 0 182
446 -32 0 4675 10 94 0
447 12 0 4692 10 0 221
448 9 0 4713 10 0 383
449 26 0 4662 10 0 25
450 29 0 4730 10 0 530
451 23 0 4658 10 0 77
452 -17 4603 4652 10 104 0
453 13 0 4623 10 0 470
454 15 0 4800 10 0 350
455 12 0 4687 10 0 293
456 30 0 4679 10 0 547
457 -12 0 4791 10 431 0
458 33 558 668 10 0 328
459 -3 0 4782 10 148 0
460 -22 415 526 10 382 0
461 -17 0 4728 10 559 0
462 -17 0 4767 10 477 0
463 -17 0 4694 10 416 0
464 -13 0 4708 10 499 0
465 6 0 4628 10 0 238
466 -9 3492 3562 10 331 0
467 -16 0 4706 10 92 0
468 -13 0 4787 10 242 0
469 24 2066 2250 10 0 435
470 -13 0 4781 10 453 0
471 2 242 408 10 0 272
472 6 2286 2430 10 0 206
473 3 2181 2350 10 0 112
474 -10 0 4671 10 214 0
475 -17 0 4695 10 333 0
476 17 0 4716 10 0 334
477 17 0 4666 10 0 462
478 -21 0 4728 10 541 0
479 8 0 4732 10 0 286
480 25 0 4744 10 0 425
481 -12 0 4769 10 579 0
482 17 0 4658 10 0 273
483 2 182 266 10 0 581
484 -16 0 4767 10 64 0
485 -10 0 4697 10 18 0
486 -16 3539 3587 10 321 0
487 -19 0 4772 10 67 0
488 -21 0 4689 10 194 0
489 34 0 4700 10 0 369
490 -16 0 4645 10 519 0
491 -14 3131 3253 10 504 0
492 33 0 4652 10 0 268
493 -21 0 4685 10 434 0
494 22 0 4709 10 0 21
495 6 0 4664 10 0 101
496 -26 324 423 10 597 0
497 -30 0 4698 10 569 0
498 15 0 4608 10 0 554
499 13 0 4734 10 0 464
500 24 0 4731 10 0 207
501 27 0 4720 10 0 217
502 18 0 4715 10 0 388
503 21 0 4649 10 0 584
504 14 0 4706 10 0 491
505 -13 0 4777 10 292 0
506 23 0 4674 10 0 573
507 -13 0 4640 10 412 0
508 11 0 4774 10 0 69
509 19 0 4720 10 0 535
510 25 0 4652 10 0 339
511 -7 1616 1761 10 423 0
512 27 0 4746 10 0 29
513 10 0 4701 10 0 561
514 32 0 4711 10 0 441
515 8 0 4713 10 0 20
516 19 979 1083 10 0 110
517 17 2105 2216 10 0 415
518 9 2086 2183 10 0 270
519 16 0 4683 10 0 490
520 -5 0 4667 10 297 0
521 -11 0 4619 10 191 0
522 8 0 4655 10 0 393
523 -4 0 4752 10 198 0
524 -30 1340 1449 10 577 0
525 19 0 4747 10 0 168
526 -30 0 4691 10 180 0
527 4 0 4710 10 0 89
528 -21 256 411 10 422 0
529 -31 0 4713 10 253 0
530 -29 1334 1457 10 450 0
531 21 0 4766 10 0 596
532 -19 0 4686 10 212 0
533 22 87 197 10 0 190
534 -18 0 4671 10 389 0
535 -19 1115 1216 10 509 0
536 40 0 4665 10 0 178
537 -24 2650 2762 10 187 0
538 22 3289 3411 10 0 83
539 26 2273 2437 10 0 437
540 -4 0 4761 10 81 0
541 21 2927 3056 10 0 478
542 31 0 4663 10 0 172
543 26 0 4751 10 0 574
544 21 0 4668 10 0 566
545 13 454 646 10 0 310
546 -10 0 4729 10 300 0
547 -30 0 4692 10 456 0
548 24 0 4806 10 0 430
549 9 0 4767 10 0 232
550 -22 850 975 10 551 0
551 22 398 442 10 0 550
552 26 1514 1595 10 0 553
553 -26 0 4709 10 552 0
554 -15 0 4673 10 498 0
555 -18 0 4705 10 12 0
556 11 0 4657 10 0 219
557 -2 0 4684 10 302 0
558 13 0 4719 10 0 322
559 17 0 4742 10 0 461
560 -18 0 4678 10 353 0
561 -10 1189 1362 10 513 0
562 32 1930 2055 10 0 154
563 -16 2001 2129 10 100 0
564 33 0 4705 10 0 22
565 25 0 4711 10 0 239
566 -21 0 4672 10 544 0
567 17 0 4691 10 0 374
568 12 2945 3149 10 0 324
569 30 0 4696 10 0 497
570 26 0 4668 10 0 403
571 18 0 4649 10 0 442
572 -8 737 955 10 188 0
573 -23 0 4667 10 506 0
574 -26 0 4639 10 543 0
575 -17 0 4662 10 327 0
576 6 1130 1281 10 0 315
577 30 0 4741 10 0 524
578 -24 0 4717 10 216 0
579 12 0 4724 10 0 481
580 27 0 4730 10 0 318
581 -2 0 4649 10 483 0
582 4 0 4723 10 0 7
583 -2 0 4704 10 93 0
584 -21 0 4641 10 503 0
585 3 0 4725 10 0 394
586 7 0 4692 10 0 165
587 3 0 4676 10 0 32
588 -16 0 4753 10 418 0
589 -22 0 4620 10 362 0
590 13 0 4740 10 0 259
591 -24 0 4725 10 370 0
592 19 0 4706 10 0 280
593 2 0 4696 10 0 47
594 -18 2333 2507 10 319 0
595 -10 0 4701 10 429 0
596 -21 0 4750 10 531 0
597 26 186 289 10 0 496
598 16 0 4748 10 0 114
599 -12 3270 3417 10 234 0
600 -26 0 4708 10 45 0
601 -11 1793 1980 10 179 0
602 -19 0 4781 10 26 0
603 -13 0 4671 10 379 0
DEPOT_SECTION
1
-1
EOF
