NAME: lr2_6_1
TYPE: PDPTW
COMMENT: Li & Lim PDPTW benchmark converted from SINTEF format
DIMENSION: 609
VEHICLES: 150
CAPACITY: 1000
EDGE_WEIGHT_TYPE: EUC_2D
NODE_COORD_SECTION
1 150 150
2 133 187
3 277 41
4 284 244
5 38 139
6 117 178
7 241 298
8 76 221
9 175 251
10 45 115
11 216 203
12 178 263
13 51 2
14 274 6
15 232 121
16 110 83
17 275 263
18 114 211
19 61 84
20 80 35
21 298 135
22 60 72
23 75 127
24 102 173
25 276 28
26 165 179
27 289 143
28 69 134
29 61 138
30 283 144
31 97 232
32 120 241
33 173 64
34 176 263
35 117 168
36 184 102
37 157 221
38 108 3
39 29 8
40 136 241
41 16 42
42 183 282
43 154 299
44 136 68
45 230 80
46 151 172
47 136 50
48 8 200
49 72 20
50 57 125
51 208 47
52 262 14
53 139 250
54 220 18
55 191 234
56 111 40
57 227 5
58 265 141
59 272 211
60 56 116
61 170 93
62 120 155
63 3 119
64 208 290
65 285 283
66 290 37
67 180 106
68 29 139
69 37 159
70 201 175
71 128 155
72 94 93
73 3 135
74 279 36
75 46 155
76 15 178
77 15 219
78 275 146
79 268 113
80 207 149
81 179 123
82 103 8
83 176 235
84 253 84
85 51 217
86 114 259
87 212 45
88 276 66
89 243 136
90 160 17
91 183 80
92 177 281
93 123 76
94 80 86
95 299 153
96 40 236
97 38 74
98 289 130
99 147 152
100 243 191
101 9 239
102 238 103
103 236 108
104 189 197
105 64 91
106 159 266
107 281 68
108 78 246
109 211 239
110 7 31
111 140 18
112 69 208
113 105 252
114 99 105
115 166 123
116 139 146
117 261 232
118 92 241
119 107 174
120 173 148
121 72 286
122 236 27
123 106 243
124 63 170
125 136 228
126 246 166
127 102 81
128 271 105
129 93 117
130 227 192
131 262 80
132 205 44
133 278 178
134 17 0
135 116 14
136 119 254
137 107 281
138 86 216
139 189 201
140 263 291
141 11 191
142 192 150
143 131 222
144 108 80
145 259 187
146 297 43
147 112 43
148 182 146
149 205 130
150 289 209
151 157 254
152 291 148
153 201 122
154 244 13
155 162 148
156 20 245
157 60 287
158 213 119
159 234 146
160 231 28
161 288 127
162 82 35
163 159 300
164 296 252
165 207 20
166 122 96
167 133 153
168 54 136
169 28 141
170 208 208
171 2 81
172 8 4
173 30 145
174 186 26
175 83 77
176 203 283
177 129 83
178 172 198
179 157 12
180 52 109
181 237 171
182 126 42
183 24 261
184 250 49
185 40 1
186 96 86
187 223 198
188 188 198
189 107 291
190 181 277
191 239 295
192 229 40
193 198 159
194 297 213
195 220 43
196 295 123
197 57 192
198 36 212
199 45 74
200 117 155
201 168 42
202 296 235
203 116 245
204 254 206
205 241 183
206 118 38
207 51 63
208 44 189
209 183 43
210 141 120
211 37 126
212 290 219
213 224 138
214 25 64
215 194 11
216 100 138
217 88 49
218 57 127
219 25 191
220 217 43
221 96 96
222 135 139
223 41 279
224 217 138
225 18 196
226 30 149
227 224 61
228 248 280
229 94 12
230 18 184
231 266 39
232 103 81
233 125 148
234 28 124
235 293 62
236 213 299
237 158 291
238 12 10
239 53 141
240 208 297
241 227 62
242 209 84
243 226 248
244 238 214
245 102 76
246 220 182
247 88 110
248 224 229
249 219 152
250 102 155
251 246 93
252 175 123
253 43 52
254 151 113
255 184 237
256 274 256
257 266 212
258 117 79
259 26 27
260 256 286
261 157 276
262 107 29
263 229 179
264 162 92
265 135 38
266 283 275
267 108 298
268 11 242
269 5 189
270 225 192
271 187 129
272 14 165
273 214 6
274 152 241
275 200 26
276 202 161
277 211 174
278 81 219
279 255 203
280 31 68
281 139 270
282 85 75
283 88 190
284 140 294
285 225 210
286 166 99
287 140 214
288 251 195
289 246 133
290 59 113
291 113 62
292 72 89
293 247 19
294 135 251
295 159 41
296 73 81
297 125 136
298 24 76
299 84 231
300 206 121
301 242 70
302 76 160
303 18 151
304 11 185
305 109 148
306 126 233
307 121 116
308 110 31
309 107 39
310 181 297
311 96 199
312 34 5
313 252 219
314 234 107
315 51 278
316 239 84
317 172 2
318 153 226
319 112 272
320 110 145
321 175 294
322 202 292
323 282 104
324 160 179
325 143 223
326 263 193
327 14 177
328 127 77
329 188 69
330 159 287
331 47 153
332 274 136
333 175 281
334 26 0
335 126 127
336 232 45
337 38 44
338 183 44
339 296 17
340 2 238
341 149 76
342 57 7
343 280 158
344 131 78
345 131 220
346 128 225
347 250 194
348 76 280
349 9 122
350 203 166
351 235 31
352 120 60
353 136 295
354 119 183
355 1 11
356 283 65
357 274 66
358 247 86
359 167 171
360 262 164
361 222 100
362 271 106
363 233 119
364 37 149
365 150 185
366 93 165
367 203 36
368 124 299
369 241 208
370 108 162
371 80 67
372 139 31
373 4 296
374 170 53
375 253 69
376 246 123
377 183 88
378 230 135
379 148 8
380 159 199
381 148 299
382 159 89
383 109 299
384 250 228
385 211 62
386 300 44
387 210 236
388 172 225
389 12 275
390 180 93
391 29 72
392 75 265
393 174 238
394 166 194
395 271 8
396 158 140
397 267 29
398 15 52
399 15 88
400 154 207
401 15 2
402 126 266
403 175 107
404 44 223
405 15 209
406 289 79
407 194 234
408 132 16
409 83 188
410 152 77
411 216 40
412 9 63
413 206 157
414 287 293
415 58 240
416 184 277
417 162 250
418 82 100
419 27 255
420 230 128
421 19 290
422 154 101
423 265 78
424 40 181
425 229 188
426 119 214
427 190 181
428 228 41
429 152 29
430 99 226
431 142 188
432 209 269
433 52 165
434 63 130
435 37 36
436 23 218
437 129 77
438 180 98
439 114 117
440 151 133
441 221 145
442 30 226
443 182 81
444 45 190
445 195 9
446 72 36
447 90 44
448 121 246
449 282 76
450 150 67
451 4 97
452 188 142
453 285 285
454 163 150
455 272 183
456 279 189
457 148 172
458 155 93
459 181 145
460 147 43
461 75 191
462 150 104
463 103 260
464 234 213
465 9 30
466 125 168
467 165 256
468 176 153
469 16 22
470 156 182
471 88 124
472 176 72
473 85 62
474 71 268
475 110 262
476 109 61
477 229 25
478 186 228
479 173 72
480 198 100
481 164 108
482 284 72
483 98 129
484 167 193
485 34 150
486 161 242
487 139 110
488 265 197
489 241 218
490 238 294
491 94 109
492 8 227
493 25 119
494 238 206
495 1 145
496 208 117
497 47 203
498 4 294
499 199 213
500 74 117
501 156 57
502 189 240
503 1 81
504 89 61
505 122 127
506 260 64
507 15 259
508 112 161
509 60 176
510 264 35
511 189 41
512 158 83
513 56 212
514 228 217
515 157 50
516 37 14
517 116 240
518 225 73
519 125 278
520 14 204
521 296 279
522 215 295
523 135 210
524 80 131
525 157 84
526 29 130
527 250 124
528 143 67
529 69 90
530 47 143
531 106 168
532 266 203
533 124 174
534 33 231
535 67 175
536 132 297
537 230 150
538 208 235
539 183 23
540 149 98
541 228 276
542 113 4
543 203 183
544 6 168
545 127 266
546 176 70
547 271 145
548 148 157
549 180 114
550 25 14
551 99 73
552 209 246
553 207 237
554 75 269
555 152 258
556 37 258
557 42 221
558 143 244
559 87 183
560 212 270
561 113 188
562 294 64
563 296 15
564 159 42
565 48 141
566 11 176
567 148 28
568 173 152
569 40 192
570 272 70
571 71 294
572 296 211
573 248 41
574 259 14
575 5 195
576 30 243
577 80 133
578 57 123
579 153 61
580 72 180
581 59 287
582 147 240
583 191 49
584 44 286
585 169 236
586 254 87
587 182 284
588 101 114
589 281 8
590 103 93
591 64 170
592 47 121
593 139 33
594 139 206
595 145 38
596 137 212
597 206 130
598 111 98
599 43 62
600 214 234
601 199 28
602 184 102
603 289 143
604 29 72
605 296 252
606 182 81
607 63 170
608 88 190
609 117 178
PICKUP_AND_DELIVERY_SECTION
1 0 0 4823 0 0 0
2 -33 4261 4400 10 492 0
3 -9 1399 1475 10 25 0
4 12 2954 3054 10 0 267
5 12 1326 1489 10 0 299
6 19 3050 3197 0 0 609
7 -15 1855 1958 10 454 0
8 -33 2889 2994 10 197 0
9 -26 2930 3083 10 475 0
10 -7 889 964 10 69 0
11 5 2170 2277 10 0 194
12 18 3060 3142 10 0 281
13 41 863 994 10 0 280
14 -21 2102 2171 10 122 0
15 -17 2286 2451 10 88 0
16 -2 817 875 10 22 0
17 33 669 787 10 0 140
18 -5 1755 1878 10 478 0
19 7 1356 1432 10 0 160
20 31 2051 2189 10 0 451
21 -23 3585 3736 10 107 0
22 2 702 781 10 0 16
23 37 2074 2166 10 0 428
24 15 171 254 10 0 190
25 9 1078 1143 10 0 3
26 -17 3357 3413 10 43 0
27 23 563 652 0 0 603
28 -16 2516 2595 10 239 0
29 -19 2603 2661 10 592 0
30 6 481 585 10 0 568
31 -11 3725 3859 10 191 0
32 20 2416 2548 10 0 141
33 12 2278 2416 10 0 201
34 -21 2404 2593 10 143 0
35 14 82 219 10 0 137
36 29 4201 4301 0 0 602
37 -20 1634 1771 10 306 0
38 -21 2711 2776 10 462 0
39 -12 3026 3101 10 334 0
40 -9 1532 1561 10 368 0
41 17 1000 1141 10 0 296
42 -27 1778 1875 10 228 0
43 17 2364 2459 10 0 26
44 -17 2397 2478 10 567 0
45 -1 3290 3399 10 247 0
46 -3 3000 3115 10 587 0
47 -21 1000 1093 10 481 0
48 -11 2733 2878 10 223 0
49 -25 2715 2879 10 342 0
50 -34 841 965 10 116 0
51 6 393 553 10 0 195
52 21 2775 2931 10 0 154
53 -22 2541 2643 10 365 0
54 -19 2474 2614 10 286 0
55 9 274 474 10 0 513
56 22 3410 3546 10 0 390
57 13 1474 1607 10 0 586
58 22 429 494 10 0 252
59 8 1466 1528 10 0 78
60 -19 934 1024 10 211 0
61 39 1873 2051 10 0 72
62 -27 3538 3683 10 466 0
63 -19 2766 2865 10 578 0
64 -16 1196 1367 10 170 0
65 -16 2200 2348 10 248 0
66 -3 3282 3368 10 386 0
67 19 144 283 10 0 480
68 25 493 594 10 0 349
69 7 454 597 10 0 10
70 -1 2787 2875 10 144 0
71 11 22 179 10 0 508
72 -39 3657 3740 10 61 0
73 -9 2690 2774 10 168 0
74 -9 2744 2918 10 132 0
75 -2 3051 3111 10 471 0
76 -17 3096 3168 10 493 0
77 -12 545 668 10 461 0
78 -8 2567 2761 10 59 0
79 -5 3350 3512 10 220 0
80 -22 1397 1500 10 301 0
81 4 63 254 10 0 358
82 16 2735 2838 10 0 282
83 33 249 462 10 0 123
84 11 1614 1743 10 0 375
85 -25 1051 1224 10 565 0
86 -2 3248 3339 10 274 0
87 -33 2520 2636 10 458 0
88 17 558 653 10 0 15
89 46 989 1153 10 0 570
90 -31 1345 1498 10 542 0
91 13 266 438 10 0 482
92 16 1690 1835 10 0 202
93 -14 1169 1331 10 115 0
94 32 2379 2542 10 0 271
95 12 1651 1749 10 0 155
96 -18 2989 3131 10 594 0
97 -12 588 734 10 127 0
98 27 1304 1451 10 0 184
99 14 3 100 10 0 125
100 16 365 448 10 0 553
101 -30 1256 1389 10 577 0
102 16 2899 2999 10 0 361
103 -18 3545 3656 10 175 0
104 17 1901 2010 10 0 152
105 29 376 539 10 0 435
106 -30 3607 3670 10 486 0
107 23 2048 2129 10 0 21
108 -25 1300 1415 10 315 0
109 20 2321 2414 10 0 243
110 29 3176 3286 10 0 259
111 26 1572 1707 10 0 403
112 -2 2345 2430 10 483 0
113 25 374 518 10 0 417
114 4 1036 1084 10 0 232
115 14 34 217 10 0 93
116 34 11 108 10 0 50
117 -27 2010 2103 10 285 0
118 -5 3018 3235 10 346 0
119 21 134 260 10 0 237
120 -20 3985 4119 10 350 0
121 -18 1568 1770 10 319 0
122 21 1492 1605 10 0 14
123 -33 760 863 10 83 0
124 19 1092 1148 0 0 607
125 -14 1412 1564 10 99 0
126 18 2217 2256 10 0 270
127 12 305 368 10 0 97
128 42 2458 2599 10 0 547
129 15 1398 1520 10 0 371
130 -7 1244 1391 10 425 0
131 17 867 996 10 0 159
132 9 603 640 10 0 74
133 17 2762 2841 10 0 150
134 11 2325 2415 10 0 214
135 -20 2616 2735 10 229 0
136 -3 3210 3363 10 535 0
137 -14 460 644 10 35 0
138 25 821 964 10 0 444
139 -9 3895 4034 10 359 0
140 -33 744 874 10 17 0
141 -20 2895 3031 10 32 0
142 6 87 249 10 0 276
143 21 647 694 10 0 34
144 1 1896 2022 10 0 70
145 35 402 518 10 0 384
146 -17 2892 3004 10 477 0
147 -2 2193 2349 10 593 0
148 -23 3230 3357 10 193 0
149 -8 3732 3903 10 188 0
150 -17 2814 2855 10 133 0
151 -26 2054 2198 10 424 0
152 -17 2557 2648 10 104 0
153 -12 2889 3005 10 250 0
154 -21 2918 2987 10 52 0
155 -12 3004 3117 10 95 0
156 28 932 1086 10 0 584
157 -9 3953 4032 10 507 0
158 -24 2926 3024 10 216 0
159 -17 1387 1548 10 131 0
160 -7 3440 3516 10 19 0
161 -22 2853 2950 10 362 0
162 12 471 597 10 0 412
163 15 537 666 10 0 448
164 18 3175 3259 0 0 605
165 13 732 871 10 0 231
166 19 567 732 10 0 595
167 32 37 101 10 0 199
168 9 1009 1108 10 0 73
169 -6 2592 2688 10 495 0
170 16 413 551 10 0 64
171 -29 1082 1154 10 172 0
172 29 790 840 10 0 171
173 23 3395 3501 10 0 431
174 25 2273 2364 10 0 209
175 18 1701 1841 10 0 103
176 -21 2946 3105 10 600 0
177 15 2484 2611 10 0 245
178 -13 3308 3453 10 388 0
179 11 672 779 10 0 308
180 30 359 490 10 0 183
181 17 1592 1683 10 0 246
182 23 888 1022 10 0 579
183 -30 1985 2196 10 180 0
184 -27 1880 2069 10 98 0
185 -26 1851 1862 10 408 0
186 12 292 378 10 0 207
187 -23 1841 1952 10 313 0
188 8 2693 2819 10 0 149
189 -27 2178 2277 10 580 0
190 -15 1199 1231 10 24 0
191 11 3003 3137 10 0 31
192 -27 946 1087 10 512 0
193 23 3120 3221 10 0 148
194 -5 2737 2937 10 11 0
195 -6 1746 1852 10 51 0
196 -7 3047 3231 10 423 0
197 33 2751 2834 10 0 8
198 -2 526 593 10 302 0
199 -32 1572 1692 10 167 0
200 -4 4044 4138 10 527 0
201 -12 2536 2648 10 33 0
202 -16 2213 2389 10 92 0
203 37 2309 2428 10 0 340
204 29 2499 2591 10 0 266
205 -17 3339 3529 10 316 0
206 27 858 968 10 0 438
207 -12 517 625 10 186 0
208 13 422 481 10 0 474
209 -25 2416 2555 10 174 0
210 21 49 201 10 0 590
211 19 639 711 10 0 60
212 -34 747 869 10 489 0
213 -20 3620 3771 10 218 0
214 -11 2495 2597 10 134 0
215 -14 1293 1439 10 528 0
216 24 804 956 10 0 158
217 21 699 791 10 0 328
218 20 1367 1521 10 0 213
219 -24 905 1053 10 548 0
220 5 2082 2220 10 0 79
221 33 2035 2123 10 0 336
222 12 18 189 10 0 312
223 11 1645 1769 10 0 48
224 -23 2767 2876 10 307 0
225 8 1736 1841 10 0 523
226 4 1582 1664 10 0 273
227 22 1906 2002 10 0 339
228 27 1176 1268 10 0 42
229 20 1885 2028 10 0 135
230 -17 1478 1608 10 530 0
231 -13 2070 2111 10 165 0
232 -4 1810 1940 10 114 0
233 -20 3379 3484 10 459 0
234 -16 2816 2946 10 268 0
235 10 636 822 10 0 249
236 -20 2161 2263 10 325 0
237 -21 644 774 10 119 0
238 -19 1688 1781 10 516 0
239 16 351 429 10 0 28
240 -22 1620 1771 10 572 0
241 16 3234 3324 10 0 378
242 -19 1542 1637 10 323 0
243 -20 3419 3524 10 109 0
244 -33 1855 1932 10 288 0
245 -15 3431 3437 10 177 0
246 -17 2456 2567 10 181 0
247 1 2533 2658 10 0 45
248 16 1384 1464 10 0 65
249 -10 3855 3938 10 235 0
250 12 766 861 10 0 153
251 -24 2191 2278 10 314 0
252 -22 3299 3402 10 58 0
253 -6 2256 2391 10 465 0
254 4 1411 1477 10 0 501
255 -10 3040 3187 10 310 0
256 -26 3174 3317 10 543 0
257 11 1341 1440 10 0 369
258 -21 3602 3750 10 487 0
259 -29 3490 3588 10 110 0
260 -14 3140 3334 10 414 0
261 18 438 572 10 0 353
262 -21 4032 4178 10 398 0
263 -15 948 1108 10 496 0
264 2 523 665 10 0 317
265 -8 2831 3040 10 479 0
266 -29 2992 3042 10 204 0
267 -12 3520 3641 10 4 0
268 16 2061 2195 10 0 234
269 5 592 699 10 0 348
270 -18 2179 2311 10 126 0
271 -32 3130 3245 10 94 0
272 -18 2052 2208 10 526 0
273 -4 3451 3590 10 226 0
274 2 2671 2818 10 0 86
275 -41 1799 1877 10 411 0
276 -6 141 285 10 142 0
277 -15 2048 2199 10 488 0
278 27 3865 3963 10 0 311
279 -22 2930 3030 10 494 0
280 -41 1987 2117 10 13 0
281 -18 3102 3188 10 12 0
282 -16 2915 3013 10 82 0
283 12 3581 3724 0 0 608
284 -15 1662 1733 10 464 0
285 27 456 614 10 0 117
286 19 169 259 10 0 54
287 -16 2446 2590 10 426 0
288 33 1137 1290 10 0 244
289 9 612 745 10 0 455
290 16 972 1101 10 0 576
291 9 2115 2193 10 0 344
292 -40 2204 2338 10 335 0
293 21 3259 3407 10 0 441
294 31 1944 2049 10 0 402
295 11 1228 1342 10 0 309
296 -17 2234 2332 10 41 0
297 5 69 160 10 0 303
298 23 1962 2130 10 0 469
299 -12 2181 2295 10 5 0
300 10 2965 3124 10 0 377
301 22 498 672 10 0 80
302 2 286 311 10 0 198
303 -5 508 661 10 297 0
304 -19 1052 1217 10 509 0
305 19 144 279 10 0 354
306 20 1556 1694 10 0 37
307 23 1996 2129 10 0 224
308 -11 1460 1564 10 179 0
309 -11 1351 1493 10 295 0
310 10 665 755 10 0 255
311 -27 4063 4210 10 278 0
312 -12 2943 3058 10 222 0
313 23 1222 1309 10 0 187
314 24 1359 1468 10 0 251
315 25 1098 1202 10 0 108
316 17 2352 2441 10 0 205
317 -2 2416 2523 10 264 0
318 -13 1515 1652 10 545 0
319 18 1330 1488 10 0 121
320 8 642 803 10 0 537
321 16 1955 2094 10 0 470
322 -45 3651 3732 10 387 0
323 19 1120 1168 10 0 242
324 -34 3129 3228 10 343 0
325 20 1603 1743 10 0 236
326 -26 1093 1155 10 597 0
327 -13 544 667 10 566 0
328 -21 3354 3404 10 217 0
329 15 2573 2727 10 0 546
330 21 1599 1693 10 0 456
331 -29 3051 3208 10 557 0
332 -19 3230 3325 10 406 0
333 17 2535 2708 10 0 427
334 12 1965 2113 10 0 39
335 40 85 181 10 0 292
336 -33 3233 3383 10 221 0
337 -15 2599 2727 10 550 0
338 -21 439 551 10 422 0
339 -22 3136 3263 10 227 0
340 -37 3352 3492 10 203 0
341 -6 3202 3318 10 472 0
342 25 1648 1768 10 0 49
343 34 2565 2737 10 0 324
344 -9 2314 2430 10 291 0
345 23 470 617 10 0 591
346 5 2523 2690 10 0 118
347 -23 3515 3623 10 506 0
348 -5 1941 2057 10 269 0
349 -25 857 994 10 68 0
350 20 3964 4078 10 0 120
351 18 548 702 10 0 445
352 -15 2081 2139 10 372 0
353 -18 1970 2079 10 261 0
354 -19 2274 2382 10 305 0
355 34 1892 2066 10 0 599
356 27 1794 1926 10 0 397
357 -8 695 827 10 385 0
358 -4 814 999 10 81 0
359 9 3452 3530 10 0 139
360 -18 3621 3681 10 376 0
361 -16 2916 3015 10 102 0
362 22 2325 2495 10 0 161
363 -17 3774 3854 10 559 0
364 24 1490 1602 10 0 485
365 22 140 222 10 0 53
366 13 201 270 10 0 498
367 18 1568 1730 10 0 511
368 9 1179 1280 10 0 40
369 -11 1749 1904 10 257 0
370 -21 2515 2623 10 560 0
371 -15 1688 1847 10 129 0
372 15 1903 2050 10 0 352
373 -11 3343 3446 10 556 0
374 21 622 792 10 0 491
375 -11 2564 2657 10 84 0
376 18 2269 2406 10 0 360
377 -10 3540 3611 10 300 0
378 -16 3925 4021 10 241 0
379 13 750 860 10 0 476
380 -12 3265 3406 10 596 0
381 -22 647 707 10 533 0
382 22 3298 3433 10 0 540
383 -5 1503 1630 10 419 0
384 -35 3088 3245 10 145 0
385 8 383 473 10 0 357
386 3 2997 3176 10 0 66
387 45 3175 3336 10 0 322
388 13 420 576 10 0 178
389 -18 2030 2186 10 575 0
390 -22 3870 4002 10 56 0
391 13 3660 3814 0 0 604
392 -12 2664 2788 10 421 0
393 21 4114 4191 10 0 484
394 -18 425 477 10 502 0
395 -12 3048 3156 10 601 0
396 5 12 98 10 0 420
397 -27 1843 1950 10 356 0
398 21 615 720 10 0 262
399 -1 1389 1486 10 505 0
400 -17 1668 1802 10 416 0
401 -22 1601 1708 10 551 0
402 -31 1962 2110 10 294 0
403 -26 4366 4443 10 111 0
404 22 1036 1124 10 0 430
405 -21 3536 3642 10 544 0
406 19 1541 1703 10 0 332
407 7 340 418 10 0 467
408 26 1030 1083 10 0 185
409 16 1273 1400 10 0 582
410 10 243 423 10 0 450
411 41 601 736 10 0 275
412 -12 1208 1387 10 162 0
413 -21 3644 3761 10 434 0
414 14 2149 2276 10 0 260
415 -36 3079 3236 10 534 0
416 17 783 951 10 0 400
417 -25 767 918 10 113 0
418 16 2295 2445 10 0 452
419 5 937 1107 10 0 383
420 -5 1534 1629 10 396 0
421 12 1560 1658 10 0 392
422 21 167 227 10 0 338
423 7 2804 2962 10 0 196
424 26 1081 1245 10 0 151
425 7 776 856 10 0 130
426 16 2462 2606 10 0 287
427 -17 3596 3759 10 333 0
428 -37 3254 3363 10 23 0
429 -23 3595 3719 10 529 0
430 -22 1320 1428 10 404 0
431 -23 3856 3960 10 173 0
432 17 1745 1942 10 0 532
433 18 1147 1270 10 0 520
434 21 2209 2408 10 0 413
435 -29 1314 1466 10 105 0
436 23 603 709 10 0 581
437 11 2572 2651 10 0 500
438 -27 1420 1533 10 206 0
439 31 141 250 10 0 447
440 23 28 108 10 0 583
441 -21 4051 4201 10 293 0
442 -18 3748 3876 10 554 0
443 29 1867 2001 0 0 606
444 -25 1768 1912 10 138 0
445 -18 796 897 10 351 0
446 7 1723 1849 10 0 515
447 -31 3966 4088 10 439 0
448 -15 1951 2047 10 163 0
449 -13 3432 3532 10 563 0
450 -10 279 385 10 410 0
451 -31 3517 3594 10 20 0
452 -16 4603 4652 10 418 0
453 -22 2840 2885 10 490 0
454 15 13 200 10 0 7
455 -9 2786 2983 10 289 0
456 -21 2394 2482 10 330 0
457 25 47 130 10 0 536
458 33 558 668 10 0 87
459 20 3066 3152 10 0 233
460 14 415 526 10 0 564
461 12 313 450 10 0 77
462 21 305 370 10 0 38
463 -15 3570 3704 10 521 0
464 15 534 723 10 0 284
465 6 1514 1709 10 0 253
466 27 3492 3562 10 0 62
467 -7 2339 2474 10 407 0
468 -13 3319 3422 10 499 0
469 -23 2066 2250 10 298 0
470 -16 2405 2503 10 321 0
471 2 242 408 10 0 75
472 6 2286 2430 10 0 341
473 -21 2181 2350 10 503 0
474 -13 882 1006 10 208 0
475 26 1971 2088 10 0 9
476 -13 1555 1739 10 379 0
477 17 1961 2106 10 0 146
478 5 1637 1787 10 0 18
479 8 2763 2842 10 0 265
480 -19 353 460 10 67 0
481 21 132 223 10 0 47
482 -13 3752 3835 10 91 0
483 2 182 266 10 0 112
484 -21 4090 4214 10 393 0
485 -24 1553 1715 10 364 0
486 30 3539 3587 10 0 106
487 21 3438 3553 10 0 258
488 15 1269 1422 10 0 277
489 34 573 720 10 0 212
490 22 863 1010 10 0 453
491 -21 3131 3253 10 374 0
492 33 730 803 10 0 2
493 17 688 779 10 0 76
494 22 2282 2421 10 0 279
495 6 555 638 10 0 169
496 15 324 423 10 0 263
497 29 2655 2824 10 0 585
498 -13 2165 2359 10 366 0
499 13 2074 2135 10 0 468
500 -11 3222 3334 10 437 0
501 -4 2712 2860 10 254 0
502 18 394 484 10 0 394
503 21 1264 1420 10 0 473
504 -21 1032 1113 10 531 0
505 1 62 228 10 0 399
506 23 1748 1837 10 0 347
507 9 2704 2837 10 0 157
508 -11 90 227 10 71 0
509 19 767 916 10 0 304
510 -18 3929 4055 10 574 0
511 -18 1616 1761 10 367 0
512 27 168 372 10 0 192
513 -9 1899 2001 10 55 0
514 -22 3462 3592 10 538 0
515 -7 3775 3922 10 446 0
516 19 979 1083 10 0 238
517 17 2105 2216 10 0 555
518 -32 2086 2183 10 562 0
519 16 2067 2098 10 0 558
520 -18 2379 2485 10 433 0
521 15 1988 2111 10 0 463
522 -26 3267 3425 10 552 0
523 -8 3629 3708 10 225 0
524 -5 1340 1449 10 588 0
525 19 388 535 10 0 589
526 18 528 631 10 0 272
527 4 537 647 10 0 200
528 14 256 411 10 0 215
529 23 3111 3218 10 0 429
530 17 1334 1457 10 0 230
531 21 853 963 10 0 504
532 -17 2565 2678 10 432 0
533 22 87 197 10 0 381
534 36 2972 3110 10 0 415
535 3 1115 1216 10 0 136
536 -25 670 761 10 457 0
537 -8 2650 2762 10 320 0
538 22 3289 3411 10 0 514
539 -16 2273 2437 10 598 0
540 -22 3321 3432 10 382 0
541 -11 2927 3056 10 561 0
542 31 1182 1264 10 0 90
543 26 321 359 10 0 256
544 21 2990 3085 10 0 405
545 13 454 646 10 0 318
546 -15 2671 2825 10 329 0
547 -42 3830 3943 10 128 0
548 24 7 164 10 0 219
549 -11 4298 4386 10 573 0
550 15 850 975 10 0 337
551 22 398 442 10 0 401
552 26 1514 1595 10 0 522
553 -16 1958 2064 10 100 0
554 18 3216 3367 10 0 442
555 -17 2615 2771 10 517 0
556 11 3286 3441 10 0 373
557 29 1206 1281 10 0 331
558 -16 2750 2850 10 519 0
559 17 2117 2204 10 0 363
560 21 2350 2505 10 0 370
561 11 1189 1362 10 0 541
562 32 1930 2055 10 0 518
563 13 2001 2129 10 0 449
564 -14 530 601 10 460 0
565 25 858 998 10 0 85
566 13 640 729 10 0 327
567 17 1319 1493 10 0 44
568 -6 2945 3149 10 30 0
569 30 486 538 10 0 571
570 -46 2698 2794 10 89 0
571 -30 2288 2357 10 569 0
572 22 737 955 10 0 240
573 11 1869 2003 10 0 549
574 18 2994 3038 10 0 510
575 18 757 847 10 0 389
576 -16 1130 1281 10 290 0
577 30 229 347 10 0 101
578 19 636 806 10 0 63
579 -23 1047 1143 10 182 0
580 27 1480 1616 10 0 189
581 -23 1999 2093 10 436 0
582 -16 2652 2725 10 409 0
583 -23 507 655 10 440 0
584 -28 2125 2304 10 156 0
585 -29 3760 3870 10 497 0
586 -13 4214 4274 10 57 0
587 3 2043 2183 10 0 46
588 5 993 1083 10 0 524
589 -19 977 1092 10 525 0
590 -21 2280 2369 10 210 0
591 -23 1846 1931 10 345 0
592 19 442 496 10 0 29
593 2 2012 2173 10 0 147
594 18 2333 2507 10 0 96
595 -19 937 1115 10 166 0
596 12 2784 2912 10 0 380
597 26 186 289 10 0 326
598 16 1075 1217 10 0 539
599 -34 3270 3417 10 355 0
600 21 2886 3075 10 0 176
601 12 1793 1980 10 0 395
602 -29 4201 4301 10 36 0
603 -23 563 652 10 27 0
604 -13 3660 3814 10 391 0
605 -18 3175 3259 10 164 0
606 -29 1867 2001 10 443 0
607 -19 1092 1148 10 124 0
608 -12 3581 3724 10 283 0
609 -19 3050 3197 10 6 0
DEPOT_SECTION
1
-1
EOF
