NAME: lrc1_6_2
TYPE: PDPTW
COMMENT: Li & Lim PDPTW benchmark converted from SINTEF format
DIMENSION: 631
VEHICLES: 150
CAPACITY: 200
EDGE_WEIGHT_TYPE: EUC_2D
NODE_COORD_SECTION
1 150 150
2 125 168
3 162 107
4 199 213
5 61 84
6 125 103
7 143 101
8 28 141
9 230 128
10 55 68
11 72 180
12 159 41
13 8 4
14 257 58
15 57 155
16 186 26
17 231 243
18 247 132
19 89 61
20 84 231
21 116 240
22 110 79
23 110 74
24 180 106
25 240 73
26 13 265
27 134 147
28 257 59
29 160 108
30 289 130
31 27 255
32 234 146
33 69 208
34 115 196
35 250 228
36 159 89
37 105 81
38 149 183
39 159 300
40 47 277
41 209 269
42 212 26
43 14 149
44 74 117
45 140 140
46 152 241
47 222 83
48 88 124
49 136 68
50 250 124
51 109 299
52 258 244
53 208 47
54 212 62
55 259 59
56 150 104
57 77 233
58 212 45
59 57 125
60 232 121
61 255 132
62 18 184
63 165 113
64 143 111
65 248 41
66 8 263
67 109 110
68 106 71
69 259 240
70 38 139
71 277 41
72 255 57
73 9 122
74 102 76
75 43 286
76 60 160
77 172 225
78 161 22
79 88 110
80 122 127
81 52 63
82 53 141
83 175 281
84 265 141
85 250 126
86 147 281
87 255 240
88 188 142
89 154 26
90 59 64
91 114 204
92 235 242
93 34 150
94 140 214
95 59 113
96 282 104
97 145 184
98 184 277
99 129 77
100 96 199
101 67 154
102 2 81
103 208 208
104 169 173
105 106 108
106 15 2
107 227 26
108 147 285
109 141 286
110 231 70
111 242 73
112 15 259
113 93 165
114 10 198
115 149 294
116 82 100
117 256 286
118 172 2
119 277 172
120 73 81
121 217 69
122 85 224
123 0 153
124 147 43
125 143 288
126 112 272
127 200 26
128 140 143
129 83 236
130 253 84
131 53 288
132 256 239
133 224 79
134 110 107
135 125 136
136 149 76
137 203 166
138 211 61
139 107 103
140 262 62
141 227 80
142 269 103
143 119 254
144 122 96
145 248 245
146 181 297
147 65 69
148 16 151
149 254 206
150 167 176
151 280 172
152 285 285
153 149 282
154 277 100
155 223 23
156 25 191
157 266 212
158 272 183
159 135 251
160 11 191
161 25 119
162 215 68
163 137 104
164 113 202
165 160 24
166 51 217
167 14 177
168 225 22
169 194 234
170 262 14
171 259 126
172 214 234
173 216 23
174 111 110
175 145 182
176 51 2
177 30 243
178 186 228
179 132 146
180 176 72
181 108 3
182 216 62
183 271 106
184 140 290
185 64 59
186 206 157
187 66 157
188 132 297
189 109 105
190 64 55
191 173 64
192 213 65
193 17 205
194 224 229
195 78 236
196 274 6
197 207 237
198 161 26
199 119 104
200 169 171
201 296 235
202 220 74
203 109 148
204 212 270
205 265 197
206 174 238
207 223 74
208 47 203
209 69 90
210 33 231
211 8 265
212 136 144
213 286 175
214 151 30
215 150 184
216 157 25
217 131 78
218 232 240
219 53 285
220 278 176
221 225 192
222 115 197
223 167 179
224 6 168
225 163 180
226 135 210
227 277 104
228 262 241
229 162 148
230 61 138
231 117 155
232 126 127
233 157 221
234 19 290
235 65 156
236 159 177
237 12 10
238 67 175
239 78 232
240 201 175
241 249 133
242 139 110
243 252 128
244 57 123
245 71 154
246 157 276
247 111 98
248 221 70
249 70 57
250 236 108
251 268 113
252 40 1
253 106 243
254 37 126
255 259 58
256 167 193
257 168 204
258 72 286
259 254 240
260 241 183
261 75 191
262 26 27
263 12 270
264 81 238
265 140 294
266 11 242
267 224 77
268 166 123
269 92 241
270 280 180
271 151 113
272 65 49
273 203 36
274 129 83
275 38 74
276 166 105
277 129 98
278 30 226
279 15 178
280 108 298
281 296 211
282 236 72
283 277 177
284 99 73
285 166 113
286 271 8
287 228 41
288 80 131
289 284 176
290 208 117
291 119 183
292 246 166
293 144 292
294 128 155
295 113 188
296 155 93
297 161 210
298 168 176
299 60 64
300 165 204
301 280 158
302 241 71
303 57 68
304 219 152
305 72 89
306 85 75
307 3 205
308 235 243
309 12 275
310 76 160
311 56 116
312 170 53
313 34 5
314 280 175
315 288 127
316 103 8
317 229 25
318 12 198
319 66 54
320 120 60
321 110 31
322 218 20
323 226 248
324 275 100
325 217 73
326 88 225
327 123 92
328 293 62
329 4 149
330 216 25
331 63 59
332 63 155
333 158 140
334 84 236
335 260 58
336 284 244
337 190 181
338 159 287
339 285 283
340 65 68
341 61 157
342 102 173
343 300 44
344 103 78
345 144 182
346 24 76
347 149 186
348 165 182
349 179 123
350 157 84
351 17 209
352 233 119
353 167 105
354 238 206
355 127 101
356 263 291
357 281 68
358 251 237
359 108 109
360 199 28
361 3 119
362 252 219
363 234 213
364 136 140
365 191 49
366 251 241
367 119 214
368 275 182
369 103 260
370 2 238
371 94 93
372 158 291
373 230 248
374 207 20
375 54 285
376 160 107
377 59 280
378 208 290
379 248 280
380 138 100
381 8 155
382 208 235
383 111 112
384 128 94
385 110 262
386 162 203
387 160 179
388 16 204
389 239 295
390 157 31
391 147 178
392 170 174
393 157 254
394 277 101
395 283 144
396 156 182
397 274 97
398 66 56
399 158 27
400 156 26
401 257 133
402 264 61
403 296 279
404 220 66
405 240 71
406 112 43
407 4 296
408 222 73
409 209 84
410 250 134
411 59 287
412 13 202
413 93 117
414 62 53
415 275 97
416 206 121
417 107 174
418 224 61
419 124 174
420 101 110
421 112 201
422 80 86
423 5 189
424 141 100
425 165 256
426 108 113
427 37 159
428 136 104
429 107 71
430 97 232
431 127 266
432 14 204
433 278 177
434 209 246
435 134 148
436 283 65
437 108 80
438 55 62
439 141 137
440 224 138
441 163 150
442 213 68
443 113 62
444 100 138
445 126 266
446 10 150
447 137 150
448 258 232
449 191 234
450 213 119
451 5 195
452 166 203
453 100 73
454 147 185
455 60 156
456 239 77
457 163 202
458 81 219
459 155 28
460 160 27
461 43 62
462 235 241
463 291 148
464 64 53
465 168 42
466 183 282
467 289 79
468 1 272
469 87 183
470 234 107
471 52 288
472 236 66
473 264 35
474 233 245
475 144 100
476 260 64
477 130 96
478 202 292
479 7 31
480 96 86
481 141 102
482 170 93
483 85 228
484 10 147
485 18 206
486 164 202
487 1 81
488 148 157
489 159 110
490 229 40
491 67 161
492 131 220
493 112 199
494 238 69
495 258 247
496 205 130
497 109 61
498 59 67
499 151 294
500 26 0
501 45 190
502 56 212
503 148 288
504 275 263
505 272 97
506 143 67
507 29 8
508 152 29
509 176 235
510 30 145
511 61 70
512 16 196
513 168 108
514 15 209
515 211 66
516 256 54
517 11 207
518 58 240
519 131 95
520 116 14
521 154 31
522 86 230
523 133 99
524 290 37
525 9 145
526 140 292
527 134 146
528 229 179
529 72 20
530 149 285
531 257 137
532 225 73
533 71 294
534 156 57
535 177 281
536 117 168
537 162 250
538 116 245
539 153 28
540 176 70
541 50 285
542 257 243
543 246 133
544 140 100
545 69 134
546 236 248
547 217 21
548 161 112
549 233 242
550 127 77
551 155 180
552 144 173
553 65 56
554 130 102
555 76 280
556 110 76
557 271 101
558 216 203
559 136 241
560 160 17
561 64 91
562 107 39
563 106 77
564 103 93
565 138 101
566 15 52
567 160 111
568 81 223
569 113 114
570 162 206
571 203 183
572 113 4
573 176 263
574 173 72
575 279 189
576 9 144
577 266 104
578 253 57
579 296 252
580 254 87
581 114 198
582 220 43
583 11 265
584 250 130
585 299 153
586 133 187
587 246 137
588 238 103
589 220 182
590 213 61
591 290 219
592 153 61
593 55 285
594 276 66
595 236 240
596 244 13
597 163 200
598 62 65
599 189 240
600 145 183
601 140 108
602 2 238
603 176 72
604 149 76
605 102 173
606 145 184
607 200 26
608 268 113
609 213 65
610 107 174
611 69 208
612 225 22
613 133 187
614 280 158
615 230 248
616 125 103
617 236 108
618 66 56
619 65 68
620 266 212
621 162 250
622 189 240
623 119 254
624 59 67
625 136 144
626 256 239
627 163 180
628 233 119
629 109 299
630 223 74
631 34 150
PICKUP_AND_DELIVERY_SECTION
1 0 0 1206 0 0 0
2 -10 867 897 10 38 0
3 10 83 113 10 0 49
4 -10 511 541 10 233 0
5 7 0 1086 10 0 566
6 20 53 83 0 0 616
7 10 0 1147 10 0 560
8 -10 0 1074 10 381 0
9 -20 380 410 10 276 0
10 30 143 173 10 0 299
11 -40 372 402 10 245 0
12 -30 306 336 10 460 0
13 29 203 233 10 0 106
14 10 163 193 10 0 524
15 20 102 132 10 0 235
16 -10 565 595 10 459 0
17 10 123 153 10 0 549
18 10 227 257 10 0 32
19 14 253 283 10 0 99
20 -20 545 575 10 239 0
21 17 0 1100 10 0 430
22 -20 190 220 10 429 0
23 30 138 168 10 0 564
24 19 53 83 10 0 374
25 20 118 148 10 0 130
26 -16 0 1018 10 266 0
27 -20 90 120 10 179 0
28 20 174 204 10 0 476
29 10 60 90 10 0 550
30 27 329 359 10 0 61
31 5 0 1035 10 0 66
32 -10 352 382 10 18 0
33 17 582 612 0 0 611
34 10 0 1139 10 0 555
35 22 0 1070 10 0 495
36 22 0 1135 10 0 592
37 20 82 112 10 0 464
38 10 0 1163 10 0 2
39 15 150 180 10 0 338
40 20 163 193 10 0 375
41 -7 446 476 10 169 0
42 30 223 253 10 0 287
43 10 136 166 10 0 329
44 24 804 834 10 0 48
45 30 14 44 10 0 144
46 2 0 1105 10 0 125
47 20 98 128 10 0 515
48 -24 0 1129 10 44 0
49 -10 594 624 10 3 0
50 -10 133 163 10 241 0
51 24 377 407 0 0 629
52 10 213 243 10 0 358
53 6 118 148 10 0 173
54 -30 0 1089 10 133 0
55 -30 186 216 10 516 0
56 -20 69 99 10 489 0
57 -20 165 195 10 326 0
58 -28 629 659 10 582 0
59 -23 211 241 10 209 0
60 -10 577 607 10 513 0
61 -27 0 1090 10 30 0
62 -11 0 1060 10 294 0
63 -20 148 178 10 353 0
64 20 0 1157 10 0 380
65 -25 0 1050 10 473 0
66 -5 189 219 10 31 0
67 20 89 119 10 0 105
68 -20 113 143 10 327 0
69 -20 256 286 10 259 0
70 -2 337 367 10 310 0
71 -20 344 374 10 335 0
72 -4 140 170 10 349 0
73 19 216 246 10 0 361
74 -24 843 873 10 444 0
75 10 173 203 10 0 219
76 -12 0 1106 10 160 0
77 -30 109 139 10 551 0
78 -10 203 233 10 165 0
79 1 0 1123 10 0 480
80 1 36 66 10 0 303
81 10 158 188 10 0 305
82 16 0 1099 10 0 231
83 -10 640 670 10 146 0
84 -15 115 145 10 441 0
85 20 199 229 10 0 292
86 -10 0 1065 10 108 0
87 -30 0 1058 10 595 0
88 -20 1128 1158 10 171 0
89 -14 0 1072 10 506 0
90 -20 0 1071 10 438 0
91 -20 103 133 10 421 0
92 -30 0 1071 10 462 0
93 15 393 423 0 0 631
94 -20 614 644 10 347 0
95 -29 244 274 10 561 0
96 -27 0 1057 10 436 0
97 10 80 110 0 0 606
98 -10 0 1065 10 297 0
99 -14 0 1121 10 19 0
100 -20 1019 1049 10 211 0
101 20 176 206 10 0 238
102 32 264 294 10 0 249
103 -10 106 136 10 104 0
104 10 0 1167 10 0 103
105 -20 113 143 10 67 0
106 -29 0 996 10 13 0
107 20 145 175 10 0 322
108 10 259 289 10 0 86
109 -30 0 1060 10 503 0
110 10 144 174 10 0 472
111 -20 0 1077 10 302 0
112 -5 678 708 10 423 0
113 -10 0 1138 10 351 0
114 10 0 1048 10 0 518
115 10 172 202 10 0 184
116 16 0 1112 10 0 306
117 31 0 1024 10 0 389
118 9 602 632 10 0 508
119 -30 199 229 10 314 0
120 -10 556 586 10 147 0
121 10 113 143 10 0 138
122 10 208 238 10 0 208
123 -7 215 245 10 427 0
124 14 107 137 10 0 216
125 -2 201 231 10 46 0
126 -18 0 1069 10 246 0
127 10 444 474 0 0 607
128 20 12 42 10 0 527
129 -20 0 1087 10 522 0
130 -20 405 435 10 25 0
131 20 210 240 10 0 593
132 10 0 1058 0 0 626
133 30 112 142 10 0 54
134 -10 172 202 10 189 0
135 5 28 58 10 0 545
136 10 800 830 0 0 604
137 -26 0 1141 10 221 0
138 -10 168 198 10 121 0
139 -40 147 177 10 232 0
140 10 0 1054 10 0 580
141 30 0 1092 10 0 248
142 -10 219 249 10 557 0
143 42 807 837 0 0 623
144 -30 147 177 10 45 0
145 10 0 1060 10 0 240
146 10 0 1046 10 0 83
147 10 254 284 10 0 120
148 20 0 1062 10 0 510
149 29 0 1078 10 0 591
150 -30 61 91 10 200 0
151 -20 0 1065 10 270 0
152 -15 701 731 10 403 0
153 -33 0 1064 10 509 0
154 10 144 174 10 0 324
155 10 158 188 10 0 547
156 16 230 260 10 0 279
157 11 333 363 0 0 620
158 12 706 736 10 0 186
159 -23 484 514 10 492 0
160 12 726 756 10 0 76
161 -19 0 1068 10 254 0
162 -5 104 134 10 333 0
163 -20 139 169 10 428 0
164 10 91 121 10 0 269
165 10 191 221 10 0 78
166 36 269 299 10 0 469
167 -21 0 1058 10 224 0
168 40 148 178 0 0 612
169 7 94 124 10 0 41
170 21 698 728 10 0 532
171 20 169 199 10 0 88
172 -21 730 760 10 204 0
173 -6 197 227 10 53 0
174 -14 0 1141 10 288 0
175 10 0 1164 10 0 291
176 -24 0 1018 10 507 0
177 -27 0 1045 10 458 0
178 -16 413 443 10 194 0
179 20 78 108 10 0 27
180 6 574 604 0 0 603
181 -10 671 701 10 539 0
182 -20 143 173 10 404 0
183 -17 587 617 10 594 0
184 -10 228 258 10 115 0
185 30 125 155 10 0 190
186 -12 911 941 10 158 0
187 10 0 1112 10 0 332
188 -10 164 194 10 530 0
189 10 160 190 10 0 134
190 -30 135 165 10 185 0
191 -39 572 602 10 482 0
192 20 192 222 0 0 609
193 20 155 185 10 0 388
194 16 341 371 10 0 178
195 -22 151 181 10 419 0
196 41 519 549 10 0 343
197 -10 0 1092 10 348 0
198 -10 0 1072 10 399 0
199 -20 192 222 10 359 0
200 30 0 1168 10 0 150
201 25 560 590 10 0 579
202 -15 202 232 10 290 0
203 19 41 71 10 0 371
204 21 592 622 10 0 172
205 15 321 351 10 0 463
206 -20 1023 1053 10 257 0
207 10 0 1091 0 0 630
208 -10 670 700 10 122 0
209 23 0 1096 10 0 59
210 -40 745 775 10 568 0
211 20 201 231 10 0 100
212 10 53 83 0 0 625
213 10 157 187 10 0 283
214 -10 0 1076 10 400 0
215 20 44 74 10 0 454
216 -14 0 1071 10 124 0
217 -10 578 608 10 563 0
218 -10 226 256 10 474 0
219 -10 223 253 10 75 0
220 20 0 1066 10 0 433
221 26 546 576 10 0 137
222 10 120 150 10 0 278
223 20 74 104 10 0 236
224 21 744 774 10 0 167
225 30 100 130 0 0 627
226 -26 902 932 10 385 0
227 20 135 165 10 0 394
228 -10 243 273 10 366 0
229 -20 750 780 10 300 0
230 -10 643 673 10 446 0
231 -16 1008 1038 10 82 0
232 40 33 63 10 0 139
233 10 411 441 10 0 4
234 -10 387 417 10 583 0
235 -20 151 181 10 15 0
236 -20 115 145 10 223 0
237 22 0 1000 10 0 313
238 -20 276 306 10 101 0
239 20 0 1087 10 0 20
240 -10 693 723 10 145 0
241 10 100 130 10 0 50
242 -15 859 889 10 274 0
243 10 187 217 10 0 543
244 19 165 195 10 0 525
245 40 190 220 10 0 11
246 18 126 156 10 0 126
247 -30 271 301 10 556 0
248 -30 164 194 10 141 0
249 -32 0 1074 10 102 0
250 16 885 915 0 0 617
251 22 843 873 0 0 608
252 38 449 479 10 0 500
253 -20 188 218 10 581 0
254 19 0 1081 10 0 161
255 -10 197 227 10 578 0
256 -22 1023 1053 10 382 0
257 20 56 86 10 0 206
258 -20 402 432 10 377 0
259 20 165 195 10 0 69
260 -30 0 1100 10 486 0
261 12 85 115 10 0 432
262 16 870 900 10 0 414
263 -10 243 273 10 468 0
264 -10 138 168 10 334 0
265 18 0 1052 10 0 445
266 16 517 547 10 0 26
267 20 124 154 10 0 409
268 14 31 61 10 0 470
269 -10 767 797 10 164 0
270 20 133 163 10 0 151
271 -10 346 376 10 601 0
272 -10 174 204 10 553 0
273 18 397 427 10 0 317
274 15 0 1126 10 0 242
275 16 150 180 10 0 346
276 20 97 127 10 0 9
277 -20 123 153 10 477 0
278 -10 938 968 10 222 0
279 -16 0 1059 10 156 0
280 -20 880 910 10 293 0
281 22 196 226 10 0 336
282 20 0 1080 10 0 405
283 -10 235 265 10 213 0
284 22 0 1104 10 0 497
285 10 137 167 10 0 450
286 -10 761 791 10 596 0
287 -30 812 842 10 42 0
288 14 334 364 10 0 174
289 30 0 1060 10 0 368
290 15 78 108 10 0 202
291 -10 567 597 10 175 0
292 -20 544 574 10 85 0
293 20 187 217 10 0 280
294 11 0 1174 10 0 62
295 -24 304 334 10 488 0
296 -30 138 168 10 567 0
297 10 83 113 10 0 98
298 20 50 80 10 0 308
299 -30 197 227 10 10 0
300 20 66 96 10 0 229
301 34 648 678 0 0 614
302 20 0 1076 10 0 111
303 -1 0 1073 10 80 0
304 -20 959 989 10 457 0
305 -10 553 583 10 81 0
306 -16 726 756 10 116 0
307 -18 214 244 10 451 0
308 -20 166 196 10 298 0
309 18 0 1010 10 0 407
310 2 74 104 10 0 70
311 -10 230 260 10 420 0
312 -19 162 192 10 350 0
313 -22 735 765 10 237 0
314 30 173 203 10 0 119
315 23 710 740 10 0 440
316 -20 0 1047 10 520 0
317 -18 493 523 10 273 0
318 -30 0 1050 10 512 0
319 20 189 219 10 0 331
320 -10 512 542 10 364 0
321 15 363 393 10 0 461
322 -20 174 204 10 107 0
323 -10 853 883 10 546 0
324 -10 156 186 10 154 0
325 20 215 245 10 0 416
326 20 97 127 10 0 57
327 20 71 101 10 0 68
328 -20 167 197 10 456 0
329 -10 0 1050 10 43 0
330 -12 209 239 10 360 0
331 -20 213 243 10 319 0
332 -10 0 1109 10 187 0
333 5 12 42 10 0 162
334 10 0 1088 10 0 264
335 20 208 238 10 0 71
336 -22 736 766 10 281 0
337 -26 904 934 10 571 0
338 -15 397 427 10 39 0
339 -33 554 584 10 504 0
340 20 243 273 0 0 619
341 -20 126 156 10 455 0
342 15 53 83 0 0 605
343 -41 757 787 10 196 0
344 10 0 1111 10 0 453
345 -10 103 133 10 600 0
346 -16 497 527 10 275 0
347 20 56 86 10 0 94
348 10 0 1161 10 0 197
349 4 0 1157 10 0 72
350 19 100 130 10 0 312
351 10 0 1051 10 0 113
352 11 938 968 0 0 628
353 20 108 138 10 0 63
354 -20 573 603 10 448 0
355 20 54 84 10 0 519
356 2 187 217 10 0 379
357 -19 507 537 10 467 0
358 -10 0 1063 10 52 0
359 20 100 130 10 0 199
360 12 0 1065 10 0 330
361 -19 689 719 10 73 0
362 -20 301 331 10 392 0
363 15 0 1091 10 0 542
364 10 39 69 10 0 320
365 12 130 160 10 0 418
366 10 136 166 10 0 228
367 -10 618 648 10 483 0
368 -30 0 1067 10 289 0
369 -18 894 924 10 533 0
370 21 0 1024 0 0 602
371 -19 910 940 10 203 0
372 18 162 192 10 0 499
373 20 0 1070 0 0 615
374 -19 185 215 10 24 0
375 -20 234 264 10 40 0
376 -10 71 101 10 548 0
377 20 261 291 10 0 258
378 16 0 1045 10 0 478
379 -2 0 1034 10 356 0
380 -20 103 133 10 64 0
381 10 233 263 10 0 8
382 22 823 853 10 0 256
383 -20 54 84 10 569 0
384 30 86 116 10 0 554
385 26 492 522 10 0 226
386 -12 0 1142 10 425 0
387 -20 780 810 10 396 0
388 -20 166 196 10 193 0
389 -31 752 782 10 117 0
390 20 0 1077 10 0 465
391 10 0 1168 10 0 552
392 20 37 67 10 0 362
393 -5 0 1092 10 573 0
394 -20 136 166 10 227 0
395 6 133 163 10 0 410
396 20 598 628 10 0 387
397 -10 0 1062 10 415 0
398 30 201 231 0 0 618
399 10 241 271 10 0 198
400 10 166 196 10 0 214
401 20 140 170 10 0 584
402 20 0 1052 10 0 588
403 15 497 527 10 0 152
404 20 127 157 10 0 182
405 -20 149 179 10 282 0
406 42 553 583 10 0 426
407 -18 834 864 10 309 0
408 20 177 207 10 0 496
409 -20 382 412 10 267 0
410 -6 0 1095 10 395 0
411 -20 496 526 10 493 0
412 20 180 210 10 0 514
413 15 350 380 10 0 422
414 -16 0 1066 10 262 0
415 10 169 199 10 0 397
416 -20 746 776 10 325 0
417 21 49 79 0 0 610
418 -12 0 1081 10 365 0
419 22 35 65 10 0 195
420 10 128 158 10 0 311
421 20 79 109 10 0 91
422 -15 600 630 10 413 0
423 5 150 180 10 0 112
424 10 80 110 10 0 544
425 12 587 617 10 0 386
426 -42 0 1141 10 406 0
427 7 116 146 10 0 123
428 20 128 158 10 0 163
429 20 0 1107 10 0 22
430 -17 933 963 10 21 0
431 -10 0 1078 10 526 0
432 -12 593 623 10 261 0
433 -20 224 254 10 220 0
434 -9 374 404 10 449 0
435 20 101 131 10 0 447
436 27 450 480 10 0 96
437 20 0 1115 10 0 443
438 20 172 202 10 0 90
439 30 23 53 10 0 523
440 -23 909 939 10 315 0
441 15 13 43 10 0 84
442 -20 0 1093 10 590 0
443 -20 0 1101 10 437 0
444 24 205 235 10 0 74
445 -18 494 524 10 265 0
446 10 0 1056 10 0 230
447 -20 115 145 10 435 0
448 20 0 1061 10 0 354
449 9 93 123 10 0 434
450 -10 0 1126 10 285 0
451 18 186 216 10 0 307
452 30 55 85 10 0 589
453 -10 97 127 10 344 0
454 -20 68 98 10 215 0
455 20 115 145 10 0 341
456 20 115 145 10 0 328
457 20 121 151 10 0 304
458 27 0 1099 10 0 177
459 10 142 172 10 0 16
460 30 229 259 10 0 12
461 -15 821 851 10 321 0
462 30 0 1072 10 0 92
463 -15 636 666 10 205 0
464 -20 160 190 10 37 0
465 -20 633 663 10 390 0
466 42 442 472 10 0 535
467 19 390 420 10 0 357
468 10 221 251 10 0 263
469 -36 0 1125 10 166 0
470 -14 0 1102 10 268 0
471 -10 199 229 10 541 0
472 -10 176 206 10 110 0
473 25 983 1013 10 0 65
474 10 154 184 10 0 218
475 20 67 97 10 0 565
476 -20 0 1057 10 28 0
477 20 111 141 10 0 277
478 -16 908 938 10 378 0
479 -21 0 1010 10 487 0
480 -1 0 1113 10 79 0
481 10 48 78 10 0 572
482 39 476 506 10 0 191
483 10 194 224 10 0 367
484 20 159 189 10 0 576
485 10 144 174 10 0 517
486 30 132 162 10 0 260
487 21 321 351 10 0 479
488 24 7 37 10 0 295
489 20 47 77 10 0 56
490 -20 239 269 10 494 0
491 10 83 113 10 0 501
492 23 121 151 10 0 159
493 20 0 1134 10 0 411
494 20 162 192 10 0 490
495 -22 226 256 10 35 0
496 -20 939 969 10 408 0
497 -22 397 427 10 284 0
498 10 123 153 0 0 624
499 -18 160 190 10 372 0
500 -38 495 525 10 252 0
501 -10 0 1084 10 491 0
502 10 473 503 10 0 536
503 30 143 173 10 0 109
504 33 168 198 10 0 339
505 40 192 222 10 0 577
506 14 83 113 10 0 89
507 24 751 781 10 0 176
508 -9 899 929 10 118 0
509 33 88 118 10 0 153
510 -20 0 1076 10 148 0
511 30 119 149 10 0 598
512 30 260 290 10 0 318
513 10 121 151 10 0 60
514 -20 882 912 10 412 0
515 -20 205 235 10 47 0
516 30 149 179 10 0 55
517 -10 195 225 10 485 0
518 -10 0 1068 10 114 0
519 -20 99 129 10 355 0
520 20 0 1056 10 0 316
521 -27 119 149 10 534 0
522 20 102 132 10 0 129
523 -30 137 167 10 439 0
524 -10 816 846 10 14 0
525 -19 0 1055 10 244 0
526 10 0 1054 10 0 431
527 -20 66 96 10 128 0
528 -10 242 272 10 597 0
529 -9 684 714 10 562 0
530 10 135 165 10 0 188
531 20 126 156 10 0 587
532 -21 0 1089 10 170 0
533 18 566 596 10 0 369
534 27 0 1103 10 0 521
535 -42 0 1063 10 466 0
536 -10 0 1159 10 502 0
537 24 0 1096 0 0 621
538 -11 577 607 10 559 0
539 10 130 160 10 0 181
540 18 672 702 10 0 574
541 10 185 215 10 0 471
542 -15 201 231 10 363 0
543 -10 238 268 10 243 0
544 -10 91 121 10 424 0
545 -5 624 654 10 135 0
546 10 0 1066 10 0 323
547 -10 0 1051 10 155 0
548 10 39 69 10 0 376
549 -10 213 243 10 17 0
550 -10 830 860 10 29 0
551 30 30 60 10 0 77
552 -10 144 174 10 391 0
553 10 126 156 10 0 272
554 -30 151 181 10 384 0
555 -10 485 515 10 34 0
556 30 150 180 10 0 247
557 10 206 236 10 0 142
558 -30 541 571 10 570 0
559 11 372 402 10 0 538
560 -10 340 370 10 7 0
561 29 0 1092 10 0 95
562 9 0 1077 10 0 529
563 10 165 195 10 0 217
564 -30 0 1123 10 23 0
565 -20 0 1146 10 475 0
566 -7 166 196 10 5 0
567 30 40 70 10 0 296
568 40 222 252 10 0 210
569 20 51 81 10 0 383
570 30 0 1139 10 0 558
571 26 70 100 10 0 337
572 -10 291 321 10 481 0
573 5 0 1081 10 0 393
574 -18 686 716 10 540 0
575 30 0 1062 10 0 585
576 -20 182 212 10 484 0
577 -40 0 1072 10 505 0
578 10 138 168 10 0 255
579 -25 789 819 10 201 0
580 -10 1045 1075 10 140 0
581 20 0 1136 10 0 253
582 28 435 465 10 0 58
583 10 180 210 10 0 234
584 -20 0 1095 10 401 0
585 -30 410 440 10 575 0
586 16 1068 1098 0 0 613
587 -20 0 1100 10 531 0
588 -20 722 752 10 402 0
589 -30 0 1120 10 452 0
590 20 156 186 10 0 442
591 -29 187 217 10 149 0
592 -22 259 289 10 36 0
593 -20 0 1031 10 131 0
594 17 151 181 10 0 183
595 30 190 220 10 0 87
596 10 0 1030 10 0 286
597 10 145 175 10 0 528
598 -30 0 1074 10 511 0
599 18 0 1098 0 0 622
600 10 91 121 10 0 345
601 10 154 184 10 0 271
602 -21 0 1024 10 370 0
603 -6 574 604 10 180 0
604 -10 800 830 10 136 0
605 -15 53 83 10 342 0
606 -10 80 110 10 97 0
607 -10 444 474 10 127 0
608 -22 843 873 10 251 0
609 -20 192 222 10 192 0
610 -21 49 79 10 417 0
611 -17 582 612 10 33 0
612 -40 148 178 10 168 0
613 -16 1068 1098 10 586 0
614 -34 648 678 10 301 0
615 -20 0 1070 10 373 0
616 -20 53 83 10 6 0
617 -16 885 915 10 250 0
618 -30 201 231 10 398 0
619 -20 243 273 10 340 0
620 -11 333 363 10 157 0
621 -24 0 1096 10 537 0
622 -18 0 1098 10 599 0
623 -42 807 837 10 143 0
624 -10 123 153 10 498 0
625 -10 53 83 10 212 0
626 -10 0 1058 10 132 0
627 -30 100 130 10 225 0
628 -11 938 968 10 352 0
629 -24 377 407 10 51 0
630 -10 0 1091 10 207 0
631 -15 393 423 10 93 0
DEPOT_SECTION
1
-1
EOF
