NAME: lrc1_6_5
TYPE: PDPTW
COMMENT: Li & Lim PDPTW benchmark converted from SINTEF format
DIMENSION: 631
VEHICLES: 150
CAPACITY: 200
EDGE_WEIGHT_TYPE: EUC_2D
NODE_COORD_SECTION
1 150 150
2 125 168
3 162 107
4 199 213
5 61 84
6 125 103
7 143 101
8 28 141
9 230 128
10 55 68
11 72 180
12 159 41
13 8 4
14 257 58
15 57 155
16 186 26
17 231 243
18 247 132
19 89 61
20 84 231
21 116 240
22 110 79
23 110 74
24 180 106
25 240 73
26 13 265
27 134 147
28 257 59
29 160 108
30 289 130
31 27 255
32 234 146
33 69 208
34 115 196
35 250 228
36 159 89
37 105 81
38 149 183
39 159 300
40 47 277
41 209 269
42 212 26
43 14 149
44 74 117
45 140 140
46 152 241
47 222 83
48 88 124
49 136 68
50 250 124
51 109 299
52 258 244
53 208 47
54 212 62
55 259 59
56 150 104
57 77 233
58 212 45
59 57 125
60 232 121
61 255 132
62 18 184
63 165 113
64 143 111
65 248 41
66 8 263
67 109 110
68 106 71
69 259 240
70 38 139
71 277 41
72 255 57
73 9 122
74 102 76
75 43 286
76 60 160
77 172 225
78 161 22
79 88 110
80 122 127
81 52 63
82 53 141
83 175 281
84 265 141
85 250 126
86 147 281
87 255 240
88 188 142
89 154 26
90 59 64
91 114 204
92 235 242
93 34 150
94 140 214
95 59 113
96 282 104
97 145 184
98 184 277
99 129 77
100 96 199
101 67 154
102 2 81
103 208 208
104 169 173
105 106 108
106 15 2
107 227 26
108 147 285
109 141 286
110 231 70
111 242 73
112 15 259
113 93 165
114 10 198
115 149 294
116 82 100
117 256 286
118 172 2
119 277 172
120 73 81
121 217 69
122 85 224
123 0 153
124 147 43
125 143 288
126 112 272
127 200 26
128 140 143
129 83 236
130 253 84
131 53 288
132 256 239
133 224 79
134 110 107
135 125 136
136 149 76
137 203 166
138 211 61
139 107 103
140 262 62
141 227 80
142 269 103
143 119 254
144 122 96
145 248 245
146 181 297
147 65 69
148 16 151
149 254 206
150 167 176
151 280 172
152 285 285
153 149 282
154 277 100
155 223 23
156 25 191
157 266 212
158 272 183
159 135 251
160 11 191
161 25 119
162 215 68
163 137 104
164 113 202
165 160 24
166 51 217
167 14 177
168 225 22
169 194 234
170 262 14
171 259 126
172 214 234
173 216 23
174 111 110
175 145 182
176 51 2
177 30 243
178 186 228
179 132 146
180 176 72
181 108 3
182 216 62
183 271 106
184 140 290
185 64 59
186 206 157
187 66 157
188 132 297
189 109 105
190 64 55
191 173 64
192 213 65
193 17 205
194 224 229
195 78 236
196 274 6
197 207 237
198 161 26
199 119 104
200 169 171
201 296 235
202 220 74
203 109 148
204 212 270
205 265 197
206 174 238
207 223 74
208 47 203
209 69 90
210 33 231
211 8 265
212 136 144
213 286 175
214 151 30
215 150 184
216 157 25
217 131 78
218 232 240
219 53 285
220 278 176
221 225 192
222 115 197
223 167 179
224 6 168
225 163 180
226 135 210
227 277 104
228 262 241
229 162 148
230 61 138
231 117 155
232 126 127
233 157 221
234 19 290
235 65 156
236 159 177
237 12 10
238 67 175
239 78 232
240 201 175
241 249 133
242 139 110
243 252 128
244 57 123
245 71 154
246 157 276
247 111 98
248 221 70
249 70 57
250 236 108
251 268 113
252 40 1
253 106 243
254 37 126
255 259 58
256 167 193
257 168 204
258 72 286
259 254 240
260 241 183
261 75 191
262 26 27
263 12 270
264 81 238
265 140 294
266 11 242
267 224 77
268 166 123
269 92 241
270 280 180
271 151 113
272 65 49
273 203 36
274 129 83
275 38 74
276 166 105
277 129 98
278 30 226
279 15 178
280 108 298
281 296 211
282 236 72
283 277 177
284 99 73
285 166 113
286 271 8
287 228 41
288 80 131
289 284 176
290 208 117
291 119 183
292 246 166
293 144 292
294 128 155
295 113 188
296 155 93
297 161 210
298 168 176
299 60 64
300 165 204
301 280 158
302 241 71
303 57 68
304 219 152
305 72 89
306 85 75
307 3 205
308 235 243
309 12 275
310 76 160
311 56 116
312 170 53
313 34 5
314 280 175
315 288 127
316 103 8
317 229 25
318 12 198
319 66 54
320 120 60
321 110 31
322 218 20
323 226 248
324 275 100
325 217 73
326 88 225
327 123 92
328 293 62
329 4 149
330 216 25
331 63 59
332 63 155
333 158 140
334 84 236
335 260 58
336 284 244
337 190 181
338 159 287
339 285 283
340 65 68
341 61 157
342 102 173
343 300 44
344 103 78
345 144 182
346 24 76
347 149 186
348 165 182
349 179 123
350 157 84
351 17 209
352 233 119
353 167 105
354 238 206
355 127 101
356 263 291
357 281 68
358 251 237
359 108 109
360 199 28
361 3 119
362 252 219
363 234 213
364 136 140
365 191 49
366 251 241
367 119 214
368 275 182
369 103 260
370 2 238
371 94 93
372 158 291
373 230 248
374 207 20
375 54 285
376 160 107
377 59 280
378 208 290
379 248 280
380 138 100
381 8 155
382 208 235
383 111 112
384 128 94
385 110 262
386 162 203
387 160 179
388 16 204
389 239 295
390 157 31
391 147 178
392 170 174
393 157 254
394 277 101
395 283 144
396 156 182
397 274 97
398 66 56
399 158 27
400 156 26
401 257 133
402 264 61
403 296 279
404 220 66
405 240 71
406 112 43
407 4 296
408 222 73
409 209 84
410 250 134
411 59 287
412 13 202
413 93 117
414 62 53
415 275 97
416 206 121
417 107 174
418 224 61
419 124 174
420 101 110
421 112 201
422 80 86
423 5 189
424 141 100
425 165 256
426 108 113
427 37 159
428 136 104
429 107 71
430 97 232
431 127 266
432 14 204
433 278 177
434 209 246
435 134 148
436 283 65
437 108 80
438 55 62
439 141 137
440 224 138
441 163 150
442 213 68
443 113 62
444 100 138
445 126 266
446 10 150
447 137 150
448 258 232
449 191 234
450 213 119
451 5 195
452 166 203
453 100 73
454 147 185
455 60 156
456 239 77
457 163 202
458 81 219
459 155 28
460 160 27
461 43 62
462 235 241
463 291 148
464 64 53
465 168 42
466 183 282
467 289 79
468 1 272
469 87 183
470 234 107
471 52 288
472 236 66
473 264 35
474 233 245
475 144 100
476 260 64
477 130 96
478 202 292
479 7 31
480 96 86
481 141 102
482 170 93
483 85 228
484 10 147
485 18 206
486 164 202
487 1 81
488 148 157
489 159 110
490 229 40
491 67 161
492 131 220
493 112 199
494 238 69
495 258 247
496 205 130
497 109 61
498 59 67
499 151 294
500 26 0
501 45 190
502 56 212
503 148 288
504 275 263
505 272 97
506 143 67
507 29 8
508 152 29
509 176 235
510 30 145
511 61 70
512 16 196
513 168 108
514 15 209
515 211 66
516 256 54
517 11 207
518 58 240
519 131 95
520 116 14
521 154 31
522 86 230
523 133 99
524 290 37
525 9 145
526 140 292
527 134 146
528 229 179
529 72 20
530 149 285
531 257 137
532 225 73
533 71 294
534 156 57
535 177 281
536 117 168
537 162 250
538 116 245
539 153 28
540 176 70
541 50 285
542 257 243
543 246 133
544 140 100
545 69 134
546 236 248
547 217 21
548 161 112
549 233 242
550 127 77
551 155 180
552 144 173
553 65 56
554 130 102
555 76 280
556 110 76
557 271 101
558 216 203
559 136 241
560 160 17
561 64 91
562 107 39
563 106 77
564 103 93
565 138 101
566 15 52
567 160 111
568 81 223
569 113 114
570 162 206
571 203 183
572 113 4
573 176 263
574 173 72
575 279 189
576 9 144
577 266 104
578 253 57
579 296 252
580 254 87
581 114 198
582 220 43
583 11 265
584 250 130
585 299 153
586 133 187
587 246 137
588 238 103
589 220 182
590 213 61
591 290 219
592 153 61
593 55 285
594 276 66
595 236 240
596 244 13
597 163 200
598 62 65
599 189 240
600 145 183
601 140 108
602 234 107
603 72 89
604 152 29
605 133 99
606 296 279
607 167 193
608 119 254
609 224 138
610 169 171
611 103 8
612 205 130
613 3 119
614 201 175
615 224 229
616 57 123
617 168 42
618 80 86
619 55 285
620 250 130
621 67 175
622 111 98
623 176 263
624 56 212
625 143 101
626 129 83
627 165 113
628 228 41
629 84 231
630 100 73
631 213 61
PICKUP_AND_DELIVERY_SECTION
1 0 0 1206 0 0 0
2 -9 848 916 10 279 0
3 10 57 139 10 0 482
4 -30 522 530 10 462 0
5 7 281 416 10 0 209
6 -30 53 89 10 439 0
7 10 51 91 0 0 625
8 -20 632 689 10 329 0
9 -16 376 415 10 528 0
10 -29 125 222 10 561 0
11 27 366 409 10 0 501
12 -20 277 366 10 489 0
13 29 203 234 10 0 507
14 10 154 203 10 0 28
15 20 93 160 10 0 427
16 -18 538 622 10 273 0
17 10 123 157 10 0 149
18 -20 205 279 10 171 0
19 14 237 300 10 0 562
20 21 535 584 0 0 629
21 17 516 564 10 0 538
22 -20 196 215 10 429 0
23 30 126 181 10 0 564
24 19 53 164 10 0 402
25 20 118 154 10 0 111
26 20 178 276 10 0 583
27 20 95 116 10 0 179
28 -10 178 201 10 14 0
29 -30 43 155 10 567 0
30 27 302 387 10 0 585
31 -10 232 280 10 75 0
32 -15 329 405 10 441 0
33 -36 539 654 10 166 0
34 10 57 104 10 0 581
35 -2 751 833 10 356 0
36 -27 787 895 10 534 0
37 20 82 130 10 0 344
38 10 33 147 10 0 347
39 15 150 224 10 0 146
40 20 163 203 10 0 278
41 17 428 493 10 0 478
42 30 189 288 10 0 173
43 -20 136 250 10 76 0
44 -10 771 867 10 81 0
45 30 18 33 10 0 355
46 -10 647 725 10 108 0
47 20 98 180 10 0 325
48 2 67 157 10 0 93
49 19 603 616 10 0 550
50 4 103 193 10 0 394
51 -18 377 406 10 126 0
52 10 183 273 10 0 495
53 6 118 145 10 0 155
54 20 179 209 10 0 138
55 -30 173 230 10 255 0
56 21 80 89 10 0 180
57 20 129 231 10 0 122
58 -13 606 682 10 490 0
59 23 191 261 10 0 79
60 15 560 624 10 0 88
61 10 115 219 10 0 283
62 -10 371 401 10 114 0
63 20 159 166 0 0 627
64 20 39 82 10 0 424
65 11 436 533 10 0 580
66 30 181 242 10 0 263
67 20 87 120 10 0 105
68 -30 110 147 10 384 0
69 10 233 310 10 0 206
70 -5 326 378 10 135 0
71 -20 322 396 10 404 0
72 -10 140 255 10 578 0
73 -10 206 256 10 446 0
74 -20 848 869 10 390 0
75 10 173 228 10 0 31
76 20 90 137 10 0 43
77 13 98 151 10 0 445
78 -14 185 251 10 506 0
79 -23 613 684 10 59 0
80 1 36 63 10 0 498
81 10 131 238 10 0 44
82 -19 97 163 10 203 0
83 -42 629 681 10 466 0
84 22 115 168 10 0 354
85 20 192 236 10 0 543
86 20 255 320 10 0 425
87 20 184 198 10 0 542
88 -15 1100 1158 10 60 0
89 20 124 216 10 0 216
90 10 167 234 10 0 598
91 -20 68 168 10 421 0
92 10 178 207 10 0 137
93 -2 384 433 10 48 0
94 24 607 651 10 0 396
95 16 236 283 10 0 413
96 -20 261 312 10 302 0
97 -24 71 120 10 488 0
98 17 173 260 10 0 378
99 -22 630 676 10 284 0
100 -19 1015 1054 10 432 0
101 -10 170 211 10 332 0
102 -30 267 292 10 511 0
103 16 82 183 10 0 308
104 10 29 113 10 0 150
105 -20 92 164 10 67 0
106 5 381 447 10 0 479
107 -40 145 188 10 168 0
108 10 237 311 10 0 46
109 -20 220 295 10 293 0
110 10 122 196 10 0 352
111 -20 119 192 10 25 0
112 -10 652 734 10 468 0
113 -15 58 130 10 342 0
114 10 215 282 10 0 62
115 -20 169 205 10 499 0
116 -22 563 622 10 311 0
117 -11 789 830 10 389 0
118 -24 589 645 10 560 0
119 -6 202 226 10 395 0
120 -30 555 587 10 398 0
121 10 108 148 10 0 140
122 -20 200 246 10 57 0
123 -30 213 247 10 525 0
124 -20 107 164 10 475 0
125 -18 174 258 10 246 0
126 18 328 376 10 0 51
127 10 442 477 10 0 540
128 20 12 93 10 0 569
129 10 127 154 10 0 533
130 -20 386 454 10 408 0
131 20 193 257 10 0 411
132 -10 185 219 10 358 0
133 30 102 164 10 0 207
134 20 128 246 10 0 199
135 5 28 130 10 0 70
136 -30 770 860 10 376 0
137 -10 979 1031 10 92 0
138 -20 134 231 10 54 0
139 -10 150 174 10 420 0
140 -10 234 267 10 121 0
141 30 104 157 10 0 282
142 -20 220 248 10 494 0
143 42 796 848 0 0 608
144 19 154 171 10 0 563
145 10 136 154 10 0 204
146 -15 150 219 10 39 0
147 -10 247 292 10 299 0
148 20 134 221 10 0 224
149 -10 613 659 10 17 0
150 -10 43 108 10 104 0
151 -30 145 257 10 410 0
152 -22 666 765 10 339 0
153 10 132 201 10 0 530
154 -10 136 206 10 397 0
155 -6 153 193 10 53 0
156 -10 211 278 10 388 0
157 -15 324 371 10 205 0
158 12 682 761 10 0 186
159 -10 463 535 10 297 0
160 -30 690 792 10 512 0
161 17 154 212 10 0 381
162 10 104 167 10 0 472
163 -20 134 174 10 428 0
164 10 63 183 10 0 387
165 -20 181 231 10 214 0
166 36 254 315 10 0 33
167 17 138 228 10 0 423
168 40 148 199 10 0 107
169 7 94 159 10 0 509
170 21 648 779 10 0 286
171 20 142 227 10 0 18
172 -11 737 753 10 197 0
173 -30 170 254 10 42 0
174 10 63 121 10 0 189
175 10 71 186 10 0 253
176 -10 206 258 10 553 0
177 -10 266 336 10 541 0
178 -20 407 449 10 257 0
179 -20 41 145 10 27 0
180 -21 567 612 10 56 0
181 -10 677 695 10 399 0
182 20 135 181 10 0 515
183 22 570 635 10 0 251
184 20 204 282 10 0 393
185 30 125 161 10 0 190
186 -12 903 948 10 158 0
187 -40 161 194 10 341 0
188 40 155 203 10 0 526
189 -10 166 183 10 174 0
190 -30 128 222 10 185 0
191 -21 573 601 10 312 0
192 20 172 243 10 0 582
193 20 143 241 10 0 307
194 16 321 392 0 0 615
195 10 130 203 10 0 586
196 41 488 581 10 0 596
197 11 487 518 10 0 172
198 10 189 275 10 0 572
199 -20 168 245 10 134 0
200 30 28 107 0 0 610
201 -20 553 597 10 270 0
202 20 214 220 10 0 250
203 19 44 61 10 0 82
204 -10 585 629 10 145 0
205 15 312 361 10 0 157
206 -10 1013 1063 10 69 0
207 -30 164 243 10 133 0
208 29 635 735 10 0 458
209 -7 740 842 10 5 0
210 -20 751 769 10 493 0
211 20 182 276 10 0 234
212 10 42 94 10 0 527
213 10 140 205 10 0 281
214 20 120 159 10 0 165
215 20 53 64 10 0 454
216 -20 171 215 10 89 0
217 -9 573 613 10 443 0
218 -30 196 286 10 549 0
219 10 202 275 10 0 375
220 20 206 251 10 0 433
221 -5 548 575 10 558 0
222 -22 100 170 10 419 0
223 20 65 113 10 0 225
224 -20 738 780 10 148 0
225 -20 59 171 10 223 0
226 -10 887 947 10 483 0
227 20 135 169 10 0 243
228 20 222 294 10 0 448
229 -8 727 804 10 574 0
230 -46 648 667 10 545 0
231 -14 978 1067 10 288 0
232 40 33 74 10 0 554
233 10 381 471 10 0 559
234 -20 380 425 10 211 0
235 10 144 188 10 0 245
236 -20 109 151 10 298 0
237 22 412 456 10 0 500
238 3 262 320 0 0 621
239 -20 142 240 10 326 0
240 10 642 774 0 0 614
241 10 104 120 10 0 401
242 -12 854 894 10 320 0
243 -20 169 235 10 227 0
244 19 135 226 0 0 616
245 -10 174 235 10 235 0
246 18 126 164 10 0 125
247 16 260 312 0 0 622
248 10 120 239 10 0 516
249 -20 204 256 10 331 0
250 -20 842 959 10 202 0
251 -22 828 888 10 183 0
252 -10 430 498 10 414 0
253 -10 158 247 10 175 0
254 -11 142 195 10 294 0
255 30 187 237 10 0 55
256 29 1003 1072 0 0 607
257 20 56 152 10 0 178
258 17 385 450 10 0 555
259 -10 147 212 10 366 0
260 -34 817 900 10 301 0
261 -21 85 158 10 417 0
262 -16 843 926 10 313 0
263 -30 218 298 10 66 0
264 -20 111 246 10 522 0
265 18 378 470 10 0 535
266 16 491 573 10 0 370
267 -4 103 199 10 349 0
268 14 31 109 10 0 353
269 -20 761 802 10 471 0
270 20 133 171 10 0 201
271 -30 355 367 10 380 0
272 20 141 236 10 0 529
273 18 385 440 10 0 16
274 15 621 653 0 0 626
275 16 143 187 10 0 487
276 -10 82 142 10 548 0
277 20 123 154 10 0 519
278 -20 938 967 10 40 0
279 9 772 793 10 0 2
280 17 873 918 10 0 369
281 -10 164 259 10 213 0
282 -30 188 226 10 141 0
283 -10 231 269 10 61 0
284 22 92 158 10 0 99
285 -10 136 167 10 513 0
286 -21 768 783 10 170 0
287 16 809 845 0 0 628
288 14 296 402 10 0 231
289 -10 139 181 10 368 0
290 15 66 129 10 0 328
291 -17 561 604 10 469 0
292 18 549 570 10 0 304
293 20 166 239 10 0 109
294 11 22 110 10 0 254
295 -30 300 338 10 447 0
296 33 126 180 10 0 592
297 10 61 136 10 0 159
298 20 31 112 10 0 236
299 10 164 259 10 0 147
300 -30 56 156 10 452 0
301 34 645 681 10 0 260
302 20 140 166 10 0 96
303 -10 124 167 10 426 0
304 -18 955 993 10 292 0
305 13 553 582 0 0 603
306 -30 709 773 10 464 0
307 -20 203 254 10 193 0
308 -16 149 214 10 103 0
309 18 504 550 10 0 407
310 -14 74 167 10 536 0
311 22 222 268 10 0 116
312 21 130 224 10 0 191
313 16 719 782 10 0 262
314 -20 167 209 10 531 0
315 -40 707 744 10 505 0
316 16 640 754 0 0 611
317 -30 461 556 10 547 0
318 10 252 269 10 0 514
319 -12 169 238 10 480 0
320 12 498 557 10 0 242
321 15 352 403 10 0 406
322 -13 156 222 10 374 0
323 -23 852 883 10 362 0
324 -10 136 207 10 415 0
325 -20 206 254 10 47 0
326 20 97 199 10 0 239
327 20 83 89 10 0 556
328 -15 167 227 10 290 0
329 20 175 254 10 0 8
330 30 179 270 10 0 532
331 20 166 289 10 0 249
332 10 133 175 10 0 101
333 5 12 60 10 0 442
334 10 108 200 10 0 430
335 20 213 234 10 0 476
336 12 747 756 10 0 579
337 -19 885 953 10 591 0
338 -13 374 449 10 431 0
339 22 535 603 10 0 152
340 -20 234 283 10 438 0
341 40 122 161 10 0 187
342 15 53 84 10 0 113
343 3 749 794 10 0 473
344 -20 85 131 10 37 0
345 30 106 129 10 0 552
346 23 477 546 10 0 461
347 -10 36 105 10 38 0
348 -20 62 142 10 392 0
349 4 39 136 10 0 267
350 19 98 133 10 0 360
351 10 145 172 10 0 485
352 -10 935 971 10 110 0
353 -14 93 154 10 268 0
354 -22 574 601 10 84 0
355 -30 54 133 10 45 0
356 2 183 221 10 0 35
357 -17 490 554 10 594 0
358 10 133 216 10 0 132
359 -20 89 142 10 383 0
360 -19 421 522 10 350 0
361 8 690 718 0 0 613
362 23 300 333 10 0 323
363 15 105 221 10 0 434
364 10 37 72 10 0 477
365 12 112 178 10 0 418
366 10 135 227 10 0 259
367 -40 595 671 10 568 0
368 10 129 177 10 0 289
369 -17 893 925 10 280 0
370 -16 844 867 10 266 0
371 -21 870 980 10 566 0
372 -30 141 227 10 503 0
373 -26 126 196 10 571 0
374 13 175 225 10 0 322
375 -10 224 275 10 219 0
376 30 44 140 10 0 136
377 20 249 303 10 0 518
378 -17 299 342 10 98 0
379 -33 280 330 10 504 0
380 30 69 167 10 0 271
381 -17 206 291 10 161 0
382 -18 800 875 10 599 0
383 20 54 138 10 0 359
384 30 69 133 10 0 68
385 -23 470 544 10 492 0
386 30 78 171 10 0 457
387 -10 752 838 10 164 0
388 10 158 204 10 0 156
389 11 729 806 10 0 117
390 20 241 298 10 0 74
391 -10 108 178 10 600 0
392 20 31 86 10 0 348
393 -20 504 558 10 184 0
394 -4 136 163 10 50 0
395 6 133 217 10 0 119
396 -24 567 659 10 94 0
397 10 141 250 10 0 154
398 30 165 267 10 0 120
399 10 217 294 10 0 181
400 -10 143 220 10 539 0
401 -10 128 181 10 241 0
402 -19 204 273 10 24 0
403 15 470 555 0 0 606
404 20 109 191 10 0 71
405 30 127 201 10 0 577
406 -15 542 594 10 321 0
407 -18 818 879 10 309 0
408 20 141 243 10 0 130
409 13 336 458 10 0 588
410 30 101 154 10 0 151
411 -20 469 554 10 131 0
412 20 179 212 10 0 517
413 -16 321 409 10 95 0
414 10 142 183 10 0 252
415 10 181 188 10 0 324
416 -25 721 801 10 450 0
417 21 49 179 10 0 261
418 -12 460 517 10 365 0
419 22 35 73 10 0 222
420 10 128 157 10 0 139
421 20 63 152 10 0 91
422 32 558 672 0 0 618
423 -17 150 255 10 167 0
424 -20 82 109 10 64 0
425 -20 550 653 10 86 0
426 10 57 98 10 0 303
427 -20 113 190 10 15 0
428 20 134 153 10 0 163
429 20 105 173 10 0 22
430 -10 910 985 10 334 0
431 13 118 170 10 0 338
432 19 571 646 10 0 100
433 -20 202 277 10 220 0
434 -15 361 417 10 363 0
435 20 90 142 10 0 444
436 -19 436 495 10 467 0
437 20 163 223 10 0 497
438 20 164 210 10 0 340
439 30 15 108 10 0 6
440 16 904 943 0 0 609
441 15 13 105 10 0 32
442 -5 103 210 10 333 0
443 9 520 557 10 0 217
444 -20 210 229 10 435 0
445 -13 470 547 10 77 0
446 10 140 251 10 0 73
447 30 102 157 10 0 295
448 -20 260 319 10 228 0
449 9 93 110 10 0 537
450 25 699 789 10 0 416
451 -20 164 238 10 455 0
452 30 57 81 10 0 300
453 20 91 165 0 0 630
454 -20 44 123 10 215 0
455 20 104 155 10 0 451
456 20 115 143 10 0 524
457 -30 94 178 10 386 0
458 -29 948 1009 10 208 0
459 10 132 182 10 0 520
460 -20 222 265 10 521 0
461 -23 818 854 10 346 0
462 30 167 265 10 0 4
463 -10 633 668 10 557 0
464 30 159 191 10 0 306
465 26 604 691 0 0 617
466 42 446 467 10 0 83
467 19 382 428 10 0 436
468 10 203 270 10 0 112
469 17 503 578 10 0 291
470 24 331 375 0 0 602
471 20 174 254 10 0 269
472 -10 168 213 10 162 0
473 -3 958 1035 10 343 0
474 10 126 231 10 0 546
475 20 50 145 10 0 124
476 -20 423 473 10 335 0
477 -10 105 146 10 364 0
478 -17 877 968 10 41 0
479 -5 790 826 10 106 0
480 12 83 150 10 0 319
481 10 48 111 10 0 544
482 -10 488 493 10 3 0
483 10 196 223 10 0 226
484 20 140 225 10 0 510
485 -10 143 187 10 351 0
486 -30 83 211 10 551 0
487 -16 299 372 10 275 0
488 24 7 72 10 0 97
489 20 46 79 10 0 12
490 13 208 301 10 0 58
491 10 83 117 10 0 576
492 23 110 162 10 0 385
493 20 62 118 10 0 210
494 20 155 200 10 0 142
495 -10 198 283 10 52 0
496 30 943 965 0 0 612
497 -20 394 430 10 437 0
498 -1 123 149 10 80 0
499 20 155 194 10 0 115
500 -22 471 549 10 237 0
501 -27 440 479 10 11 0
502 10 436 539 0 0 624
503 30 138 247 10 0 372
504 33 168 218 10 0 379
505 40 142 272 10 0 315
506 14 83 152 10 0 78
507 -29 750 782 10 13 0
508 10 876 953 0 0 604
509 -7 88 167 10 169 0
510 -20 823 900 10 484 0
511 30 119 207 10 0 102
512 30 243 307 10 0 160
513 10 117 156 10 0 285
514 -10 862 933 10 318 0
515 -20 212 228 10 182 0
516 -10 143 233 10 248 0
517 -20 190 230 10 412 0
518 -20 750 828 10 377 0
519 -20 82 147 10 277 0
520 -10 647 691 10 459 0
521 20 119 226 10 0 460
522 20 102 154 10 0 264
523 20 113 192 0 0 605
524 -20 806 857 10 456 0
525 30 170 203 10 0 123
526 -40 209 253 10 188 0
527 -10 38 125 10 212 0
528 16 248 265 10 0 9
529 -20 653 745 10 272 0
530 -10 135 180 10 153 0
531 20 107 212 10 0 314
532 -30 507 560 10 330 0
533 -10 536 625 10 129 0
534 27 645 747 10 0 36
535 -18 396 486 10 265 0
536 14 37 138 10 0 310
537 -9 181 241 10 449 0
538 -17 545 640 10 21 0
539 10 122 205 10 0 400
540 -10 674 700 10 127 0
541 10 168 245 10 0 177
542 -20 204 228 10 87 0
543 -20 229 277 10 85 0
544 -10 74 138 10 481 0
545 46 611 667 10 0 230
546 -10 146 162 10 474 0
547 30 161 239 10 0 317
548 10 39 111 10 0 276
549 30 206 250 10 0 218
550 -19 811 878 10 49 0
551 30 30 81 10 0 486
552 -30 141 177 10 345 0
553 10 126 195 10 0 176
554 -40 141 192 10 232 0
555 -17 467 532 10 258 0
556 -20 141 189 10 327 0
557 10 183 259 10 0 463
558 5 526 586 10 0 221
559 -10 350 424 10 233 0
560 24 332 379 10 0 118
561 29 104 194 10 0 10
562 -14 303 408 10 19 0
563 -19 148 212 10 144 0
564 -30 538 625 10 23 0
565 20 90 168 10 0 601
566 21 166 264 10 0 371
567 30 40 137 10 0 29
568 40 213 261 10 0 367
569 -20 51 103 10 128 0
570 30 98 125 10 0 597
571 26 79 91 10 0 373
572 -10 285 326 10 198 0
573 5 590 660 0 0 623
574 8 686 715 10 0 229
575 -10 544 674 10 587 0
576 -10 193 202 10 491 0
577 -30 213 281 10 405 0
578 10 138 203 10 0 72
579 -12 749 859 10 336 0
580 -11 1032 1075 10 65 0
581 -10 60 135 10 34 0
582 -20 446 453 10 192 0
583 -20 180 249 10 26 0
584 10 177 279 0 0 620
585 -27 386 464 10 30 0
586 -10 1066 1099 10 195 0
587 10 96 189 10 0 575
588 -13 732 743 10 409 0
589 -30 606 650 10 595 0
590 20 155 186 0 0 631
591 19 164 240 10 0 337
592 -33 265 282 10 296 0
593 30 254 267 0 0 619
594 17 151 221 10 0 357
595 30 173 236 10 0 589
596 -41 709 767 10 196 0
597 -30 132 188 10 570 0
598 -10 226 262 10 90 0
599 18 98 166 10 0 382
600 10 72 140 10 0 391
601 -20 125 214 10 565 0
602 -24 331 375 10 470 0
603 -13 553 582 10 305 0
604 -10 876 953 10 508 0
605 -20 113 192 10 523 0
606 -15 470 555 10 403 0
607 -29 1003 1072 10 256 0
608 -42 796 848 10 143 0
609 -16 904 943 10 440 0
610 -30 28 107 10 200 0
611 -16 640 754 10 316 0
612 -30 943 965 10 496 0
613 -8 690 718 10 361 0
614 -10 642 774 10 240 0
615 -16 321 392 10 194 0
616 -19 135 226 10 244 0
617 -26 604 691 10 465 0
618 -32 558 672 10 422 0
619 -30 254 267 10 593 0
620 -10 177 279 10 584 0
621 -3 262 320 10 238 0
622 -16 260 312 10 247 0
623 -5 590 660 10 573 0
624 -10 436 539 10 502 0
625 -10 51 91 10 7 0
626 -15 621 653 10 274 0
627 -20 159 166 10 63 0
628 -16 809 845 10 287 0
629 -21 535 584 10 20 0
630 -20 91 165 10 453 0
631 -20 155 186 10 590 0
DEPOT_SECTION
1
-1
EOF
