NAME: lrc1_6_3
TYPE: PDPTW
COMMENT: Li & Lim PDPTW benchmark converted from SINTEF format
DIMENSION: 629
VEHICLES: 150
CAPACITY: 200
EDGE_WEIGHT_TYPE: EUC_2D
NODE_COORD_SECTION
1 150 150
2 125 168
3 162 107
4 199 213
5 61 84
6 125 103
7 143 101
8 28 141
9 230 128
10 55 68
11 72 180
12 159 41
13 8 4
14 257 58
15 57 155
16 186 26
17 231 243
18 247 132
19 89 61
20 84 231
21 116 240
22 110 79
23 110 74
24 180 106
25 240 73
26 13 265
27 134 147
28 257 59
29 160 108
30 289 130
31 27 255
32 234 146
33 69 208
34 115 196
35 250 228
36 159 89
37 105 81
38 149 183
39 159 300
40 47 277
41 209 269
42 212 26
43 14 149
44 74 117
45 140 140
46 152 241
47 222 83
48 88 124
49 136 68
50 250 124
51 109 299
52 258 244
53 208 47
54 212 62
55 259 59
56 150 104
57 77 233
58 212 45
59 57 125
60 232 121
61 255 132
62 18 184
63 165 113
64 143 111
65 248 41
66 8 263
67 109 110
68 106 71
69 259 240
70 38 139
71 277 41
72 255 57
73 9 122
74 102 76
75 43 286
76 60 160
77 172 225
78 161 22
79 88 110
80 122 127
81 52 63
82 53 141
83 175 281
84 265 141
85 250 126
86 147 281
87 255 240
88 188 142
89 154 26
90 59 64
91 114 204
92 235 242
93 34 150
94 140 214
95 59 113
96 282 104
97 145 184
98 184 277
99 129 77
100 96 199
101 67 154
102 2 81
103 208 208
104 169 173
105 106 108
106 15 2
107 227 26
108 147 285
109 141 286
110 231 70
111 242 73
112 15 259
113 93 165
114 10 198
115 149 294
116 82 100
117 256 286
118 172 2
119 277 172
120 73 81
121 217 69
122 85 224
123 0 153
124 147 43
125 143 288
126 112 272
127 200 26
128 140 143
129 83 236
130 253 84
131 53 288
132 256 239
133 224 79
134 110 107
135 125 136
136 149 76
137 203 166
138 211 61
139 107 103
140 262 62
141 227 80
142 269 103
143 119 254
144 122 96
145 248 245
146 181 297
147 65 69
148 16 151
149 254 206
150 167 176
151 280 172
152 285 285
153 149 282
154 277 100
155 223 23
156 25 191
157 266 212
158 272 183
159 135 251
160 11 191
161 25 119
162 215 68
163 137 104
164 113 202
165 160 24
166 51 217
167 14 177
168 225 22
169 194 234
170 262 14
171 259 126
172 214 234
173 216 23
174 111 110
175 145 182
176 51 2
177 30 243
178 186 228
179 132 146
180 176 72
181 108 3
182 216 62
183 271 106
184 140 290
185 64 59
186 206 157
187 66 157
188 132 297
189 109 105
190 64 55
191 173 64
192 213 65
193 17 205
194 224 229
195 78 236
196 274 6
197 207 237
198 161 26
199 119 104
200 169 171
201 296 235
202 220 74
203 109 148
204 212 270
205 265 197
206 174 238
207 223 74
208 47 203
209 69 90
210 33 231
211 8 265
212 136 144
213 286 175
214 151 30
215 150 184
216 157 25
217 131 78
218 232 240
219 53 285
220 278 176
221 225 192
222 115 197
223 167 179
224 6 168
225 163 180
226 135 210
227 277 104
228 262 241
229 162 148
230 61 138
231 117 155
232 126 127
233 157 221
234 19 290
235 65 156
236 159 177
237 12 10
238 67 175
239 78 232
240 201 175
241 249 133
242 139 110
243 252 128
244 57 123
245 71 154
246 157 276
247 111 98
248 221 70
249 70 57
250 236 108
251 268 113
252 40 1
253 106 243
254 37 126
255 259 58
256 167 193
257 168 204
258 72 286
259 254 240
260 241 183
261 75 191
262 26 27
263 12 270
264 81 238
265 140 294
266 11 242
267 224 77
268 166 123
269 92 241
270 280 180
271 151 113
272 65 49
273 203 36
274 129 83
275 38 74
276 166 105
277 129 98
278 30 226
279 15 178
280 108 298
281 296 211
282 236 72
283 277 177
284 99 73
285 166 113
286 271 8
287 228 41
288 80 131
289 284 176
290 208 117
291 119 183
292 246 166
293 144 292
294 128 155
295 113 188
296 155 93
297 161 210
298 168 176
299 60 64
300 165 204
301 280 158
302 241 71
303 57 68
304 219 152
305 72 89
306 85 75
307 3 205
308 235 243
309 12 275
310 76 160
311 56 116
312 170 53
313 34 5
314 280 175
315 288 127
316 103 8
317 229 25
318 12 198
319 66 54
320 120 60
321 110 31
322 218 20
323 226 248
324 275 100
325 217 73
326 88 225
327 123 92
328 293 62
329 4 149
330 216 25
331 63 59
332 63 155
333 158 140
334 84 236
335 260 58
336 284 244
337 190 181
338 159 287
339 285 283
340 65 68
341 61 157
342 102 173
343 300 44
344 103 78
345 144 182
346 24 76
347 149 186
348 165 182
349 179 123
350 157 84
351 17 209
352 233 119
353 167 105
354 238 206
355 127 101
356 263 291
357 281 68
358 251 237
359 108 109
360 199 28
361 3 119
362 252 219
363 234 213
364 136 140
365 191 49
366 251 241
367 119 214
368 275 182
369 103 260
370 2 238
371 94 93
372 158 291
373 230 248
374 207 20
375 54 285
376 160 107
377 59 280
378 208 290
379 248 280
380 138 100
381 8 155
382 208 235
383 111 112
384 128 94
385 110 262
386 162 203
387 160 179
388 16 204
389 239 295
390 157 31
391 147 178
392 170 174
393 157 254
394 277 101
395 283 144
396 156 182
397 274 97
398 66 56
399 158 27
400 156 26
401 257 133
402 264 61
403 296 279
404 220 66
405 240 71
406 112 43
407 4 296
408 222 73
409 209 84
410 250 134
411 59 287
412 13 202
413 93 117
414 62 53
415 275 97
416 206 121
417 107 174
418 224 61
419 124 174
420 101 110
421 112 201
422 80 86
423 5 189
424 141 100
425 165 256
426 108 113
427 37 159
428 136 104
429 107 71
430 97 232
431 127 266
432 14 204
433 278 177
434 209 246
435 134 148
436 283 65
437 108 80
438 55 62
439 141 137
440 224 138
441 163 150
442 213 68
443 113 62
444 100 138
445 126 266
446 10 150
447 137 150
448 258 232
449 191 234
450 213 119
451 5 195
452 166 203
453 100 73
454 147 185
455 60 156
456 239 77
457 163 202
458 81 219
459 155 28
460 160 27
461 43 62
462 235 241
463 291 148
464 64 53
465 168 42
466 183 282
467 289 79
468 1 272
469 87 183
470 234 107
471 52 288
472 236 66
473 264 35
474 233 245
475 144 100
476 260 64
477 130 96
478 202 292
479 7 31
480 96 86
481 141 102
482 170 93
483 85 228
484 10 147
485 18 206
486 164 202
487 1 81
488 148 157
489 159 110
490 229 40
491 67 161
492 131 220
493 112 199
494 238 69
495 258 247
496 205 130
497 109 61
498 59 67
499 151 294
500 26 0
501 45 190
502 56 212
503 148 288
504 275 263
505 272 97
506 143 67
507 29 8
508 152 29
509 176 235
510 30 145
511 61 70
512 16 196
513 168 108
514 15 209
515 211 66
516 256 54
517 11 207
518 58 240
519 131 95
520 116 14
521 154 31
522 86 230
523 133 99
524 290 37
525 9 145
526 140 292
527 134 146
528 229 179
529 72 20
530 149 285
531 257 137
532 225 73
533 71 294
534 156 57
535 177 281
536 117 168
537 162 250
538 116 245
539 153 28
540 176 70
541 50 285
542 257 243
543 246 133
544 140 100
545 69 134
546 236 248
547 217 21
548 161 112
549 233 242
550 127 77
551 155 180
552 144 173
553 65 56
554 130 102
555 76 280
556 110 76
557 271 101
558 216 203
559 136 241
560 160 17
561 64 91
562 107 39
563 106 77
564 103 93
565 138 101
566 15 52
567 160 111
568 81 223
569 113 114
570 162 206
571 203 183
572 113 4
573 176 263
574 173 72
575 279 189
576 9 144
577 266 104
578 253 57
579 296 252
580 254 87
581 114 198
582 220 43
583 11 265
584 250 130
585 299 153
586 133 187
587 246 137
588 238 103
589 220 182
590 213 61
591 290 219
592 153 61
593 55 285
594 276 66
595 236 240
596 244 13
597 163 200
598 62 65
599 189 240
600 145 183
601 140 108
602 107 39
603 111 110
604 10 150
605 108 3
606 125 168
607 271 101
608 246 137
609 38 139
610 169 173
611 159 177
612 219 152
613 138 101
614 106 71
615 115 197
616 250 228
617 291 148
618 1 272
619 60 64
620 177 281
621 161 112
622 283 144
623 117 155
624 256 239
625 4 149
626 165 113
627 224 79
628 59 113
629 40 1
PICKUP_AND_DELIVERY_SECTION
1 0 0 1206 0 0 0
2 27 867 897 0 0 606
3 -30 83 113 10 567 0
4 13 511 541 10 0 152
5 -29 0 1086 10 479 0
6 20 53 83 10 0 217
7 -20 0 1147 10 64 0
8 25 0 1074 10 0 545
9 21 0 1114 10 0 154
10 30 143 173 10 0 147
11 27 372 402 10 0 33
12 11 306 336 10 0 390
13 -22 203 233 10 237 0
14 10 163 193 10 0 28
15 -20 102 132 10 76 0
16 -18 565 595 10 273 0
17 10 123 153 10 0 495
18 -20 227 257 10 171 0
19 -9 0 1089 10 443 0
20 21 0 1092 10 0 264
21 17 0 1100 10 0 421
22 20 190 220 10 0 274
23 30 138 168 10 0 350
24 19 0 1143 10 0 416
25 20 0 1078 10 0 588
26 20 0 1018 10 0 370
27 20 90 120 10 0 457
28 -10 174 204 10 14 0
29 -20 60 90 10 489 0
30 -10 329 359 10 577 0
31 5 0 1035 10 0 177
32 -20 352 382 10 401 0
33 -27 582 612 10 11 0
34 -42 0 1139 10 143 0
35 22 0 1070 0 0 616
36 22 0 1135 10 0 496
37 -17 0 1114 10 74 0
38 -30 0 1163 10 447 0
39 15 0 1046 10 0 369
40 20 163 193 10 0 503
41 -10 446 476 10 358 0
42 30 0 1058 10 0 360
43 -10 136 166 10 491 0
44 24 0 1114 10 0 311
45 30 14 44 10 0 391
46 2 0 1105 10 0 197
47 20 98 128 10 0 404
48 2 0 1129 10 0 209
49 -11 0 1113 10 99 0
50 -22 0 1093 10 251 0
51 -17 377 407 10 280 0
52 -30 213 243 10 595 0
53 6 118 148 10 0 582
54 -21 0 1089 10 312 0
55 10 186 216 10 0 476
56 21 69 99 10 0 475
57 20 165 195 10 0 518
58 30 629 659 10 0 418
59 23 0 1100 10 0 230
60 -17 0 1110 10 594 0
61 -10 0 1090 10 241 0
62 -12 0 1060 10 160 0
63 20 0 1157 0 0 626
64 20 0 1157 10 0 7
65 -17 0 1050 10 317 0
66 30 0 1015 10 0 307
67 20 0 1139 10 0 189
68 20 113 143 0 0 614
69 -26 256 286 10 571 0
70 12 337 367 0 0 609
71 14 344 374 10 0 467
72 10 0 1056 10 0 130
73 -15 216 246 10 120 0
74 17 843 873 10 0 37
75 10 173 203 10 0 541
76 20 0 1106 10 0 15
77 -20 109 139 10 257 0
78 -10 0 1068 10 399 0
79 -12 0 1123 10 500 0
80 1 0 1160 10 0 487
81 -5 158 188 10 135 0
82 16 0 1099 10 0 187
83 17 640 670 10 0 434
84 22 115 145 10 0 221
85 -19 0 1094 10 96 0
86 20 0 1065 10 0 431
87 20 0 1058 10 0 308
88 -5 1128 1158 10 558 0
89 -20 0 1072 10 216 0
90 -16 0 1071 10 116 0
91 20 103 133 10 0 492
92 10 0 1071 10 0 218
93 -10 393 423 10 381 0
94 -30 614 644 10 551 0
95 16 244 274 0 0 628
96 19 0 1057 10 0 85
97 -20 80 110 10 347 0
98 -10 0 1065 10 115 0
99 11 0 1121 10 0 49
100 -11 0 1124 10 430 0
101 20 176 206 10 0 288
102 32 0 1033 10 0 254
103 16 0 1114 10 0 462
104 10 0 1167 0 0 610
105 20 0 1136 10 0 439
106 5 0 996 10 0 262
107 20 0 1051 10 0 596
108 10 259 289 10 0 338
109 -20 0 1060 10 184 0
110 -30 144 174 10 405 0
111 -20 0 1077 10 353 0
112 9 678 708 10 0 238
113 13 0 1138 10 0 261
114 10 0 1048 10 0 279
115 10 172 202 10 0 98
116 16 0 1112 10 0 90
117 -5 0 1024 10 573 0
118 9 602 632 10 0 547
119 10 199 229 10 0 368
120 15 0 1093 10 0 73
121 10 113 143 10 0 442
122 10 208 238 10 0 568
123 -20 215 245 10 484 0
124 14 107 137 10 0 560
125 30 201 231 10 0 478
126 -18 0 1069 10 246 0
127 -13 444 474 10 490 0
128 20 12 42 10 0 564
129 -20 0 1087 10 239 0
130 -10 405 435 10 72 0
131 -30 0 1028 10 593 0
132 10 0 1058 0 0 624
133 30 112 142 0 0 627
134 -20 172 202 10 139 0
135 5 0 1168 10 0 81
136 -10 0 1122 10 563 0
137 20 0 1141 10 0 186
138 20 168 198 10 0 408
139 20 0 1133 10 0 134
140 -27 0 1054 10 436 0
141 -10 0 1092 10 515 0
142 -40 219 249 10 505 0
143 42 807 837 10 0 34
144 19 147 177 10 0 437
145 10 0 1060 10 0 158
146 10 0 1046 10 0 378
147 -30 254 284 10 10 0
148 20 0 1062 10 0 427
149 -15 0 1078 10 403 0
150 -20 61 91 10 298 0
151 -30 0 1065 10 289 0
152 -13 0 1006 10 4 0
153 10 0 1064 10 0 293
154 -21 144 174 10 9 0
155 10 158 188 10 0 196
156 16 230 260 10 0 224
157 11 333 363 10 0 314
158 -10 706 736 10 145 0
159 31 0 1094 10 0 538
160 12 0 1052 10 0 62
161 -16 0 1068 10 275 0
162 -20 0 1092 10 202 0
163 -30 139 169 10 380 0
164 10 91 121 10 0 342
165 -10 0 1070 10 459 0
166 -10 269 299 10 195 0
167 17 0 1058 10 0 525
168 40 148 178 10 0 374
169 7 94 124 10 0 178
170 -36 698 728 10 286 0
171 20 169 199 10 0 18
172 21 730 760 10 0 382
173 -20 197 227 10 322 0
174 10 0 1141 0 0 603
175 10 0 1164 10 0 396
176 -32 0 1018 10 529 0
177 -5 0 1045 10 31 0
178 -7 413 443 10 169 0
179 -10 78 108 10 527 0
180 -12 0 1114 10 592 0
181 16 671 701 0 0 605
182 20 143 173 10 0 325
183 22 587 617 10 0 415
184 20 0 1056 10 0 109
185 -20 0 1071 10 272 0
186 -20 911 941 10 137 0
187 -16 0 1112 10 82 0
188 40 164 194 10 0 385
189 -20 0 1136 10 67 0
190 -10 135 165 10 553 0
191 12 572 602 10 0 540
192 -20 0 1091 10 590 0
193 20 155 185 10 0 388
194 -33 341 371 10 504 0
195 10 151 181 10 0 166
196 -10 0 1006 10 155 0
197 -2 0 1092 10 46 0
198 -30 0 1072 10 460 0
199 -10 0 1141 10 344 0
200 30 0 1168 10 0 337
201 25 560 590 10 0 336
202 20 202 232 10 0 162
203 19 41 71 10 0 444
204 -20 592 622 10 259 0
205 -20 321 351 10 531 0
206 21 1023 1053 10 0 297
207 -10 0 1091 10 508 0
208 -36 0 1081 10 210 0
209 -2 0 1096 10 48 0
210 36 745 775 10 0 208
211 20 201 231 10 0 377
212 10 0 1181 10 0 422
213 -20 0 1058 10 270 0
214 -20 0 1076 10 521 0
215 20 0 1162 10 0 226
216 20 0 1071 10 0 89
217 -20 578 608 10 6 0
218 -10 0 1075 10 92 0
219 10 223 253 10 0 526
220 -34 0 1066 10 301 0
221 -22 0 1111 10 84 0
222 10 0 1138 0 0 615
223 20 74 104 10 0 225
224 -16 744 774 10 156 0
225 -20 100 130 10 223 0
226 -20 0 1135 10 215 0
227 20 0 1061 10 0 580
228 20 243 273 10 0 363
229 -10 750 780 10 513 0
230 -23 643 673 10 59 0
231 22 1008 1038 0 0 623
232 40 0 1163 10 0 552
233 10 411 441 10 0 570
234 12 0 1005 10 0 266
235 10 151 181 10 0 245
236 30 0 1168 0 0 611
237 22 0 1000 10 0 13
238 -9 0 1110 10 112 0
239 20 0 1087 10 0 129
240 -30 693 723 10 549 0
241 10 0 1096 10 0 61
242 -20 0 1155 10 355 0
243 -30 187 217 10 410 0
244 -30 0 1100 10 511 0
245 -10 190 220 10 235 0
246 18 126 156 10 0 126
247 -22 0 1131 10 284 0
248 10 0 1090 10 0 532
249 20 0 1074 10 0 464
250 -20 885 915 10 494 0
251 22 843 873 10 0 50
252 38 449 479 0 0 629
253 -11 0 1094 10 559 0
254 -32 0 1081 10 102 0
255 30 197 227 10 0 335
256 -30 0 1150 10 486 0
257 20 56 86 10 0 77
258 -17 402 432 10 411 0
259 20 165 195 10 0 204
260 12 0 1100 10 0 292
261 -13 85 115 10 113 0
262 -5 870 900 10 106 0
263 -18 243 273 10 309 0
264 -21 138 168 10 20 0
265 -20 0 1052 10 471 0
266 -12 517 547 10 234 0
267 -26 0 1093 10 465 0
268 14 31 61 10 0 376
269 3 767 797 10 0 493
270 20 133 163 10 0 213
271 -20 346 376 10 523 0
272 20 0 1064 10 0 185
273 18 397 427 10 0 16
274 -20 0 1126 10 22 0
275 16 150 180 10 0 161
276 20 0 1149 10 0 285
277 -30 0 1140 10 384 0
278 -40 938 968 10 517 0
279 -10 0 1059 10 114 0
280 17 0 1043 10 0 51
281 -30 0 1038 10 575 0
282 -12 0 1080 10 365 0
283 -20 235 265 10 433 0
284 22 0 1104 10 0 247
285 -20 137 167 10 276 0
286 36 0 1010 10 0 170
287 -30 0 1062 10 330 0
288 -20 334 364 10 101 0
289 30 0 1060 10 0 151
290 15 78 108 10 0 394
291 -10 567 597 10 334 0
292 -12 544 574 10 260 0
293 -10 187 217 10 153 0
294 -21 0 1174 10 417 0
295 -10 304 334 10 483 0
296 33 0 1139 10 0 482
297 -21 0 1135 10 206 0
298 20 50 80 10 0 150
299 10 197 227 0 0 619
300 -30 66 96 10 452 0
301 34 0 1066 10 0 220
302 20 0 1076 10 0 472
303 -10 0 1073 10 414 0
304 8 959 989 0 0 612
305 -29 553 583 10 561 0
306 -20 726 756 10 598 0
307 -30 0 1040 10 66 0
308 -20 0 1071 10 87 0
309 18 0 1010 10 0 263
310 2 74 104 10 0 455
311 -24 0 1097 10 44 0
312 21 0 1097 10 0 54
313 16 735 765 10 0 507
314 -11 0 1064 10 157 0
315 -30 710 740 10 324 0
316 -20 0 1047 10 520 0
317 17 493 523 10 0 65
318 -18 0 1050 10 407 0
319 20 189 219 10 0 398
320 12 512 542 10 0 406
321 -31 0 1071 10 572 0
322 20 174 204 10 0 173
323 -10 853 883 10 546 0
324 30 156 186 10 0 315
325 -20 215 245 10 182 0
326 20 97 127 10 0 522
327 -10 0 1133 10 364 0
328 10 167 197 10 0 357
329 20 0 1050 0 0 625
330 30 209 239 10 0 287
331 20 213 243 10 0 340
332 -40 0 1109 10 341 0
333 -3 0 1184 10 343 0
334 10 0 1088 10 0 291
335 -30 0 1053 10 255 0
336 -25 736 766 10 201 0
337 -30 904 934 10 200 0
338 -10 397 427 10 108 0
339 -2 0 1007 10 356 0
340 -20 243 273 10 331 0
341 40 0 1107 10 0 332
342 -10 0 1143 10 164 0
343 3 757 787 10 0 333
344 10 0 1111 10 0 199
345 -10 103 133 10 454 0
346 23 497 527 10 0 361
347 20 56 86 10 0 97
348 -30 0 1161 10 386 0
349 4 0 1157 10 0 516
350 -30 0 1130 10 23 0
351 -20 0 1051 10 412 0
352 11 938 968 10 0 450
353 20 0 1148 10 0 111
354 -20 573 603 10 448 0
355 20 0 1142 10 0 242
356 2 0 1016 10 0 339
357 -10 0 1042 10 328 0
358 10 0 1063 10 0 41
359 -20 100 130 10 569 0
360 -30 0 1065 10 42 0
361 -23 0 1046 10 346 0
362 23 301 331 10 0 579
363 -20 0 1091 10 228 0
364 10 39 69 10 0 327
365 12 0 1087 10 0 282
366 10 136 166 10 0 542
367 16 618 648 10 0 536
368 -10 0 1067 10 119 0
369 -15 894 924 10 39 0
370 -20 0 1024 10 26 0
371 19 0 1117 10 0 426
372 18 162 192 10 0 466
373 20 0 1070 10 0 449
374 -40 185 215 10 168 0
375 10 0 1031 10 0 555
376 -14 71 101 10 268 0
377 -20 261 291 10 211 0
378 -10 0 1045 10 146 0
379 -16 0 1034 10 528 0
380 30 0 1145 10 0 163
381 10 233 263 10 0 93
382 -21 823 853 10 172 0
383 20 54 84 10 0 420
384 30 0 1136 10 0 277
385 -40 492 522 10 188 0
386 30 0 1142 10 0 348
387 32 0 1166 10 0 600
388 -20 166 196 10 193 0
389 -12 0 1026 10 425 0
390 -11 0 1077 10 12 0
391 -30 0 1168 10 45 0
392 -15 0 1165 10 441 0
393 8 0 1092 10 0 445
394 -15 0 1060 10 290 0
395 6 0 1063 0 0 622
396 -10 0 1164 10 175 0
397 -24 0 1062 10 470 0
398 -20 201 231 10 319 0
399 10 241 271 10 0 78
400 -10 0 1072 10 539 0
401 20 0 1088 10 0 32
402 -10 0 1052 10 578 0
403 15 497 527 10 0 149
404 -20 127 157 10 47 0
405 30 149 179 10 0 110
406 -12 553 583 10 320 0
407 18 0 990 10 0 318
408 -20 177 207 10 138 0
409 -20 382 412 10 456 0
410 30 0 1095 10 0 243
411 17 0 1032 10 0 258
412 20 180 210 10 0 351
413 15 350 380 10 0 480
414 10 0 1066 10 0 303
415 -22 0 1061 10 183 0
416 -19 746 776 10 24 0
417 21 0 1147 10 0 294
418 -30 0 1081 10 58 0
419 -24 35 65 10 488 0
420 -20 128 158 10 383 0
421 -17 0 1133 10 21 0
422 -10 600 630 10 212 0
423 -18 0 1046 10 451 0
424 10 80 110 10 0 428
425 12 587 617 10 0 389
426 -19 0 1141 10 371 0
427 -20 0 1083 10 148 0
428 -10 128 158 10 424 0
429 -20 0 1107 10 453 0
430 11 0 1099 10 0 100
431 -20 0 1078 10 86 0
432 -30 593 623 10 512 0
433 20 224 254 10 0 283
434 -17 0 1084 10 83 0
435 20 101 131 10 0 597
436 27 0 1039 10 0 140
437 -19 0 1115 10 144 0
438 -10 172 202 10 498 0
439 -20 0 1181 10 105 0
440 -12 909 939 10 585 0
441 15 13 43 10 0 392
442 -10 0 1093 10 121 0
443 9 0 1101 10 0 19
444 -19 205 235 10 203 0
445 -8 494 524 10 393 0
446 10 0 1056 0 0 604
447 30 115 145 10 0 38
448 20 0 1061 10 0 354
449 -20 0 1103 10 373 0
450 -11 0 1126 10 352 0
451 18 186 216 10 0 423
452 30 55 85 10 0 300
453 20 97 127 10 0 429
454 10 68 98 10 0 345
455 -2 0 1106 10 310 0
456 20 115 145 10 0 409
457 -20 0 1143 10 27 0
458 27 0 1099 10 0 586
459 10 142 172 10 0 165
460 30 229 259 10 0 198
461 14 0 1058 10 0 566
462 -16 0 1072 10 103 0
463 11 636 666 0 0 617
464 -20 160 190 10 249 0
465 26 633 663 10 0 267
466 -18 0 1060 10 372 0
467 -14 390 420 10 71 0
468 10 221 251 0 0 618
469 17 0 1125 10 0 581
470 24 0 1102 10 0 397
471 20 199 229 10 0 265
472 -20 176 206 10 302 0
473 -1 983 1013 10 524 0
474 10 0 1070 10 0 599
475 -21 67 97 10 56 0
476 -10 0 1057 10 55 0
477 -10 111 141 10 601 0
478 -30 908 938 10 125 0
479 29 0 1010 10 0 5
480 -15 0 1113 10 413 0
481 10 0 1148 10 0 544
482 -33 0 1136 10 296 0
483 10 194 224 10 0 295
484 20 159 189 10 0 123
485 10 144 174 10 0 514
486 30 0 1143 10 0 256
487 -1 321 351 10 80 0
488 24 0 1189 10 0 419
489 20 47 77 10 0 29
490 13 239 269 10 0 127
491 10 83 113 10 0 43
492 -20 121 151 10 91 0
493 -3 0 1134 10 269 0
494 20 162 192 10 0 250
495 -10 226 256 10 17 0
496 -22 939 969 10 36 0
497 -20 397 427 10 554 0
498 10 123 153 10 0 438
499 -10 160 190 10 530 0
500 12 0 1002 10 0 79
501 -10 0 1084 10 502 0
502 10 473 503 10 0 501
503 -20 0 1058 10 40 0
504 33 168 198 10 0 194
505 40 192 222 10 0 142
506 14 0 1113 10 0 534
507 -16 0 1010 10 313 0
508 10 899 929 10 0 207
509 33 88 118 10 0 537
510 23 0 1076 10 0 576
511 30 119 149 10 0 244
512 30 260 290 10 0 432
513 10 121 151 10 0 229
514 -10 0 1049 10 485 0
515 10 205 235 10 0 141
516 -4 149 179 10 349 0
517 40 195 225 10 0 278
518 -20 0 1068 10 57 0
519 20 99 129 10 0 574
520 20 0 1056 10 0 316
521 20 119 149 10 0 214
522 -20 102 132 10 326 0
523 20 0 1143 10 0 271
524 1 0 1017 10 0 473
525 -17 0 1055 10 167 0
526 -10 0 1054 10 219 0
527 10 66 96 10 0 179
528 16 242 272 10 0 379
529 32 684 714 10 0 176
530 10 135 165 10 0 499
531 20 126 156 10 0 205
532 -10 0 1089 10 248 0
533 -10 566 596 10 583 0
534 -14 0 1103 10 506 0
535 16 0 1063 0 0 620
536 -16 0 1159 10 367 0
537 -33 0 1096 10 509 0
538 -31 577 607 10 159 0
539 10 130 160 10 0 400
540 -12 672 702 10 191 0
541 -10 185 215 10 75 0
542 -10 0 1055 10 366 0
543 -10 0 1099 10 584 0
544 -10 91 121 10 481 0
545 -25 624 654 10 8 0
546 10 0 1066 10 0 323
547 -9 0 1051 10 118 0
548 10 0 1157 0 0 621
549 30 0 1073 10 0 240
550 -30 0 1120 10 556 0
551 30 30 60 10 0 94
552 -40 144 174 10 232 0
553 10 126 156 10 0 190
554 20 151 181 10 0 497
555 -10 0 1047 10 375 0
556 30 150 180 10 0 550
557 10 206 236 0 0 607
558 5 541 571 10 0 88
559 11 372 402 10 0 253
560 -14 340 370 10 124 0
561 29 0 1092 10 0 305
562 9 0 1077 0 0 602
563 10 0 1111 10 0 136
564 -20 0 1123 10 128 0
565 20 0 1146 0 0 613
566 -14 166 196 10 461 0
567 30 0 1156 10 0 3
568 -10 222 252 10 122 0
569 20 0 1145 10 0 359
570 -10 0 1139 10 233 0
571 26 70 100 10 0 69
572 31 291 321 10 0 321
573 5 0 1081 10 0 117
574 -20 0 1115 10 519 0
575 30 0 1062 10 0 281
576 -23 0 1055 10 510 0
577 10 0 1072 10 0 30
578 10 0 1058 10 0 402
579 -23 0 1018 10 362 0
580 -20 1045 1075 10 227 0
581 -17 0 1136 10 469 0
582 -6 435 465 10 53 0
583 10 180 210 10 0 533
584 10 0 1095 10 0 543
585 12 0 1047 10 0 440
586 -27 1068 1098 10 458 0
587 10 0 1100 0 0 608
588 -20 722 752 10 25 0
589 -19 0 1120 10 591 0
590 20 0 1087 10 0 192
591 19 0 1040 10 0 589
592 12 0 1107 10 0 180
593 30 0 1031 10 0 131
594 17 151 181 10 0 60
595 30 190 220 10 0 52
596 -20 0 1030 10 107 0
597 -20 145 175 10 435 0
598 20 0 1074 10 0 306
599 -10 0 1098 10 474 0
600 -32 91 121 10 387 0
601 10 0 1153 10 0 477
602 -9 0 1077 10 562 0
603 -10 0 1141 10 174 0
604 -10 0 1056 10 446 0
605 -16 671 701 10 181 0
606 -27 867 897 10 2 0
607 -10 206 236 10 557 0
608 -10 0 1100 10 587 0
609 -12 337 367 10 70 0
610 -10 0 1167 10 104 0
611 -30 0 1168 10 236 0
612 -8 959 989 10 304 0
613 -20 0 1146 10 565 0
614 -20 113 143 10 68 0
615 -10 0 1138 10 222 0
616 -22 0 1070 10 35 0
617 -11 636 666 10 463 0
618 -10 221 251 10 468 0
619 -10 197 227 10 299 0
620 -16 0 1063 10 535 0
621 -10 0 1157 10 548 0
622 -6 0 1063 10 395 0
623 -22 1008 1038 10 231 0
624 -10 0 1058 10 132 0
625 -20 0 1050 10 329 0
626 -20 0 1157 10 63 0
627 -30 112 142 10 133 0
628 -16 244 274 10 95 0
629 -38 449 479 10 252 0
DEPOT_SECTION
1
-1
EOF
