NAME: lrc1_6_4
TYPE: PDPTW
COMMENT: Li & Lim PDPTW benchmark converted from SINTEF format
DIMENSION: 635
VEHICLES: 150
CAPACITY: 200
EDGE_WEIGHT_TYPE: EUC_2D
NODE_COORD_SECTION
1 150 150
2 125 168
3 162 107
4 199 213
5 61 84
6 125 103
7 143 101
8 28 141
9 230 128
10 55 68
11 72 180
12 159 41
13 8 4
14 257 58
15 57 155
16 186 26
17 231 243
18 247 132
19 89 61
20 84 231
21 116 240
22 110 79
23 110 74
24 180 106
25 240 73
26 13 265
27 134 147
28 257 59
29 160 108
30 289 130
31 27 255
32 234 146
33 69 208
34 115 196
35 250 228
36 159 89
37 105 81
38 149 183
39 159 300
40 47 277
41 209 269
42 212 26
43 14 149
44 74 117
45 140 140
46 152 241
47 222 83
48 88 124
49 136 68
50 250 124
51 109 299
52 258 244
53 208 47
54 212 62
55 259 59
56 150 104
57 77 233
58 212 45
59 57 125
60 232 121
61 255 132
62 18 184
63 165 113
64 143 111
65 248 41
66 8 263
67 109 110
68 106 71
69 259 240
70 38 139
71 277 41
72 255 57
73 9 122
74 102 76
75 43 286
76 60 160
77 172 225
78 161 22
79 88 110
80 122 127
81 52 63
82 53 141
83 175 281
84 265 141
85 250 126
86 147 281
87 255 240
88 188 142
89 154 26
90 59 64
91 114 204
92 235 242
93 34 150
94 140 214
95 59 113
96 282 104
97 145 184
98 184 277
99 129 77
100 96 199
101 67 154
102 2 81
103 208 208
104 169 173
105 106 108
106 15 2
107 227 26
108 147 285
109 141 286
110 231 70
111 242 73
112 15 259
113 93 165
114 10 198
115 149 294
116 82 100
117 256 286
118 172 2
119 277 172
120 73 81
121 217 69
122 85 224
123 0 153
124 147 43
125 143 288
126 112 272
127 200 26
128 140 143
129 83 236
130 253 84
131 53 288
132 256 239
133 224 79
134 110 107
135 125 136
136 149 76
137 203 166
138 211 61
139 107 103
140 262 62
141 227 80
142 269 103
143 119 254
144 122 96
145 248 245
146 181 297
147 65 69
148 16 151
149 254 206
150 167 176
151 280 172
152 285 285
153 149 282
154 277 100
155 223 23
156 25 191
157 266 212
158 272 183
159 135 251
160 11 191
161 25 119
162 215 68
163 137 104
164 113 202
165 160 24
166 51 217
167 14 177
168 225 22
169 194 234
170 262 14
171 259 126
172 214 234
173 216 23
174 111 110
175 145 182
176 51 2
177 30 243
178 186 228
179 132 146
180 176 72
181 108 3
182 216 62
183 271 106
184 140 290
185 64 59
186 206 157
187 66 157
188 132 297
189 109 105
190 64 55
191 173 64
192 213 65
193 17 205
194 224 229
195 78 236
196 274 6
197 207 237
198 161 26
199 119 104
200 169 171
201 296 235
202 220 74
203 109 148
204 212 270
205 265 197
206 174 238
207 223 74
208 47 203
209 69 90
210 33 231
211 8 265
212 136 144
213 286 175
214 151 30
215 150 184
216 157 25
217 131 78
218 232 240
219 53 285
220 278 176
221 225 192
222 115 197
223 167 179
224 6 168
225 163 180
226 135 210
227 277 104
228 262 241
229 162 148
230 61 138
231 117 155
232 126 127
233 157 221
234 19 290
235 65 156
236 159 177
237 12 10
238 67 175
239 78 232
240 201 175
241 249 133
242 139 110
243 252 128
244 57 123
245 71 154
246 157 276
247 111 98
248 221 70
249 70 57
250 236 108
251 268 113
252 40 1
253 106 243
254 37 126
255 259 58
256 167 193
257 168 204
258 72 286
259 254 240
260 241 183
261 75 191
262 26 27
263 12 270
264 81 238
265 140 294
266 11 242
267 224 77
268 166 123
269 92 241
270 280 180
271 151 113
272 65 49
273 203 36
274 129 83
275 38 74
276 166 105
277 129 98
278 30 226
279 15 178
280 108 298
281 296 211
282 236 72
283 277 177
284 99 73
285 166 113
286 271 8
287 228 41
288 80 131
289 284 176
290 208 117
291 119 183
292 246 166
293 144 292
294 128 155
295 113 188
296 155 93
297 161 210
298 168 176
299 60 64
300 165 204
301 280 158
302 241 71
303 57 68
304 219 152
305 72 89
306 85 75
307 3 205
308 235 243
309 12 275
310 76 160
311 56 116
312 170 53
313 34 5
314 280 175
315 288 127
316 103 8
317 229 25
318 12 198
319 66 54
320 120 60
321 110 31
322 218 20
323 226 248
324 275 100
325 217 73
326 88 225
327 123 92
328 293 62
329 4 149
330 216 25
331 63 59
332 63 155
333 158 140
334 84 236
335 260 58
336 284 244
337 190 181
338 159 287
339 285 283
340 65 68
341 61 157
342 102 173
343 300 44
344 103 78
345 144 182
346 24 76
347 149 186
348 165 182
349 179 123
350 157 84
351 17 209
352 233 119
353 167 105
354 238 206
355 127 101
356 263 291
357 281 68
358 251 237
359 108 109
360 199 28
361 3 119
362 252 219
363 234 213
364 136 140
365 191 49
366 251 241
367 119 214
368 275 182
369 103 260
370 2 238
371 94 93
372 158 291
373 230 248
374 207 20
375 54 285
376 160 107
377 59 280
378 208 290
379 248 280
380 138 100
381 8 155
382 208 235
383 111 112
384 128 94
385 110 262
386 162 203
387 160 179
388 16 204
389 239 295
390 157 31
391 147 178
392 170 174
393 157 254
394 277 101
395 283 144
396 156 182
397 274 97
398 66 56
399 158 27
400 156 26
401 257 133
402 264 61
403 296 279
404 220 66
405 240 71
406 112 43
407 4 296
408 222 73
409 209 84
410 250 134
411 59 287
412 13 202
413 93 117
414 62 53
415 275 97
416 206 121
417 107 174
418 224 61
419 124 174
420 101 110
421 112 201
422 80 86
423 5 189
424 141 100
425 165 256
426 108 113
427 37 159
428 136 104
429 107 71
430 97 232
431 127 266
432 14 204
433 278 177
434 209 246
435 134 148
436 283 65
437 108 80
438 55 62
439 141 137
440 224 138
441 163 150
442 213 68
443 113 62
444 100 138
445 126 266
446 10 150
447 137 150
448 258 232
449 191 234
450 213 119
451 5 195
452 166 203
453 100 73
454 147 185
455 60 156
456 239 77
457 163 202
458 81 219
459 155 28
460 160 27
461 43 62
462 235 241
463 291 148
464 64 53
465 168 42
466 183 282
467 289 79
468 1 272
469 87 183
470 234 107
471 52 288
472 236 66
473 264 35
474 233 245
475 144 100
476 260 64
477 130 96
478 202 292
479 7 31
480 96 86
481 141 102
482 170 93
483 85 228
484 10 147
485 18 206
486 164 202
487 1 81
488 148 157
489 159 110
490 229 40
491 67 161
492 131 220
493 112 199
494 238 69
495 258 247
496 205 130
497 109 61
498 59 67
499 151 294
500 26 0
501 45 190
502 56 212
503 148 288
504 275 263
505 272 97
506 143 67
507 29 8
508 152 29
509 176 235
510 30 145
511 61 70
512 16 196
513 168 108
514 15 209
515 211 66
516 256 54
517 11 207
518 58 240
519 131 95
520 116 14
521 154 31
522 86 230
523 133 99
524 290 37
525 9 145
526 140 292
527 134 146
528 229 179
529 72 20
530 149 285
531 257 137
532 225 73
533 71 294
534 156 57
535 177 281
536 117 168
537 162 250
538 116 245
539 153 28
540 176 70
541 50 285
542 257 243
543 246 133
544 140 100
545 69 134
546 236 248
547 217 21
548 161 112
549 233 242
550 127 77
551 155 180
552 144 173
553 65 56
554 130 102
555 76 280
556 110 76
557 271 101
558 216 203
559 136 241
560 160 17
561 64 91
562 107 39
563 106 77
564 103 93
565 138 101
566 15 52
567 160 111
568 81 223
569 113 114
570 162 206
571 203 183
572 113 4
573 176 263
574 173 72
575 279 189
576 9 144
577 266 104
578 253 57
579 296 252
580 254 87
581 114 198
582 220 43
583 11 265
584 250 130
585 299 153
586 133 187
587 246 137
588 238 103
589 220 182
590 213 61
591 290 219
592 153 61
593 55 285
594 276 66
595 236 240
596 244 13
597 163 200
598 62 65
599 189 240
600 145 183
601 140 108
602 15 259
603 26 0
604 290 219
605 206 121
606 249 133
607 277 104
608 140 290
609 229 40
610 283 144
611 206 157
612 234 146
613 165 256
614 14 177
615 224 229
616 89 61
617 67 154
618 133 187
619 106 71
620 224 61
621 70 57
622 167 179
623 160 27
624 24 76
625 59 113
626 165 204
627 148 157
628 113 62
629 159 89
630 130 96
631 119 183
632 67 175
633 137 150
634 251 237
635 172 2
PICKUP_AND_DELIVERY_SECTION
1 0 0 1206 0 0 0
2 -14 867 897 10 536 0
3 10 83 113 10 0 24
4 13 511 541 10 0 260
5 -18 0 1086 10 306 0
6 20 53 83 10 0 355
7 -20 0 1147 10 475 0
8 -5 0 1074 10 423 0
9 -18 0 1114 10 292 0
10 -10 143 173 10 303 0
11 -40 0 1113 10 341 0
12 -14 0 1087 10 124 0
13 29 203 233 10 0 135
14 10 163 193 10 0 255
15 20 102 132 10 0 254
16 -10 565 595 10 127 0
17 -7 123 153 10 169 0
18 -20 227 257 10 171 0
19 14 0 1089 0 0 616
20 21 0 1092 10 0 195
21 -11 0 1100 10 430 0
22 -20 0 1115 10 523 0
23 -10 138 168 10 344 0
24 -10 0 1143 10 3 0
25 -9 0 1078 10 532 0
26 20 0 1018 10 0 66
27 20 0 1180 10 0 435
28 20 174 204 10 0 335
29 10 0 1153 10 0 88
30 -15 0 1056 10 205 0
31 5 0 1035 10 0 407
32 38 0 1112 0 0 612
33 17 0 1097 10 0 278
34 -17 0 1139 10 469 0
35 22 0 1070 10 0 354
36 22 0 1135 0 0 629
37 20 0 1114 10 0 563
38 -24 0 1163 10 94 0
39 15 0 1046 10 0 378
40 20 163 193 10 0 541
41 -42 446 476 10 466 0
42 -20 0 1058 10 107 0
43 10 136 166 10 0 123
44 24 0 1114 10 0 288
45 30 0 1182 10 0 384
46 2 0 1105 10 0 109
47 20 98 128 10 0 207
48 2 0 1129 10 0 311
49 -20 0 1113 10 327 0
50 -10 0 1093 10 557 0
51 -20 377 407 10 293 0
52 10 213 243 10 0 542
53 -40 0 1078 10 168 0
54 20 0 1089 10 0 588
55 -4 0 1055 10 349 0
56 -33 0 1150 10 296 0
57 20 165 195 10 0 264
58 -27 629 659 10 534 0
59 23 0 1100 10 0 230
60 -20 0 1110 10 282 0
61 10 0 1090 10 0 85
62 24 0 1060 10 0 148
63 20 0 1157 10 0 128
64 20 0 1157 10 0 163
65 -10 0 1050 10 578 0
66 -20 0 1015 10 26 0
67 20 0 1139 10 0 105
68 20 113 143 0 0 619
69 10 256 286 10 0 363
70 -10 337 367 10 332 0
71 -10 0 1029 10 155 0
72 10 0 1056 10 0 516
73 19 0 1053 10 0 120
74 17 843 873 10 0 199
75 -10 0 1023 10 583 0
76 -10 0 1106 10 187 0
77 13 109 139 10 0 449
78 10 0 1068 10 0 173
79 1 0 1123 10 0 566
80 -13 0 1160 10 305 0
81 10 0 1065 10 0 507
82 16 0 1099 10 0 161
83 -21 0 1063 10 338 0
84 -23 0 1081 10 315 0
85 -10 0 1094 10 61 0
86 20 0 1065 10 0 153
87 20 0 1058 10 0 132
88 -10 1128 1158 10 29 0
89 -10 0 1072 10 539 0
90 10 0 1071 10 0 553
91 -20 0 1132 10 421 0
92 10 0 1071 10 0 595
93 15 393 423 10 0 455
94 24 614 644 10 0 38
95 16 244 274 0 0 625
96 19 0 1057 10 0 470
97 10 80 110 10 0 175
98 -16 0 1065 10 535 0
99 -11 0 1121 10 550 0
100 16 0 1124 10 0 493
101 20 0 1113 0 0 617
102 -16 0 1033 10 275 0
103 16 0 1114 10 0 352
104 10 0 1167 10 0 200
105 -20 0 1136 10 67 0
106 -22 0 996 10 237 0
107 20 0 1051 10 0 42
108 -18 259 289 10 246 0
109 -2 0 1060 10 46 0
110 10 144 174 10 0 302
111 20 0 1077 10 0 476
112 9 678 708 0 0 602
113 -19 0 1138 10 203 0
114 -10 0 1048 10 318 0
115 10 0 1052 10 0 280
116 -20 0 1112 10 598 0
117 31 0 1024 10 0 356
118 9 602 632 0 0 635
119 -10 0 1068 10 151 0
120 -19 0 1093 10 73 0
121 10 113 143 10 0 409
122 -27 208 238 10 458 0
123 -10 0 1046 10 43 0
124 14 107 137 10 0 12
125 -10 201 231 10 530 0
126 18 0 1069 10 0 385
127 10 444 474 10 0 16
128 -20 0 1184 10 63 0
129 -20 0 1087 10 522 0
130 -3 0 1074 10 343 0
131 20 0 1028 10 0 258
132 -20 0 1058 10 87 0
133 -20 0 1094 10 267 0
134 20 0 1138 10 0 422
135 -29 0 1168 10 13 0
136 -10 0 1122 10 400 0
137 20 0 1141 10 0 571
138 -10 0 1089 10 442 0
139 20 0 1133 10 0 426
140 10 0 1054 10 0 467
141 -20 0 1092 10 494 0
142 -20 219 249 10 394 0
143 42 0 1088 10 0 369
144 -20 147 177 10 277 0
145 10 0 1060 10 0 362
146 -20 0 1046 10 499 0
147 10 0 1079 10 0 340
148 -24 0 1062 10 62 0
149 -20 0 1078 10 448 0
150 20 0 1165 10 0 225
151 10 0 1065 10 0 119
152 13 0 1006 10 0 403
153 -20 0 1064 10 86 0
154 -22 0 1060 10 251 0
155 10 158 188 10 0 71
156 -10 0 1065 10 388 0
157 -17 0 1065 10 323 0
158 -30 706 736 10 575 0
159 -10 0 1094 10 597 0
160 12 0 1052 10 0 279
161 -16 0 1068 10 82 0
162 10 0 1092 10 0 202
163 -20 0 1149 10 64 0
164 -22 0 1133 10 419 0
165 10 0 1070 10 0 560
166 36 269 299 10 0 518
167 17 0 1058 0 0 614
168 40 0 1048 10 0 53
169 7 94 124 10 0 17
170 -10 0 1020 10 596 0
171 20 169 199 10 0 18
172 -32 0 1091 10 387 0
173 -10 0 1053 10 78 0
174 -20 0 1141 10 383 0
175 -10 0 1164 10 97 0
176 -20 0 1018 10 319 0
177 6 0 1045 10 0 307
178 5 413 443 10 0 382
179 -25 0 1178 10 229 0
180 -12 0 1114 10 191 0
181 -12 0 1044 10 320 0
182 -20 143 173 10 590 0
183 22 0 1068 10 0 505
184 20 0 1056 0 0 608
185 30 0 1071 10 0 190
186 6 911 941 0 0 611
187 10 0 1112 10 0 76
188 40 164 194 10 0 526
189 -20 0 1136 10 569 0
190 -30 0 1068 10 185 0
191 12 0 1107 10 0 180
192 -20 0 1091 10 404 0
193 20 155 185 10 0 517
194 16 341 371 0 0 615
195 -21 151 181 10 20 0
196 41 0 1006 10 0 580
197 11 0 1092 10 0 462
198 -20 0 1072 10 521 0
199 -17 0 1141 10 74 0
200 -10 0 1168 10 104 0
201 -11 560 590 10 389 0
202 -10 202 232 10 162 0
203 19 41 71 10 0 113
204 -18 592 622 10 372 0
205 15 0 1072 10 0 30
206 21 0 1105 10 0 509
207 -20 0 1091 10 47 0
208 -10 0 1081 10 502 0
209 23 0 1096 10 0 420
210 36 745 775 10 0 501
211 -20 0 1014 10 263 0
212 -12 0 1181 10 480 0
213 10 0 1058 10 0 289
214 20 0 1076 10 0 216
215 20 0 1162 10 0 552
216 -20 0 1071 10 214 0
217 8 578 608 10 0 572
218 -10 0 1075 10 474 0
219 10 223 253 10 0 375
220 20 0 1066 10 0 314
221 26 0 1111 10 0 528
222 10 0 1138 10 0 581
223 20 0 1163 0 0 622
224 -20 0 1051 10 484 0
225 -20 0 1164 10 150 0
226 -23 0 1135 10 492 0
227 20 0 1061 0 0 607
228 20 0 1052 10 0 504
229 25 750 780 10 0 179
230 -23 643 673 10 59 0
231 -24 1008 1038 10 444 0
232 -10 0 1163 10 364 0
233 -30 411 441 10 570 0
234 -18 0 1005 10 309 0
235 -40 0 1111 10 245 0
236 30 0 1168 10 0 347
237 22 0 1000 10 0 106
238 3 0 1110 0 0 632
239 20 0 1087 10 0 334
240 10 693 723 10 0 298
241 10 0 1096 0 0 606
242 -20 0 1155 10 554 0
243 -10 0 1092 10 587 0
244 -10 0 1100 10 527 0
245 40 0 1117 10 0 235
246 18 126 156 10 0 108
247 16 0 1131 10 0 414
248 10 0 1090 10 0 408
249 20 0 1074 0 0 621
250 -20 0 1101 10 456 0
251 22 0 1073 10 0 154
252 38 0 1011 10 0 313
253 -13 0 1094 10 431 0
254 -20 0 1081 10 15 0
255 -10 0 1054 10 14 0
256 -30 0 1150 10 486 0
257 20 56 86 10 0 599
258 -20 402 432 10 131 0
259 -10 0 1059 10 546 0
260 -13 0 1100 10 4 0
261 -21 0 1111 10 417 0
262 16 870 900 10 0 438
263 20 243 273 10 0 211
264 -20 0 1085 10 57 0
265 18 0 1052 10 0 555
266 -10 0 1030 10 468 0
267 20 0 1093 10 0 133
268 14 0 1165 10 0 353
269 -17 767 797 10 411 0
270 20 0 1063 10 0 281
271 -20 346 376 10 519 0
272 20 0 1064 10 0 529
273 18 397 427 10 0 574
274 15 0 1126 10 0 321
275 16 150 180 10 0 102
276 -10 0 1149 10 285 0
277 20 0 1140 10 0 144
278 -17 938 968 10 33 0
279 -12 0 1059 10 160 0
280 -10 0 1043 10 115 0
281 -20 0 1038 10 270 0
282 20 0 1080 10 0 60
283 -10 235 265 10 368 0
284 22 0 1104 10 0 429
285 10 137 167 10 0 276
286 36 0 1010 10 0 524
287 -28 0 1062 10 582 0
288 -24 0 1124 10 44 0
289 -10 0 1060 10 213 0
290 15 0 1130 10 0 496
291 6 0 1151 0 0 631
292 18 0 1099 10 0 9
293 20 187 217 10 0 51
294 -20 0 1174 10 359 0
295 11 0 1143 10 0 483
296 33 0 1139 10 0 56
297 10 0 1135 10 0 393
298 -10 0 1165 10 240 0
299 10 197 227 10 0 331
300 20 66 96 0 0 626
301 -20 0 1066 10 433 0
302 -10 0 1076 10 110 0
303 10 0 1073 10 0 10
304 8 0 1127 10 0 401
305 13 0 1097 10 0 80
306 18 0 1097 10 0 5
307 -6 0 1040 10 177 0
308 20 0 1071 10 0 549
309 18 0 1010 10 0 234
310 -20 0 1122 10 329 0
311 -2 0 1097 10 48 0
312 21 0 1097 10 0 515
313 -38 0 1011 10 252 0
314 -20 0 1064 10 220 0
315 23 710 740 10 0 84
316 16 0 1047 10 0 562
317 -13 0 1049 10 374 0
318 10 0 1050 10 0 114
319 20 0 1069 10 0 176
320 12 0 1102 10 0 181
321 -15 0 1071 10 274 0
322 20 174 204 10 0 360
323 17 853 883 10 0 157
324 30 156 186 10 0 577
325 -5 0 1094 10 333 0
326 -40 0 1099 10 568 0
327 20 0 1133 10 0 49
328 -25 0 1029 10 473 0
329 20 0 1050 10 0 310
330 30 0 1055 10 0 547
331 -10 213 243 10 299 0
332 10 0 1109 10 0 70
333 5 0 1184 10 0 325
334 -20 0 1088 10 239 0
335 -20 0 1053 10 28 0
336 -27 736 766 10 379 0
337 -15 904 934 10 441 0
338 21 0 1059 10 0 83
339 22 0 1007 10 0 579
340 -10 243 273 10 147 0
341 40 0 1107 10 0 11
342 -10 0 1143 10 491 0
343 3 0 1013 10 0 130
344 10 0 1111 10 0 23
345 -10 103 133 10 600 0
346 23 497 527 0 0 624
347 -30 56 86 10 236 0
348 10 0 1161 10 0 392
349 4 0 1157 10 0 55
350 -39 0 1130 10 482 0
351 -10 0 1051 10 485 0
352 -16 938 968 10 103 0
353 -14 0 1148 10 268 0
354 -22 573 603 10 35 0
355 -20 0 1142 10 6 0
356 -31 0 1016 10 117 0
357 23 0 1042 10 0 436
358 10 0 1063 0 0 634
359 20 100 130 10 0 294
360 -20 0 1065 10 322 0
361 8 0 1046 10 0 461
362 -10 0 1073 10 145 0
363 -10 0 1091 10 69 0
364 10 39 69 10 0 232
365 -26 0 1087 10 465 0
366 -20 0 1061 10 373 0
367 16 0 1125 10 0 391
368 10 0 1067 10 0 283
369 -42 894 924 10 143 0
370 21 0 1024 10 0 451
371 -13 0 1117 10 564 0
372 18 162 192 10 0 204
373 20 0 1070 10 0 366
374 13 0 1055 10 0 317
375 -10 0 1031 10 219 0
376 30 71 101 10 0 513
377 20 0 1038 10 0 471
378 -15 0 1045 10 39 0
379 27 0 1034 10 0 336
380 30 0 1145 10 0 565
381 -10 0 1054 10 446 0
382 -5 823 853 10 178 0
383 20 54 84 10 0 174
384 -30 0 1136 10 45 0
385 -18 492 522 10 126 0
386 30 0 1142 10 0 559
387 32 0 1166 10 0 172
388 10 166 196 10 0 156
389 11 0 1026 10 0 201
390 -10 0 1077 10 399 0
391 -16 0 1168 10 367 0
392 -10 0 1165 10 348 0
393 -10 0 1092 10 297 0
394 20 0 1060 10 0 142
395 6 0 1063 0 0 610
396 20 0 1164 10 0 452
397 -10 0 1062 10 415 0
398 -10 0 1070 10 498 0
399 10 0 1073 10 0 390
400 10 0 1072 10 0 136
401 -8 0 1088 10 304 0
402 20 0 1052 10 0 594
403 -13 497 527 10 152 0
404 20 127 157 10 0 192
405 30 149 179 10 0 472
406 42 0 1083 10 0 520
407 -5 0 990 10 31 0
408 -10 177 207 10 248 0
409 -10 382 412 10 121 0
410 30 0 1095 10 0 531
411 17 0 1032 10 0 269
412 -19 0 1050 10 432 0
413 15 0 1131 10 0 545
414 -16 0 1066 10 247 0
415 10 0 1061 10 0 397
416 10 0 1133 0 0 605
417 21 0 1147 10 0 261
418 22 0 1081 0 0 620
419 22 35 65 10 0 164
420 -23 0 1133 10 209 0
421 20 0 1133 10 0 91
422 -20 600 630 10 134 0
423 5 0 1046 10 0 8
424 -10 80 110 10 481 0
425 12 587 617 0 0 613
426 -20 0 1141 10 139 0
427 -23 0 1083 10 510 0
428 -20 128 158 10 544 0
429 -22 0 1107 10 284 0
430 11 0 1099 10 0 21
431 13 0 1078 10 0 253
432 19 593 623 10 0 412
433 20 0 1066 10 0 301
434 -5 0 1084 10 573 0
435 -20 0 1180 10 27 0
436 -23 0 1039 10 357 0
437 -20 0 1115 10 453 0
438 -16 0 1067 10 262 0
439 -10 0 1181 10 601 0
440 -13 0 1122 10 589 0
441 15 13 43 10 0 337
442 10 0 1093 10 0 138
443 9 0 1101 0 0 628
444 24 205 235 10 0 231
445 -37 0 1078 10 538 0
446 10 0 1056 10 0 381
447 30 0 1183 0 0 633
448 20 0 1061 10 0 149
449 -13 0 1103 10 77 0
450 -20 0 1126 10 489 0
451 -21 0 1045 10 370 0
452 -20 0 1141 10 396 0
453 20 97 127 10 0 437
454 -30 0 1161 10 551 0
455 -15 0 1106 10 93 0
456 20 0 1081 10 0 250
457 20 0 1143 10 0 537
458 27 0 1099 10 0 122
459 -10 0 1074 10 508 0
460 30 229 259 0 0 623
461 -8 0 1058 10 361 0
462 -11 0 1072 10 197 0
463 -12 636 666 10 585 0
464 30 0 1067 10 0 497
465 26 0 1087 10 0 365
466 42 0 1060 10 0 41
467 -10 0 1040 10 140 0
468 10 0 1004 10 0 266
469 17 0 1125 10 0 34
470 -19 0 1102 10 96 0
471 -20 0 1027 10 377 0
472 -30 176 206 10 405 0
473 25 0 1035 10 0 328
474 10 0 1070 10 0 218
475 20 0 1146 10 0 7
476 -20 0 1057 10 111 0
477 20 111 141 0 0 630
478 -30 908 938 10 503 0
479 29 0 1010 10 0 487
480 12 0 1113 10 0 212
481 10 0 1148 10 0 424
482 39 0 1136 10 0 350
483 -11 0 1095 10 295 0
484 20 159 189 10 0 224
485 10 0 1053 10 0 351
486 30 0 1143 10 0 256
487 -29 321 351 10 479 0
488 24 0 1189 0 0 627
489 20 0 1155 10 0 450
490 13 0 1061 0 0 609
491 10 83 113 10 0 342
492 23 0 1124 10 0 226
493 -16 0 1134 10 100 0
494 20 0 1077 10 0 141
495 -5 226 256 10 558 0
496 -15 939 969 10 290 0
497 -30 0 1099 10 464 0
498 10 123 153 10 0 398
499 20 0 1052 10 0 146
500 12 0 1002 0 0 603
501 -36 0 1084 10 210 0
502 10 0 1084 10 0 208
503 30 0 1058 10 0 478
504 -20 168 198 10 228 0
505 -22 192 222 10 183 0
506 -30 0 1113 10 556 0
507 -10 0 1010 10 81 0
508 10 0 1075 10 0 459
509 -21 0 1108 10 206 0
510 23 0 1076 10 0 427
511 30 0 1077 10 0 561
512 -25 0 1055 10 514 0
513 -30 121 151 10 376 0
514 25 0 1049 10 0 512
515 -21 0 1093 10 312 0
516 -10 0 1053 10 72 0
517 -20 195 225 10 193 0
518 -36 0 1068 10 166 0
519 20 99 129 10 0 271
520 -42 0 1056 10 406 0
521 20 119 149 10 0 198
522 20 0 1094 10 0 129
523 20 0 1143 10 0 22
524 -36 0 1017 10 286 0
525 30 0 1055 10 0 576
526 -40 0 1054 10 188 0
527 10 66 96 10 0 244
528 -26 0 1112 10 221 0
529 -20 684 714 10 272 0
530 10 0 1061 10 0 125
531 -30 126 156 10 410 0
532 9 0 1089 10 0 25
533 -30 566 596 10 593 0
534 27 0 1103 10 0 58
535 16 0 1063 10 0 98
536 14 0 1159 10 0 2
537 -20 0 1096 10 457 0
538 37 0 1096 10 0 445
539 10 130 160 10 0 89
540 -12 0 1112 10 592 0
541 -20 0 1028 10 40 0
542 -10 0 1055 10 52 0
543 -10 0 1099 10 584 0
544 20 0 1146 10 0 428
545 -15 624 654 10 413 0
546 10 0 1066 10 0 259
547 -30 0 1051 10 330 0
548 10 0 1157 10 0 567
549 -20 0 1073 10 308 0
550 11 0 1120 10 0 99
551 30 30 60 10 0 454
552 -20 144 174 10 215 0
553 -10 0 1070 10 90 0
554 20 0 1144 10 0 242
555 -18 0 1047 10 265 0
556 30 150 180 10 0 506
557 10 0 1066 10 0 50
558 5 0 1112 10 0 495
559 -30 0 1104 10 386 0
560 -10 340 370 10 165 0
561 -30 0 1092 10 511 0
562 -16 0 1077 10 316 0
563 -20 0 1111 10 37 0
564 13 0 1123 10 0 371
565 -30 0 1146 10 380 0
566 -1 166 196 10 79 0
567 -10 0 1156 10 548 0
568 40 0 1096 10 0 326
569 20 0 1145 10 0 189
570 30 0 1139 10 0 233
571 -20 0 1134 10 137 0
572 -8 0 1046 10 217 0
573 5 0 1081 10 0 434
574 -18 0 1115 10 273 0
575 30 0 1062 10 0 158
576 -30 0 1055 10 525 0
577 -30 0 1072 10 324 0
578 10 0 1058 10 0 65
579 -22 0 1018 10 339 0
580 -41 1045 1075 10 196 0
581 -10 0 1136 10 222 0
582 28 0 1069 10 0 287
583 10 0 1016 10 0 75
584 10 0 1095 10 0 543
585 12 0 1047 10 0 463
586 16 0 1156 0 0 618
587 10 0 1100 10 0 243
588 -20 722 752 10 54 0
589 13 0 1120 10 0 440
590 20 0 1087 10 0 182
591 19 0 1040 0 0 604
592 12 0 1107 10 0 540
593 30 0 1031 10 0 533
594 -20 151 181 10 402 0
595 -10 0 1072 10 92 0
596 10 0 1030 10 0 170
597 10 145 175 10 0 159
598 20 0 1074 10 0 116
599 -20 0 1098 10 257 0
600 10 91 121 10 0 345
601 10 0 1153 10 0 439
602 -9 678 708 10 112 0
603 -12 0 1002 10 500 0
604 -19 0 1040 10 591 0
605 -10 0 1133 10 416 0
606 -10 0 1096 10 241 0
607 -20 0 1061 10 227 0
608 -20 0 1056 10 184 0
609 -13 0 1061 10 490 0
610 -6 0 1063 10 395 0
611 -6 911 941 10 186 0
612 -38 0 1112 10 32 0
613 -12 587 617 10 425 0
614 -17 0 1058 10 167 0
615 -16 341 371 10 194 0
616 -14 0 1089 10 19 0
617 -20 0 1113 10 101 0
618 -16 0 1156 10 586 0
619 -20 113 143 10 68 0
620 -22 0 1081 10 418 0
621 -20 0 1074 10 249 0
622 -20 0 1163 10 223 0
623 -30 229 259 10 460 0
624 -23 497 527 10 346 0
625 -16 244 274 10 95 0
626 -20 66 96 10 300 0
627 -24 0 1189 10 488 0
628 -9 0 1101 10 443 0
629 -22 0 1135 10 36 0
630 -20 111 141 10 477 0
631 -6 0 1151 10 291 0
632 -3 0 1110 10 238 0
633 -30 0 1183 10 447 0
634 -10 0 1063 10 358 0
635 -9 602 632 10 118 0
DEPOT_SECTION
1
-1
EOF
