NAME: lrc1_6_6
TYPE: PDPTW
COMMENT: Li & Lim PDPTW benchmark converted from SINTEF format
DIMENSION: 631
VEHICLES: 150
CAPACITY: 200
EDGE_WEIGHT_TYPE: EUC_2D
NODE_COORD_SECTION
1 150 150
2 125 168
3 162 107
4 199 213
5 61 84
6 125 103
7 143 101
8 28 141
9 230 128
10 55 68
11 72 180
12 159 41
13 8 4
14 257 58
15 57 155
16 186 26
17 231 243
18 247 132
19 89 61
20 84 231
21 116 240
22 110 79
23 110 74
24 180 106
25 240 73
26 13 265
27 134 147
28 257 59
29 160 108
30 289 130
31 27 255
32 234 146
33 69 208
34 115 196
35 250 228
36 159 89
37 105 81
38 149 183
39 159 300
40 47 277
41 209 269
42 212 26
43 14 149
44 74 117
45 140 140
46 152 241
47 222 83
48 88 124
49 136 68
50 250 124
51 109 299
52 258 244
53 208 47
54 212 62
55 259 59
56 150 104
57 77 233
58 212 45
59 57 125
60 232 121
61 255 132
62 18 184
63 165 113
64 143 111
65 248 41
66 8 263
67 109 110
68 106 71
69 259 240
70 38 139
71 277 41
72 255 57
73 9 122
74 102 76
75 43 286
76 60 160
77 172 225
78 161 22
79 88 110
80 122 127
81 52 63
82 53 141
83 175 281
84 265 141
85 250 126
86 147 281
87 255 240
88 188 142
89 154 26
90 59 64
91 114 204
92 235 242
93 34 150
94 140 214
95 59 113
96 282 104
97 145 184
98 184 277
99 129 77
100 96 199
101 67 154
102 2 81
103 208 208
104 169 173
105 106 108
106 15 2
107 227 26
108 147 285
109 141 286
110 231 70
111 242 73
112 15 259
113 93 165
114 10 198
115 149 294
116 82 100
117 256 286
118 172 2
119 277 172
120 73 81
121 217 69
122 85 224
123 0 153
124 147 43
125 143 288
126 112 272
127 200 26
128 140 143
129 83 236
130 253 84
131 53 288
132 256 239
133 224 79
134 110 107
135 125 136
136 149 76
137 203 166
138 211 61
139 107 103
140 262 62
141 227 80
142 269 103
143 119 254
144 122 96
145 248 245
146 181 297
147 65 69
148 16 151
149 254 206
150 167 176
151 280 172
152 285 285
153 149 282
154 277 100
155 223 23
156 25 191
157 266 212
158 272 183
159 135 251
160 11 191
161 25 119
162 215 68
163 137 104
164 113 202
165 160 24
166 51 217
167 14 177
168 225 22
169 194 234
170 262 14
171 259 126
172 214 234
173 216 23
174 111 110
175 145 182
176 51 2
177 30 243
178 186 228
179 132 146
180 176 72
181 108 3
182 216 62
183 271 106
184 140 290
185 64 59
186 206 157
187 66 157
188 132 297
189 109 105
190 64 55
191 173 64
192 213 65
193 17 205
194 224 229
195 78 236
196 274 6
197 207 237
198 161 26
199 119 104
200 169 171
201 296 235
202 220 74
203 109 148
204 212 270
205 265 197
206 174 238
207 223 74
208 47 203
209 69 90
210 33 231
211 8 265
212 136 144
213 286 175
214 151 30
215 150 184
216 157 25
217 131 78
218 232 240
219 53 285
220 278 176
221 225 192
222 115 197
223 167 179
224 6 168
225 163 180
226 135 210
227 277 104
228 262 241
229 162 148
230 61 138
231 117 155
232 126 127
233 157 221
234 19 290
235 65 156
236 159 177
237 12 10
238 67 175
239 78 232
240 201 175
241 249 133
242 139 110
243 252 128
244 57 123
245 71 154
246 157 276
247 111 98
248 221 70
249 70 57
250 236 108
251 268 113
252 40 1
253 106 243
254 37 126
255 259 58
256 167 193
257 168 204
258 72 286
259 254 240
260 241 183
261 75 191
262 26 27
263 12 270
264 81 238
265 140 294
266 11 242
267 224 77
268 166 123
269 92 241
270 280 180
271 151 113
272 65 49
273 203 36
274 129 83
275 38 74
276 166 105
277 129 98
278 30 226
279 15 178
280 108 298
281 296 211
282 236 72
283 277 177
284 99 73
285 166 113
286 271 8
287 228 41
288 80 131
289 284 176
290 208 117
291 119 183
292 246 166
293 144 292
294 128 155
295 113 188
296 155 93
297 161 210
298 168 176
299 60 64
300 165 204
301 280 158
302 241 71
303 57 68
304 219 152
305 72 89
306 85 75
307 3 205
308 235 243
309 12 275
310 76 160
311 56 116
312 170 53
313 34 5
314 280 175
315 288 127
316 103 8
317 229 25
318 12 198
319 66 54
320 120 60
321 110 31
322 218 20
323 226 248
324 275 100
325 217 73
326 88 225
327 123 92
328 293 62
329 4 149
330 216 25
331 63 59
332 63 155
333 158 140
334 84 236
335 260 58
336 284 244
337 190 181
338 159 287
339 285 283
340 65 68
341 61 157
342 102 173
343 300 44
344 103 78
345 144 182
346 24 76
347 149 186
348 165 182
349 179 123
350 157 84
351 17 209
352 233 119
353 167 105
354 238 206
355 127 101
356 263 291
357 281 68
358 251 237
359 108 109
360 199 28
361 3 119
362 252 219
363 234 213
364 136 140
365 191 49
366 251 241
367 119 214
368 275 182
369 103 260
370 2 238
371 94 93
372 158 291
373 230 248
374 207 20
375 54 285
376 160 107
377 59 280
378 208 290
379 248 280
380 138 100
381 8 155
382 208 235
383 111 112
384 128 94
385 110 262
386 162 203
387 160 179
388 16 204
389 239 295
390 157 31
391 147 178
392 170 174
393 157 254
394 277 101
395 283 144
396 156 182
397 274 97
398 66 56
399 158 27
400 156 26
401 257 133
402 264 61
403 296 279
404 220 66
405 240 71
406 112 43
407 4 296
408 222 73
409 209 84
410 250 134
411 59 287
412 13 202
413 93 117
414 62 53
415 275 97
416 206 121
417 107 174
418 224 61
419 124 174
420 101 110
421 112 201
422 80 86
423 5 189
424 141 100
425 165 256
426 108 113
427 37 159
428 136 104
429 107 71
430 97 232
431 127 266
432 14 204
433 278 177
434 209 246
435 134 148
436 283 65
437 108 80
438 55 62
439 141 137
440 224 138
441 163 150
442 213 68
443 113 62
444 100 138
445 126 266
446 10 150
447 137 150
448 258 232
449 191 234
450 213 119
451 5 195
452 166 203
453 100 73
454 147 185
455 60 156
456 239 77
457 163 202
458 81 219
459 155 28
460 160 27
461 43 62
462 235 241
463 291 148
464 64 53
465 168 42
466 183 282
467 289 79
468 1 272
469 87 183
470 234 107
471 52 288
472 236 66
473 264 35
474 233 245
475 144 100
476 260 64
477 130 96
478 202 292
479 7 31
480 96 86
481 141 102
482 170 93
483 85 228
484 10 147
485 18 206
486 164 202
487 1 81
488 148 157
489 159 110
490 229 40
491 67 161
492 131 220
493 112 199
494 238 69
495 258 247
496 205 130
497 109 61
498 59 67
499 151 294
500 26 0
501 45 190
502 56 212
503 148 288
504 275 263
505 272 97
506 143 67
507 29 8
508 152 29
509 176 235
510 30 145
511 61 70
512 16 196
513 168 108
514 15 209
515 211 66
516 256 54
517 11 207
518 58 240
519 131 95
520 116 14
521 154 31
522 86 230
523 133 99
524 290 37
525 9 145
526 140 292
527 134 146
528 229 179
529 72 20
530 149 285
531 257 137
532 225 73
533 71 294
534 156 57
535 177 281
536 117 168
537 162 250
538 116 245
539 153 28
540 176 70
541 50 285
542 257 243
543 246 133
544 140 100
545 69 134
546 236 248
547 217 21
548 161 112
549 233 242
550 127 77
551 155 180
552 144 173
553 65 56
554 130 102
555 76 280
556 110 76
557 271 101
558 216 203
559 136 241
560 160 17
561 64 91
562 107 39
563 106 77
564 103 93
565 138 101
566 15 52
567 160 111
568 81 223
569 113 114
570 162 206
571 203 183
572 113 4
573 176 263
574 173 72
575 279 189
576 9 144
577 266 104
578 253 57
579 296 252
580 254 87
581 114 198
582 220 43
583 11 265
584 250 130
585 299 153
586 133 187
587 246 137
588 238 103
589 220 182
590 213 61
591 290 219
592 153 61
593 55 285
594 276 66
595 236 240
596 244 13
597 163 200
598 62 65
599 189 240
600 145 183
601 140 108
602 259 126
603 260 64
604 81 219
605 284 176
606 108 3
607 86 230
608 129 83
609 152 29
610 119 183
611 173 64
612 296 235
613 271 106
614 63 155
615 253 57
616 220 74
617 229 40
618 241 71
619 151 113
620 170 93
621 236 248
622 119 214
623 231 243
624 7 31
625 199 28
626 119 254
627 78 232
628 103 93
629 165 113
630 122 96
631 137 150
PICKUP_AND_DELIVERY_SECTION
1 0 0 1206 0 0 0
2 -35 852 912 10 501 0
3 10 68 128 10 0 353
4 -16 496 556 10 194 0
5 -10 318 378 10 81 0
6 20 53 113 10 0 199
7 10 49 109 10 0 544
8 -40 630 690 10 576 0
9 21 365 425 10 0 60
10 30 128 188 10 0 209
11 -2 357 417 10 310 0
12 11 291 351 10 0 520
13 29 203 263 10 0 237
14 -10 148 208 10 72 0
15 20 93 153 10 0 329
16 -20 550 610 10 107 0
17 10 123 183 0 0 623
18 -4 212 272 10 50 0
19 -30 238 298 10 398 0
20 21 530 590 10 0 432
21 -11 510 570 10 559 0
22 -20 175 235 10 429 0
23 -20 123 183 10 37 0
24 19 53 113 10 0 436
25 20 118 178 10 0 494
26 20 178 238 10 0 211
27 20 75 135 10 0 528
28 20 159 219 10 0 196
29 -20 45 105 10 489 0
30 -10 314 374 10 61 0
31 -20 226 286 10 326 0
32 38 337 397 10 0 337
33 -14 567 627 10 536 0
34 10 57 117 10 0 421
35 -19 762 822 10 591 0
36 -10 811 871 10 136 0
37 20 82 142 10 0 23
38 10 33 93 10 0 573
39 15 150 210 10 0 466
40 20 163 223 10 0 533
41 -16 431 491 10 378 0
42 -10 208 268 10 173 0
43 10 136 196 10 0 484
44 -10 789 849 10 299 0
45 30 14 74 10 0 359
46 -20 656 716 10 293 0
47 20 98 158 10 0 133
48 2 67 127 10 0 487
49 -9 579 639 10 562 0
50 4 118 178 10 0 18
51 24 362 422 10 0 369
52 -40 198 258 10 495 0
53 6 118 178 10 0 322
54 -14 164 224 10 506 0
55 10 171 231 10 0 516
56 21 54 114 10 0 601
57 20 150 210 10 0 266
58 -18 614 674 10 273 0
59 23 196 256 10 0 95
60 -21 562 622 10 9 0
61 10 137 197 10 0 30
62 -10 356 416 10 381 0
63 20 133 193 0 0 629
64 20 39 99 10 0 312
65 -30 454 514 10 141 0
66 30 181 241 10 0 278
67 -20 74 134 10 383 0
68 -10 98 158 10 344 0
69 -20 241 301 10 87 0
70 12 322 382 10 0 361
71 14 329 389 10 0 130
72 10 140 200 10 0 14
73 19 201 261 10 0 102
74 -16 828 888 10 247 0
75 10 173 233 10 0 471
76 20 90 150 10 0 512
77 -10 94 154 10 297 0
78 10 188 248 10 0 198
79 -20 619 679 10 327 0
80 1 36 96 10 0 550
81 10 143 203 10 0 5
82 16 97 157 10 0 510
83 -10 625 685 10 153 0
84 22 115 175 10 0 205
85 20 184 244 10 0 292
86 -10 258 318 10 109 0
87 20 161 221 10 0 69
88 -23 1098 1158 10 315 0
89 -20 139 199 10 214 0
90 -10 171 231 10 498 0
91 20 88 148 10 0 177
92 -10 162 222 10 474 0
93 -30 378 438 10 525 0
94 -20 599 659 10 581 0
95 -23 229 289 10 59 0
96 19 256 316 10 0 580
97 -20 65 125 10 215 0
98 -9 187 247 10 449 0
99 -10 623 683 10 189 0
100 -18 1004 1064 10 407 0
101 -40 161 221 10 341 0
102 -19 249 309 10 73 0
103 -30 91 151 10 200 0
104 10 29 89 10 0 336
105 20 98 158 10 0 420
106 5 384 444 10 0 252
107 20 145 205 10 0 16
108 -10 244 304 10 530 0
109 10 228 288 10 0 86
110 -20 129 189 10 267 0
111 -20 119 179 10 456 0
112 9 663 723 10 0 210
113 13 58 118 10 0 235
114 -11 219 279 10 294 0
115 10 157 217 10 0 265
116 -20 563 623 10 340 0
117 -10 779 839 10 146 0
118 -12 587 647 10 592 0
119 -20 184 244 10 531 0
120 15 541 601 10 0 305
121 10 105 165 10 0 248
122 10 193 253 10 0 208
123 -20 200 260 10 148 0
124 14 107 167 10 0 521
125 30 186 246 10 0 206
126 18 322 382 10 0 385
127 -10 429 489 10 155 0
128 20 12 72 10 0 174
129 10 110 170 10 0 593
130 -14 390 450 10 71 0
131 -10 195 255 10 334 0
132 10 172 232 10 0 542
133 -20 102 162 10 47 0
134 20 157 217 10 0 371
135 5 28 88 10 0 244
136 10 785 845 10 0 36
137 -26 975 1035 10 221 0
138 20 153 213 10 0 192
139 -10 132 192 10 364 0
140 10 220 280 10 0 402
141 30 104 164 10 0 65
142 -10 204 264 10 415 0
143 42 792 852 0 0 626
144 19 132 192 0 0 630
145 10 136 196 10 0 259
146 10 150 210 10 0 117
147 10 239 299 10 0 422
148 20 134 194 10 0 123
149 -22 606 666 10 354 0
150 20 46 106 10 0 298
151 -26 171 231 10 571 0
152 -20 686 746 10 257 0
153 10 132 192 10 0 83
154 10 136 196 10 0 394
155 10 146 206 10 0 127
156 -40 215 275 10 517 0
157 -20 318 378 10 228 0
158 12 691 751 10 0 260
159 -24 469 529 10 537 0
160 -10 711 771 10 446 0
161 17 153 213 10 0 346
162 10 104 164 10 0 408
163 -20 124 184 10 475 0
164 10 76 136 10 0 258
165 10 176 236 10 0 560
166 36 254 314 10 0 502
167 17 138 198 10 0 469
168 40 148 208 10 0 374
169 7 94 154 10 0 599
170 -10 683 743 10 596 0
171 20 154 214 0 0 602
172 21 715 775 10 0 382
173 10 182 242 10 0 42
174 -20 62 122 10 128 0
175 10 99 159 10 0 253
176 -10 202 262 10 553 0
177 -20 271 331 10 91 0
178 -30 398 458 10 595 0
179 20 63 123 10 0 444
180 -10 559 619 10 481 0
181 16 656 716 0 0 606
182 20 128 188 10 0 207
183 22 572 632 0 0 613
184 20 213 273 10 0 393
185 30 125 185 10 0 443
186 -10 896 956 10 368 0
187 10 148 208 10 0 231
188 40 149 209 10 0 425
189 10 145 205 10 0 99
190 20 128 188 10 0 529
191 12 557 617 0 0 611
192 -20 177 237 10 138 0
193 20 143 203 10 0 388
194 16 326 386 10 0 4
195 10 136 196 10 0 377
196 -20 504 564 10 28 0
197 -27 473 533 10 379 0
198 -10 202 262 10 78 0
199 -20 177 237 10 6 0
200 30 28 88 10 0 103
201 25 545 605 0 0 612
202 20 187 247 0 0 616
203 19 41 101 10 0 311
204 -18 577 637 10 372 0
205 -22 306 366 10 84 0
206 -30 1008 1068 10 125 0
207 -20 174 234 10 182 0
208 -10 655 715 10 122 0
209 -30 761 821 10 10 0
210 -9 730 790 10 112 0
211 -20 186 246 10 26 0
212 10 38 98 10 0 545
213 10 142 202 10 0 314
214 20 120 180 10 0 89
215 20 34 94 10 0 97
216 -10 163 223 10 459 0
217 -20 563 623 10 249 0
218 -20 211 271 10 308 0
219 10 208 268 10 0 269
220 20 198 258 10 0 575
221 26 531 591 10 0 137
222 10 105 165 10 0 295
223 20 59 119 10 0 348
224 -9 729 789 10 279 0
225 30 85 145 10 0 396
226 -20 887 947 10 493 0
227 20 135 195 10 0 357
228 20 228 288 10 0 157
229 -25 735 795 10 450 0
230 -10 628 688 10 527 0
231 -10 993 1053 10 187 0
232 40 33 93 10 0 288
233 -22 396 456 10 419 0
234 12 372 432 10 0 309
235 -13 136 196 10 113 0
236 30 100 160 10 0 387
237 -29 404 464 10 13 0
238 -40 261 321 10 245 0
239 20 161 221 0 0 627
240 -30 678 738 10 543 0
241 10 100 160 10 0 440
242 -20 844 904 10 277 0
243 10 172 232 10 0 584
244 -5 150 210 10 135 0
245 40 175 235 10 0 238
246 18 126 186 10 0 503
247 16 256 316 10 0 74
248 -10 149 209 10 121 0
249 20 200 260 10 0 217
250 -16 870 930 10 588 0
251 22 828 888 10 0 352
252 -5 434 494 10 106 0
253 -10 173 233 10 175 0
254 19 139 199 10 0 461
255 -17 182 242 10 594 0
256 -30 1008 1068 10 452 0
257 20 56 116 10 0 152
258 -10 387 447 10 164 0
259 -10 150 210 10 145 0
260 -12 828 888 10 158 0
261 12 85 145 10 0 263
262 -24 855 915 10 507 0
263 -12 228 288 10 261 0
264 20 123 183 10 0 411
265 -10 394 454 10 115 0
266 -20 502 562 10 57 0
267 20 109 169 10 0 110
268 14 31 91 10 0 442
269 -10 752 812 10 219 0
270 20 133 193 10 0 585
271 4 331 391 0 0 619
272 -10 159 219 10 414 0
273 18 382 442 10 0 58
274 15 607 667 0 0 608
275 16 135 195 10 0 566
276 -30 82 142 10 376 0
277 20 108 168 10 0 242
278 -30 923 983 10 66 0
279 9 753 813 10 0 224
280 -23 865 925 10 492 0
281 22 181 241 10 0 448
282 -30 177 237 10 472 0
283 -20 220 280 10 433 0
284 22 92 152 10 0 320
285 10 122 182 10 0 470
286 36 746 806 10 0 473
287 -17 797 857 10 317 0
288 -40 319 379 10 232 0
289 30 136 196 0 0 605
290 15 66 126 10 0 505
291 6 552 612 0 0 610
292 -20 529 589 10 85 0
293 20 172 232 10 0 46
294 11 22 82 10 0 114
295 -10 289 349 10 222 0
296 33 123 183 10 0 316
297 10 68 128 10 0 77
298 -20 35 95 10 150 0
299 10 182 242 10 0 44
300 20 56 116 10 0 597
301 -11 633 693 10 463 0
302 20 123 183 0 0 618
303 -30 123 183 10 511 0
304 -10 944 1004 10 587 0
305 -15 538 598 10 120 0
306 -12 711 771 10 500 0
307 -20 199 259 10 412 0
308 20 151 211 10 0 218
309 -12 497 557 10 234 0
310 2 74 134 10 0 11
311 -19 215 275 10 203 0
312 -20 147 207 10 64 0
313 -19 720 780 10 350 0
314 -10 158 218 10 213 0
315 23 695 755 10 0 88
316 -33 667 727 10 296 0
317 17 478 538 10 0 287
318 -5 231 291 10 423 0
319 -30 174 234 10 464 0
320 -22 497 557 10 284 0
321 -10 348 408 10 539 0
322 -6 159 219 10 53 0
323 -18 838 898 10 579 0
324 30 141 201 10 0 524
325 20 200 260 10 0 409
326 20 97 157 10 0 31
327 20 63 123 10 0 79
328 10 167 227 10 0 335
329 -20 184 244 10 15 0
330 -12 194 254 10 365 0
331 20 198 258 10 0 497
332 10 124 184 0 0 614
333 5 12 72 10 0 532
334 10 108 168 10 0 131
335 -10 193 253 10 328 0
336 -10 721 781 10 104 0
337 -38 889 949 10 32 0
338 21 382 442 10 0 478
339 -15 539 599 10 403 0
340 20 228 288 10 0 116
341 40 111 171 10 0 101
342 -21 53 113 10 417 0
343 -19 742 802 10 467 0
344 10 85 145 10 0 68
345 30 88 148 10 0 391
346 -17 482 542 10 161 0
347 -30 41 101 10 551 0
348 -20 72 132 10 223 0
349 4 39 99 10 0 405
350 19 85 145 10 0 313
351 10 145 205 10 0 485
352 -22 923 983 10 251 0
353 -10 93 153 10 3 0
354 22 558 618 10 0 149
355 20 54 114 10 0 437
356 2 180 240 10 0 434
357 -20 492 552 10 227 0
358 10 135 195 10 0 504
359 -30 85 145 10 45 0
360 12 442 502 0 0 625
361 -12 674 734 10 70 0
362 -10 286 346 10 366 0
363 -20 127 187 10 392 0
364 10 24 84 10 0 139
365 12 115 175 10 0 330
366 10 135 195 10 0 362
367 16 603 663 0 0 622
368 10 129 189 10 0 186
369 -24 879 939 10 51 0
370 21 825 885 10 0 514
371 -20 895 955 10 134 0
372 18 147 207 10 0 204
373 20 126 186 10 0 558
374 -40 170 230 10 168 0
375 10 219 279 10 0 430
376 30 56 116 10 0 276
377 -10 246 306 10 195 0
378 16 290 350 10 0 41
379 27 275 335 10 0 197
380 30 88 148 10 0 428
381 10 218 278 10 0 62
382 -21 808 868 10 172 0
383 20 54 114 10 0 67
384 -20 71 131 10 519 0
385 -18 477 537 10 126 0
386 30 95 155 10 0 457
387 -30 765 825 10 236 0
388 -20 151 211 10 193 0
389 -16 737 797 10 535 0
390 20 240 300 10 0 399
391 -30 113 173 10 345 0
392 20 31 91 10 0 363
393 -20 501 561 10 184 0
394 -10 136 196 10 154 0
395 -20 133 193 10 401 0
396 -30 583 643 10 225 0
397 10 165 225 10 0 577
398 30 186 246 10 0 19
399 -20 226 286 10 390 0
400 10 151 211 10 0 460
401 20 125 185 10 0 395
402 -10 208 268 10 140 0
403 15 482 542 10 0 339
404 20 112 172 10 0 590
405 -4 134 194 10 349 0
406 -31 538 598 10 572 0
407 18 819 879 10 0 100
408 -10 162 222 10 162 0
409 -20 367 427 10 325 0
410 -15 101 161 10 441 0
411 -20 481 541 10 264 0
412 20 165 225 10 0 307
413 -20 335 395 10 569 0
414 10 133 193 10 0 272
415 10 154 214 10 0 142
416 -10 731 791 10 513 0
417 21 49 109 10 0 342
418 -10 458 518 10 515 0
419 22 35 95 10 0 233
420 -20 113 173 10 105 0
421 -10 64 124 10 34 0
422 -10 585 645 10 147 0
423 5 150 210 10 0 318
424 10 65 125 10 0 565
425 -40 572 632 10 188 0
426 10 55 115 10 0 561
427 -20 113 173 10 455 0
428 -30 113 173 10 380 0
429 20 109 169 10 0 22
430 -10 918 978 10 375 0
431 13 118 178 10 0 499
432 -21 578 638 10 20 0
433 20 209 269 10 0 283
434 -2 359 419 10 356 0
435 20 86 146 10 0 589
436 -19 435 495 10 24 0
437 -20 163 223 10 355 0
438 -12 157 217 10 480 0
439 30 15 75 10 0 477
440 -10 894 954 10 241 0
441 15 13 73 10 0 410
442 -14 103 163 10 268 0
443 -30 509 569 10 185 0
444 -20 190 250 10 179 0
445 -10 479 539 10 526 0
446 10 140 200 10 0 160
447 30 100 160 0 0 631
448 -22 259 319 10 281 0
449 9 93 153 10 0 98
450 25 714 774 10 0 229
451 -10 171 231 10 491 0
452 30 55 115 10 0 256
453 20 91 151 10 0 556
454 -24 53 113 10 488 0
455 20 100 160 10 0 427
456 20 115 175 10 0 111
457 -30 106 166 10 386 0
458 27 949 1009 0 0 604
459 10 127 187 10 0 216
460 -10 214 274 10 400 0
461 -19 806 866 10 254 0
462 30 186 246 10 0 549
463 11 621 681 10 0 301
464 30 145 205 10 0 319
465 26 618 678 10 0 534
466 -15 427 487 10 39 0
467 19 375 435 10 0 343
468 -10 206 266 10 583 0
469 -17 510 570 10 167 0
470 -10 323 383 10 285 0
471 -10 184 244 10 75 0
472 30 161 221 10 0 282
473 -36 968 1028 10 286 0
474 10 139 199 10 0 92
475 20 52 112 10 0 163
476 23 418 478 0 0 603
477 -30 96 156 10 439 0
478 -21 893 953 10 338 0
479 29 778 838 0 0 624
480 12 83 143 10 0 438
481 10 48 108 10 0 180
482 39 461 521 0 0 620
483 -40 179 239 10 568 0
484 -10 144 204 10 43 0
485 -10 143 203 10 351 0
486 -30 117 177 10 570 0
487 -2 306 366 10 48 0
488 24 7 67 10 0 454
489 20 41 101 10 0 29
490 13 224 284 0 0 617
491 10 83 143 10 0 451
492 23 106 166 10 0 280
493 20 62 122 10 0 226
494 -20 147 207 10 25 0
495 40 211 271 10 0 52
496 -10 924 984 10 557 0
497 -20 382 442 10 331 0
498 10 123 183 10 0 90
499 -13 145 205 10 431 0
500 12 480 540 10 0 306
501 35 430 490 10 0 2
502 -36 458 518 10 166 0
503 -18 138 198 10 246 0
504 -10 168 228 10 358 0
505 -15 177 237 10 290 0
506 14 83 143 10 0 54
507 24 736 796 10 0 262
508 10 884 944 0 0 609
509 33 88 148 10 0 538
510 -16 832 892 10 82 0
511 30 119 179 10 0 303
512 -20 245 305 10 76 0
513 10 106 166 10 0 416
514 -21 867 927 10 370 0
515 10 190 250 10 0 418
516 -10 143 203 10 55 0
517 40 180 240 10 0 156
518 -10 759 819 10 541 0
519 20 84 144 10 0 384
520 -11 639 699 10 12 0
521 -14 119 179 10 124 0
522 20 102 162 0 0 607
523 20 122 182 10 0 554
524 -30 801 861 10 324 0
525 30 156 216 10 0 93
526 10 201 261 10 0 445
527 10 51 111 10 0 230
528 -20 227 287 10 27 0
529 -20 669 729 10 190 0
530 10 135 195 10 0 108
531 20 111 171 10 0 119
532 -5 504 564 10 333 0
533 -20 551 611 10 40 0
534 -26 666 726 10 465 0
535 16 411 471 10 0 389
536 14 37 97 10 0 33
537 24 181 241 10 0 159
538 -33 562 622 10 509 0
539 10 122 182 10 0 321
540 18 657 717 10 0 574
541 10 170 230 10 0 518
542 -10 186 246 10 132 0
543 30 223 283 10 0 240
544 -10 76 136 10 7 0
545 -10 609 669 10 212 0
546 10 130 190 0 0 621
547 30 170 230 10 0 582
548 10 39 99 10 0 567
549 -30 198 258 10 462 0
550 -1 815 875 10 80 0
551 30 30 90 10 0 347
552 -10 129 189 10 600 0
553 10 126 186 10 0 176
554 -20 136 196 10 523 0
555 27 470 530 10 0 586
556 -20 135 195 10 453 0
557 10 191 251 10 0 496
558 -20 526 586 10 373 0
559 11 357 417 10 0 21
560 -10 325 385 10 165 0
561 -10 104 164 10 426 0
562 9 326 386 10 0 49
563 10 150 210 10 0 598
564 13 551 611 0 0 628
565 -10 99 159 10 424 0
566 -16 166 226 10 275 0
567 -10 40 100 10 548 0
568 40 207 267 10 0 483
569 20 51 111 10 0 413
570 30 82 142 10 0 486
571 26 62 122 10 0 151
572 31 276 336 10 0 406
573 -10 595 655 10 38 0
574 -18 671 731 10 540 0
575 -20 579 639 10 220 0
576 40 167 227 10 0 8
577 -10 217 277 10 397 0
578 10 138 198 0 0 615
579 18 774 834 10 0 323
580 -19 1015 1075 10 96 0
581 20 60 120 10 0 94
582 -30 420 480 10 547 0
583 10 180 240 10 0 468
584 -10 198 258 10 243 0
585 -20 395 455 10 270 0
586 -27 1053 1113 10 555 0
587 10 96 156 10 0 304
588 16 707 767 10 0 250
589 -20 598 658 10 435 0
590 -20 141 201 10 404 0
591 19 172 232 10 0 35
592 12 244 304 10 0 118
593 -10 230 290 10 129 0
594 17 151 211 10 0 255
595 30 175 235 10 0 178
596 10 708 768 10 0 170
597 -20 130 190 10 300 0
598 -10 214 274 10 563 0
599 -7 98 158 10 169 0
600 10 76 136 10 0 552
601 -21 139 199 10 56 0
602 -20 154 214 10 171 0
603 -23 418 478 10 476 0
604 -27 949 1009 10 458 0
605 -30 136 196 10 289 0
606 -16 656 716 10 181 0
607 -20 102 162 10 522 0
608 -15 607 667 10 274 0
609 -10 884 944 10 508 0
610 -6 552 612 10 291 0
611 -12 557 617 10 191 0
612 -25 545 605 10 201 0
613 -22 572 632 10 183 0
614 -10 124 184 10 332 0
615 -10 138 198 10 578 0
616 -20 187 247 10 202 0
617 -13 224 284 10 490 0
618 -20 123 183 10 302 0
619 -4 331 391 10 271 0
620 -39 461 521 10 482 0
621 -10 130 190 10 546 0
622 -16 603 663 10 367 0
623 -10 123 183 10 17 0
624 -29 778 838 10 479 0
625 -12 442 502 10 360 0
626 -42 792 852 10 143 0
627 -20 161 221 10 239 0
628 -13 551 611 10 564 0
629 -20 133 193 10 63 0
630 -19 132 192 10 144 0
631 -30 100 160 10 447 0
DEPOT_SECTION
1
-1
EOF
