NAME: lrc1_6_7
TYPE: PDPTW
COMMENT: Li & Lim PDPTW benchmark converted from SINTEF format
DIMENSION: 631
VEHICLES: 150
CAPACITY: 200
EDGE_WEIGHT_TYPE: EUC_2D
NODE_COORD_SECTION
1 150 150
2 125 168
3 162 107
4 199 213
5 61 84
6 125 103
7 143 101
8 28 141
9 230 128
10 55 68
11 72 180
12 159 41
13 8 4
14 257 58
15 57 155
16 186 26
17 231 243
18 247 132
19 89 61
20 84 231
21 116 240
22 110 79
23 110 74
24 180 106
25 240 73
26 13 265
27 134 147
28 257 59
29 160 108
30 289 130
31 27 255
32 234 146
33 69 208
34 115 196
35 250 228
36 159 89
37 105 81
38 149 183
39 159 300
40 47 277
41 209 269
42 212 26
43 14 149
44 74 117
45 140 140
46 152 241
47 222 83
48 88 124
49 136 68
50 250 124
51 109 299
52 258 244
53 208 47
54 212 62
55 259 59
56 150 104
57 77 233
58 212 45
59 57 125
60 232 121
61 255 132
62 18 184
63 165 113
64 143 111
65 248 41
66 8 263
67 109 110
68 106 71
69 259 240
70 38 139
71 277 41
72 255 57
73 9 122
74 102 76
75 43 286
76 60 160
77 172 225
78 161 22
79 88 110
80 122 127
81 52 63
82 53 141
83 175 281
84 265 141
85 250 126
86 147 281
87 255 240
88 188 142
89 154 26
90 59 64
91 114 204
92 235 242
93 34 150
94 140 214
95 59 113
96 282 104
97 145 184
98 184 277
99 129 77
100 96 199
101 67 154
102 2 81
103 208 208
104 169 173
105 106 108
106 15 2
107 227 26
108 147 285
109 141 286
110 231 70
111 242 73
112 15 259
113 93 165
114 10 198
115 149 294
116 82 100
117 256 286
118 172 2
119 277 172
120 73 81
121 217 69
122 85 224
123 0 153
124 147 43
125 143 288
126 112 272
127 200 26
128 140 143
129 83 236
130 253 84
131 53 288
132 256 239
133 224 79
134 110 107
135 125 136
136 149 76
137 203 166
138 211 61
139 107 103
140 262 62
141 227 80
142 269 103
143 119 254
144 122 96
145 248 245
146 181 297
147 65 69
148 16 151
149 254 206
150 167 176
151 280 172
152 285 285
153 149 282
154 277 100
155 223 23
156 25 191
157 266 212
158 272 183
159 135 251
160 11 191
161 25 119
162 215 68
163 137 104
164 113 202
165 160 24
166 51 217
167 14 177
168 225 22
169 194 234
170 262 14
171 259 126
172 214 234
173 216 23
174 111 110
175 145 182
176 51 2
177 30 243
178 186 228
179 132 146
180 176 72
181 108 3
182 216 62
183 271 106
184 140 290
185 64 59
186 206 157
187 66 157
188 132 297
189 109 105
190 64 55
191 173 64
192 213 65
193 17 205
194 224 229
195 78 236
196 274 6
197 207 237
198 161 26
199 119 104
200 169 171
201 296 235
202 220 74
203 109 148
204 212 270
205 265 197
206 174 238
207 223 74
208 47 203
209 69 90
210 33 231
211 8 265
212 136 144
213 286 175
214 151 30
215 150 184
216 157 25
217 131 78
218 232 240
219 53 285
220 278 176
221 225 192
222 115 197
223 167 179
224 6 168
225 163 180
226 135 210
227 277 104
228 262 241
229 162 148
230 61 138
231 117 155
232 126 127
233 157 221
234 19 290
235 65 156
236 159 177
237 12 10
238 67 175
239 78 232
240 201 175
241 249 133
242 139 110
243 252 128
244 57 123
245 71 154
246 157 276
247 111 98
248 221 70
249 70 57
250 236 108
251 268 113
252 40 1
253 106 243
254 37 126
255 259 58
256 167 193
257 168 204
258 72 286
259 254 240
260 241 183
261 75 191
262 26 27
263 12 270
264 81 238
265 140 294
266 11 242
267 224 77
268 166 123
269 92 241
270 280 180
271 151 113
272 65 49
273 203 36
274 129 83
275 38 74
276 166 105
277 129 98
278 30 226
279 15 178
280 108 298
281 296 211
282 236 72
283 277 177
284 99 73
285 166 113
286 271 8
287 228 41
288 80 131
289 284 176
290 208 117
291 119 183
292 246 166
293 144 292
294 128 155
295 113 188
296 155 93
297 161 210
298 168 176
299 60 64
300 165 204
301 280 158
302 241 71
303 57 68
304 219 152
305 72 89
306 85 75
307 3 205
308 235 243
309 12 275
310 76 160
311 56 116
312 170 53
313 34 5
314 280 175
315 288 127
316 103 8
317 229 25
318 12 198
319 66 54
320 120 60
321 110 31
322 218 20
323 226 248
324 275 100
325 217 73
326 88 225
327 123 92
328 293 62
329 4 149
330 216 25
331 63 59
332 63 155
333 158 140
334 84 236
335 260 58
336 284 244
337 190 181
338 159 287
339 285 283
340 65 68
341 61 157
342 102 173
343 300 44
344 103 78
345 144 182
346 24 76
347 149 186
348 165 182
349 179 123
350 157 84
351 17 209
352 233 119
353 167 105
354 238 206
355 127 101
356 263 291
357 281 68
358 251 237
359 108 109
360 199 28
361 3 119
362 252 219
363 234 213
364 136 140
365 191 49
366 251 241
367 119 214
368 275 182
369 103 260
370 2 238
371 94 93
372 158 291
373 230 248
374 207 20
375 54 285
376 160 107
377 59 280
378 208 290
379 248 280
380 138 100
381 8 155
382 208 235
383 111 112
384 128 94
385 110 262
386 162 203
387 160 179
388 16 204
389 239 295
390 157 31
391 147 178
392 170 174
393 157 254
394 277 101
395 283 144
396 156 182
397 274 97
398 66 56
399 158 27
400 156 26
401 257 133
402 264 61
403 296 279
404 220 66
405 240 71
406 112 43
407 4 296
408 222 73
409 209 84
410 250 134
411 59 287
412 13 202
413 93 117
414 62 53
415 275 97
416 206 121
417 107 174
418 224 61
419 124 174
420 101 110
421 112 201
422 80 86
423 5 189
424 141 100
425 165 256
426 108 113
427 37 159
428 136 104
429 107 71
430 97 232
431 127 266
432 14 204
433 278 177
434 209 246
435 134 148
436 283 65
437 108 80
438 55 62
439 141 137
440 224 138
441 163 150
442 213 68
443 113 62
444 100 138
445 126 266
446 10 150
447 137 150
448 258 232
449 191 234
450 213 119
451 5 195
452 166 203
453 100 73
454 147 185
455 60 156
456 239 77
457 163 202
458 81 219
459 155 28
460 160 27
461 43 62
462 235 241
463 291 148
464 64 53
465 168 42
466 183 282
467 289 79
468 1 272
469 87 183
470 234 107
471 52 288
472 236 66
473 264 35
474 233 245
475 144 100
476 260 64
477 130 96
478 202 292
479 7 31
480 96 86
481 141 102
482 170 93
483 85 228
484 10 147
485 18 206
486 164 202
487 1 81
488 148 157
489 159 110
490 229 40
491 67 161
492 131 220
493 112 199
494 238 69
495 258 247
496 205 130
497 109 61
498 59 67
499 151 294
500 26 0
501 45 190
502 56 212
503 148 288
504 275 263
505 272 97
506 143 67
507 29 8
508 152 29
509 176 235
510 30 145
511 61 70
512 16 196
513 168 108
514 15 209
515 211 66
516 256 54
517 11 207
518 58 240
519 131 95
520 116 14
521 154 31
522 86 230
523 133 99
524 290 37
525 9 145
526 140 292
527 134 146
528 229 179
529 72 20
530 149 285
531 257 137
532 225 73
533 71 294
534 156 57
535 177 281
536 117 168
537 162 250
538 116 245
539 153 28
540 176 70
541 50 285
542 257 243
543 246 133
544 140 100
545 69 134
546 236 248
547 217 21
548 161 112
549 233 242
550 127 77
551 155 180
552 144 173
553 65 56
554 130 102
555 76 280
556 110 76
557 271 101
558 216 203
559 136 241
560 160 17
561 64 91
562 107 39
563 106 77
564 103 93
565 138 101
566 15 52
567 160 111
568 81 223
569 113 114
570 162 206
571 203 183
572 113 4
573 176 263
574 173 72
575 279 189
576 9 144
577 266 104
578 253 57
579 296 252
580 254 87
581 114 198
582 220 43
583 11 265
584 250 130
585 299 153
586 133 187
587 246 137
588 238 103
589 220 182
590 213 61
591 290 219
592 153 61
593 55 285
594 276 66
595 236 240
596 244 13
597 163 200
598 62 65
599 189 240
600 145 183
601 140 108
602 4 296
603 255 57
604 293 62
605 102 76
606 15 209
607 147 281
608 25 119
609 250 134
610 175 281
611 213 65
612 277 100
613 235 241
614 220 182
615 61 84
616 58 240
617 116 14
618 129 77
619 236 72
620 125 168
621 161 22
622 222 73
623 117 155
624 116 245
625 108 109
626 162 148
627 153 61
628 129 98
629 137 104
630 161 210
631 202 292
PICKUP_AND_DELIVERY_SECTION
1 0 0 1206 0 0 0
2 27 839 924 0 0 620
3 10 70 126 10 0 353
4 -16 488 565 10 194 0
5 7 282 415 0 0 615
6 20 53 156 10 0 344
7 -10 49 114 10 481 0
8 -19 575 746 10 73 0
9 21 381 410 10 0 60
10 -5 155 160 10 135 0
11 27 334 440 10 0 586
12 -20 288 354 10 89 0
13 29 203 291 10 0 252
14 -20 162 194 10 456 0
15 20 93 183 10 0 244
16 25 539 621 10 0 180
17 10 123 204 10 0 373
18 10 199 286 10 0 543
19 14 214 322 10 0 316
20 -10 527 593 10 195 0
21 -10 498 583 10 233 0
22 -20 169 242 10 327 0
23 30 145 162 10 0 556
24 19 53 113 10 0 141
25 20 118 181 10 0 302
26 20 178 274 10 0 468
27 20 62 149 10 0 396
28 20 146 233 10 0 402
29 10 43 151 10 0 136
30 -20 272 416 10 401 0
31 -6 221 290 10 177 0
32 -24 334 400 10 470 0
33 -36 559 635 10 166 0
34 10 57 136 10 0 222
35 -19 752 831 10 591 0
36 -26 798 885 10 465 0
37 20 82 168 10 0 181
38 10 33 110 10 0 39
39 -10 150 247 10 38 0
40 20 163 227 10 0 66
41 -42 424 497 10 466 0
42 30 203 273 10 0 273
43 10 136 225 10 0 484
44 -46 743 895 10 545 0
45 30 14 73 10 0 523
46 -5 643 730 10 573 0
47 20 98 162 10 0 416
48 2 67 202 10 0 479
49 19 567 652 10 0 217
50 4 112 185 10 0 397
51 -18 342 442 10 372 0
52 10 183 272 10 0 558
53 -20 118 164 10 138 0
54 -5 174 215 10 333 0
55 -15 141 290 10 290 0
56 -30 46 134 10 439 0
57 20 116 243 10 0 264
58 -20 599 690 10 494 0
59 -10 174 277 10 187 0
60 -21 558 626 10 9 0
61 10 157 178 10 0 315
62 -20 335 436 10 76 0
63 20 104 222 10 0 285
64 20 39 176 10 0 271
65 -10 436 532 10 173 0
66 -20 181 312 10 40 0
67 20 57 188 10 0 413
68 20 90 180 10 0 497
69 -10 238 305 10 132 0
70 -10 311 392 10 446 0
71 -10 318 401 10 578 0
72 10 140 224 0 0 603
73 19 187 276 10 0 8
74 17 852 865 0 0 605
75 10 173 277 10 0 219
76 20 90 141 10 0 62
77 13 78 193 10 0 169
78 10 176 261 0 0 621
79 -20 602 695 10 340 0
80 1 36 109 10 0 398
81 10 131 224 10 0 116
82 16 97 117 10 0 510
83 17 604 706 0 0 610
84 22 115 158 10 0 585
85 20 173 255 10 0 584
86 20 246 329 0 0 607
87 20 138 253 10 0 228
88 -15 1088 1158 10 205 0
89 20 144 194 10 0 12
90 10 166 235 10 0 147
91 -20 74 162 10 581 0
92 10 152 233 10 0 504
93 15 358 459 10 0 230
94 -24 615 643 10 537 0
95 16 221 297 10 0 461
96 -10 231 341 10 557 0
97 -10 78 113 10 391 0
98 17 177 257 10 0 204
99 11 602 703 0 0 618
100 -20 992 1076 10 455 0
101 20 145 236 10 0 332
102 32 237 321 10 0 487
103 16 90 152 10 0 339
104 10 29 91 10 0 218
105 -20 84 172 10 569 0
106 -29 376 451 10 561 0
107 20 145 244 10 0 360
108 10 233 314 10 0 378
109 10 200 316 10 0 535
110 -14 123 195 10 268 0
111 20 119 232 10 0 516
112 9 651 734 10 0 278
113 13 58 164 10 0 307
114 10 208 289 10 0 279
115 10 148 226 10 0 184
116 -10 530 655 10 81 0
117 -27 740 878 10 379 0
118 -12 590 644 10 365 0
119 10 178 251 10 0 314
120 15 522 620 10 0 209
121 -10 105 184 10 442 0
122 -15 205 242 10 342 0
123 20 177 283 10 0 381
124 14 107 261 10 0 406
125 30 163 270 10 0 265
126 -40 285 420 10 188 0
127 10 424 494 10 0 191
128 20 12 95 10 0 364
129 -20 109 214 10 326 0
130 -10 390 450 10 140 0
131 -20 173 277 10 471 0
132 10 151 254 10 0 69
133 30 102 165 10 0 532
134 -10 143 231 10 212 0
135 5 28 154 10 0 10
136 -10 763 867 10 29 0
137 -10 937 1073 10 240 0
138 20 138 228 10 0 53
139 20 101 224 10 0 511
140 10 202 299 10 0 130
141 -19 104 200 10 24 0
142 -10 206 262 10 577 0
143 -11 788 856 10 559 0
144 19 122 202 10 0 564
145 10 136 199 10 0 259
146 -18 150 252 10 246 0
147 -10 225 313 10 90 0
148 20 134 322 10 0 329
149 29 602 671 10 0 304
150 -20 36 116 10 298 0
151 10 146 257 10 0 433
152 -15 686 745 10 403 0
153 10 132 165 10 0 503
154 10 136 199 0 0 612
155 -40 146 237 10 168 0
156 16 224 265 10 0 208
157 -16 314 381 10 528 0
158 12 665 778 10 0 186
159 -10 434 564 10 600 0
160 -10 676 805 10 318 0
161 17 151 215 0 0 608
162 10 104 180 10 0 404
163 30 122 187 0 0 629
164 10 63 188 10 0 421
165 -10 144 268 10 399 0
166 36 234 335 10 0 33
167 17 138 233 10 0 512
168 40 148 214 10 0 155
169 -13 94 204 10 77 0
170 -41 645 782 10 196 0
171 -10 117 252 10 241 0
172 21 692 799 10 0 323
173 10 192 232 10 0 65
174 10 55 132 10 0 420
175 -20 89 168 10 435 0
176 -20 178 300 10 190 0
177 6 252 350 10 0 31
178 -20 378 478 10 257 0
179 20 39 147 10 0 367
180 -25 536 643 10 16 0
181 -20 634 738 10 37 0
182 -10 123 193 10 248 0
183 -10 545 660 10 587 0
184 -10 203 283 10 115 0
185 -12 125 219 10 480 0
186 -12 897 954 10 158 0
187 10 111 245 10 0 59
188 40 148 258 10 0 126
189 10 157 193 10 0 305
190 20 128 210 10 0 176
191 -10 553 621 10 127 0
192 20 168 246 0 0 611
193 20 143 224 10 0 210
194 16 332 381 10 0 4
195 10 114 219 10 0 20
196 41 489 579 10 0 170
197 11 465 540 10 0 256
198 -20 189 275 10 521 0
199 10 180 233 10 0 247
200 30 28 156 10 0 392
201 25 534 616 10 0 336
202 20 161 273 10 0 496
203 19 41 116 10 0 444
204 -17 583 631 10 98 0
205 15 284 388 10 0 88
206 -26 1015 1062 10 434 0
207 -20 170 237 10 267 0
208 -16 638 732 10 156 0
209 -15 717 866 10 120 0
210 -20 723 798 10 193 0
211 20 182 264 10 0 370
212 10 30 106 10 0 134
213 10 155 190 10 0 281
214 20 120 144 10 0 400
215 20 34 126 10 0 430
216 20 135 251 10 0 550
217 -19 551 636 10 49 0
218 -10 221 260 10 104 0
219 -10 183 293 10 75 0
220 20 218 238 10 0 292
221 -20 513 609 10 283 0
222 -10 94 175 10 34 0
223 -30 37 140 10 236 0
224 -19 702 817 10 432 0
225 30 58 172 10 0 337
226 -10 880 954 10 454 0
227 20 135 162 10 0 324
228 -20 228 288 10 87 0
229 25 735 796 0 0 626
230 -15 638 678 10 93 0
231 22 994 1052 0 0 623
232 40 33 130 10 0 383
233 10 363 488 10 0 21
234 -20 338 467 10 263 0
235 10 110 222 10 0 288
236 30 85 174 10 0 223
237 22 397 471 10 0 500
238 -10 261 322 10 527 0
239 20 127 256 10 0 334
240 10 644 771 10 0 137
241 10 100 125 10 0 171
242 -20 843 904 10 390 0
243 -15 159 245 10 441 0
244 -20 132 229 10 15 0
245 40 145 264 10 0 469
246 18 126 200 10 0 146
247 -10 228 345 10 199 0
248 10 109 249 10 0 182
249 20 166 294 10 0 306
250 -40 844 956 10 505 0
251 22 805 910 10 0 440
252 -29 419 510 10 13 0
253 22 162 244 10 0 431
254 19 115 249 10 0 361
255 30 178 247 10 0 580
256 -11 979 1097 10 197 0
257 20 56 161 10 0 178
258 -17 363 472 10 411 0
259 -10 137 234 10 145 0
260 -23 808 909 10 362 0
261 -14 85 131 10 536 0
262 -24 840 929 10 507 0
263 20 182 332 10 0 234
264 -20 111 241 10 57 0
265 -30 378 471 10 125 0
266 -20 484 580 10 412 0
267 20 103 200 10 0 207
268 14 31 140 10 0 110
269 -27 731 832 10 555 0
270 -10 133 182 10 368 0
271 -20 306 417 10 64 0
272 -30 142 236 10 464 0
273 -30 372 453 10 42 0
274 -14 615 658 10 506 0
275 16 139 192 10 0 313
276 20 64 160 10 0 482
277 20 115 161 0 0 628
278 -9 924 982 10 112 0
279 -10 756 809 10 114 0
280 -18 831 959 10 533 0
281 -10 158 272 10 213 0
282 20 142 271 0 0 619
283 20 210 291 10 0 221
284 22 92 174 10 0 572
285 -20 109 194 10 63 0
286 36 731 821 10 0 596
287 -30 776 879 10 330 0
288 -10 311 387 10 235 0
289 30 136 227 10 0 579
290 15 66 145 10 0 55
291 -20 543 621 10 493 0
292 -20 505 614 10 220 0
293 -20 151 253 10 499 0
294 11 22 135 10 0 427
295 -22 264 374 10 419 0
296 -30 118 188 10 376 0
297 10 61 155 0 0 630
298 20 31 159 10 0 150
299 10 162 262 10 0 331
300 -30 56 165 10 551 0
301 -6 606 720 10 395 0
302 -20 120 224 10 25 0
303 10 123 258 10 0 498
304 -29 931 1018 10 149 0
305 -10 514 621 10 189 0
306 -20 711 771 10 249 0
307 -13 177 281 10 113 0
308 -30 125 242 10 549 0
309 -10 494 560 10 583 0
310 2 74 140 10 0 491
311 22 230 260 10 0 346
312 21 145 209 10 0 560
313 -16 716 784 10 275 0
314 -10 132 244 10 119 0
315 -10 684 766 10 61 0
316 -14 655 739 10 19 0
317 -13 472 544 10 374 0
318 10 219 302 10 0 160
319 -10 174 234 10 553 0
320 -30 502 553 10 460 0
321 15 328 428 10 0 562
322 -30 146 253 10 547 0
323 -21 812 923 10 172 0
324 -20 134 215 10 227 0
325 -20 161 299 10 590 0
326 20 97 142 10 0 129
327 20 63 178 10 0 22
328 10 167 316 0 0 604
329 -20 166 263 10 148 0
330 30 177 272 10 0 287
331 -10 181 275 10 299 0
332 -20 137 172 10 101 0
333 5 12 111 10 0 54
334 -20 108 209 10 239 0
335 20 169 277 10 0 476
336 -25 702 801 10 201 0
337 -30 898 940 10 225 0
338 21 380 444 10 0 425
339 -16 528 609 10 103 0
340 20 194 322 10 0 79
341 40 113 169 10 0 501
342 15 53 180 10 0 122
343 -19 741 802 10 467 0
344 -20 85 167 10 6 0
345 30 60 175 10 0 387
346 -22 459 565 10 311 0
347 20 36 115 10 0 369
348 10 64 140 10 0 486
349 4 39 83 10 0 450
350 19 66 177 10 0 534
351 -40 145 287 10 517 0
352 -16 894 1013 10 588 0
353 -10 86 160 10 3 0
354 -20 526 649 10 448 0
355 20 54 115 10 0 428
356 -10 180 302 10 474 0
357 -30 491 554 10 405 0
358 10 133 259 10 0 542
359 20 94 136 0 0 625
360 -20 465 479 10 107 0
361 -19 686 721 10 254 0
362 23 271 361 10 0 260
363 15 123 192 10 0 366
364 -20 33 75 10 128 0
365 12 134 157 10 0 118
366 -15 135 260 10 363 0
367 -20 576 691 10 179 0
368 10 129 221 10 0 270
369 -20 858 961 10 347 0
370 -20 816 894 10 211 0
371 -32 884 966 10 422 0
372 18 141 214 10 0 51
373 -10 126 220 10 17 0
374 13 149 252 10 0 317
375 10 201 297 10 0 593
376 30 58 113 10 0 296
377 -10 236 316 10 541 0
378 -10 274 366 10 108 0
379 27 251 359 10 0 117
380 30 80 157 10 0 565
381 -20 210 286 10 123 0
382 -30 805 871 10 595 0
383 -40 54 218 10 232 0
384 -20 60 211 10 554 0
385 -24 474 540 10 488 0
386 -30 75 175 10 452 0
387 -30 742 847 10 345 0
388 -10 144 258 10 485 0
389 -10 729 806 10 546 0
390 20 244 296 10 0 242
391 10 86 201 10 0 97
392 -30 31 118 10 200 0
393 -30 494 568 10 570 0
394 20 136 241 10 0 415
395 6 133 269 10 0 301
396 -20 550 676 10 27 0
397 -4 170 220 10 50 0
398 -1 169 262 10 80 0
399 10 201 311 10 0 165
400 -20 133 230 10 214 0
401 20 121 189 10 0 30
402 -20 153 323 10 28 0
403 15 431 594 10 0 152
404 -10 109 199 10 162 0
405 30 119 263 10 0 357
406 -14 547 589 10 124 0
407 18 823 875 0 0 602
408 20 168 216 0 0 622
409 -10 360 434 10 515 0
410 30 101 254 0 0 609
411 17 447 575 10 0 258
412 20 146 247 10 0 266
413 -20 289 440 10 67 0
414 10 130 238 10 0 529
415 -20 135 250 10 394 0
416 -20 699 824 10 47 0
417 21 49 127 10 0 502
418 -30 454 522 10 472 0
419 22 35 133 10 0 295
420 -10 126 159 10 174 0
421 -10 63 180 10 164 0
422 32 584 647 10 0 371
423 5 150 254 10 0 451
424 -20 50 158 10 475 0
425 -21 536 668 10 338 0
426 10 55 138 10 0 566
427 -11 113 150 10 294 0
428 -20 81 206 10 355 0
429 20 89 217 10 0 443
430 -20 922 973 10 215 0
431 -22 118 273 10 253 0
432 19 540 677 10 0 224
433 -10 180 298 10 151 0
434 26 341 436 10 0 206
435 20 87 146 10 0 175
436 -17 419 512 10 594 0
437 20 161 225 10 0 563
438 20 133 240 10 0 598
439 30 15 80 10 0 56
440 -22 854 993 10 251 0
441 15 13 94 10 0 243
442 10 103 158 10 0 121
443 -20 468 610 10 429 0
444 -19 190 250 10 203 0
445 -23 474 543 10 492 0
446 10 140 228 10 0 70
447 30 70 190 10 0 552
448 20 266 312 10 0 354
449 9 93 209 10 0 495
450 -4 695 792 10 349 0
451 -5 155 246 10 423 0
452 30 55 146 10 0 386
453 20 91 177 10 0 508
454 10 35 131 10 0 226
455 20 91 168 10 0 100
456 20 115 128 10 0 14
457 -10 59 214 10 597 0
458 -20 926 1032 10 522 0
459 -10 131 184 10 539 0
460 30 195 292 10 0 320
461 -16 757 914 10 95 0
462 30 157 276 0 0 613
463 -20 624 677 10 531 0
464 30 152 198 10 0 272
465 26 594 702 10 0 36
466 42 415 499 10 0 41
467 19 340 470 10 0 343
468 -20 195 278 10 26 0
469 -40 485 595 10 245 0
470 24 323 384 10 0 32
471 20 173 256 10 0 131
472 30 162 220 10 0 418
473 -1 933 1035 10 524 0
474 10 126 244 10 0 356
475 20 50 142 10 0 424
476 -20 362 535 10 335 0
477 20 106 145 10 0 519
478 10 871 974 0 0 631
479 -2 746 870 10 48 0
480 12 83 194 10 0 185
481 10 48 102 10 0 7
482 -20 424 558 10 276 0
483 10 165 253 10 0 568
484 -10 140 245 10 43 0
485 10 143 242 10 0 388
486 -10 72 222 10 348 0
487 -32 315 357 10 102 0
488 24 7 139 10 0 385
489 -30 41 142 10 567 0
490 13 219 289 10 0 582
491 -2 83 145 10 310 0
492 23 108 164 10 0 445
493 20 62 191 10 0 291
494 20 141 214 10 0 58
495 -9 177 305 10 449 0
496 -20 903 1006 10 202 0
497 -20 406 417 10 68 0
498 -10 123 214 10 303 0
499 20 151 198 10 0 293
500 -22 472 548 10 237 0
501 -40 416 503 10 341 0
502 -21 453 522 10 417 0
503 -10 138 254 10 153 0
504 -10 168 291 10 92 0
505 40 150 265 10 0 250
506 14 83 195 10 0 274
507 24 734 798 10 0 262
508 -20 853 976 10 453 0
509 33 88 181 10 0 599
510 -16 818 906 10 82 0
511 -20 119 196 10 139 0
512 -17 211 339 10 167 0
513 -10 110 163 10 548 0
514 25 850 945 0 0 606
515 10 173 267 10 0 409
516 -20 143 217 10 111 0
517 40 172 248 10 0 351
518 20 744 835 0 0 616
519 -20 68 161 10 477 0
520 20 627 710 0 0 617
521 20 119 223 10 0 198
522 20 102 178 10 0 458
523 -30 100 204 10 45 0
524 1 784 878 10 0 473
525 30 165 208 10 0 576
526 -10 199 264 10 530 0
527 10 38 125 10 0 238
528 16 227 287 10 0 157
529 -10 671 727 10 414 0
530 10 135 259 10 0 526
531 20 107 192 10 0 463
532 -30 510 557 10 133 0
533 18 534 628 10 0 280
534 -19 649 744 10 350 0
535 -10 398 483 10 109 0
536 14 37 118 10 0 261
537 24 166 256 10 0 94
538 37 555 630 0 0 624
539 10 122 179 10 0 459
540 18 637 738 10 0 574
541 10 168 266 10 0 377
542 -10 147 285 10 358 0
543 -10 243 264 10 18 0
544 20 50 174 10 0 601
545 46 593 684 10 0 44
546 10 130 218 10 0 389
547 30 161 238 10 0 322
548 10 39 88 10 0 513
549 30 179 278 10 0 308
550 -20 805 884 10 216 0
551 30 30 138 10 0 300
552 -30 91 227 10 447 0
553 10 126 172 10 0 319
554 20 100 233 10 0 384
555 27 444 556 10 0 269
556 -30 139 192 10 23 0
557 10 166 277 10 0 96
558 -10 519 592 10 52 0
559 11 334 439 10 0 143
560 -21 298 413 10 312 0
561 29 104 171 10 0 106
562 -15 299 412 10 321 0
563 -20 139 221 10 437 0
564 -19 533 630 10 144 0
565 -30 97 162 10 380 0
566 -10 166 206 10 426 0
567 30 40 170 10 0 489
568 -10 197 278 10 483 0
569 20 51 79 10 0 105
570 30 79 144 10 0 393
571 26 62 134 10 0 575
572 -22 266 345 10 284 0
573 5 568 682 10 0 46
574 -18 662 739 10 540 0
575 -26 574 645 10 571 0
576 -30 141 322 10 525 0
577 10 230 265 10 0 142
578 10 138 220 10 0 71
579 -30 769 840 10 289 0
580 -30 1006 1075 10 255 0
581 20 60 140 10 0 91
582 -13 414 486 10 490 0
583 10 180 269 10 0 309
584 -20 200 256 10 85 0
585 -22 391 459 10 84 0
586 -27 1053 1113 10 11 0
587 10 96 191 10 0 183
588 16 709 765 10 0 352
589 13 563 692 0 0 614
590 20 120 221 10 0 325
591 19 156 273 10 0 35
592 12 236 312 0 0 627
593 -10 205 316 10 375 0
594 17 151 220 10 0 436
595 30 170 239 10 0 382
596 -36 691 785 10 286 0
597 10 118 202 10 0 457
598 -20 219 269 10 438 0
599 -33 98 136 10 509 0
600 10 70 143 10 0 159
601 -20 160 179 10 544 0
602 -18 823 875 10 407 0
603 -10 140 224 10 72 0
604 -10 167 316 10 328 0
605 -17 852 865 10 74 0
606 -25 850 945 10 514 0
607 -20 246 329 10 86 0
608 -17 151 215 10 161 0
609 -30 101 254 10 410 0
610 -17 604 706 10 83 0
611 -20 168 246 10 192 0
612 -10 136 199 10 154 0
613 -30 157 276 10 462 0
614 -13 563 692 10 589 0
615 -7 282 415 10 5 0
616 -20 744 835 10 518 0
617 -20 627 710 10 520 0
618 -11 602 703 10 99 0
619 -20 142 271 10 282 0
620 -27 839 924 10 2 0
621 -10 176 261 10 78 0
622 -20 168 216 10 408 0
623 -22 994 1052 10 231 0
624 -37 555 630 10 538 0
625 -20 94 136 10 359 0
626 -25 735 796 10 229 0
627 -12 236 312 10 592 0
628 -20 115 161 10 277 0
629 -30 122 187 10 163 0
630 -10 61 155 10 297 0
631 -10 871 974 10 478 0
DEPOT_SECTION
1
-1
EOF
