NAME: lrc1_6_8
TYPE: PDPTW
COMMENT: Li & Lim PDPTW benchmark converted from SINTEF format
DIMENSION: 623
VEHICLES: 150
CAPACITY: 200
EDGE_WEIGHT_TYPE: EUC_2D
NODE_COORD_SECTION
1 150 150
2 125 168
3 162 107
4 199 213
5 61 84
6 125 103
7 143 101
8 28 141
9 230 128
10 55 68
11 72 180
12 159 41
13 8 4
14 257 58
15 57 155
16 186 26
17 231 243
18 247 132
19 89 61
20 84 231
21 116 240
22 110 79
23 110 74
24 180 106
25 240 73
26 13 265
27 134 147
28 257 59
29 160 108
30 289 130
31 27 255
32 234 146
33 69 208
34 115 196
35 250 228
36 159 89
37 105 81
38 149 183
39 159 300
40 47 277
41 209 269
42 212 26
43 14 149
44 74 117
45 140 140
46 152 241
47 222 83
48 88 124
49 136 68
50 250 124
51 109 299
52 258 244
53 208 47
54 212 62
55 259 59
56 150 104
57 77 233
58 212 45
59 57 125
60 232 121
61 255 132
62 18 184
63 165 113
64 143 111
65 248 41
66 8 263
67 109 110
68 106 71
69 259 240
70 38 139
71 277 41
72 255 57
73 9 122
74 102 76
75 43 286
76 60 160
77 172 225
78 161 22
79 88 110
80 122 127
81 52 63
82 53 141
83 175 281
84 265 141
85 250 126
86 147 281
87 255 240
88 188 142
89 154 26
90 59 64
91 114 204
92 235 242
93 34 150
94 140 214
95 59 113
96 282 104
97 145 184
98 184 277
99 129 77
100 96 199
101 67 154
102 2 81
103 208 208
104 169 173
105 106 108
106 15 2
107 227 26
108 147 285
109 141 286
110 231 70
111 242 73
112 15 259
113 93 165
114 10 198
115 149 294
116 82 100
117 256 286
118 172 2
119 277 172
120 73 81
121 217 69
122 85 224
123 0 153
124 147 43
125 143 288
126 112 272
127 200 26
128 140 143
129 83 236
130 253 84
131 53 288
132 256 239
133 224 79
134 110 107
135 125 136
136 149 76
137 203 166
138 211 61
139 107 103
140 262 62
141 227 80
142 269 103
143 119 254
144 122 96
145 248 245
146 181 297
147 65 69
148 16 151
149 254 206
150 167 176
151 280 172
152 285 285
153 149 282
154 277 100
155 223 23
156 25 191
157 266 212
158 272 183
159 135 251
160 11 191
161 25 119
162 215 68
163 137 104
164 113 202
165 160 24
166 51 217
167 14 177
168 225 22
169 194 234
170 262 14
171 259 126
172 214 234
173 216 23
174 111 110
175 145 182
176 51 2
177 30 243
178 186 228
179 132 146
180 176 72
181 108 3
182 216 62
183 271 106
184 140 290
185 64 59
186 206 157
187 66 157
188 132 297
189 109 105
190 64 55
191 173 64
192 213 65
193 17 205
194 224 229
195 78 236
196 274 6
197 207 237
198 161 26
199 119 104
200 169 171
201 296 235
202 220 74
203 109 148
204 212 270
205 265 197
206 174 238
207 223 74
208 47 203
209 69 90
210 33 231
211 8 265
212 136 144
213 286 175
214 151 30
215 150 184
216 157 25
217 131 78
218 232 240
219 53 285
220 278 176
221 225 192
222 115 197
223 167 179
224 6 168
225 163 180
226 135 210
227 277 104
228 262 241
229 162 148
230 61 138
231 117 155
232 126 127
233 157 221
234 19 290
235 65 156
236 159 177
237 12 10
238 67 175
239 78 232
240 201 175
241 249 133
242 139 110
243 252 128
244 57 123
245 71 154
246 157 276
247 111 98
248 221 70
249 70 57
250 236 108
251 268 113
252 40 1
253 106 243
254 37 126
255 259 58
256 167 193
257 168 204
258 72 286
259 254 240
260 241 183
261 75 191
262 26 27
263 12 270
264 81 238
265 140 294
266 11 242
267 224 77
268 166 123
269 92 241
270 280 180
271 151 113
272 65 49
273 203 36
274 129 83
275 38 74
276 166 105
277 129 98
278 30 226
279 15 178
280 108 298
281 296 211
282 236 72
283 277 177
284 99 73
285 166 113
286 271 8
287 228 41
288 80 131
289 284 176
290 208 117
291 119 183
292 246 166
293 144 292
294 128 155
295 113 188
296 155 93
297 161 210
298 168 176
299 60 64
300 165 204
301 280 158
302 241 71
303 57 68
304 219 152
305 72 89
306 85 75
307 3 205
308 235 243
309 12 275
310 76 160
311 56 116
312 170 53
313 34 5
314 280 175
315 288 127
316 103 8
317 229 25
318 12 198
319 66 54
320 120 60
321 110 31
322 218 20
323 226 248
324 275 100
325 217 73
326 88 225
327 123 92
328 293 62
329 4 149
330 216 25
331 63 59
332 63 155
333 158 140
334 84 236
335 260 58
336 284 244
337 190 181
338 159 287
339 285 283
340 65 68
341 61 157
342 102 173
343 300 44
344 103 78
345 144 182
346 24 76
347 149 186
348 165 182
349 179 123
350 157 84
351 17 209
352 233 119
353 167 105
354 238 206
355 127 101
356 263 291
357 281 68
358 251 237
359 108 109
360 199 28
361 3 119
362 252 219
363 234 213
364 136 140
365 191 49
366 251 241
367 119 214
368 275 182
369 103 260
370 2 238
371 94 93
372 158 291
373 230 248
374 207 20
375 54 285
376 160 107
377 59 280
378 208 290
379 248 280
380 138 100
381 8 155
382 208 235
383 111 112
384 128 94
385 110 262
386 162 203
387 160 179
388 16 204
389 239 295
390 157 31
391 147 178
392 170 174
393 157 254
394 277 101
395 283 144
396 156 182
397 274 97
398 66 56
399 158 27
400 156 26
401 257 133
402 264 61
403 296 279
404 220 66
405 240 71
406 112 43
407 4 296
408 222 73
409 209 84
410 250 134
411 59 287
412 13 202
413 93 117
414 62 53
415 275 97
416 206 121
417 107 174
418 224 61
419 124 174
420 101 110
421 112 201
422 80 86
423 5 189
424 141 100
425 165 256
426 108 113
427 37 159
428 136 104
429 107 71
430 97 232
431 127 266
432 14 204
433 278 177
434 209 246
435 134 148
436 283 65
437 108 80
438 55 62
439 141 137
440 224 138
441 163 150
442 213 68
443 113 62
444 100 138
445 126 266
446 10 150
447 137 150
448 258 232
449 191 234
450 213 119
451 5 195
452 166 203
453 100 73
454 147 185
455 60 156
456 239 77
457 163 202
458 81 219
459 155 28
460 160 27
461 43 62
462 235 241
463 291 148
464 64 53
465 168 42
466 183 282
467 289 79
468 1 272
469 87 183
470 234 107
471 52 288
472 236 66
473 264 35
474 233 245
475 144 100
476 260 64
477 130 96
478 202 292
479 7 31
480 96 86
481 141 102
482 170 93
483 85 228
484 10 147
485 18 206
486 164 202
487 1 81
488 148 157
489 159 110
490 229 40
491 67 161
492 131 220
493 112 199
494 238 69
495 258 247
496 205 130
497 109 61
498 59 67
499 151 294
500 26 0
501 45 190
502 56 212
503 148 288
504 275 263
505 272 97
506 143 67
507 29 8
508 152 29
509 176 235
510 30 145
511 61 70
512 16 196
513 168 108
514 15 209
515 211 66
516 256 54
517 11 207
518 58 240
519 131 95
520 116 14
521 154 31
522 86 230
523 133 99
524 290 37
525 9 145
526 140 292
527 134 146
528 229 179
529 72 20
530 149 285
531 257 137
532 225 73
533 71 294
534 156 57
535 177 281
536 117 168
537 162 250
538 116 245
539 153 28
540 176 70
541 50 285
542 257 243
543 246 133
544 140 100
545 69 134
546 236 248
547 217 21
548 161 112
549 233 242
550 127 77
551 155 180
552 144 173
553 65 56
554 130 102
555 76 280
556 110 76
557 271 101
558 216 203
559 136 241
560 160 17
561 64 91
562 107 39
563 106 77
564 103 93
565 138 101
566 15 52
567 160 111
568 81 223
569 113 114
570 162 206
571 203 183
572 113 4
573 176 263
574 173 72
575 279 189
576 9 144
577 266 104
578 253 57
579 296 252
580 254 87
581 114 198
582 220 43
583 11 265
584 250 130
585 299 153
586 133 187
587 246 137
588 238 103
589 220 182
590 213 61
591 290 219
592 153 61
593 55 285
594 276 66
595 236 240
596 244 13
597 163 200
598 62 65
599 189 240
600 145 183
601 140 108
602 19 290
603 133 99
604 88 110
605 296 211
606 59 287
607 113 114
608 13 202
609 140 294
610 212 26
611 224 77
612 172 225
613 159 89
614 236 66
615 67 154
616 119 183
617 102 76
618 109 105
619 212 45
620 151 113
621 148 288
622 120 60
623 268 113
PICKUP_AND_DELIVERY_SECTION
1 0 0 1206 0 0 0
2 -20 822 942 10 552 0
3 10 44 248 10 0 459
4 -5 452 600 10 178 0
5 7 264 433 10 0 306
6 20 53 193 10 0 49
7 10 49 188 10 0 424
8 -23 597 723 10 346 0
9 -10 358 433 10 285 0
10 30 125 267 10 0 81
11 -40 353 422 10 341 0
12 -20 276 367 10 390 0
13 29 203 326 10 0 262
14 -10 141 242 10 72 0
15 20 93 248 10 0 73
16 -20 524 636 10 216 0
17 10 123 245 10 0 546
18 10 187 297 10 0 85
19 14 191 346 10 0 598
20 -20 481 638 10 421 0
21 -20 459 622 10 57 0
22 20 138 272 10 0 562
23 -20 131 175 10 437 0
24 19 53 81 10 0 273
25 20 118 282 10 0 282
26 20 178 298 10 0 468
27 20 56 154 10 0 345
28 -30 140 337 10 516 0
29 10 43 163 10 0 376
30 27 306 383 10 0 585
31 -10 180 332 10 129 0
32 38 309 425 10 0 496
33 17 501 692 10 0 469
34 10 57 170 10 0 222
35 -16 740 843 10 194 0
36 22 802 880 0 0 613
37 20 82 230 10 0 340
38 10 33 146 10 0 387
39 -20 150 302 10 293 0
40 -20 163 292 10 264 0
41 -18 351 570 10 372 0
42 30 184 293 0 0 610
43 10 136 293 10 0 102
44 -14 763 875 10 536 0
45 30 14 113 10 0 413
46 -10 641 731 10 153 0
47 20 98 233 10 0 202
48 2 67 175 10 0 576
49 -20 573 645 10 6 0
50 4 103 215 10 0 557
51 -40 326 457 10 188 0
52 10 157 298 10 0 579
53 6 118 234 10 0 582
54 20 107 281 10 0 138
55 10 148 254 10 0 580
56 21 46 171 10 0 506
57 20 134 226 10 0 21
58 30 575 714 0 0 619
59 23 164 288 10 0 70
60 15 511 674 10 0 352
61 10 106 232 10 0 171
62 24 328 443 10 0 93
63 -20 95 231 10 489 0
64 20 39 163 10 0 124
65 -14 426 542 10 71 0
66 -10 181 347 10 195 0
67 20 57 197 10 0 242
68 20 90 171 10 0 443
69 -40 201 341 10 495 0
70 -23 296 408 10 59 0
71 14 303 416 10 0 65
72 10 140 232 10 0 14
73 -20 172 291 10 15 0
74 17 801 915 0 0 617
75 10 173 354 10 0 131
76 -2 90 221 10 310 0
77 13 95 153 0 0 612
78 -21 175 261 10 312 0
79 1 594 704 0 0 604
80 1 36 147 10 0 174
81 -30 131 231 10 10 0
82 16 97 150 10 0 156
83 -20 563 747 10 86 0
84 22 115 279 10 0 292
85 -10 149 280 10 18 0
86 20 248 327 10 0 83
87 20 138 254 10 0 228
88 -16 1101 1158 10 316 0
89 20 147 192 10 0 460
90 -29 151 250 10 561 0
91 20 64 178 10 0 522
92 10 134 251 10 0 373
93 -24 365 452 10 62 0
94 -20 561 698 10 150 0
95 16 198 321 10 0 514
96 19 227 345 10 0 394
97 10 56 134 10 0 369
98 17 149 284 10 0 530
99 -30 611 695 10 384 0
100 -14 953 1115 10 278 0
101 20 149 232 0 0 615
102 -10 199 359 10 43 0
103 16 82 180 10 0 363
104 10 29 198 10 0 392
105 20 70 186 10 0 106
106 -20 350 477 10 105 0
107 -12 145 263 10 365 0
108 10 200 347 10 0 184
109 10 191 324 10 0 445
110 10 113 251 10 0 494
111 20 119 300 10 0 302
112 -6 600 786 10 177 0
113 13 58 147 10 0 245
114 10 201 297 10 0 160
115 10 144 256 10 0 204
116 -13 533 652 10 305 0
117 -22 762 857 10 339 0
118 9 557 678 10 0 534
119 -20 138 291 10 531 0
120 -10 522 620 10 303 0
121 10 105 206 10 0 490
122 -22 156 290 10 419 0
123 -30 174 286 10 525 0
124 -20 107 202 10 64 0
125 30 146 286 10 0 159
126 18 299 406 10 0 143
127 10 419 500 10 0 360
128 20 12 162 10 0 232
129 10 109 184 10 0 31
130 -20 386 453 10 227 0
131 -10 173 278 10 75 0
132 10 169 235 10 0 336
133 30 102 182 10 0 207
134 -10 113 261 10 364 0
135 5 28 142 10 0 420
136 -20 742 887 10 429 0
137 -26 937 1074 10 434 0
138 -20 129 236 10 54 0
139 20 80 244 10 0 247
140 -10 181 319 10 162 0
141 30 104 219 10 0 456
142 -30 149 319 10 410 0
143 -18 764 880 10 126 0
144 -10 112 212 10 199 0
145 10 136 214 10 0 403
146 -20 150 260 10 499 0
147 10 204 335 10 0 422
148 20 134 224 10 0 361
149 -30 571 701 10 225 0
150 20 31 196 10 0 94
151 10 154 249 10 0 591
152 -25 659 772 10 201 0
153 10 132 262 10 0 46
154 10 136 281 10 0 577
155 10 146 292 10 0 286
156 -16 159 330 10 82 0
157 11 315 381 10 0 260
158 -15 670 772 10 205 0
159 -30 416 582 10 125 0
160 -10 672 809 10 114 0
161 17 170 197 10 0 329
162 10 104 171 10 0 140
163 -20 119 190 10 428 0
164 10 63 193 10 0 538
165 10 147 265 10 0 560
166 36 235 334 10 0 370
167 17 138 171 10 0 512
168 40 148 330 10 0 317
169 -20 94 265 10 257 0
170 -10 665 761 10 596 0
171 -10 120 248 10 61 0
172 -13 669 821 10 431 0
173 10 148 277 10 0 416
174 -1 55 181 10 80 0
175 -20 67 190 10 179 0
176 41 178 344 10 0 529
177 6 233 369 10 0 112
178 5 367 488 10 0 4
179 20 23 163 10 0 175
180 -10 520 659 10 548 0
181 16 651 721 10 0 508
182 -10 110 236 10 515 0
183 22 545 660 10 0 315
184 -10 178 308 10 108 0
185 -22 125 234 10 284 0
186 -26 891 961 10 221 0
187 -11 114 242 10 294 0
188 40 148 253 10 0 51
189 10 101 249 0 0 618
190 20 128 251 10 0 209
191 -20 536 637 10 590 0
192 -10 148 266 10 442 0
193 20 143 229 10 0 388
194 16 285 427 10 0 35
195 10 112 220 10 0 66
196 41 461 607 10 0 473
197 11 429 576 10 0 382
198 -19 155 309 10 350 0
199 10 144 269 10 0 144
200 30 28 172 10 0 298
201 25 521 630 10 0 152
202 -20 157 277 10 47 0
203 19 41 145 10 0 510
204 -10 532 681 10 115 0
205 15 268 405 10 0 158
206 -10 994 1082 10 478 0
207 -30 149 258 10 133 0
208 -7 616 753 10 427 0
209 -20 707 876 10 190 0
210 36 707 813 10 0 430
211 20 182 284 10 0 309
212 10 15 145 10 0 435
213 10 138 277 10 0 389
214 20 120 247 10 0 539
215 20 34 90 10 0 337
216 20 125 271 10 0 16
217 -30 543 644 10 439 0
218 20 200 282 10 0 462
219 10 201 275 10 0 377
220 -10 183 274 10 587 0
221 26 489 633 10 0 186
222 -10 78 191 10 34 0
223 20 33 164 10 0 549
224 -19 681 838 10 254 0
225 30 47 183 10 0 149
226 -17 854 981 10 258 0
227 20 135 219 10 0 130
228 -20 203 312 10 87 0
229 -20 714 816 10 477 0
230 -10 620 696 10 491 0
231 -10 976 1070 10 426 0
232 -20 33 143 10 128 0
233 10 378 473 10 0 586
234 12 326 478 0 0 602
235 10 96 236 10 0 332
236 30 97 162 10 0 348
237 22 375 493 10 0 507
238 3 230 352 10 0 501
239 20 133 250 10 0 253
240 -22 630 786 10 354 0
241 10 100 215 10 0 401
242 -20 832 916 10 67 0
243 -10 154 249 10 584 0
244 19 131 230 10 0 311
245 -13 127 283 10 113 0
246 -24 126 228 10 537 0
247 -20 234 339 10 139 0
248 10 113 246 10 0 594
249 20 183 277 10 0 272
250 -16 828 973 10 588 0
251 22 799 916 0 0 623
252 -20 407 522 10 319 0
253 -20 156 250 10 239 0
254 19 115 245 10 0 224
255 30 169 256 10 0 476
256 -20 966 1110 10 396 0
257 20 56 120 10 0 169
258 17 365 469 10 0 226
259 20 147 212 10 0 542
260 -11 812 904 10 157 0
261 12 85 220 10 0 545
262 -29 796 974 10 13 0
263 20 195 321 10 0 407
264 20 111 282 10 0 40
265 18 362 486 0 0 609
266 16 491 574 10 0 458
267 20 103 221 0 0 611
268 14 31 157 10 0 543
269 -20 733 830 10 518 0
270 20 133 255 10 0 314
271 4 285 437 0 0 620
272 -20 132 271 10 249 0
273 -19 318 507 10 24 0
274 -20 582 691 10 519 0
275 16 135 259 10 0 566
276 20 59 166 10 0 353
277 -20 95 182 10 554 0
278 14 894 1011 10 0 100
279 -10 716 849 10 307 0
280 -18 848 942 10 533 0
281 22 158 280 0 0 605
282 -20 165 249 10 25 0
283 -6 184 317 10 395 0
284 22 92 202 10 0 185
285 10 61 242 10 0 9
286 -10 751 800 10 155 0
287 -20 757 898 10 408 0
288 -24 306 392 10 444 0
289 -10 136 232 10 368 0
290 -5 66 167 10 333 0
291 6 532 633 0 0 616
292 -22 510 608 10 84 0
293 20 142 274 10 0 39
294 11 22 129 10 0 187
295 -20 245 393 10 581 0
296 33 85 222 10 0 540
297 -10 61 202 10 597 0
298 -30 31 194 10 200 0
299 10 163 261 10 0 498
300 -30 56 164 10 452 0
301 -30 601 725 10 595 0
302 -20 120 285 10 111 0
303 10 123 242 10 0 120
304 -11 919 1029 10 463 0
305 13 495 640 10 0 116
306 -7 689 792 10 5 0
307 10 189 269 10 0 279
308 20 125 270 10 0 323
309 -20 478 576 10 211 0
310 2 74 184 10 0 76
311 -19 172 318 10 244 0
312 21 138 216 10 0 78
313 -12 667 833 10 500 0
314 -20 132 244 10 270 0
315 -22 698 753 10 183 0
316 16 618 776 10 0 88
317 -40 455 562 10 168 0
318 10 206 316 10 0 432
319 20 147 261 10 0 252
320 12 452 602 0 0 622
321 -30 325 430 10 556 0
322 20 146 258 10 0 374
323 -20 810 926 10 308 0
324 30 134 307 10 0 397
325 20 149 310 10 0 404
326 -20 97 288 10 493 0
327 -20 63 173 10 355 0
328 -20 167 291 10 402 0
329 -17 154 275 10 161 0
330 30 154 295 10 0 547
331 -30 154 302 10 398 0
332 -10 95 213 10 235 0
333 5 12 118 10 0 290
334 10 108 196 10 0 583
335 -10 160 286 10 578 0
336 -10 706 797 10 132 0
337 -20 851 987 10 215 0
338 21 343 481 10 0 393
339 22 539 599 10 0 117
340 -20 218 298 10 37 0
341 40 112 170 10 0 11
342 -21 53 135 10 417 0
343 -1 698 846 10 524 0
344 10 85 240 10 0 453
345 -20 53 182 10 27 0
346 23 453 570 10 0 8
347 20 36 234 10 0 551
348 -30 52 153 10 236 0
349 4 39 154 10 0 405
350 19 69 161 10 0 198
351 10 145 212 10 0 485
352 -15 888 1019 10 60 0
353 -20 48 203 10 276 0
354 22 521 654 10 0 240
355 20 54 208 10 0 327
356 -10 180 282 10 474 0
357 -27 457 587 10 436 0
358 10 133 245 10 0 448
359 -20 58 176 10 383 0
360 -10 437 506 10 127 0
361 -20 652 755 10 148 0
362 23 267 365 10 0 575
363 -16 105 269 10 103 0
364 10 17 184 10 0 134
365 12 109 213 10 0 107
366 10 135 265 10 0 378
367 -10 574 692 10 483 0
368 10 129 192 10 0 289
369 -10 838 980 10 97 0
370 -36 814 896 10 166 0
371 -13 854 995 10 564 0
372 18 141 286 10 0 41
373 -10 126 272 10 92 0
374 -20 141 283 10 322 0
375 -10 201 298 10 541 0
376 -10 44 162 10 29 0
377 -10 238 314 10 219 0
378 -10 266 375 10 366 0
379 -33 245 365 10 504 0
380 -10 52 184 10 481 0
381 10 177 319 10 0 423
382 -11 792 884 10 197 0
383 20 54 161 10 0 359
384 30 60 203 10 0 99
385 -23 441 573 10 492 0
386 -20 61 189 10 457 0
387 -10 745 845 10 38 0
388 -20 144 289 10 193 0
389 -10 685 850 10 213 0
390 20 196 344 10 0 12
391 10 101 186 10 0 535
392 -10 31 199 10 104 0
393 -21 476 587 10 338 0
394 -19 136 254 10 96 0
395 6 133 180 10 0 283
396 20 562 664 10 0 256
397 -30 183 207 10 324 0
398 30 151 280 10 0 331
399 -20 203 309 10 521 0
400 10 124 263 10 0 592
401 -10 108 264 10 241 0
402 20 170 307 10 0 328
403 -10 454 571 10 145 0
404 -20 109 241 10 325 0
405 -4 119 282 10 349 0
406 -17 538 597 10 497 0
407 -20 799 898 10 263 0
408 20 130 254 10 0 287
409 -10 335 460 10 513 0
410 30 101 185 10 0 142
411 17 467 555 0 0 606
412 20 160 230 0 0 608
413 -30 304 426 10 45 0
414 -30 130 220 10 464 0
415 10 135 311 10 0 450
416 -10 712 811 10 173 0
417 21 49 172 10 0 342
418 22 452 525 10 0 532
419 22 35 121 10 0 122
420 -5 71 215 10 135 0
421 20 63 222 10 0 20
422 -10 546 685 10 147 0
423 -10 150 288 10 381 0
424 -10 50 143 10 7 0
425 -42 537 667 10 466 0
426 10 55 200 10 0 231
427 7 113 298 10 0 208
428 20 56 230 10 0 163
429 20 111 168 10 0 136
430 -36 880 1015 10 210 0
431 13 118 249 10 0 172
432 -10 506 711 10 318 0
433 -15 205 274 10 441 0
434 26 341 437 10 0 137
435 -10 32 201 10 212 0
436 27 387 543 10 0 357
437 20 120 266 10 0 23
438 20 143 231 10 0 511
439 30 15 112 10 0 217
440 -24 853 995 10 470 0
441 15 13 100 10 0 433
442 10 103 248 10 0 192
443 -20 483 595 10 68 0
444 24 143 296 10 0 288
445 -10 470 547 10 109 0
446 -20 140 318 10 484 0
447 -10 79 180 10 527 0
448 -10 228 351 10 358 0
449 9 93 207 10 0 526
450 -10 692 795 10 415 0
451 -40 151 264 10 517 0
452 30 55 132 10 0 300
453 -10 91 201 10 344 0
454 10 35 150 10 0 573
455 20 90 194 10 0 487
456 -30 115 192 10 141 0
457 20 94 178 10 0 386
458 -16 908 1050 10 266 0
459 -10 122 234 10 3 0
460 -20 173 314 10 89 0
461 -29 812 859 10 479 0
462 -20 175 257 10 218 0
463 11 561 740 10 0 304
464 30 129 220 10 0 414
465 26 589 707 10 0 574
466 42 404 509 10 0 425
467 -40 341 469 10 505 0
468 -20 192 321 10 26 0
469 -17 487 594 10 33 0
470 24 289 417 10 0 440
471 20 169 266 10 0 593
472 30 120 276 0 0 614
473 -41 931 1035 10 196 0
474 10 126 226 10 0 356
475 20 50 126 10 0 544
476 -30 404 493 10 255 0
477 20 78 174 10 0 229
478 10 862 984 10 0 206
479 29 739 877 10 0 461
480 12 83 189 10 0 553
481 10 48 196 10 0 380
482 -30 442 540 10 567 0
483 10 164 254 10 0 367
484 20 140 243 10 0 446
485 -10 143 254 10 351 0
486 30 86 209 10 0 570
487 -20 285 386 10 455 0
488 24 7 93 10 0 559
489 20 41 220 10 0 63
490 -10 191 317 10 121 0
491 10 83 185 10 0 230
492 23 89 183 10 0 385
493 20 62 160 10 0 326
494 -10 119 259 10 110 0
495 40 170 311 10 0 69
496 -38 892 1016 10 32 0
497 17 342 482 10 0 406
498 -10 123 245 10 299 0
499 20 144 265 10 0 146
500 12 435 584 10 0 313
501 -3 407 513 10 238 0
502 -40 442 533 10 568 0
503 30 138 237 0 0 621
504 33 168 289 10 0 379
505 40 133 282 10 0 467
506 -21 83 212 10 56 0
507 -22 723 808 10 237 0
508 -16 871 957 10 181 0
509 33 88 187 10 0 599
510 -19 790 934 10 203 0
511 -20 119 268 10 438 0
512 -17 231 319 10 167 0
513 10 67 206 10 0 409
514 -16 834 960 10 95 0
515 10 148 291 10 0 182
516 30 143 253 10 0 28
517 40 150 274 10 0 451
518 20 725 854 10 0 269
519 20 61 168 10 0 274
520 -31 611 727 10 572 0
521 20 119 253 10 0 399
522 -20 102 173 10 91 0
523 20 74 231 0 0 603
524 1 779 884 10 0 343
525 30 141 273 10 0 123
526 -9 172 290 10 449 0
527 10 42 120 10 0 447
528 -26 198 315 10 571 0
529 -41 652 747 10 176 0
530 -17 135 202 10 98 0
531 20 107 252 10 0 119
532 -22 461 606 10 418 0
533 18 494 667 10 0 280
534 -9 626 766 10 118 0
535 -10 393 488 10 391 0
536 14 37 136 10 0 44
537 24 144 277 10 0 246
538 -10 526 659 10 164 0
539 -20 122 213 10 214 0
540 -33 606 768 10 296 0
541 10 168 233 10 0 375
542 -20 177 256 10 259 0
543 -14 190 317 10 268 0
544 -20 50 167 10 475 0
545 -12 586 692 10 261 0
546 -10 130 294 10 17 0
547 -30 149 250 10 330 0
548 10 39 174 10 0 180
549 -20 155 302 10 223 0
550 -10 774 916 10 563 0
551 -20 30 116 10 347 0
552 20 105 212 10 0 2
553 -12 126 251 10 480 0
554 20 109 223 10 0 277
555 -10 440 560 10 600 0
556 30 108 223 10 0 321
557 -4 130 319 10 50 0
558 5 482 630 10 0 589
559 -24 307 467 10 488 0
560 -10 315 396 10 165 0
561 29 104 235 10 0 90
562 -20 301 411 10 22 0
563 10 129 230 10 0 550
564 13 515 647 10 0 371
565 20 65 194 10 0 601
566 -16 166 305 10 275 0
567 30 42 59 10 0 482
568 40 158 317 10 0 502
569 20 51 146 0 0 607
570 -30 57 205 10 486 0
571 26 62 196 10 0 528
572 31 264 348 10 0 520
573 -10 557 692 10 454 0
574 -26 628 773 10 465 0
575 -23 565 654 10 362 0
576 -2 162 232 10 48 0
577 -10 194 301 10 154 0
578 10 138 268 10 0 335
579 -10 734 875 10 52 0
580 -10 949 1075 10 55 0
581 20 60 161 10 0 295
582 -6 387 513 10 53 0
583 -10 180 346 10 334 0
584 10 178 278 10 0 243
585 -27 376 475 10 30 0
586 -10 1035 1130 10 233 0
587 10 96 236 10 0 220
588 16 688 787 10 0 250
589 -5 548 708 10 558 0
590 20 109 255 10 0 191
591 -10 156 298 10 151 0
592 -10 202 346 10 400 0
593 -20 198 322 10 471 0
594 -10 151 234 10 248 0
595 30 158 251 10 0 301
596 10 680 796 10 0 170
597 10 115 205 10 0 297
598 -14 175 312 10 19 0
599 -33 98 231 10 509 0
600 10 80 133 10 0 555
601 -20 130 209 10 565 0
602 -12 326 478 10 234 0
603 -20 74 231 10 523 0
604 -1 594 704 10 79 0
605 -22 158 280 10 281 0
606 -17 467 555 10 411 0
607 -20 51 146 10 569 0
608 -20 160 230 10 412 0
609 -18 362 486 10 265 0
610 -30 184 293 10 42 0
611 -20 103 221 10 267 0
612 -13 95 153 10 77 0
613 -22 802 880 10 36 0
614 -30 120 276 10 472 0
615 -20 149 232 10 101 0
616 -6 532 633 10 291 0
617 -17 801 915 10 74 0
618 -10 101 249 10 189 0
619 -30 575 714 10 58 0
620 -4 285 437 10 271 0
621 -30 138 237 10 503 0
622 -12 452 602 10 320 0
623 -22 799 916 10 251 0
DEPOT_SECTION
1
-1
EOF
