NAME: lrc2_6_4
TYPE: PDPTW
COMMENT: Li & Lim PDPTW benchmark converted from SINTEF format
DIMENSION: 605
VEHICLES: 150
CAPACITY: 1000
EDGE_WEIGHT_TYPE: EUC_2D
NODE_COORD_SECTION
1 150 150
2 125 168
3 162 107
4 199 213
5 61 84
6 125 103
7 143 101
8 28 141
9 230 128
10 55 68
11 72 180
12 159 41
13 8 4
14 257 58
15 57 155
16 186 26
17 231 243
18 247 132
19 89 61
20 84 231
21 116 240
22 110 79
23 110 74
24 180 106
25 240 73
26 13 265
27 134 147
28 257 59
29 160 108
30 289 130
31 27 255
32 234 146
33 69 208
34 115 196
35 250 228
36 159 89
37 105 81
38 149 183
39 159 300
40 47 277
41 209 269
42 212 26
43 14 149
44 74 117
45 140 140
46 152 241
47 222 83
48 88 124
49 136 68
50 250 124
51 109 299
52 258 244
53 208 47
54 212 62
55 259 59
56 150 104
57 77 233
58 212 45
59 57 125
60 232 121
61 255 132
62 18 184
63 165 113
64 143 111
65 248 41
66 8 263
67 109 110
68 106 71
69 259 240
70 38 139
71 277 41
72 255 57
73 9 122
74 102 76
75 43 286
76 60 160
77 172 225
78 161 22
79 88 110
80 122 127
81 52 63
82 53 141
83 175 281
84 265 141
85 250 126
86 147 281
87 255 240
88 188 142
89 154 26
90 59 64
91 114 204
92 235 242
93 34 150
94 140 214
95 59 113
96 282 104
97 145 184
98 184 277
99 129 77
100 96 199
101 67 154
102 2 81
103 208 208
104 169 173
105 106 108
106 15 2
107 227 26
108 147 285
109 141 286
110 231 70
111 242 73
112 15 259
113 93 165
114 10 198
115 149 294
116 82 100
117 256 286
118 172 2
119 277 172
120 73 81
121 217 69
122 85 224
123 0 153
124 147 43
125 143 288
126 112 272
127 200 26
128 140 143
129 83 236
130 253 84
131 53 288
132 256 239
133 224 79
134 110 107
135 125 136
136 149 76
137 203 166
138 211 61
139 107 103
140 262 62
141 227 80
142 269 103
143 119 254
144 122 96
145 248 245
146 181 297
147 65 69
148 16 151
149 254 206
150 167 176
151 280 172
152 285 285
153 149 282
154 277 100
155 223 23
156 25 191
157 266 212
158 272 183
159 135 251
160 11 191
161 25 119
162 215 68
163 137 104
164 113 202
165 160 24
166 51 217
167 14 177
168 225 22
169 194 234
170 262 14
171 259 126
172 214 234
173 216 23
174 111 110
175 145 182
176 51 2
177 30 243
178 186 228
179 132 146
180 176 72
181 108 3
182 216 62
183 271 106
184 140 290
185 64 59
186 206 157
187 66 157
188 132 297
189 109 105
190 64 55
191 173 64
192 213 65
193 17 205
194 224 229
195 78 236
196 274 6
197 207 237
198 161 26
199 119 104
200 169 171
201 296 235
202 220 74
203 109 148
204 212 270
205 265 197
206 174 238
207 223 74
208 47 203
209 69 90
210 33 231
211 8 265
212 136 144
213 286 175
214 151 30
215 150 184
216 157 25
217 131 78
218 232 240
219 53 285
220 278 176
221 225 192
222 115 197
223 167 179
224 6 168
225 163 180
226 135 210
227 277 104
228 262 241
229 162 148
230 61 138
231 117 155
232 126 127
233 157 221
234 19 290
235 65 156
236 159 177
237 12 10
238 67 175
239 78 232
240 201 175
241 249 133
242 139 110
243 252 128
244 57 123
245 71 154
246 157 276
247 111 98
248 221 70
249 70 57
250 236 108
251 268 113
252 40 1
253 106 243
254 37 126
255 259 58
256 167 193
257 168 204
258 72 286
259 254 240
260 241 183
261 75 191
262 26 27
263 12 270
264 81 238
265 140 294
266 11 242
267 224 77
268 166 123
269 92 241
270 280 180
271 151 113
272 65 49
273 203 36
274 129 83
275 38 74
276 166 105
277 129 98
278 30 226
279 15 178
280 108 298
281 296 211
282 236 72
283 277 177
284 99 73
285 166 113
286 271 8
287 228 41
288 80 131
289 284 176
290 208 117
291 119 183
292 246 166
293 144 292
294 128 155
295 113 188
296 155 93
297 161 210
298 168 176
299 60 64
300 165 204
301 280 158
302 241 71
303 57 68
304 219 152
305 72 89
306 85 75
307 3 205
308 235 243
309 12 275
310 76 160
311 56 116
312 170 53
313 34 5
314 280 175
315 288 127
316 103 8
317 229 25
318 12 198
319 66 54
320 120 60
321 110 31
322 218 20
323 226 248
324 275 100
325 217 73
326 88 225
327 123 92
328 293 62
329 4 149
330 216 25
331 63 59
332 63 155
333 158 140
334 84 236
335 260 58
336 284 244
337 190 181
338 159 287
339 285 283
340 65 68
341 61 157
342 102 173
343 300 44
344 103 78
345 144 182
346 24 76
347 149 186
348 165 182
349 179 123
350 157 84
351 17 209
352 233 119
353 167 105
354 238 206
355 127 101
356 263 291
357 281 68
358 251 237
359 108 109
360 199 28
361 3 119
362 252 219
363 234 213
364 136 140
365 191 49
366 251 241
367 119 214
368 275 182
369 103 260
370 2 238
371 94 93
372 158 291
373 230 248
374 207 20
375 54 285
376 160 107
377 59 280
378 208 290
379 248 280
380 138 100
381 8 155
382 208 235
383 111 112
384 128 94
385 110 262
386 162 203
387 160 179
388 16 204
389 239 295
390 157 31
391 147 178
392 170 174
393 157 254
394 277 101
395 283 144
396 156 182
397 274 97
398 66 56
399 158 27
400 156 26
401 257 133
402 264 61
403 296 279
404 220 66
405 240 71
406 112 43
407 4 296
408 222 73
409 209 84
410 250 134
411 59 287
412 13 202
413 93 117
414 62 53
415 275 97
416 206 121
417 107 174
418 224 61
419 124 174
420 101 110
421 112 201
422 80 86
423 5 189
424 141 100
425 165 256
426 108 113
427 37 159
428 136 104
429 107 71
430 97 232
431 127 266
432 14 204
433 278 177
434 209 246
435 134 148
436 283 65
437 108 80
438 55 62
439 141 137
440 224 138
441 163 150
442 213 68
443 113 62
444 100 138
445 126 266
446 10 150
447 137 150
448 258 232
449 191 234
450 213 119
451 5 195
452 166 203
453 100 73
454 147 185
455 60 156
456 239 77
457 163 202
458 81 219
459 155 28
460 160 27
461 43 62
462 235 241
463 291 148
464 64 53
465 168 42
466 183 282
467 289 79
468 1 272
469 87 183
470 234 107
471 52 288
472 236 66
473 264 35
474 233 245
475 144 100
476 260 64
477 130 96
478 202 292
479 7 31
480 96 86
481 141 102
482 170 93
483 85 228
484 10 147
485 18 206
486 164 202
487 1 81
488 148 157
489 159 110
490 229 40
491 67 161
492 131 220
493 112 199
494 238 69
495 258 247
496 205 130
497 109 61
498 59 67
499 151 294
500 26 0
501 45 190
502 56 212
503 148 288
504 275 263
505 272 97
506 143 67
507 29 8
508 152 29
509 176 235
510 30 145
511 61 70
512 16 196
513 168 108
514 15 209
515 211 66
516 256 54
517 11 207
518 58 240
519 131 95
520 116 14
521 154 31
522 86 230
523 133 99
524 290 37
525 9 145
526 140 292
527 134 146
528 229 179
529 72 20
530 149 285
531 257 137
532 225 73
533 71 294
534 156 57
535 177 281
536 117 168
537 162 250
538 116 245
539 153 28
540 176 70
541 50 285
542 257 243
543 246 133
544 140 100
545 69 134
546 236 248
547 217 21
548 161 112
549 233 242
550 127 77
551 155 180
552 144 173
553 65 56
554 130 102
555 76 280
556 110 76
557 271 101
558 216 203
559 136 241
560 160 17
561 64 91
562 107 39
563 106 77
564 103 93
565 138 101
566 15 52
567 160 111
568 81 223
569 113 114
570 162 206
571 203 183
572 113 4
573 176 263
574 173 72
575 279 189
576 9 144
577 266 104
578 253 57
579 296 252
580 254 87
581 114 198
582 220 43
583 11 265
584 250 130
585 299 153
586 133 187
587 246 137
588 238 103
589 220 182
590 213 61
591 290 219
592 153 61
593 55 285
594 276 66
595 236 240
596 244 13
597 163 200
598 62 65
599 189 240
600 145 183
601 140 108
602 122 127
603 8 263
604 109 148
605 275 263
PICKUP_AND_DELIVERY_SECTION
1 0 0 4823 0 0 0
2 -27 3467 3587 10 445 0
3 10 0 4769 10 0 63
4 -26 0 4734 10 434 0
5 -20 0 4703 10 429 0
6 20 0 4760 10 0 510
7 10 224 344 10 0 481
8 25 0 4691 10 0 269
9 -25 0 4731 10 450 0
10 30 0 4688 10 0 554
11 27 0 4730 10 0 568
12 11 0 4704 10 0 585
13 -20 0 4610 10 484 0
14 10 0 4672 10 0 322
15 -16 0 4720 10 156 0
16 25 0 4684 10 0 325
17 10 0 4690 10 0 526
18 10 0 4715 10 0 183
19 -10 0 4706 10 81 0
20 21 0 4709 10 0 372
21 17 2101 2221 10 0 329
22 20 0 4732 10 0 74
23 30 0 4728 10 0 564
24 19 0 4760 10 0 121
25 20 0 4695 10 0 304
26 -20 0 4635 10 581 0
27 20 361 481 10 0 435
28 20 0 4673 10 0 594
29 10 0 4770 10 0 174
30 -10 0 4673 10 198 0
31 5 962 1082 10 0 86
32 -19 0 4729 10 96 0
33 17 2328 2448 10 0 160
34 10 171 291 10 0 126
35 -20 3107 3227 10 259 0
36 -10 3305 3425 10 127 0
37 20 270 390 10 0 381
38 10 0 4780 10 0 230
39 -10 0 4663 10 583 0
40 -6 594 714 10 291 0
41 17 1783 1903 10 0 466
42 -11 893 1013 10 65 0
43 10 0 4677 10 0 148
44 24 0 4731 10 0 525
45 30 0 4799 10 0 279
46 -10 0 4722 10 513 0
47 20 0 4715 10 0 409
48 -30 0 4746 10 447 0
49 -30 0 4730 10 460 0
50 -30 0 4710 10 133 0
51 24 0 4659 10 0 458
52 10 0 4670 10 0 546
53 6 413 533 10 0 547
54 -10 0 4706 10 243 0
55 10 744 864 10 0 317
56 21 0 4767 10 0 498
57 20 0 4703 10 0 114
58 30 0 4692 10 0 155
59 23 0 4717 10 0 123
60 -25 0 4727 10 229 0
61 -16 0 4707 10 440 0
62 -22 1483 1603 10 284 0
63 -10 0 4774 10 3 0
64 20 0 4774 10 0 144
65 11 0 4667 10 0 42
66 30 0 4632 0 0 603
67 -10 0 4756 10 189 0
68 20 453 573 10 0 519
69 -5 0 4672 10 558 0
70 12 0 4701 10 0 307
71 -21 1377 1497 10 170 0
72 -30 0 4673 10 472 0
73 19 0 4670 10 0 566
74 -20 0 4725 10 22 0
75 10 0 4640 10 0 407
76 -10 0 4723 10 122 0
77 -5 0 4735 10 573 0
78 10 0 4685 10 0 130
79 -20 0 4740 10 453 0
80 1 0 4777 0 0 602
81 10 633 753 10 0 19
82 16 0 4716 10 0 551
83 17 0 4680 10 0 503
84 -24 0 4698 10 560 0
85 -20 0 4711 10 142 0
86 -5 0 4682 10 31 0
87 20 0 4675 10 0 283
88 -30 4567 4687 10 496 0
89 20 0 4689 10 0 365
90 -10 0 4688 10 424 0
91 -20 0 4749 10 276 0
92 10 0 4688 10 0 108
93 -12 0 4697 10 480 0
94 -30 0 4749 10 567 0
95 16 976 1096 10 0 477
96 19 0 4674 10 0 32
97 10 321 441 10 0 137
98 -10 0 4682 10 104 0
99 11 0 4738 10 0 414
100 -25 4077 4197 10 514 0
101 20 703 823 10 0 455
102 -5 1058 1178 10 135 0
103 -10 0 4731 10 175 0
104 10 101 221 10 0 98
105 -20 0 4753 10 134 0
106 5 0 4613 10 0 420
107 20 0 4668 10 0 343
108 -10 1034 1154 10 92 0
109 -20 0 4677 10 499 0
110 10 0 4700 10 0 463
111 20 505 625 10 0 578
112 -30 2711 2831 10 593 0
113 -30 0 4755 10 512 0
114 -20 0 4665 10 57 0
115 -30 687 807 10 549 0
116 -12 2310 2430 10 500 0
117 31 0 4641 10 0 240
118 -27 2410 2530 10 534 0
119 10 797 917 10 0 213
120 -15 2223 2343 10 413 0
121 -19 451 571 10 24 0
122 10 832 952 10 0 76
123 -23 0 4663 10 59 0
124 14 0 4706 10 0 465
125 30 0 4675 10 0 265
126 -10 0 4686 10 34 0
127 10 1778 1898 10 0 36
128 -10 0 4801 10 212 0
129 -10 0 4704 10 502 0
130 -10 0 4691 10 78 0
131 20 0 4645 10 0 351
132 10 0 4675 10 0 204
133 30 0 4711 10 0 50
134 20 689 809 10 0 105
135 5 0 4785 10 0 102
136 10 0 4739 10 0 301
137 -10 0 4758 10 97 0
138 -10 0 4706 10 577 0
139 20 0 4750 10 0 569
140 10 0 4671 10 0 456
141 30 0 4709 10 0 349
142 20 0 4686 10 0 85
143 -10 0 4705 10 233 0
144 -20 590 710 10 64 0
145 -30 0 4677 10 200 0
146 -22 0 4663 10 419 0
147 10 0 4696 10 0 306
148 -10 0 4679 10 43 0
149 -20 0 4695 10 326 0
150 20 0 4782 10 0 223
151 10 0 4682 10 0 382
152 13 0 4623 10 0 579
153 10 468 588 10 0 411
154 10 576 696 10 0 268
155 -30 0 4667 10 58 0
156 16 919 1039 10 0 15
157 11 0 4682 10 0 260
158 12 0 4687 10 0 575
159 -20 1937 2057 10 383 0
160 -17 2903 3023 10 33 0
161 -22 673 793 10 311 0
162 10 0 4709 10 0 186
163 30 556 676 10 0 226
164 10 0 4750 10 0 425
165 -10 763 883 10 459 0
166 36 1078 1198 10 0 444
167 17 545 665 10 0 195
168 -16 0 4665 10 287 0
169 -20 0 4719 10 433 0
170 21 0 4637 10 0 71
171 -20 677 797 10 401 0
172 -15 0 4708 10 363 0
173 10 0 4670 10 0 328
174 -10 0 4758 10 29 0
175 10 0 4781 10 0 103
176 -19 0 4635 10 254 0
177 -10 0 4662 10 375 0
178 5 0 4728 10 0 205
179 20 0 4795 10 0 361
180 -20 0 4731 10 520 0
181 -12 0 4661 10 360 0
182 20 0 4703 10 0 532
183 -10 0 4685 10 18 0
184 20 0 4673 10 0 188
185 30 441 561 10 0 331
186 -10 0 4757 10 162 0
187 10 0 4729 10 0 310
188 -20 0 4665 10 184 0
189 10 0 4753 10 0 67
190 -8 0 4685 10 217 0
191 -14 0 4724 10 506 0
192 -4 0 4708 10 271 0
193 -10 0 4670 10 344 0
194 -20 0 4705 10 373 0
195 -17 0 4701 10 167 0
196 41 0 4623 10 0 524
197 11 0 4709 10 0 509
198 10 0 4689 10 0 30
199 10 767 887 10 0 393
200 30 0 4785 10 0 145
201 -15 0 4645 10 403 0
202 -40 807 927 10 505 0
203 19 0 4772 0 0 604
204 -10 0 4678 10 132 0
205 -5 0 4689 10 178 0
206 21 4093 4213 10 0 297
207 10 0 4708 10 0 588
208 -21 0 4698 10 417 0
209 23 0 4713 10 0 321
210 -20 2981 3101 10 264 0
211 20 0 4631 10 0 370
212 10 213 333 10 0 128
213 -10 0 4675 10 119 0
214 20 0 4693 10 0 540
215 20 0 4779 10 0 238
216 20 711 831 10 0 282
217 8 0 4739 10 0 190
218 -30 0 4692 10 314 0
219 10 0 4647 10 0 356
220 20 0 4683 10 0 449
221 26 0 4728 10 0 571
222 10 0 4755 10 0 522
223 -20 294 414 10 150 0
224 21 2978 3098 10 0 235
225 30 0 4781 10 0 348
226 -30 0 4752 10 163 0
227 20 0 4678 10 0 251
228 20 0 4669 10 0 323
229 25 0 4801 10 0 60
230 -10 0 4724 10 38 0
231 22 4031 4151 10 0 294
232 40 73 193 10 0 517
233 10 1642 1762 10 0 143
234 -17 0 4622 10 280 0
235 -21 0 4728 10 224 0
236 -22 0 4785 10 354 0
237 -16 0 4617 10 275 0
238 -20 0 4727 10 215 0
239 20 0 4704 10 0 430
240 -31 0 4757 10 117 0
241 10 0 4713 10 0 250
242 -20 3436 3556 10 565 0
243 10 0 4709 10 0 54
244 19 0 4717 10 0 446
245 40 0 4734 10 0 341
246 -20 0 4687 10 308 0
247 16 1086 1206 10 0 295
248 -10 0 4707 10 557 0
249 -20 0 4691 10 319 0
250 -10 0 4718 10 241 0
251 -20 3371 3491 10 227 0
252 38 0 4628 10 0 529
253 22 0 4711 10 0 388
254 19 615 735 10 0 176
255 -20 0 4671 10 404 0
256 -18 4092 4212 10 599 0
257 20 0 4757 10 0 486
258 17 0 4657 10 0 591
259 20 0 4676 10 0 35
260 -11 0 4717 10 157 0
261 12 0 4728 10 0 387
262 16 0 4639 10 0 598
263 20 970 1090 10 0 389
264 20 0 4702 10 0 210
265 -30 1637 1757 10 125 0
266 16 0 4647 10 0 278
267 -20 0 4710 10 394 0
268 -10 0 4782 10 154 0
269 -25 0 4706 10 8 0
270 20 0 4680 10 0 528
271 4 1384 1504 10 0 192
272 20 695 815 10 0 562
273 -21 0 4688 10 312 0
274 15 0 4743 10 0 299
275 16 0 4678 10 0 237
276 20 388 508 10 0 91
277 -10 0 4757 10 553 0
278 -16 3752 3872 10 266 0
279 -30 0 4676 10 45 0
280 17 0 4660 10 0 234
281 -22 0 4655 10 339 0
282 -20 0 4697 10 216 0
283 -20 942 1062 10 87 0
284 22 0 4721 10 0 62
285 10 547 667 10 0 601
286 36 0 4627 10 0 473
287 16 0 4679 10 0 168
288 -10 0 4741 10 454 0
289 -10 0 4677 10 474 0
290 15 0 4747 10 0 408
291 6 0 4768 10 0 40
292 18 0 4716 10 0 366
293 -30 0 4671 10 462 0
294 -22 0 4791 10 231 0
295 -16 1215 1335 10 247 0
296 33 0 4756 10 0 550
297 -21 0 4752 10 206 0
298 20 198 318 10 0 300
299 -15 0 4689 10 274 0
300 -20 262 382 10 298 0
301 -10 0 4683 10 136 0
302 20 0 4693 10 0 596
303 -20 0 4690 10 438 0
304 -20 3836 3956 10 25 0
305 13 0 4714 10 0 439
306 -10 2904 3024 10 147 0
307 -12 855 975 10 70 0
308 20 0 4688 10 0 246
309 -18 0 4627 10 533 0
310 -10 0 4739 10 187 0
311 22 0 4714 10 0 161
312 21 0 4714 10 0 273
313 16 0 4628 10 0 426
314 30 0 4681 10 0 218
315 -10 0 4674 10 442 0
316 -10 2727 2847 10 539 0
317 -10 0 4666 10 55 0
318 10 0 4667 10 0 332
319 20 0 4686 10 0 249
320 12 2050 2170 10 0 497
321 -23 1452 1572 10 209 0
322 -10 0 4667 10 14 0
323 -20 0 4689 10 228 0
324 30 624 744 10 0 352
325 -25 0 4711 10 16 0
326 20 329 449 10 0 149
327 20 284 404 10 0 451
328 -10 0 4646 10 173 0
329 -17 0 4667 10 21 0
330 -13 837 957 10 490 0
331 -30 0 4688 10 185 0
332 -10 0 4726 10 318 0
333 -20 0 4801 10 402 0
334 -19 0 4705 10 432 0
335 -30 0 4670 10 516 0
336 12 0 4650 10 0 589
337 -20 3618 3738 10 396 0
338 21 0 4676 10 0 478
339 22 0 4624 10 0 281
340 -14 0 4695 10 461 0
341 -40 0 4724 10 245 0
342 -20 0 4760 10 347 0
343 -20 3027 3147 10 107 0
344 10 0 4728 10 0 193
345 30 0 4781 10 0 391
346 -10 0 4667 10 527 0
347 20 0 4777 10 0 342
348 -30 0 4778 10 225 0
349 -30 0 4774 10 141 0
350 -20 0 4747 10 390 0
351 -20 0 4668 10 131 0
352 -30 0 4725 10 324 0
353 20 432 552 10 0 428
354 22 2292 2412 10 0 236
355 20 0 4759 10 0 492
356 -10 0 4633 10 219 0
357 -28 0 4659 10 582 0
358 -20 0 4680 10 392 0
359 20 0 4755 10 0 537
360 12 0 4682 10 0 181
361 -20 0 4663 10 179 0
362 23 0 4690 10 0 595
363 15 568 688 10 0 172
364 -19 0 4796 10 371 0
365 -20 0 4704 10 89 0
366 -18 546 666 10 292 0
367 -14 0 4742 10 536 0
368 10 456 576 10 0 457
369 -20 0 4694 10 377 0
370 -20 3362 3482 10 211 0
371 19 0 4734 10 0 364
372 -21 0 4672 10 20 0
373 20 494 614 10 0 194
374 -20 0 4672 10 494 0
375 10 0 4648 10 0 177
376 30 0 4769 10 0 523
377 20 0 4655 10 0 369
378 -20 0 4662 10 518 0
379 27 0 4651 10 0 441
380 30 0 4762 10 0 437
381 -20 0 4671 10 37 0
382 -10 3290 3410 10 151 0
383 20 0 4759 10 0 159
384 -10 0 4753 10 563 0
385 -20 0 4695 10 421 0
386 -30 440 560 10 452 0
387 -12 0 4783 10 261 0
388 -22 0 4669 10 253 0
389 -20 0 4643 10 263 0
390 20 0 4694 10 0 350
391 -30 0 4785 10 345 0
392 20 0 4782 10 0 358
393 -10 0 4709 10 199 0
394 20 0 4677 10 0 267
395 -10 0 4680 10 397 0
396 20 2394 2514 10 0 337
397 10 0 4679 10 0 395
398 30 0 4687 10 0 422
399 10 962 1082 10 0 572
400 -10 0 4689 10 508 0
401 20 0 4705 10 0 171
402 20 0 4669 10 0 333
403 15 0 4619 10 0 201
404 20 0 4704 10 0 255
405 30 0 4694 10 0 476
406 -29 0 4700 10 561 0
407 -10 3334 3454 10 75 0
408 -15 0 4708 10 290 0
409 -20 0 4725 10 47 0
410 30 433 553 10 0 416
411 -10 0 4649 10 153 0
412 20 0 4667 10 0 427
413 15 0 4748 10 0 120
414 -11 0 4683 10 99 0
415 -12 0 4678 10 592 0
416 -30 0 4750 10 410 0
417 21 0 4764 10 0 208
418 -24 1894 2014 10 470 0
419 22 82 202 10 0 146
420 -5 0 4750 10 106 0
421 20 317 437 10 0 385
422 -30 0 4719 10 398 0
423 5 585 705 10 0 485
424 10 0 4763 10 0 90
425 -10 2347 2467 10 164 0
426 -16 0 4758 10 313 0
427 -20 0 4700 10 412 0
428 -20 0 4765 10 353 0
429 20 497 617 10 0 5
430 -20 0 4716 10 239 0
431 -10 0 4695 10 548 0
432 19 0 4667 10 0 334
433 20 0 4683 10 0 169
434 26 1495 1615 10 0 4
435 -20 0 4797 10 27 0
436 27 0 4656 10 0 467
437 -30 0 4732 10 380 0
438 20 0 4684 10 0 303
439 -13 0 4798 10 305 0
440 16 0 4739 10 0 61
441 -27 0 4800 10 379 0
442 10 0 4710 10 0 315
443 -30 0 4718 10 511 0
444 -36 0 4762 10 166 0
445 27 0 4695 10 0 2
446 -19 0 4673 10 244 0
447 30 0 4800 10 0 48
448 -10 1096 1216 10 542 0
449 -20 0 4720 10 220 0
450 25 0 4743 10 0 9
451 -20 0 4662 10 327 0
452 30 217 337 10 0 386
453 20 387 507 10 0 79
454 10 0 4778 10 0 288
455 -20 0 4723 10 101 0
456 -10 0 4698 10 140 0
457 -10 0 4760 10 368 0
458 -24 3854 3974 10 51 0
459 10 0 4691 10 0 165
460 30 0 4690 10 0 49
461 14 0 4675 10 0 340
462 30 0 4689 10 0 293
463 -10 0 4672 10 110 0
464 -20 0 4684 10 475 0
465 -14 0 4704 10 124 0
466 -17 1766 1886 10 41 0
467 -27 1562 1682 10 436 0
468 -10 885 1005 10 483 0
469 17 0 4742 10 0 545
470 24 0 4719 10 0 418
471 -40 0 4644 10 495 0
472 30 0 4693 10 0 72
473 -36 0 4652 10 286 0
474 10 0 4687 10 0 289
475 20 0 4763 10 0 464
476 -30 0 4674 10 405 0
477 -16 0 4756 10 95 0
478 -21 0 4662 10 338 0
479 29 0 4627 10 0 507
480 12 0 4730 10 0 93
481 -10 175 295 10 7 0
482 39 0 4753 10 0 590
483 10 0 4712 10 0 468
484 20 0 4673 10 0 13
485 -5 0 4670 10 423 0
486 -20 0 4760 10 257 0
487 -40 0 4649 10 576 0
488 -16 0 4806 10 586 0
489 20 190 310 10 0 538
490 13 0 4678 10 0 330
491 10 0 4730 10 0 501
492 -20 0 4741 10 355 0
493 20 0 4751 10 0 559
494 20 0 4694 10 0 374
495 40 0 4668 10 0 471
496 30 3758 3878 10 0 88
497 -12 0 4716 10 320 0
498 -21 0 4690 10 56 0
499 20 0 4669 10 0 109
500 12 0 4619 10 0 116
501 -10 1780 1900 10 491 0
502 10 1890 2010 10 0 129
503 -17 0 4675 10 83 0
504 33 0 4645 0 0 605
505 40 768 888 10 0 202
506 14 0 4730 10 0 191
507 -29 0 4627 10 479 0
508 10 0 4692 10 0 400
509 -11 0 4725 10 197 0
510 -20 0 4693 10 6 0
511 30 0 4694 10 0 443
512 30 0 4672 10 0 113
513 10 0 4768 10 0 46
514 25 3529 3649 10 0 100
515 -30 818 938 10 543 0
516 30 596 716 10 0 335
517 -40 782 902 10 232 0
518 20 3098 3218 10 0 378
519 -20 0 4755 10 68 0
520 20 0 4673 10 0 180
521 20 416 536 10 0 580
522 -10 391 511 10 222 0
523 -30 549 669 10 376 0
524 -41 0 4634 10 196 0
525 -24 0 4672 10 44 0
526 -10 866 986 10 17 0
527 10 0 4797 10 0 346
528 -20 968 1088 10 270 0
529 -38 0 4662 10 252 0
530 -16 0 4678 10 535 0
531 20 504 624 10 0 584
532 -20 2075 2195 10 182 0
533 18 2263 2383 10 0 309
534 27 0 4720 10 0 118
535 16 0 4680 10 0 530
536 14 0 4776 10 0 367
537 -20 0 4713 10 359 0
538 -20 0 4713 10 489 0
539 10 0 4691 10 0 316
540 -20 0 4729 10 214 0
541 -27 0 4645 10 555 0
542 10 805 925 10 0 448
543 30 0 4716 10 0 515
544 20 366 486 10 0 556
545 -17 0 4731 10 469 0
546 -10 0 4683 10 52 0
547 -6 0 4668 10 53 0
548 10 98 218 10 0 431
549 30 0 4690 10 0 115
550 -33 0 4737 10 296 0
551 -16 0 4783 10 82 0
552 -10 576 696 10 600 0
553 10 493 613 10 0 277
554 -30 0 4761 10 10 0
555 27 0 4664 10 0 541
556 -20 0 4729 10 544 0
557 10 0 4683 10 0 248
558 5 0 4729 10 0 69
559 -20 1486 1606 10 493 0
560 24 0 4680 10 0 84
561 29 0 4709 10 0 406
562 -20 1362 1482 10 272 0
563 10 0 4728 10 0 384
564 -30 2265 2385 10 23 0
565 20 0 4763 10 0 242
566 -19 0 4647 10 73 0
567 30 0 4773 10 0 94
568 -27 0 4713 10 11 0
569 -20 0 4762 10 139 0
570 30 0 4756 10 0 597
571 -26 0 4751 10 221 0
572 -10 0 4663 10 399 0
573 5 0 4698 10 0 77
574 8 0 4732 10 0 587
575 -12 2378 2498 10 158 0
576 40 0 4672 10 0 487
577 10 0 4689 10 0 138
578 -20 0 4675 10 111 0
579 -13 0 4635 10 152 0
580 -20 0 4692 10 521 0
581 20 0 4753 10 0 26
582 28 0 4686 10 0 357
583 10 703 823 10 0 39
584 -20 854 974 10 531 0
585 -11 0 4664 10 12 0
586 16 0 4773 10 0 488
587 -8 0 4717 10 574 0
588 -10 2889 3009 10 207 0
589 -12 0 4737 10 336 0
590 -39 0 4704 10 482 0
591 -17 0 4657 10 258 0
592 12 0 4724 10 0 415
593 30 980 1100 10 0 112
594 -20 0 4662 10 28 0
595 -23 0 4689 10 362 0
596 -20 0 4647 10 302 0
597 -30 0 4762 10 570 0
598 -16 0 4691 10 262 0
599 18 0 4715 10 0 256
600 10 0 4780 10 0 552
601 -10 616 736 10 285 0
602 -1 0 4777 10 80 0
603 -30 0 4632 10 66 0
604 -19 0 4772 10 203 0
605 -33 0 4645 10 504 0
DEPOT_SECTION
1
-1
EOF
