NAME: lrc2_6_7
TYPE: PDPTW
COMMENT: Li & Lim PDPTW benchmark converted from SINTEF format
DIMENSION: 611
VEHICLES: 150
CAPACITY: 1000
EDGE_WEIGHT_TYPE: EUC_2D
NODE_COORD_SECTION
1 150 150
2 125 168
3 162 107
4 199 213
5 61 84
6 125 103
7 143 101
8 28 141
9 230 128
10 55 68
11 72 180
12 159 41
13 8 4
14 257 58
15 57 155
16 186 26
17 231 243
18 247 132
19 89 61
20 84 231
21 116 240
22 110 79
23 110 74
24 180 106
25 240 73
26 13 265
27 134 147
28 257 59
29 160 108
30 289 130
31 27 255
32 234 146
33 69 208
34 115 196
35 250 228
36 159 89
37 105 81
38 149 183
39 159 300
40 47 277
41 209 269
42 212 26
43 14 149
44 74 117
45 140 140
46 152 241
47 222 83
48 88 124
49 136 68
50 250 124
51 109 299
52 258 244
53 208 47
54 212 62
55 259 59
56 150 104
57 77 233
58 212 45
59 57 125
60 232 121
61 255 132
62 18 184
63 165 113
64 143 111
65 248 41
66 8 263
67 109 110
68 106 71
69 259 240
70 38 139
71 277 41
72 255 57
73 9 122
74 102 76
75 43 286
76 60 160
77 172 225
78 161 22
79 88 110
80 122 127
81 52 63
82 53 141
83 175 281
84 265 141
85 250 126
86 147 281
87 255 240
88 188 142
89 154 26
90 59 64
91 114 204
92 235 242
93 34 150
94 140 214
95 59 113
96 282 104
97 145 184
98 184 277
99 129 77
100 96 199
101 67 154
102 2 81
103 208 208
104 169 173
105 106 108
106 15 2
107 227 26
108 147 285
109 141 286
110 231 70
111 242 73
112 15 259
113 93 165
114 10 198
115 149 294
116 82 100
117 256 286
118 172 2
119 277 172
120 73 81
121 217 69
122 85 224
123 0 153
124 147 43
125 143 288
126 112 272
127 200 26
128 140 143
129 83 236
130 253 84
131 53 288
132 256 239
133 224 79
134 110 107
135 125 136
136 149 76
137 203 166
138 211 61
139 107 103
140 262 62
141 227 80
142 269 103
143 119 254
144 122 96
145 248 245
146 181 297
147 65 69
148 16 151
149 254 206
150 167 176
151 280 172
152 285 285
153 149 282
154 277 100
155 223 23
156 25 191
157 266 212
158 272 183
159 135 251
160 11 191
161 25 119
162 215 68
163 137 104
164 113 202
165 160 24
166 51 217
167 14 177
168 225 22
169 194 234
170 262 14
171 259 126
172 214 234
173 216 23
174 111 110
175 145 182
176 51 2
177 30 243
178 186 228
179 132 146
180 176 72
181 108 3
182 216 62
183 271 106
184 140 290
185 64 59
186 206 157
187 66 157
188 132 297
189 109 105
190 64 55
191 173 64
192 213 65
193 17 205
194 224 229
195 78 236
196 274 6
197 207 237
198 161 26
199 119 104
200 169 171
201 296 235
202 220 74
203 109 148
204 212 270
205 265 197
206 174 238
207 223 74
208 47 203
209 69 90
210 33 231
211 8 265
212 136 144
213 286 175
214 151 30
215 150 184
216 157 25
217 131 78
218 232 240
219 53 285
220 278 176
221 225 192
222 115 197
223 167 179
224 6 168
225 163 180
226 135 210
227 277 104
228 262 241
229 162 148
230 61 138
231 117 155
232 126 127
233 157 221
234 19 290
235 65 156
236 159 177
237 12 10
238 67 175
239 78 232
240 201 175
241 249 133
242 139 110
243 252 128
244 57 123
245 71 154
246 157 276
247 111 98
248 221 70
249 70 57
250 236 108
251 268 113
252 40 1
253 106 243
254 37 126
255 259 58
256 167 193
257 168 204
258 72 286
259 254 240
260 241 183
261 75 191
262 26 27
263 12 270
264 81 238
265 140 294
266 11 242
267 224 77
268 166 123
269 92 241
270 280 180
271 151 113
272 65 49
273 203 36
274 129 83
275 38 74
276 166 105
277 129 98
278 30 226
279 15 178
280 108 298
281 296 211
282 236 72
283 277 177
284 99 73
285 166 113
286 271 8
287 228 41
288 80 131
289 284 176
290 208 117
291 119 183
292 246 166
293 144 292
294 128 155
295 113 188
296 155 93
297 161 210
298 168 176
299 60 64
300 165 204
301 280 158
302 241 71
303 57 68
304 219 152
305 72 89
306 85 75
307 3 205
308 235 243
309 12 275
310 76 160
311 56 116
312 170 53
313 34 5
314 280 175
315 288 127
316 103 8
317 229 25
318 12 198
319 66 54
320 120 60
321 110 31
322 218 20
323 226 248
324 275 100
325 217 73
326 88 225
327 123 92
328 293 62
329 4 149
330 216 25
331 63 59
332 63 155
333 158 140
334 84 236
335 260 58
336 284 244
337 190 181
338 159 287
339 285 283
340 65 68
341 61 157
342 102 173
343 300 44
344 103 78
345 144 182
346 24 76
347 149 186
348 165 182
349 179 123
350 157 84
351 17 209
352 233 119
353 167 105
354 238 206
355 127 101
356 263 291
357 281 68
358 251 237
359 108 109
360 199 28
361 3 119
362 252 219
363 234 213
364 136 140
365 191 49
366 251 241
367 119 214
368 275 182
369 103 260
370 2 238
371 94 93
372 158 291
373 230 248
374 207 20
375 54 285
376 160 107
377 59 280
378 208 290
379 248 280
380 138 100
381 8 155
382 208 235
383 111 112
384 128 94
385 110 262
386 162 203
387 160 179
388 16 204
389 239 295
390 157 31
391 147 178
392 170 174
393 157 254
394 277 101
395 283 144
396 156 182
397 274 97
398 66 56
399 158 27
400 156 26
401 257 133
402 264 61
403 296 279
404 220 66
405 240 71
406 112 43
407 4 296
408 222 73
409 209 84
410 250 134
411 59 287
412 13 202
413 93 117
414 62 53
415 275 97
416 206 121
417 107 174
418 224 61
419 124 174
420 101 110
421 112 201
422 80 86
423 5 189
424 141 100
425 165 256
426 108 113
427 37 159
428 136 104
429 107 71
430 97 232
431 127 266
432 14 204
433 278 177
434 209 246
435 134 148
436 283 65
437 108 80
438 55 62
439 141 137
440 224 138
441 163 150
442 213 68
443 113 62
444 100 138
445 126 266
446 10 150
447 137 150
448 258 232
449 191 234
450 213 119
451 5 195
452 166 203
453 100 73
454 147 185
455 60 156
456 239 77
457 163 202
458 81 219
459 155 28
460 160 27
461 43 62
462 235 241
463 291 148
464 64 53
465 168 42
466 183 282
467 289 79
468 1 272
469 87 183
470 234 107
471 52 288
472 236 66
473 264 35
474 233 245
475 144 100
476 260 64
477 130 96
478 202 292
479 7 31
480 96 86
481 141 102
482 170 93
483 85 228
484 10 147
485 18 206
486 164 202
487 1 81
488 148 157
489 159 110
490 229 40
491 67 161
492 131 220
493 112 199
494 238 69
495 258 247
496 205 130
497 109 61
498 59 67
499 151 294
500 26 0
501 45 190
502 56 212
503 148 288
504 275 263
505 272 97
506 143 67
507 29 8
508 152 29
509 176 235
510 30 145
511 61 70
512 16 196
513 168 108
514 15 209
515 211 66
516 256 54
517 11 207
518 58 240
519 131 95
520 116 14
521 154 31
522 86 230
523 133 99
524 290 37
525 9 145
526 140 292
527 134 146
528 229 179
529 72 20
530 149 285
531 257 137
532 225 73
533 71 294
534 156 57
535 177 281
536 117 168
537 162 250
538 116 245
539 153 28
540 176 70
541 50 285
542 257 243
543 246 133
544 140 100
545 69 134
546 236 248
547 217 21
548 161 112
549 233 242
550 127 77
551 155 180
552 144 173
553 65 56
554 130 102
555 76 280
556 110 76
557 271 101
558 216 203
559 136 241
560 160 17
561 64 91
562 107 39
563 106 77
564 103 93
565 138 101
566 15 52
567 160 111
568 81 223
569 113 114
570 162 206
571 203 183
572 113 4
573 176 263
574 173 72
575 279 189
576 9 144
577 266 104
578 253 57
579 296 252
580 254 87
581 114 198
582 220 43
583 11 265
584 250 130
585 299 153
586 133 187
587 246 137
588 238 103
589 220 182
590 213 61
591 290 219
592 153 61
593 55 285
594 276 66
595 236 240
596 244 13
597 163 200
598 62 65
599 189 240
600 145 183
601 140 108
602 114 198
603 52 63
604 296 252
605 293 62
606 162 148
607 69 208
608 9 144
609 139 110
610 159 89
611 214 234
PICKUP_AND_DELIVERY_SECTION
1 0 0 4823 0 0 0
2 -14 3380 3673 10 124 0
3 10 135 645 10 0 404
4 -42 1842 2366 10 466 0
5 -20 1303 1484 10 359 0
6 -30 53 522 10 439 0
7 10 105 464 10 0 554
8 -21 2489 2791 10 312 0
9 -10 1341 1822 10 18 0
10 30 468 792 10 0 479
11 27 1215 1881 10 0 126
12 -20 1221 1348 10 54 0
13 -30 740 889 10 45 0
14 10 446 978 10 0 557
15 -10 325 609 10 212 0
16 -10 2161 2476 10 348 0
17 10 361 625 10 0 546
18 10 911 1025 10 0 9
19 14 988 1156 10 0 305
20 -20 2207 2270 10 123 0
21 17 1886 2435 10 0 46
22 20 585 1058 10 0 563
23 -22 368 859 10 284 0
24 19 128 298 10 0 524
25 -10 398 635 10 162 0
26 -10 473 958 10 222 0
27 20 240 603 10 0 427
28 20 685 827 10 0 72
29 10 122 475 10 0 248
30 27 1229 1527 10 0 352
31 5 795 1250 10 0 266
32 -20 1340 1596 10 270 0
33 17 2242 2533 0 0 607
34 10 57 740 10 0 66
35 22 3039 3295 10 0 260
36 22 3273 3457 0 0 610
37 20 82 605 10 0 216
38 -24 33 349 10 488 0
39 -7 429 773 10 169 0
40 20 383 926 10 0 278
41 -16 1654 2032 10 194 0
42 -10 771 1135 10 173 0
43 10 472 702 10 0 512
44 -20 3069 3486 10 521 0
45 30 14 358 10 0 13
46 -17 2354 3134 10 21 0
47 -20 164 623 10 353 0
48 -19 159 491 10 203 0
49 -10 2273 2601 10 78 0
50 -30 379 805 10 410 0
51 24 1553 1579 10 0 538
52 -16 747 1075 10 103 0
53 6 213 733 10 0 550
54 20 612 941 10 0 12
55 10 667 941 10 0 357
56 21 191 484 10 0 598
57 20 390 1046 10 0 231
58 -24 2416 2740 10 537 0
59 23 735 1072 10 0 233
60 15 2083 2655 10 0 534
61 10 488 849 10 0 281
62 -20 1322 1764 10 325 0
63 20 419 883 10 0 79
64 20 39 383 10 0 340
65 -20 1768 2105 10 138 0
66 -10 573 1063 10 34 0
67 20 142 689 10 0 89
68 -10 364 661 10 364 0
69 -10 760 1408 10 366 0
70 12 1316 1499 10 0 361
71 14 1292 1582 10 0 596
72 -20 463 743 10 28 0
73 19 871 980 10 0 83
74 -20 3313 3554 10 190 0
75 -10 489 977 10 541 0
76 20 149 658 10 0 114
77 13 484 512 10 0 118
78 10 685 1059 10 0 49
79 -20 2413 2779 10 63 0
80 1 36 336 10 0 198
81 10 344 1042 0 0 603
82 16 135 644 10 0 101
83 -19 2271 2972 10 73 0
84 22 134 788 10 0 149
85 -10 657 1058 10 119 0
86 -10 968 1332 10 530 0
87 -20 640 886 10 298 0
88 -30 4115 4775 10 496 0
89 -20 501 854 10 67 0
90 10 587 1021 10 0 572
91 20 278 665 10 0 377
92 -26 566 973 10 571 0
93 15 1494 1773 10 0 469
94 24 2309 2727 10 0 387
95 16 738 1334 10 0 295
96 -30 1048 1241 10 133 0
97 -20 118 643 10 215 0
98 -30 687 1048 10 503 0
99 -10 2530 2692 10 207 0
100 -20 3868 4405 10 131 0
101 -16 674 853 10 82 0
102 -10 1051 1184 10 285 0
103 16 412 552 10 0 52
104 10 34 288 10 0 145
105 20 277 743 10 0 144
106 -29 1453 1856 10 561 0
107 20 455 712 10 0 274
108 -18 852 1336 10 372 0
109 10 789 1272 10 0 535
110 10 296 977 10 0 490
111 20 340 789 10 0 324
112 -10 2613 2928 10 164 0
113 13 58 436 10 0 351
114 -20 778 1212 10 76 0
115 -13 385 1110 10 431 0
116 16 2258 2483 10 0 306
117 -30 3089 3386 10 200 0
118 -13 2164 2776 10 77 0
119 10 681 1033 10 0 85
120 -10 2096 2471 10 199 0
121 -5 358 663 10 333 0
122 -20 630 1154 10 412 0
123 20 650 1189 10 0 20
124 14 394 547 10 0 2
125 30 631 1101 10 0 588
126 -27 1225 1592 10 11 0
127 -28 1608 2068 10 582 0
128 20 12 671 10 0 247
129 10 543 578 10 0 411
130 11 1510 1847 10 0 473
131 20 598 1203 10 0 100
132 10 706 912 10 0 356
133 30 410 608 10 0 96
134 20 567 930 10 0 249
135 5 28 253 10 0 569
136 -42 3098 3422 10 406 0
137 -8 3664 4378 10 304 0
138 20 595 867 10 0 65
139 20 538 758 10 0 346
140 10 921 1081 10 0 436
141 30 294 619 10 0 170
142 -20 824 1048 10 302 0
143 42 2956 3617 10 0 280
144 -20 469 830 10 105 0
145 -10 382 710 10 104 0
146 -20 618 802 10 293 0
147 10 788 1366 10 0 316
148 20 456 617 10 0 329
149 -22 2415 2676 10 84 0
150 20 154 451 10 0 363
151 10 531 1080 10 0 470
152 -33 2594 3130 10 504 0
153 10 264 793 10 0 188
154 10 579 694 10 0 516
155 -19 502 879 10 350 0
156 16 692 1266 10 0 525
157 -10 1129 1651 10 542 0
158 -30 2771 2998 10 314 0
159 -11 1751 2243 10 559 0
160 -29 2799 3128 10 208 0
161 -20 505 961 10 435 0
162 10 262 661 10 0 25
163 30 445 787 10 0 513
164 10 119 726 10 0 112
165 10 776 870 10 0 515
166 -10 967 1308 10 381 0
167 -10 272 939 10 527 0
168 40 336 947 10 0 482
169 7 228 530 10 0 39
170 -30 2631 3075 10 141 0
171 -20 436 1039 10 401 0
172 21 2924 3038 0 0 611
173 10 741 957 10 0 42
174 10 255 480 10 0 506
175 10 417 612 10 0 552
176 -12 906 950 10 480 0
177 -10 964 1447 10 334 0
178 5 1533 1890 10 0 540
179 20 120 624 10 0 245
180 -30 2176 2539 10 330 0
181 -10 2595 2892 10 420 0
182 20 569 692 10 0 408
183 -20 2301 2518 10 283 0
184 -18 861 1086 10 599 0
185 30 389 612 10 0 275
186 -20 3562 3843 10 448 0
187 -10 503 918 10 235 0
188 -10 625 805 10 153 0
189 10 552 848 10 0 487
190 20 572 626 10 0 74
191 -12 2240 2453 10 360 0
192 20 626 1033 10 0 202
193 -40 673 687 10 341 0
194 16 1333 1516 10 0 41
195 -20 489 842 10 421 0
196 41 1880 2394 10 0 287
197 11 1930 2092 10 0 574
198 -1 815 1041 10 80 0
199 10 765 888 10 0 120
200 30 28 536 10 0 117
201 25 1990 2613 10 0 389
202 -20 771 964 10 192 0
203 19 41 558 10 0 48
204 -30 2174 2680 10 570 0
205 -20 1136 1555 10 218 0
206 -30 3800 4506 10 345 0
207 10 639 991 10 0 99
208 29 2503 2976 10 0 160
209 -15 2925 3405 10 413 0
210 -40 2918 3164 10 568 0
211 -20 406 1325 10 239 0
212 10 23 523 10 0 15
213 -6 547 832 10 395 0
214 20 460 598 10 0 230
215 20 110 358 10 0 97
216 -20 600 942 10 37 0
217 -20 2181 2564 10 494 0
218 20 752 1172 10 0 205
219 10 772 1133 10 0 263
220 20 768 1060 10 0 585
221 -5 2003 2487 10 558 0
222 10 389 691 10 0 26
223 20 297 412 10 0 336
224 21 2901 3174 10 0 430
225 30 199 720 10 0 465
226 -14 3504 3833 10 369 0
227 20 199 881 10 0 415
228 -20 823 1241 10 308 0
229 25 2824 3298 0 0 606
230 -20 2327 2936 10 214 0
231 -20 3983 4198 10 57 0
232 40 33 274 10 0 501
233 -23 1349 2055 10 59 0
234 12 1305 1912 10 0 514
235 10 417 913 10 0 187
236 30 118 922 10 0 449
237 -20 1703 1766 10 319 0
238 -22 1098 1232 10 311 0
239 20 538 991 10 0 211
240 -33 2586 3075 10 509 0
241 10 291 604 10 0 368
242 21 3114 3878 0 0 609
243 -4 473 1141 10 349 0
244 19 710 732 10 0 385
245 -20 657 981 10 179 0
246 18 318 692 10 0 338
247 -20 993 1298 10 128 0
248 -10 515 918 10 29 0
249 -20 672 1167 10 134 0
250 -22 3590 3610 10 251 0
251 22 3286 3576 10 0 250
252 38 1730 1982 10 0 262
253 22 711 913 10 0 583
254 -10 368 982 10 332 0
255 30 775 922 10 0 286
256 -17 3947 4357 10 323 0
257 20 120 335 10 0 452
258 17 1321 2016 10 0 458
259 20 374 1063 10 0 358
260 -22 3315 3552 10 35 0
261 -22 277 486 10 419 0
262 -38 3382 3695 10 252 0
263 -10 774 1286 10 219 0
264 20 514 708 10 0 483
265 -20 1575 1819 10 499 0
266 -5 1927 2330 10 31 0
267 20 271 843 10 0 577
268 14 45 206 10 0 594
269 -20 3023 3230 10 518 0
270 20 487 669 10 0 32
271 -30 1268 1620 10 460 0
272 -10 573 936 10 498 0
273 -30 1443 1855 10 472 0
274 -20 2294 2800 10 107 0
275 -30 478 844 10 185 0
276 20 352 544 10 0 590
277 20 312 792 10 0 327
278 -20 3546 4078 10 40 0
279 9 2876 3388 10 0 586
280 -42 3262 3900 10 143 0
281 -10 660 1032 10 61 0
282 20 702 953 10 0 547
283 20 823 1180 10 0 183
284 22 92 747 10 0 23
285 10 461 753 10 0 102
286 -30 2817 3387 10 255 0
287 -41 3116 3501 10 196 0
288 -20 1208 1581 10 383 0
289 -10 441 839 10 587 0
290 15 212 535 10 0 584
291 -10 2145 2511 10 459 0
292 18 1990 2483 10 0 354
293 20 640 979 10 0 146
294 11 22 396 10 0 432
295 -16 1154 1396 10 95 0
296 33 537 688 10 0 529
297 -20 279 503 10 300 0
298 20 31 668 10 0 87
299 -10 706 990 10 414 0
300 20 153 492 10 0 297
301 -20 2424 2879 10 531 0
302 20 360 867 10 0 142
303 -20 348 816 10 519 0
304 8 3704 4088 10 0 137
305 -14 2240 2302 10 19 0
306 -16 2673 3255 10 116 0
307 -10 784 1045 10 491 0
308 20 611 840 10 0 228
309 -30 1884 2332 10 593 0
310 2 78 519 10 0 451
311 22 927 1031 10 0 238
312 21 574 839 10 0 8
313 16 2704 3296 10 0 371
314 30 551 955 10 0 158
315 -15 2755 3048 10 441 0
316 -10 2621 2953 10 147 0
317 -13 1866 2201 10 409 0
318 -10 966 1119 10 485 0
319 20 429 1201 10 0 237
320 12 1918 2302 10 0 564
321 -21 1378 1646 10 566 0
322 -30 591 917 10 376 0
323 17 3286 3657 10 0 256
324 -20 551 818 10 111 0
325 20 895 944 10 0 62
326 -20 172 607 10 493 0
327 -20 146 541 10 277 0
328 10 560 899 0 0 605
329 -20 539 1176 10 148 0
330 30 709 1084 10 0 180
331 -20 763 1060 10 565 0
332 10 462 770 10 0 254
333 5 12 521 10 0 121
334 10 247 785 10 0 177
335 20 574 1211 10 0 505
336 -20 2846 3162 10 223 0
337 -30 3488 3867 10 595 0
338 -18 1596 1696 10 246 0
339 -23 2168 2381 10 362 0
340 -20 1011 1055 10 64 0
341 40 349 780 10 0 193
342 15 85 340 10 0 471
343 -20 2787 3386 10 394 0
344 10 118 649 10 0 556
345 30 146 795 10 0 206
346 -20 1801 2291 10 139 0
347 -30 36 549 10 551 0
348 10 142 676 10 0 16
349 4 39 651 10 0 243
350 19 420 503 10 0 155
351 -13 378 785 10 113 0
352 -27 3759 3869 10 30 0
353 20 230 754 10 0 47
354 -18 2132 2572 10 292 0
355 20 54 637 10 0 461
356 -10 599 1020 10 132 0
357 -10 1831 2345 10 55 0
358 -20 442 881 10 259 0
359 20 258 664 10 0 5
360 12 1725 2048 10 0 191
361 -12 2768 2862 10 70 0
362 23 1243 1288 10 0 339
363 -20 312 944 10 150 0
364 10 17 503 10 0 68
365 12 380 783 10 0 560
366 10 428 784 10 0 69
367 -27 2397 2671 10 445 0
368 -10 353 679 10 241 0
369 14 3592 3682 10 0 226
370 -18 3254 3589 10 407 0
371 -16 3670 3726 10 313 0
372 18 466 952 10 0 108
373 -20 459 649 10 392 0
374 13 588 1014 10 0 532
375 10 868 1124 10 0 533
376 30 124 560 10 0 322
377 -20 852 1359 10 91 0
378 -26 1020 1543 10 434 0
379 -40 1126 1318 10 495 0
380 -20 404 544 10 475 0
381 10 754 1232 10 0 166
382 -10 3177 3523 10 454 0
383 20 153 362 10 0 288
384 -20 76 735 10 523 0
385 -19 1897 2161 10 244 0
386 30 378 621 10 0 486
387 -24 3013 3344 10 94 0
388 10 240 1211 10 0 484
389 -25 2882 3257 10 201 0
390 -30 1067 1091 10 567 0
391 10 305 840 10 0 457
392 20 118 295 10 0 373
393 -30 1845 2407 10 447 0
394 20 429 756 10 0 343
395 6 279 787 10 0 213
396 -12 2209 2699 10 425 0
397 -10 585 975 10 578 0
398 30 676 1050 10 0 497
399 10 982 1062 10 0 418
400 -10 626 825 10 539 0
401 20 476 763 10 0 171
402 20 869 1035 10 0 476
403 -30 2011 2088 10 462 0
404 -10 285 851 10 3 0
405 30 436 879 10 0 467
406 42 2168 2375 10 0 136
407 18 3109 3679 10 0 370
408 -20 539 1000 10 182 0
409 13 1316 1863 10 0 317
410 30 325 661 10 0 50
411 -10 1868 2223 10 129 0
412 20 488 1072 10 0 122
413 15 1209 1710 10 0 209
414 10 525 776 10 0 299
415 -20 540 932 10 227 0
416 -10 2940 3149 10 526 0
417 21 49 425 10 0 492
418 -10 1934 1974 10 399 0
419 22 35 549 10 0 261
420 10 392 751 10 0 181
421 20 182 572 10 0 195
422 -20 2279 2643 10 428 0
423 -20 354 937 10 455 0
424 -10 248 515 10 481 0
425 12 2326 2487 10 0 396
426 10 304 317 10 0 429
427 -20 266 785 10 27 0
428 20 243 902 10 0 422
429 -10 272 841 10 426 0
430 -21 3467 4117 10 224 0
431 13 369 731 10 0 115
432 -11 2271 2594 10 294 0
433 20 687 1228 10 0 440
434 26 1468 1641 10 0 378
435 20 363 567 10 0 161
436 -10 1851 1870 10 140 0
437 -10 532 1012 10 601 0
438 20 497 996 10 0 507
439 30 15 427 10 0 6
440 -20 3519 3871 10 433 0
441 15 13 273 10 0 315
442 -10 330 498 10 548 0
443 -20 2021 2287 10 544 0
444 24 695 1064 10 0 573
445 27 1933 2139 10 0 367
446 10 407 881 10 0 517
447 30 382 656 10 0 393
448 20 1078 1235 10 0 186
449 -30 346 401 10 236 0
450 -13 2811 3140 10 589 0
451 -2 536 1069 10 310 0
452 -20 102 451 10 257 0
453 20 290 605 10 0 545
454 10 266 399 10 0 382
455 20 281 757 10 0 423
456 20 391 529 10 0 580
457 -10 300 790 10 391 0
458 -17 3578 4251 10 258 0
459 10 362 895 10 0 291
460 30 756 1192 10 0 271
461 -20 3218 3469 10 355 0
462 30 693 1036 10 0 403
463 -30 2326 2878 10 575 0
464 -20 546 850 10 477 0
465 -30 2337 2846 10 225 0
466 42 1517 2136 10 0 4
467 -30 1497 1747 10 405 0
468 10 678 1213 10 0 555
469 -15 1795 2525 10 93 0
470 -10 1315 1513 10 151 0
471 -15 845 868 10 342 0
472 30 648 880 10 0 273
473 -11 3817 4167 10 130 0
474 10 488 862 10 0 549
475 20 249 410 10 0 380
476 -20 1753 1832 10 402 0
477 20 222 784 10 0 464
478 -16 3551 3833 10 528 0
479 -30 2994 3469 10 10 0
480 12 90 579 10 0 176
481 10 65 405 10 0 424
482 -40 1665 2259 10 168 0
483 -20 577 1096 10 264 0
484 -10 604 788 10 388 0
485 10 410 859 10 0 318
486 -30 382 797 10 386 0
487 -10 1091 1593 10 189 0
488 24 7 492 10 0 38
489 20 99 400 10 0 592
490 -10 815 1219 10 110 0
491 10 84 586 10 0 307
492 -21 289 797 10 417 0
493 20 276 383 10 0 326
494 20 588 830 10 0 217
495 40 783 1142 10 0 379
496 30 3736 3899 10 0 88
497 -30 1435 1858 10 398 0
498 10 323 744 10 0 272
499 20 562 836 10 0 265
500 -9 1783 2294 10 562 0
501 -40 1650 2029 10 232 0
502 10 1876 2025 10 0 510
503 30 380 886 10 0 98
504 33 546 910 10 0 152
505 -20 686 970 10 335 0
506 -10 127 539 10 174 0
507 -20 2965 3162 10 438 0
508 -20 3212 4102 10 520 0
509 33 269 442 10 0 240
510 -10 3274 3622 10 502 0
511 30 197 760 10 0 553
512 -10 895 1306 10 43 0
513 -30 475 616 10 163 0
514 -12 3360 3819 10 234 0
515 -10 770 987 10 165 0
516 -10 556 756 10 154 0
517 -10 650 1034 10 446 0
518 20 3049 3267 10 0 269
519 20 359 556 10 0 303
520 20 2519 2832 10 0 508
521 20 239 714 10 0 44
522 -14 206 696 10 536 0
523 20 266 952 10 0 384
524 -19 3225 3425 10 24 0
525 -16 461 1028 10 156 0
526 10 831 1021 10 0 416
527 10 105 544 10 0 167
528 16 922 1133 10 0 478
529 -33 2553 3042 10 296 0
530 10 305 856 10 0 86
531 20 368 759 10 0 301
532 -13 2012 2258 10 374 0
533 -10 2228 2418 10 375 0
534 -15 2635 2937 10 60 0
535 -10 1574 1950 10 109 0
536 14 41 260 10 0 522
537 24 804 880 10 0 58
538 -24 2295 2443 10 51 0
539 10 210 950 10 0 400
540 -5 2691 2805 10 178 0
541 10 717 886 10 0 75
542 10 676 1054 10 0 157
543 -19 838 1189 10 591 0
544 20 346 506 10 0 443
545 -20 2474 2638 10 453 0
546 -10 550 685 10 17 0
547 -20 586 1013 10 282 0
548 10 39 416 10 0 442
549 -10 714 1113 10 474 0
550 -6 3205 3553 10 53 0
551 30 30 576 10 0 347
552 -10 472 800 10 175 0
553 -30 338 769 10 511 0
554 -10 546 785 10 7 0
555 -10 1797 2201 10 468 0
556 -10 441 883 10 344 0
557 -10 732 1037 10 14 0
558 5 1964 2483 10 0 221
559 11 1313 1780 10 0 159
560 -12 1057 1786 10 365 0
561 29 220 696 10 0 106
562 9 1142 1702 10 0 500
563 -20 344 1093 10 22 0
564 -12 2055 2595 10 320 0
565 20 446 590 10 0 331
566 21 517 818 10 0 321
567 30 127 280 10 0 390
568 40 714 1183 10 0 210
569 -5 51 426 10 135 0
570 30 86 809 10 0 204
571 26 270 411 10 0 92
572 -10 1072 1374 10 90 0
573 -24 2421 2576 10 444 0
574 -11 2547 3058 10 197 0
575 30 2246 2630 10 0 463
576 40 607 970 0 0 608
577 -20 740 1237 10 267 0
578 10 411 700 10 0 397
579 18 2965 3469 0 0 604
580 -20 4162 4325 10 456 0
581 20 60 503 0 0 602
582 28 1621 1977 10 0 127
583 -22 545 981 10 253 0
584 -15 875 952 10 290 0
585 -20 1447 1954 10 220 0
586 -9 4235 4426 10 279 0
587 10 251 525 10 0 289
588 -30 2740 3158 10 125 0
589 13 2253 2770 10 0 450
590 -20 556 809 10 276 0
591 19 685 931 10 0 543
592 -20 815 1375 10 489 0
593 30 906 1175 10 0 309
594 -14 493 719 10 268 0
595 30 790 847 10 0 337
596 -14 2939 2965 10 71 0
597 -10 507 769 10 600 0
598 -21 869 1082 10 56 0
599 18 319 559 10 0 184
600 10 118 731 10 0 597
601 10 503 850 10 0 437
602 -20 60 503 10 581 0
603 -10 344 1042 10 81 0
604 -18 2965 3469 10 579 0
605 -10 560 899 10 328 0
606 -25 2824 3298 10 229 0
607 -17 2242 2533 10 33 0
608 -40 607 970 10 576 0
609 -21 3114 3878 10 242 0
610 -22 3273 3457 10 36 0
611 -21 2924 3038 10 172 0
DEPOT_SECTION
1
-1
EOF
