NAME: lrc2_6_2
TYPE: PDPTW
COMMENT: Li & Lim PDPTW benchmark converted from SINTEF format
DIMENSION: 607
VEHICLES: 150
CAPACITY: 1000
EDGE_WEIGHT_TYPE: EUC_2D
NODE_COORD_SECTION
1 150 150
2 125 168
3 162 107
4 199 213
5 61 84
6 125 103
7 143 101
8 28 141
9 230 128
10 55 68
11 72 180
12 159 41
13 8 4
14 257 58
15 57 155
16 186 26
17 231 243
18 247 132
19 89 61
20 84 231
21 116 240
22 110 79
23 110 74
24 180 106
25 240 73
26 13 265
27 134 147
28 257 59
29 160 108
30 289 130
31 27 255
32 234 146
33 69 208
34 115 196
35 250 228
36 159 89
37 105 81
38 149 183
39 159 300
40 47 277
41 209 269
42 212 26
43 14 149
44 74 117
45 140 140
46 152 241
47 222 83
48 88 124
49 136 68
50 250 124
51 109 299
52 258 244
53 208 47
54 212 62
55 259 59
56 150 104
57 77 233
58 212 45
59 57 125
60 232 121
61 255 132
62 18 184
63 165 113
64 143 111
65 248 41
66 8 263
67 109 110
68 106 71
69 259 240
70 38 139
71 277 41
72 255 57
73 9 122
74 102 76
75 43 286
76 60 160
77 172 225
78 161 22
79 88 110
80 122 127
81 52 63
82 53 141
83 175 281
84 265 141
85 250 126
86 147 281
87 255 240
88 188 142
89 154 26
90 59 64
91 114 204
92 235 242
93 34 150
94 140 214
95 59 113
96 282 104
97 145 184
98 184 277
99 129 77
100 96 199
101 67 154
102 2 81
103 208 208
104 169 173
105 106 108
106 15 2
107 227 26
108 147 285
109 141 286
110 231 70
111 242 73
112 15 259
113 93 165
114 10 198
115 149 294
116 82 100
117 256 286
118 172 2
119 277 172
120 73 81
121 217 69
122 85 224
123 0 153
124 147 43
125 143 288
126 112 272
127 200 26
128 140 143
129 83 236
130 253 84
131 53 288
132 256 239
133 224 79
134 110 107
135 125 136
136 149 76
137 203 166
138 211 61
139 107 103
140 262 62
141 227 80
142 269 103
143 119 254
144 122 96
145 248 245
146 181 297
147 65 69
148 16 151
149 254 206
150 167 176
151 280 172
152 285 285
153 149 282
154 277 100
155 223 23
156 25 191
157 266 212
158 272 183
159 135 251
160 11 191
161 25 119
162 215 68
163 137 104
164 113 202
165 160 24
166 51 217
167 14 177
168 225 22
169 194 234
170 262 14
171 259 126
172 214 234
173 216 23
174 111 110
175 145 182
176 51 2
177 30 243
178 186 228
179 132 146
180 176 72
181 108 3
182 216 62
183 271 106
184 140 290
185 64 59
186 206 157
187 66 157
188 132 297
189 109 105
190 64 55
191 173 64
192 213 65
193 17 205
194 224 229
195 78 236
196 274 6
197 207 237
198 161 26
199 119 104
200 169 171
201 296 235
202 220 74
203 109 148
204 212 270
205 265 197
206 174 238
207 223 74
208 47 203
209 69 90
210 33 231
211 8 265
212 136 144
213 286 175
214 151 30
215 150 184
216 157 25
217 131 78
218 232 240
219 53 285
220 278 176
221 225 192
222 115 197
223 167 179
224 6 168
225 163 180
226 135 210
227 277 104
228 262 241
229 162 148
230 61 138
231 117 155
232 126 127
233 157 221
234 19 290
235 65 156
236 159 177
237 12 10
238 67 175
239 78 232
240 201 175
241 249 133
242 139 110
243 252 128
244 57 123
245 71 154
246 157 276
247 111 98
248 221 70
249 70 57
250 236 108
251 268 113
252 40 1
253 106 243
254 37 126
255 259 58
256 167 193
257 168 204
258 72 286
259 254 240
260 241 183
261 75 191
262 26 27
263 12 270
264 81 238
265 140 294
266 11 242
267 224 77
268 166 123
269 92 241
270 280 180
271 151 113
272 65 49
273 203 36
274 129 83
275 38 74
276 166 105
277 129 98
278 30 226
279 15 178
280 108 298
281 296 211
282 236 72
283 277 177
284 99 73
285 166 113
286 271 8
287 228 41
288 80 131
289 284 176
290 208 117
291 119 183
292 246 166
293 144 292
294 128 155
295 113 188
296 155 93
297 161 210
298 168 176
299 60 64
300 165 204
301 280 158
302 241 71
303 57 68
304 219 152
305 72 89
306 85 75
307 3 205
308 235 243
309 12 275
310 76 160
311 56 116
312 170 53
313 34 5
314 280 175
315 288 127
316 103 8
317 229 25
318 12 198
319 66 54
320 120 60
321 110 31
322 218 20
323 226 248
324 275 100
325 217 73
326 88 225
327 123 92
328 293 62
329 4 149
330 216 25
331 63 59
332 63 155
333 158 140
334 84 236
335 260 58
336 284 244
337 190 181
338 159 287
339 285 283
340 65 68
341 61 157
342 102 173
343 300 44
344 103 78
345 144 182
346 24 76
347 149 186
348 165 182
349 179 123
350 157 84
351 17 209
352 233 119
353 167 105
354 238 206
355 127 101
356 263 291
357 281 68
358 251 237
359 108 109
360 199 28
361 3 119
362 252 219
363 234 213
364 136 140
365 191 49
366 251 241
367 119 214
368 275 182
369 103 260
370 2 238
371 94 93
372 158 291
373 230 248
374 207 20
375 54 285
376 160 107
377 59 280
378 208 290
379 248 280
380 138 100
381 8 155
382 208 235
383 111 112
384 128 94
385 110 262
386 162 203
387 160 179
388 16 204
389 239 295
390 157 31
391 147 178
392 170 174
393 157 254
394 277 101
395 283 144
396 156 182
397 274 97
398 66 56
399 158 27
400 156 26
401 257 133
402 264 61
403 296 279
404 220 66
405 240 71
406 112 43
407 4 296
408 222 73
409 209 84
410 250 134
411 59 287
412 13 202
413 93 117
414 62 53
415 275 97
416 206 121
417 107 174
418 224 61
419 124 174
420 101 110
421 112 201
422 80 86
423 5 189
424 141 100
425 165 256
426 108 113
427 37 159
428 136 104
429 107 71
430 97 232
431 127 266
432 14 204
433 278 177
434 209 246
435 134 148
436 283 65
437 108 80
438 55 62
439 141 137
440 224 138
441 163 150
442 213 68
443 113 62
444 100 138
445 126 266
446 10 150
447 137 150
448 258 232
449 191 234
450 213 119
451 5 195
452 166 203
453 100 73
454 147 185
455 60 156
456 239 77
457 163 202
458 81 219
459 155 28
460 160 27
461 43 62
462 235 241
463 291 148
464 64 53
465 168 42
466 183 282
467 289 79
468 1 272
469 87 183
470 234 107
471 52 288
472 236 66
473 264 35
474 233 245
475 144 100
476 260 64
477 130 96
478 202 292
479 7 31
480 96 86
481 141 102
482 170 93
483 85 228
484 10 147
485 18 206
486 164 202
487 1 81
488 148 157
489 159 110
490 229 40
491 67 161
492 131 220
493 112 199
494 238 69
495 258 247
496 205 130
497 109 61
498 59 67
499 151 294
500 26 0
501 45 190
502 56 212
503 148 288
504 275 263
505 272 97
506 143 67
507 29 8
508 152 29
509 176 235
510 30 145
511 61 70
512 16 196
513 168 108
514 15 209
515 211 66
516 256 54
517 11 207
518 58 240
519 131 95
520 116 14
521 154 31
522 86 230
523 133 99
524 290 37
525 9 145
526 140 292
527 134 146
528 229 179
529 72 20
530 149 285
531 257 137
532 225 73
533 71 294
534 156 57
535 177 281
536 117 168
537 162 250
538 116 245
539 153 28
540 176 70
541 50 285
542 257 243
543 246 133
544 140 100
545 69 134
546 236 248
547 217 21
548 161 112
549 233 242
550 127 77
551 155 180
552 144 173
553 65 56
554 130 102
555 76 280
556 110 76
557 271 101
558 216 203
559 136 241
560 160 17
561 64 91
562 107 39
563 106 77
564 103 93
565 138 101
566 15 52
567 160 111
568 81 223
569 113 114
570 162 206
571 203 183
572 113 4
573 176 263
574 173 72
575 279 189
576 9 144
577 266 104
578 253 57
579 296 252
580 254 87
581 114 198
582 220 43
583 11 265
584 250 130
585 299 153
586 133 187
587 246 137
588 238 103
589 220 182
590 213 61
591 290 219
592 153 61
593 55 285
594 276 66
595 236 240
596 244 13
597 163 200
598 62 65
599 189 240
600 145 183
601 140 108
602 111 112
603 188 142
604 225 192
605 203 166
606 110 79
607 112 199
PICKUP_AND_DELIVERY_SECTION
1 0 0 4823 0 0 0
2 -20 3467 3587 10 455 0
3 10 0 4769 10 0 565
4 13 2044 2164 10 0 229
5 7 1334 1454 10 0 274
6 20 153 273 10 0 429
7 10 224 344 10 0 547
8 -30 0 4691 10 23 0
9 21 1522 1642 10 0 170
10 -21 570 690 10 566 0
11 -18 1488 1608 10 451 0
12 11 1225 1345 10 0 273
13 -10 755 875 10 81 0
14 -20 652 772 10 267 0
15 -16 0 4720 10 247 0
16 -10 2259 2379 10 155 0
17 10 433 553 10 0 466
18 -10 0 4715 10 397 0
19 -19 0 4706 10 244 0
20 21 0 4709 10 0 40
21 -2 2101 2221 10 46 0
22 20 0 4732 0 0 606
23 30 554 674 10 0 8
24 19 0 4760 10 0 290
25 20 457 577 10 0 543
26 -14 655 775 10 536 0
27 20 361 481 10 0 341
28 -20 0 4673 10 590 0
29 10 238 358 10 0 208
30 -10 1318 1438 10 587 0
31 5 962 1082 10 0 411
32 38 1408 1528 10 0 352
33 17 2328 2448 10 0 160
34 10 171 291 10 0 597
35 -11 3107 3227 10 157 0
36 22 3305 3425 10 0 63
37 20 270 390 10 0 68
38 10 0 4780 10 0 299
39 15 0 4663 10 0 367
40 -21 594 714 10 20 0
41 -2 1783 1903 10 356 0
42 30 893 1013 10 0 322
43 10 0 4677 10 0 427
44 -20 3218 3338 10 335 0
45 30 41 161 10 0 288
46 2 0 4722 10 0 21
47 20 333 453 10 0 243
48 2 265 385 10 0 148
49 -9 2377 2497 10 562 0
50 -22 532 652 10 84 0
51 24 1506 1626 10 0 530
52 10 851 971 10 0 304
53 6 413 533 10 0 582
54 20 0 4706 10 0 71
55 -16 744 864 10 287 0
56 21 277 397 10 0 255
57 20 658 778 10 0 265
58 30 2518 2638 10 0 540
59 23 843 963 10 0 428
60 -14 0 4727 10 268 0
61 10 609 729 10 0 220
62 -20 1483 1603 10 101 0
63 -22 0 4774 10 36 0
64 20 98 218 10 0 78
65 -20 0 4667 10 402 0
66 30 758 878 10 0 211
67 20 355 475 10 0 598
68 -20 453 573 10 37 0
69 10 0 4672 10 0 448
70 12 1348 1468 10 0 501
71 -20 1377 1497 10 54 0
72 10 543 663 10 0 85
73 -16 0 4670 10 116 0
74 -24 3374 3494 10 507 0
75 10 673 793 10 0 375
76 20 343 463 10 0 193
77 13 438 558 10 0 146
78 -20 0 4685 10 64 0
79 1 2536 2656 10 0 545
80 -20 0 4777 10 192 0
81 10 633 753 10 0 13
82 -5 330 450 10 135 0
83 -17 2562 2682 10 98 0
84 22 401 521 10 0 50
85 -10 798 918 10 72 0
86 -18 1090 1210 10 599 0
87 20 703 823 10 0 152
88 30 4567 4687 0 0 603
89 20 617 737 10 0 173
90 -10 744 864 10 97 0
91 20 412 532 10 0 130
92 10 0 4688 10 0 495
93 -17 1574 1694 10 161 0
94 -18 2458 2578 10 126 0
95 16 976 1096 10 0 497
96 -10 0 4674 10 596 0
97 10 321 441 10 0 90
98 17 0 4682 10 0 83
99 -23 2551 2671 10 346 0
100 -25 4077 4197 10 514 0
101 20 703 823 10 0 62
102 32 1058 1178 10 0 406
103 16 422 542 10 0 204
104 10 101 221 10 0 392
105 20 450 570 10 0 525
106 -10 0 4613 10 364 0
107 20 0 4668 10 0 248
108 -40 1034 1154 10 188 0
109 -24 970 1090 10 537 0
110 -10 577 697 10 162 0
111 20 505 625 10 0 476
112 -18 2711 2831 10 309 0
113 -9 0 4755 10 230 0
114 -20 0 4665 10 477 0
115 -8 687 807 10 393 0
116 16 2310 2430 10 0 73
117 31 3177 3297 10 0 387
118 9 2410 2530 10 0 520
119 -16 797 917 10 440 0
120 -20 2223 2343 10 139 0
121 -14 451 571 10 506 0
122 10 832 952 10 0 538
123 20 860 980 10 0 446
124 14 411 531 10 0 400
125 -33 0 4675 10 509 0
126 18 1349 1469 10 0 94
127 -4 1778 1898 10 271 0
128 20 12 132 10 0 176
129 10 500 620 10 0 234
130 -20 1618 1738 10 91 0
131 20 840 960 10 0 258
132 -15 749 869 10 205 0
133 30 0 4711 10 0 172
134 20 689 809 10 0 361
135 5 55 175 10 0 82
136 -27 3200 3320 10 534 0
137 20 3961 4081 0 0 605
138 -10 0 4706 10 424 0
139 20 588 708 10 0 120
140 -12 941 1061 10 365 0
141 30 397 517 10 0 434
142 20 876 996 10 0 197
143 -20 3227 3347 10 377 0
144 -10 590 710 10 600 0
145 -26 0 4677 10 571 0
146 -13 650 770 10 77 0
147 -20 1017 1137 10 347 0
148 -2 476 596 10 48 0
149 -16 2485 2605 10 528 0
150 20 242 362 10 0 474
151 -20 0 4682 10 283 0
152 -20 2802 2922 10 87 0
153 -20 468 588 10 300 0
154 -10 576 696 10 241 0
155 10 631 751 10 0 16
156 16 919 1039 10 0 512
157 11 1330 1450 10 0 35
158 -12 2825 2945 10 585 0
159 -11 1937 2057 10 559 0
160 -17 2903 3023 10 33 0
161 17 673 793 10 0 93
162 10 0 4709 10 0 110
163 30 556 676 10 0 561
164 -10 0 4750 10 351 0
165 10 763 883 10 0 330
166 36 1078 1198 10 0 338
167 17 545 665 10 0 385
168 40 582 702 10 0 371
169 7 319 439 10 0 449
170 -21 2793 2913 10 9 0
171 20 677 797 10 0 281
172 -30 0 4708 10 133 0
173 -20 0 4670 10 89 0
174 -20 307 427 10 569 0
175 10 455 575 10 0 296
176 -20 868 988 10 128 0
177 6 1145 1265 10 0 586
178 5 0 4728 10 0 293
179 -10 312 432 10 212 0
180 -13 2298 2418 10 490 0
181 -20 2683 2803 10 404 0
182 20 0 4703 10 0 418
183 -15 0 4685 10 441 0
184 -20 914 1034 10 257 0
185 -30 441 561 10 511 0
186 -12 3642 3762 10 336 0
187 -10 651 771 10 332 0
188 40 655 775 10 0 108
189 10 640 760 10 0 413
190 20 539 659 10 0 461
191 12 2287 2407 10 0 572
192 20 0 4708 10 0 80
193 -20 620 740 10 76 0
194 16 0 4705 10 0 382
195 10 606 726 10 0 583
196 41 0 4623 10 0 580
197 -20 1951 2071 10 142 0
198 -20 0 4689 10 216 0
199 10 767 887 10 0 231
200 30 53 173 10 0 223
201 -18 2241 2361 10 579 0
202 20 807 927 10 0 577
203 19 151 271 10 0 369
204 -16 2367 2487 10 103 0
205 15 0 4689 10 0 132
206 -11 4093 4213 10 389 0
207 -10 755 875 10 222 0
208 -10 2679 2799 10 29 0
209 -24 3105 3225 10 560 0
210 36 2981 3101 10 0 264
211 -30 806 926 10 66 0
212 10 213 333 10 0 179
213 10 0 4675 10 0 315
214 20 469 589 10 0 539
215 20 174 294 10 0 523
216 20 711 831 10 0 198
217 8 2312 2432 10 0 550
218 -30 902 1022 10 289 0
219 10 892 1012 10 0 430
220 -10 0 4683 10 61 0
221 26 2185 2305 0 0 604
222 10 480 600 10 0 207
223 -30 294 414 10 200 0
224 -20 2978 3098 10 489 0
225 30 400 520 10 0 570
226 -20 0 4752 10 499 0
227 20 480 600 10 0 301
228 -30 972 1092 10 462 0
229 -13 3001 3121 10 4 0
230 9 2572 2692 10 0 113
231 -10 4031 4151 10 199 0
232 40 73 193 10 0 426
233 -18 1642 1762 10 246 0
234 -10 0 4622 10 129 0
235 10 605 725 10 0 307
236 30 460 580 10 0 331
237 -20 1675 1795 10 272 0
238 3 1105 1225 10 0 533
239 20 0 4704 10 0 568
240 -22 2771 2891 10 354 0
241 10 388 508 10 0 154
242 -15 3436 3556 10 321 0
243 -20 0 4709 10 47 0
244 19 0 4717 10 0 19
245 -10 759 879 10 527 0
246 18 445 565 10 0 233
247 16 1086 1206 10 0 15
248 -20 657 777 10 107 0
249 -24 0 4691 10 488 0
250 -27 3540 3660 10 436 0
251 -30 3371 3491 10 486 0
252 -16 1796 1916 10 262 0
253 -3 0 4711 10 269 0
254 -20 615 735 10 277 0
255 -21 788 908 10 56 0
256 -10 4092 4212 10 297 0
257 20 168 288 10 0 184
258 -20 1609 1729 10 131 0
259 20 0 4676 10 0 549
260 12 0 4717 10 0 542
261 12 322 442 10 0 593
262 16 0 4639 10 0 252
263 -10 970 1090 10 541 0
264 -36 0 4702 10 210 0
265 -20 1637 1757 10 57 0
266 -20 2068 2188 10 471 0
267 20 497 617 10 0 14
268 14 0 4782 10 0 60
269 3 0 4706 10 0 253
270 20 518 638 10 0 595
271 4 1384 1504 10 0 127
272 20 695 815 10 0 237
273 -11 0 4688 10 12 0
274 -7 2487 2607 10 5 0
275 -10 0 4678 10 303 0
276 20 388 508 10 0 420
277 20 492 612 10 0 254
278 14 3752 3872 10 0 458
279 9 3072 3192 10 0 370
280 -10 0 4660 10 483 0
281 -20 786 906 10 171 0
282 20 768 888 10 0 494
283 20 942 1062 10 0 151
284 22 0 4721 10 0 340
285 10 547 667 10 0 443
286 -10 3042 3162 10 515 0
287 16 0 4679 10 0 55
288 -30 0 4741 10 45 0
289 30 580 700 10 0 218
290 -19 0 4747 10 24 0
291 -17 2268 2388 10 469 0
292 -10 0 4716 10 557 0
293 -5 749 869 10 178 0
294 11 30 150 10 0 334
295 -2 1215 1335 10 310 0
296 -10 553 673 10 175 0
297 10 0 4752 10 0 256
298 20 198 318 10 0 425
299 -10 788 908 10 38 0
300 20 262 382 10 0 153
301 -20 0 4683 10 227 0
302 -10 0 4693 10 391 0
303 10 0 4690 10 0 275
304 -10 3836 3956 10 52 0
305 -12 2211 2331 10 480 0
306 -9 2904 3024 10 532 0
307 -10 855 975 10 235 0
308 -10 0 4688 10 368 0
309 18 2048 2168 10 0 112
310 2 239 359 10 0 295
311 -10 0 4714 10 454 0
312 21 647 767 10 0 574
313 -10 2940 3060 10 414 0
314 30 693 813 10 0 496
315 -10 2842 2962 10 213 0
316 16 2727 2847 10 0 529
317 -13 1974 2094 10 409 0
318 -20 0 4667 10 475 0
319 -10 0 4686 10 498 0
320 -10 2050 2170 10 513 0
321 15 1452 1572 10 0 242
322 -30 0 4667 10 42 0
323 -10 3411 3531 10 358 0
324 30 624 744 10 0 401
325 -10 0 4711 10 442 0
326 -15 329 449 10 342 0
327 20 284 404 10 0 556
328 -25 0 4646 10 473 0
329 -20 797 917 10 355 0
330 -10 837 957 10 165 0
331 -30 0 4688 10 236 0
332 10 556 676 10 0 187
333 5 12 132 10 0 349
334 -11 456 576 10 294 0
335 20 832 952 10 0 44
336 12 2944 3064 10 0 186
337 -19 3618 3738 10 591 0
338 -36 1586 1706 10 166 0
339 -15 0 4624 10 363 0
340 -22 973 1093 10 284 0
341 -20 505 625 10 27 0
342 15 0 4760 10 0 326
343 -24 3027 3147 10 470 0
344 -30 324 444 10 439 0
345 -30 0 4781 10 452 0
346 23 0 4667 10 0 99
347 20 223 343 10 0 147
348 10 349 469 10 0 386
349 -5 98 218 10 333 0
350 19 402 522 10 0 360
351 10 522 642 10 0 164
352 -38 0 4725 10 32 0
353 -10 432 552 10 548 0
354 22 2292 2412 10 0 240
355 20 0 4759 10 0 329
356 2 749 869 10 0 41
357 -23 2028 2148 10 492 0
358 10 602 722 10 0 323
359 20 401 521 10 0 438
360 -19 1827 1947 10 350 0
361 -20 2755 2875 10 134 0
362 23 1205 1325 10 0 403
363 15 568 688 10 0 339
364 10 157 277 10 0 106
365 12 0 4704 10 0 140
366 -20 546 666 10 373 0
367 -15 2474 2594 10 39 0
368 10 456 576 10 0 308
369 -19 0 4694 10 203 0
370 -9 3362 3482 10 279 0
371 -40 3638 3758 10 168 0
372 18 0 4672 10 0 526
373 20 494 614 10 0 366
374 13 741 861 10 0 482
375 -10 0 4648 10 75 0
376 -30 282 402 10 567 0
377 20 0 4655 10 0 143
378 16 1222 1342 10 0 573
379 27 1162 1282 10 0 457
380 -10 0 4762 10 481 0
381 10 933 1053 10 0 412
382 -16 3290 3410 10 194 0
383 20 198 318 0 0 602
384 -20 345 465 10 519 0
385 -17 1969 2089 10 167 0
386 -10 440 560 10 348 0
387 -31 0 4783 10 117 0
388 -20 0 4669 10 435 0
389 11 3010 3130 10 0 206
390 -26 1019 1139 10 465 0
391 10 513 633 10 0 302
392 -10 147 267 10 104 0
393 8 0 4709 10 0 115
394 -20 0 4677 10 531 0
395 -30 473 593 10 410 0
396 -27 2394 2514 10 445 0
397 10 0 4679 10 0 18
398 -20 803 923 10 437 0
399 10 962 1082 10 0 592
400 -14 665 785 10 124 0
401 -30 0 4705 10 324 0
402 20 0 4669 10 0 65
403 -23 1990 2110 10 362 0
404 20 508 628 10 0 181
405 -20 0 4694 10 581 0
406 -32 2211 2331 10 102 0
407 -10 3334 3454 10 502 0
408 -30 0 4708 10 472 0
409 13 1529 1649 10 0 317
410 30 433 553 10 0 395
411 -5 1986 2106 10 31 0
412 -10 0 4667 10 381 0
413 -10 1399 1519 10 189 0
414 10 590 710 10 0 313
415 -10 676 796 10 578 0
416 -30 2984 3104 10 575 0
417 21 137 257 10 0 518
418 -20 1894 2014 10 182 0
419 22 82 202 10 0 594
420 -20 512 632 10 276 0
421 20 317 437 10 0 467
422 32 0 4719 10 0 508
423 -10 585 705 10 491 0
424 10 322 442 10 0 138
425 -20 2347 2467 10 298 0
426 -40 250 370 10 232 0
427 -10 0 4700 10 43 0
428 -23 0 4765 10 59 0
429 -20 497 617 10 6 0
430 -10 3732 3852 10 219 0
431 -10 0 4695 10 485 0
432 -40 0 4667 10 517 0
433 20 898 1018 10 0 463
434 -30 1495 1615 10 141 0
435 20 405 525 10 0 388
436 27 1800 1920 10 0 250
437 20 712 832 10 0 398
438 -20 686 806 10 359 0
439 30 93 213 10 0 344
440 16 0 4739 10 0 119
441 15 13 133 10 0 183
442 10 354 474 10 0 325
443 -10 2094 2214 10 285 0
444 24 0 4762 10 0 555
445 27 1976 2096 10 0 396
446 -20 0 4673 10 123 0
447 -20 0 4800 10 453 0
448 -10 1096 1216 10 69 0
449 -7 314 434 10 169 0
450 -16 2915 3035 10 588 0
451 18 742 862 10 0 11
452 30 217 337 10 0 345
453 20 387 507 10 0 447
454 10 272 392 10 0 311
455 20 459 579 10 0 2
456 20 0 4698 10 0 584
457 -27 0 4760 10 379 0
458 -14 3854 3974 10 278 0
459 -20 568 688 10 544 0
460 -20 914 1034 10 521 0
461 -20 3283 3403 10 190 0
462 30 805 925 10 0 228
463 -20 0 4672 10 433 0
464 30 638 758 10 0 479
465 26 0 4704 10 0 390
466 -10 1766 1886 10 17 0
467 -20 1562 1682 10 421 0
468 -20 885 1005 10 522 0
469 17 2100 2220 10 0 291
470 24 1354 1474 10 0 343
471 20 0 4644 10 0 266
472 30 704 824 10 0 408
473 25 0 4652 10 0 328
474 -20 615 735 10 150 0
475 20 0 4763 10 0 318
476 -20 0 4674 10 111 0
477 20 443 563 10 0 114
478 -10 3632 3752 10 546 0
479 -30 3171 3291 10 464 0
480 12 275 395 10 0 305
481 10 175 295 10 0 380
482 -13 0 4753 10 374 0
483 10 776 896 10 0 280
484 -40 636 756 10 576 0
485 10 575 695 10 0 431
486 30 529 649 10 0 251
487 -20 0 4649 10 554 0
488 24 7 127 10 0 249
489 20 190 310 10 0 224
490 13 0 4678 10 0 180
491 10 275 395 10 0 423
492 23 483 603 10 0 357
493 20 269 389 0 0 607
494 -20 0 4694 10 282 0
495 -10 903 1023 10 92 0
496 -30 3758 3878 10 314 0
497 -16 1587 1707 10 95 0
498 10 473 593 10 0 319
499 20 639 759 10 0 226
500 -10 0 4619 10 553 0
501 -12 1780 1900 10 70 0
502 10 1890 2010 10 0 407
503 30 0 4675 10 0 551
504 33 668 788 10 0 535
505 40 768 888 10 0 558
506 14 273 393 10 0 121
507 24 0 4627 10 0 74
508 -32 3597 3717 10 422 0
509 33 296 416 10 0 125
510 -13 3388 3508 10 564 0
511 30 419 539 10 0 185
512 -16 1040 1160 10 156 0
513 10 485 605 10 0 320
514 25 3529 3649 10 0 100
515 10 818 938 10 0 286
516 30 596 716 10 0 589
517 40 782 902 10 0 432
518 -21 3098 3218 10 417 0
519 20 398 518 10 0 384
520 -9 2615 2735 10 118 0
521 20 416 536 10 0 460
522 20 391 511 10 0 468
523 -20 549 669 10 215 0
524 -20 0 4634 10 552 0
525 -20 685 805 10 105 0
526 -18 866 986 10 372 0
527 10 264 384 10 0 245
528 16 968 1088 10 0 149
529 -16 2737 2857 10 316 0
530 -24 0 4678 10 51 0
531 20 504 624 10 0 394
532 9 2075 2195 10 0 306
533 -3 2263 2383 10 238 0
534 27 2726 2846 10 0 136
535 -33 1702 1822 10 504 0
536 14 90 210 10 0 26
537 24 0 4713 10 0 109
538 -10 2309 2429 10 122 0
539 -20 520 640 10 214 0
540 -30 0 4729 10 58 0
541 10 742 862 10 0 263
542 -12 805 925 10 260 0
543 -20 0 4716 10 25 0
544 20 366 486 10 0 459
545 -1 2496 2616 10 79 0
546 10 558 678 10 0 478
547 -10 740 860 10 7 0
548 10 98 218 10 0 353
549 -20 0 4690 10 259 0
550 -8 0 4737 10 217 0
551 -30 0 4783 10 503 0
552 20 576 696 10 0 524
553 10 493 613 10 0 500
554 20 0 4761 10 0 487
555 -24 0 4664 10 444 0
556 -20 0 4729 10 327 0
557 10 0 4683 10 0 292
558 -40 0 4729 10 505 0
559 11 1486 1606 10 0 159
560 24 0 4680 10 0 209
561 -30 0 4709 10 163 0
562 9 1362 1482 10 0 49
563 -10 658 778 10 601 0
564 13 2265 2385 10 0 510
565 -10 458 578 10 3 0
566 21 607 727 10 0 10
567 30 144 264 10 0 376
568 -20 889 1009 10 239 0
569 20 146 266 10 0 174
570 -30 0 4756 10 225 0
571 26 280 400 10 0 145
572 -12 0 4663 10 191 0
573 -16 2439 2559 10 378 0
574 -21 2743 2863 10 312 0
575 30 2378 2498 10 0 416
576 40 0 4672 10 0 484
577 -20 929 1049 10 202 0
578 10 495 615 10 0 415
579 18 0 4635 10 0 201
580 -41 4184 4304 10 196 0
581 20 220 340 10 0 405
582 -6 0 4686 10 53 0
583 -10 703 823 10 195 0
584 -20 854 974 10 456 0
585 12 1640 1760 10 0 158
586 -6 4270 4390 10 177 0
587 10 328 448 10 0 30
588 16 2889 3009 10 0 450
589 -30 2452 2572 10 516 0
590 20 623 743 10 0 28
591 19 0 4657 10 0 337
592 -10 1035 1155 10 399 0
593 -12 980 1100 10 261 0
594 -22 0 4662 10 419 0
595 -20 0 4689 10 270 0
596 10 2892 3012 10 0 96
597 -10 578 698 10 34 0
598 -20 0 4691 10 67 0
599 18 379 499 10 0 86
600 10 365 485 10 0 144
601 10 616 736 10 0 563
602 -20 198 318 10 383 0
603 -30 4567 4687 10 88 0
604 -26 2185 2305 10 221 0
605 -20 3961 4081 10 137 0
606 -20 0 4732 10 22 0
607 -20 269 389 10 493 0
DEPOT_SECTION
1
-1
EOF
