NAME: lrc2_6_1
TYPE: PDPTW
COMMENT: Li & Lim PDPTW benchmark converted from SINTEF format
DIMENSION: 607
VEHICLES: 150
CAPACITY: 1000
EDGE_WEIGHT_TYPE: EUC_2D
NODE_COORD_SECTION
1 150 150
2 125 168
3 162 107
4 199 213
5 61 84
6 125 103
7 143 101
8 28 141
9 230 128
10 55 68
11 72 180
12 159 41
13 8 4
14 257 58
15 57 155
16 186 26
17 231 243
18 247 132
19 89 61
20 84 231
21 116 240
22 110 79
23 110 74
24 180 106
25 240 73
26 13 265
27 134 147
28 257 59
29 160 108
30 289 130
31 27 255
32 234 146
33 69 208
34 115 196
35 250 228
36 159 89
37 105 81
38 149 183
39 159 300
40 47 277
41 209 269
42 212 26
43 14 149
44 74 117
45 140 140
46 152 241
47 222 83
48 88 124
49 136 68
50 250 124
51 109 299
52 258 244
53 208 47
54 212 62
55 259 59
56 150 104
57 77 233
58 212 45
59 57 125
60 232 121
61 255 132
62 18 184
63 165 113
64 143 111
65 248 41
66 8 263
67 109 110
68 106 71
69 259 240
70 38 139
71 277 41
72 255 57
73 9 122
74 102 76
75 43 286
76 60 160
77 172 225
78 161 22
79 88 110
80 122 127
81 52 63
82 53 141
83 175 281
84 265 141
85 250 126
86 147 281
87 255 240
88 188 142
89 154 26
90 59 64
91 114 204
92 235 242
93 34 150
94 140 214
95 59 113
96 282 104
97 145 184
98 184 277
99 129 77
100 96 199
101 67 154
102 2 81
103 208 208
104 169 173
105 106 108
106 15 2
107 227 26
108 147 285
109 141 286
110 231 70
111 242 73
112 15 259
113 93 165
114 10 198
115 149 294
116 82 100
117 256 286
118 172 2
119 277 172
120 73 81
121 217 69
122 85 224
123 0 153
124 147 43
125 143 288
126 112 272
127 200 26
128 140 143
129 83 236
130 253 84
131 53 288
132 256 239
133 224 79
134 110 107
135 125 136
136 149 76
137 203 166
138 211 61
139 107 103
140 262 62
141 227 80
142 269 103
143 119 254
144 122 96
145 248 245
146 181 297
147 65 69
148 16 151
149 254 206
150 167 176
151 280 172
152 285 285
153 149 282
154 277 100
155 223 23
156 25 191
157 266 212
158 272 183
159 135 251
160 11 191
161 25 119
162 215 68
163 137 104
164 113 202
165 160 24
166 51 217
167 14 177
168 225 22
169 194 234
170 262 14
171 259 126
172 214 234
173 216 23
174 111 110
175 145 182
176 51 2
177 30 243
178 186 228
179 132 146
180 176 72
181 108 3
182 216 62
183 271 106
184 140 290
185 64 59
186 206 157
187 66 157
188 132 297
189 109 105
190 64 55
191 173 64
192 213 65
193 17 205
194 224 229
195 78 236
196 274 6
197 207 237
198 161 26
199 119 104
200 169 171
201 296 235
202 220 74
203 109 148
204 212 270
205 265 197
206 174 238
207 223 74
208 47 203
209 69 90
210 33 231
211 8 265
212 136 144
213 286 175
214 151 30
215 150 184
216 157 25
217 131 78
218 232 240
219 53 285
220 278 176
221 225 192
222 115 197
223 167 179
224 6 168
225 163 180
226 135 210
227 277 104
228 262 241
229 162 148
230 61 138
231 117 155
232 126 127
233 157 221
234 19 290
235 65 156
236 159 177
237 12 10
238 67 175
239 78 232
240 201 175
241 249 133
242 139 110
243 252 128
244 57 123
245 71 154
246 157 276
247 111 98
248 221 70
249 70 57
250 236 108
251 268 113
252 40 1
253 106 243
254 37 126
255 259 58
256 167 193
257 168 204
258 72 286
259 254 240
260 241 183
261 75 191
262 26 27
263 12 270
264 81 238
265 140 294
266 11 242
267 224 77
268 166 123
269 92 241
270 280 180
271 151 113
272 65 49
273 203 36
274 129 83
275 38 74
276 166 105
277 129 98
278 30 226
279 15 178
280 108 298
281 296 211
282 236 72
283 277 177
284 99 73
285 166 113
286 271 8
287 228 41
288 80 131
289 284 176
290 208 117
291 119 183
292 246 166
293 144 292
294 128 155
295 113 188
296 155 93
297 161 210
298 168 176
299 60 64
300 165 204
301 280 158
302 241 71
303 57 68
304 219 152
305 72 89
306 85 75
307 3 205
308 235 243
309 12 275
310 76 160
311 56 116
312 170 53
313 34 5
314 280 175
315 288 127
316 103 8
317 229 25
318 12 198
319 66 54
320 120 60
321 110 31
322 218 20
323 226 248
324 275 100
325 217 73
326 88 225
327 123 92
328 293 62
329 4 149
330 216 25
331 63 59
332 63 155
333 158 140
334 84 236
335 260 58
336 284 244
337 190 181
338 159 287
339 285 283
340 65 68
341 61 157
342 102 173
343 300 44
344 103 78
345 144 182
346 24 76
347 149 186
348 165 182
349 179 123
350 157 84
351 17 209
352 233 119
353 167 105
354 238 206
355 127 101
356 263 291
357 281 68
358 251 237
359 108 109
360 199 28
361 3 119
362 252 219
363 234 213
364 136 140
365 191 49
366 251 241
367 119 214
368 275 182
369 103 260
370 2 238
371 94 93
372 158 291
373 230 248
374 207 20
375 54 285
376 160 107
377 59 280
378 208 290
379 248 280
380 138 100
381 8 155
382 208 235
383 111 112
384 128 94
385 110 262
386 162 203
387 160 179
388 16 204
389 239 295
390 157 31
391 147 178
392 170 174
393 157 254
394 277 101
395 283 144
396 156 182
397 274 97
398 66 56
399 158 27
400 156 26
401 257 133
402 264 61
403 296 279
404 220 66
405 240 71
406 112 43
407 4 296
408 222 73
409 209 84
410 250 134
411 59 287
412 13 202
413 93 117
414 62 53
415 275 97
416 206 121
417 107 174
418 224 61
419 124 174
420 101 110
421 112 201
422 80 86
423 5 189
424 141 100
425 165 256
426 108 113
427 37 159
428 136 104
429 107 71
430 97 232
431 127 266
432 14 204
433 278 177
434 209 246
435 134 148
436 283 65
437 108 80
438 55 62
439 141 137
440 224 138
441 163 150
442 213 68
443 113 62
444 100 138
445 126 266
446 10 150
447 137 150
448 258 232
449 191 234
450 213 119
451 5 195
452 166 203
453 100 73
454 147 185
455 60 156
456 239 77
457 163 202
458 81 219
459 155 28
460 160 27
461 43 62
462 235 241
463 291 148
464 64 53
465 168 42
466 183 282
467 289 79
468 1 272
469 87 183
470 234 107
471 52 288
472 236 66
473 264 35
474 233 245
475 144 100
476 260 64
477 130 96
478 202 292
479 7 31
480 96 86
481 141 102
482 170 93
483 85 228
484 10 147
485 18 206
486 164 202
487 1 81
488 148 157
489 159 110
490 229 40
491 67 161
492 131 220
493 112 199
494 238 69
495 258 247
496 205 130
497 109 61
498 59 67
499 151 294
500 26 0
501 45 190
502 56 212
503 148 288
504 275 263
505 272 97
506 143 67
507 29 8
508 152 29
509 176 235
510 30 145
511 61 70
512 16 196
513 168 108
514 15 209
515 211 66
516 256 54
517 11 207
518 58 240
519 131 95
520 116 14
521 154 31
522 86 230
523 133 99
524 290 37
525 9 145
526 140 292
527 134 146
528 229 179
529 72 20
530 149 285
531 257 137
532 225 73
533 71 294
534 156 57
535 177 281
536 117 168
537 162 250
538 116 245
539 153 28
540 176 70
541 50 285
542 257 243
543 246 133
544 140 100
545 69 134
546 236 248
547 217 21
548 161 112
549 233 242
550 127 77
551 155 180
552 144 173
553 65 56
554 130 102
555 76 280
556 110 76
557 271 101
558 216 203
559 136 241
560 160 17
561 64 91
562 107 39
563 106 77
564 103 93
565 138 101
566 15 52
567 160 111
568 81 223
569 113 114
570 162 206
571 203 183
572 113 4
573 176 263
574 173 72
575 279 189
576 9 144
577 266 104
578 253 57
579 296 252
580 254 87
581 114 198
582 220 43
583 11 265
584 250 130
585 299 153
586 133 187
587 246 137
588 238 103
589 220 182
590 213 61
591 290 219
592 153 61
593 55 285
594 276 66
595 236 240
596 244 13
597 163 200
598 62 65
599 189 240
600 145 183
601 140 108
602 64 55
603 264 35
604 16 196
605 230 248
606 119 254
607 277 104
PICKUP_AND_DELIVERY_SECTION
1 0 0 4823 0 0 0
2 -18 3467 3587 10 309 0
3 10 330 450 10 0 165
4 13 2044 2164 10 0 396
5 7 1334 1454 10 0 430
6 -30 153 273 10 439 0
7 10 224 344 10 0 168
8 -20 2580 2700 10 57 0
9 21 1522 1642 10 0 183
10 30 570 690 10 0 176
11 -20 1488 1608 10 359 0
12 -20 1225 1345 10 277 0
13 29 755 875 10 0 461
14 -17 652 772 10 594 0
15 20 407 527 10 0 576
16 -20 2259 2379 10 340 0
17 10 433 553 10 0 474
18 10 908 1028 10 0 304
19 14 1012 1132 10 0 127
20 -20 2178 2298 10 484 0
21 -24 2101 2221 10 51 0
22 -20 761 881 10 27 0
23 30 554 674 10 0 118
24 19 153 273 10 0 404
25 -20 457 577 10 456 0
26 -20 655 775 10 40 0
27 20 361 481 10 0 22
28 -30 696 816 10 516 0
29 10 238 358 10 0 49
30 -10 1318 1438 10 584 0
31 5 962 1082 10 0 533
32 -30 1408 1528 10 289 0
33 -14 2328 2448 10 288 0
34 10 171 291 10 0 421
35 -40 3107 3227 10 495 0
36 22 3305 3425 10 0 242
37 20 270 390 10 0 185
38 10 128 248 10 0 462
39 15 541 661 10 0 526
40 20 594 714 10 0 26
41 17 1783 1903 10 0 204
42 30 893 1013 10 0 149
43 10 527 647 10 0 156
44 -32 3218 3338 10 529 0
45 30 41 161 10 0 48
46 2 2684 2804 10 0 389
47 -4 333 453 10 349 0
48 -30 265 385 10 45 0
49 -10 2377 2497 10 29 0
50 4 532 652 10 0 505
51 24 1506 1626 10 0 21
52 10 851 971 10 0 194
53 6 413 533 10 0 110
54 20 716 836 10 0 207
55 10 744 864 10 0 357
56 21 277 397 10 0 365
57 20 658 778 10 0 8
58 -20 2518 2638 10 438 0
59 -10 843 963 10 601 0
60 15 2309 2429 10 0 250
61 -10 609 729 10 154 0
62 -18 1483 1603 10 451 0
63 20 591 711 10 0 444
64 20 98 218 10 0 481
65 -20 1876 1996 10 521 0
66 -15 758 878 10 342 0
67 -20 355 475 10 569 0
68 20 453 573 10 0 90
69 10 1024 1144 10 0 197
70 -20 1348 1468 10 239 0
71 14 1377 1497 10 0 130
72 10 543 663 10 0 170
73 19 866 986 10 0 210
74 -10 3374 3494 10 399 0
75 10 673 793 10 0 375
76 20 343 463 10 0 161
77 -20 438 558 10 392 0
78 -10 812 932 10 459 0
79 -15 2536 2656 10 120 0
80 -10 85 205 10 364 0
81 10 633 753 10 0 479
82 16 330 450 10 0 471
83 -30 2562 2682 10 551 0
84 22 401 521 10 0 531
85 -10 798 918 10 415 0
86 -17 1090 1210 10 98 0
87 20 703 823 10 0 378
88 -19 4567 4687 10 591 0
89 20 617 737 10 0 443
90 -20 744 864 10 68 0
91 20 412 532 10 0 231
92 10 710 830 10 0 403
93 15 1574 1694 10 0 224
94 -27 2458 2578 10 445 0
95 -20 976 1096 10 435 0
96 -6 1084 1204 10 395 0
97 10 321 441 10 0 308
98 17 807 927 10 0 86
99 -20 2551 2671 10 390 0
100 -12 4077 4197 10 234 0
101 -10 703 823 10 420 0
102 32 1058 1178 10 0 518
103 16 422 542 10 0 119
104 10 101 221 10 0 431
105 20 450 570 10 0 244
106 -22 1595 1715 10 237 0
107 -20 524 644 10 475 0
108 10 1034 1154 10 0 226
109 -20 970 1090 10 300 0
110 -6 577 697 10 53 0
111 20 505 625 10 0 436
112 -17 2711 2831 10 411 0
113 13 176 296 10 0 266
114 10 935 1055 10 0 501
115 -18 687 807 10 246 0
116 -3 2310 2430 10 238 0
117 31 3177 3297 10 0 256
118 -30 2410 2530 10 23 0
119 -16 797 917 10 103 0
120 15 2223 2343 10 0 79
121 10 451 571 10 0 409
122 10 832 952 10 0 305
123 -20 860 980 10 329 0
124 14 411 531 10 0 214
125 -18 806 926 10 372 0
126 18 1349 1469 10 0 538
127 -14 1778 1898 10 19 0
128 20 12 132 10 0 280
129 10 500 620 10 0 195
130 -14 1618 1738 10 71 0
131 20 840 960 10 0 233
132 -10 749 869 10 391 0
133 -5 449 569 10 333 0
134 -20 689 809 10 139 0
135 5 55 175 10 0 541
136 -8 3200 3320 10 574 0
137 -30 3961 4081 10 575 0
138 20 671 791 10 0 192
139 20 588 708 10 0 134
140 -20 941 1061 10 302 0
141 30 397 517 10 0 328
142 20 876 996 10 0 260
143 42 3227 3347 0 0 606
144 19 590 710 10 0 208
145 10 486 606 10 0 425
146 -30 650 770 10 503 0
147 -20 1017 1137 10 331 0
148 -40 476 596 10 341 0
149 -30 2485 2605 10 42 0
150 20 242 362 10 0 188
151 -20 745 865 10 270 0
152 -20 2802 2922 10 215 0
153 -20 468 588 10 223 0
154 10 576 696 10 0 61
155 10 631 751 10 0 490
156 -10 919 1039 10 43 0
157 11 1330 1450 10 0 336
158 -20 2825 2945 10 171 0
159 -10 1937 2057 10 530 0
160 -9 2903 3023 10 230 0
161 -20 673 793 10 76 0
162 -14 402 522 10 268 0
163 30 556 676 10 0 554
164 -20 363 483 10 581 0
165 -10 763 883 10 3 0
166 -17 1078 1198 10 167 0
167 17 545 665 10 0 166
168 -10 582 702 10 7 0
169 -18 319 439 10 599 0
170 -10 2793 2913 10 72 0
171 20 677 797 10 0 158
172 -9 2921 3041 10 449 0
173 10 789 909 10 0 374
174 -40 307 427 10 232 0
175 10 455 575 10 0 225
176 -30 868 988 10 10 0
177 -30 1145 1265 10 593 0
178 -7 1652 1772 10 427 0
179 20 312 432 10 0 306
180 6 2298 2418 10 0 540
181 -22 2683 2803 10 311 0
182 20 570 690 10 0 515
183 -21 2350 2470 10 9 0
184 -10 914 1034 10 348 0
185 -20 441 561 10 37 0
186 -13 3642 3762 10 589 0
187 -10 651 771 10 222 0
188 -20 655 775 10 150 0
189 10 640 760 10 0 245
190 20 539 659 0 0 602
191 -20 2287 2407 10 325 0
192 -20 769 889 10 138 0
193 -5 620 740 10 423 0
194 -10 1364 1484 10 52 0
195 -10 606 726 10 129 0
196 -30 2077 2197 10 255 0
197 -10 1951 2071 10 69 0
198 10 868 988 10 0 562
199 -10 767 887 10 212 0
200 30 53 173 10 0 499
201 -10 2241 2361 10 454 0
202 -10 807 927 10 442 0
203 19 151 271 10 0 318
204 -17 2367 2487 10 41 0
205 -20 1286 1406 10 228 0
206 -2 4093 4213 10 356 0
207 -20 755 875 10 54 0
208 -19 2679 2799 10 144 0
209 -10 3105 3225 10 285 0
210 -19 2981 3101 10 73 0
211 -14 806 926 10 536 0
212 10 213 333 10 0 199
213 10 629 749 10 0 433
214 -14 469 589 10 124 0
215 20 174 294 10 0 152
216 -20 711 831 10 353 0
217 8 2312 2432 10 0 274
218 -20 902 1022 10 347 0
219 -10 892 1012 10 485 0
220 20 854 974 10 0 528
221 -9 2185 2305 10 532 0
222 10 480 600 10 0 187
223 20 294 414 10 0 153
224 -15 2978 3098 10 93 0
225 -10 400 520 10 175 0
226 -10 3608 3728 10 108 0
227 20 480 600 0 0 607
228 20 972 1092 10 0 205
229 -10 3001 3121 10 299 0
230 9 2572 2692 10 0 160
231 -20 4031 4151 10 91 0
232 40 73 193 10 0 174
233 -20 1642 1762 10 131 0
234 12 1549 1669 10 0 100
235 10 605 725 10 0 253
236 -24 460 580 10 488 0
237 22 1675 1795 10 0 106
238 3 1105 1225 10 0 116
239 20 704 824 10 0 70
240 -5 2771 2891 10 558 0
241 10 388 508 10 0 543
242 -22 3436 3556 10 36 0
243 10 747 867 10 0 585
244 -20 661 781 10 105 0
245 -10 759 879 10 189 0
246 18 445 565 10 0 115
247 -10 1086 1206 10 527 0
248 -20 657 777 10 267 0
249 -20 860 980 10 319 0
250 -15 3540 3660 10 60 0
251 -22 3371 3491 10 281 0
252 -10 1796 1916 10 553 0
253 -10 752 872 10 235 0
254 -10 615 735 10 491 0
255 30 788 908 10 0 196
256 -31 4092 4212 10 117 0
257 20 168 288 10 0 366
258 17 1609 1729 10 0 458
259 20 659 779 10 0 478
260 -20 3374 3494 10 142 0
261 -21 322 442 10 417 0
262 16 3479 3599 10 0 508
263 -20 970 1090 10 522 0
264 -20 551 671 10 326 0
265 -30 1637 1757 10 570 0
266 -13 2068 2188 10 113 0
267 20 497 617 10 0 248
268 14 66 186 10 0 162
269 -19 3067 3187 10 432 0
270 20 518 638 10 0 151
271 -20 1384 1504 10 437 0
272 20 695 815 10 0 588
273 -30 1589 1709 10 556 0
274 -8 2487 2607 10 217 0
275 16 601 721 10 0 507
276 20 388 508 10 0 312
277 20 492 612 10 0 12
278 -21 3752 3872 10 370 0
279 -23 3072 3192 10 346 0
280 -20 3521 3641 10 128 0
281 22 786 906 10 0 251
282 -20 768 888 10 590 0
283 20 942 1062 10 0 301
284 -10 360 480 10 344 0
285 10 547 667 10 0 209
286 36 3042 3162 10 0 343
287 -10 3249 3369 10 578 0
288 14 1335 1455 10 0 33
289 30 580 700 10 0 32
290 15 313 433 10 0 335
291 -10 2268 2388 10 502 0
292 18 2177 2297 10 0 354
293 -20 749 869 10 298 0
294 11 30 150 10 0 446
295 11 1215 1335 10 0 387
296 -20 553 673 10 523 0
297 10 331 451 10 0 537
298 20 198 318 10 0 293
299 10 788 908 10 0 229
300 20 262 382 10 0 109
301 -20 2591 2711 10 283 0
302 20 554 674 10 0 140
303 -30 522 642 10 511 0
304 -10 3836 3956 10 18 0
305 -10 2211 2331 10 122 0
306 -20 2904 3024 10 179 0
307 -20 855 975 10 455 0
308 -10 666 786 10 97 0
309 18 2048 2168 10 0 2
310 2 239 359 10 0 517
311 22 919 1039 10 0 181
312 -20 647 767 10 276 0
313 -10 2940 3060 10 414 0
314 30 693 813 10 0 352
315 23 2842 2962 10 0 496
316 -13 2727 2847 10 564 0
317 -22 1974 2094 10 418 0
318 -19 983 1103 10 203 0
319 20 755 875 10 0 249
320 -10 2050 2170 10 400 0
321 15 1452 1572 10 0 497
322 20 694 814 10 0 547
323 -22 3411 3531 10 382 0
324 -10 624 744 10 587 0
325 20 860 980 10 0 191
326 20 329 449 10 0 264
327 20 284 404 10 0 480
328 -30 669 789 10 141 0
329 20 797 917 10 0 123
330 -10 837 957 10 539 0
331 20 851 971 10 0 147
332 10 556 676 10 0 483
333 5 12 132 10 0 133
334 10 456 576 10 0 555
335 -15 832 952 10 290 0
336 -11 2944 3064 10 157 0
337 -18 3618 3738 10 579 0
338 21 1586 1706 10 0 385
339 -26 2214 2334 10 434 0
340 20 973 1093 10 0 16
341 40 505 625 10 0 148
342 15 153 273 10 0 66
343 -36 3027 3147 10 286 0
344 10 324 444 10 0 284
345 30 411 531 10 0 552
346 23 1986 2106 10 0 279
347 20 223 343 10 0 218
348 10 349 469 10 0 184
349 4 98 218 10 0 47
350 -10 402 522 10 513 0
351 10 522 642 10 0 388
352 -30 3754 3874 10 314 0
353 20 432 552 10 0 216
354 -18 2292 2412 10 292 0
355 20 204 324 10 0 566
356 2 749 869 10 0 206
357 -10 2028 2148 10 55 0
358 -33 602 722 10 509 0
359 20 401 521 10 0 11
360 -12 1827 1947 10 592 0
361 -32 2755 2875 10 422 0
362 -20 1205 1325 10 457 0
363 15 568 688 10 0 573
364 10 157 277 10 0 80
365 -21 521 641 10 56 0
366 -20 546 666 10 257 0
367 -16 2474 2594 10 535 0
368 -26 456 576 10 571 0
369 -17 3577 3697 10 469 0
370 21 3362 3482 10 0 278
371 -10 3638 3758 10 548 0
372 18 649 769 10 0 125
373 20 494 614 0 0 605
374 -10 741 861 10 173 0
375 -10 936 1056 10 75 0
376 30 282 402 10 0 460
377 20 1046 1166 10 0 559
378 -20 1222 1342 10 87 0
379 -33 1162 1282 10 504 0
380 30 414 534 10 0 598
381 -20 933 1053 10 383 0
382 22 3290 3410 10 0 323
383 20 198 318 10 0 381
384 30 345 465 10 0 563
385 -21 1969 2089 10 338 0
386 30 440 560 10 0 448
387 -11 3118 3238 10 295 0
388 -10 666 786 10 351 0
389 -2 3010 3130 10 46 0
390 20 1019 1139 10 0 99
391 10 513 633 10 0 132
392 20 147 267 10 0 77
393 -42 2066 2186 10 466 0
394 -30 532 652 10 410 0
395 6 473 593 10 0 96
396 -13 2394 2514 10 4 0
397 10 720 840 10 0 557
398 30 803 923 10 0 465
399 10 962 1082 10 0 74
400 10 665 785 10 0 320
401 20 560 680 10 0 577
402 20 892 1012 10 0 596
403 -10 1990 2110 10 92 0
404 -19 508 628 10 24 0
405 30 598 718 10 0 482
406 -20 2211 2331 10 428 0
407 -10 3334 3454 10 583 0
408 -20 710 830 10 494 0
409 -10 1529 1649 10 121 0
410 30 433 553 10 0 394
411 17 1986 2106 10 0 112
412 -30 720 840 10 525 0
413 -21 1399 1519 10 487 0
414 10 590 710 10 0 313
415 10 676 796 10 0 85
416 -25 2984 3104 10 450 0
417 21 137 257 10 0 261
418 22 1894 2014 10 0 317
419 22 82 202 10 0 493
420 10 512 632 10 0 101
421 -10 317 437 10 34 0
422 32 2401 2521 10 0 361
423 5 585 705 10 0 193
424 10 322 442 10 0 429
425 -10 2347 2467 10 145 0
426 10 250 370 10 0 586
427 7 466 586 10 0 178
428 20 512 632 10 0 406
429 -10 497 617 10 424 0
430 -7 3732 3852 10 5 0
431 -10 490 610 10 104 0
432 19 2372 2492 10 0 269
433 -10 898 1018 10 213 0
434 26 1495 1615 10 0 339
435 20 405 525 10 0 95
436 -20 1800 1920 10 111 0
437 20 712 832 10 0 271
438 20 686 806 10 0 58
439 30 93 213 10 0 6
440 -15 3635 3755 10 441 0
441 15 13 133 10 0 440
442 10 354 474 10 0 202
443 -20 2094 2214 10 89 0
444 -20 820 940 10 63 0
445 27 1976 2096 10 0 94
446 -11 584 704 10 294 0
447 30 459 579 10 0 520
448 -30 1096 1216 10 386 0
449 9 314 434 10 0 172
450 25 2915 3035 10 0 416
451 18 742 862 10 0 62
452 30 217 337 10 0 546
453 20 387 507 10 0 561
454 10 272 392 10 0 201
455 20 459 579 10 0 307
456 20 400 520 10 0 25
457 20 485 605 10 0 362
458 -17 3854 3974 10 258 0
459 10 568 688 10 0 78
460 -30 914 1034 10 376 0
461 -29 3283 3403 10 13 0
462 -10 805 925 10 38 0
463 -24 2542 2662 10 470 0
464 -20 638 758 10 477 0
465 -30 2532 2652 10 398 0
466 42 1766 1886 10 0 393
467 19 1562 1682 10 0 476
468 10 885 1005 10 0 514
469 17 2100 2220 10 0 369
470 24 1354 1474 10 0 463
471 -16 796 916 10 82 0
472 30 704 824 10 0 534
473 25 3932 4052 0 0 603
474 -10 615 735 10 17 0
475 20 270 390 10 0 107
476 -19 1732 1852 10 467 0
477 20 443 563 10 0 464
478 -20 3632 3752 10 259 0
479 -10 3171 3291 10 81 0
480 -20 275 395 10 327 0
481 -20 175 295 10 64 0
482 -30 1902 2022 10 405 0
483 -10 776 896 10 332 0
484 20 636 756 10 0 20
485 10 575 695 10 0 219
486 -10 529 649 10 600 0
487 21 1282 1402 10 0 413
488 24 7 127 10 0 236
489 20 190 310 10 0 550
490 -10 957 1077 10 155 0
491 10 275 395 10 0 254
492 23 483 603 10 0 568
493 -22 269 389 10 419 0
494 20 649 769 10 0 408
495 40 903 1023 10 0 35
496 -23 3758 3878 10 315 0
497 -15 1587 1707 10 321 0
498 10 473 593 10 0 500
499 -30 639 759 10 200 0
500 -10 1979 2099 10 498 0
501 -10 1780 1900 10 114 0
502 10 1890 2010 10 0 291
503 30 573 693 10 0 146
504 33 668 788 10 0 379
505 -4 768 888 10 50 0
506 14 273 393 10 0 582
507 -16 3004 3124 10 275 0
508 -16 3597 3717 10 262 0
509 33 296 416 10 0 358
510 -46 3388 3508 10 545 0
511 30 419 539 10 0 303
512 30 1040 1160 0 0 604
513 10 485 605 10 0 350
514 -10 3529 3649 10 468 0
515 -20 818 938 10 182 0
516 30 596 716 10 0 28
517 -2 782 902 10 310 0
518 -32 3098 3218 10 102 0
519 20 398 518 10 0 565
520 -30 2615 2735 10 447 0
521 20 416 536 10 0 65
522 20 391 511 10 0 263
523 20 549 669 10 0 296
524 1 3265 3385 10 0 580
525 30 685 805 10 0 412
526 -15 866 986 10 39 0
527 10 264 384 10 0 247
528 -20 968 1088 10 220 0
529 32 2737 2857 10 0 44
530 10 520 640 10 0 159
531 -22 504 624 10 84 0
532 9 2075 2195 10 0 221
533 -5 2263 2383 10 31 0
534 -30 2726 2846 10 472 0
535 16 1702 1822 10 0 367
536 14 90 210 10 0 211
537 -10 782 902 10 297 0
538 -18 2309 2429 10 126 0
539 10 520 640 10 0 330
540 -6 2688 2808 10 180 0
541 -5 742 862 10 135 0
542 10 805 925 10 0 549
543 -10 954 1074 10 241 0
544 20 366 486 10 0 560
545 46 2496 2616 10 0 510
546 -30 558 678 10 452 0
547 -20 740 860 10 322 0
548 10 98 218 10 0 371
549 -10 854 974 10 542 0
550 -20 3319 3439 10 489 0
551 30 62 182 10 0 83
552 -30 576 696 10 345 0
553 10 493 613 10 0 252
554 -30 606 726 10 163 0
555 -10 1939 2059 10 334 0
556 30 602 722 10 0 273
557 -10 825 945 10 397 0
558 5 2163 2283 10 0 240
559 -20 1486 1606 10 377 0
560 -20 1361 1481 10 544 0
561 -20 398 518 10 453 0
562 -10 1362 1482 10 198 0
563 -30 658 778 10 384 0
564 13 2265 2385 10 0 316
565 -20 458 578 10 519 0
566 -20 607 727 10 355 0
567 30 144 264 10 0 572
568 -23 889 1009 10 492 0
569 20 146 266 10 0 67
570 30 388 508 10 0 265
571 26 280 400 10 0 368
572 -30 1163 1283 10 567 0
573 -15 2439 2559 10 363 0
574 8 2743 2863 10 0 136
575 30 2378 2498 10 0 137
576 -20 729 849 10 15 0
577 -20 929 1049 10 401 0
578 10 495 615 10 0 287
579 18 3157 3277 10 0 337
580 -1 4184 4304 10 524 0
581 20 220 340 10 0 164
582 -14 1739 1859 10 506 0
583 10 703 823 10 0 407
584 10 854 974 10 0 30
585 -10 1640 1760 10 243 0
586 -10 4270 4390 10 426 0
587 10 328 448 10 0 324
588 -20 2889 3009 10 272 0
589 13 2452 2572 10 0 186
590 20 623 743 10 0 282
591 19 748 868 10 0 88
592 12 1035 1155 10 0 360
593 30 980 1100 10 0 177
594 17 546 666 10 0 14
595 -10 759 879 10 597 0
596 -20 2892 3012 10 402 0
597 10 578 698 10 0 595
598 -30 916 1036 10 380 0
599 18 379 499 10 0 169
600 10 365 485 10 0 486
601 10 616 736 10 0 59
602 -20 539 659 10 190 0
603 -25 3932 4052 10 473 0
604 -30 1040 1160 10 512 0
605 -20 494 614 10 373 0
606 -42 3227 3347 10 143 0
607 -20 480 600 10 227 0
DEPOT_SECTION
1
-1
EOF
