NAME: lrc2_6_10
TYPE: PDPTW
COMMENT: Li & Lim PDPTW benchmark converted from SINTEF format
DIMENSION: 607
VEHICLES: 150
CAPACITY: 1000
EDGE_WEIGHT_TYPE: EUC_2D
NODE_COORD_SECTION
1 150 150
2 125 168
3 162 107
4 199 213
5 61 84
6 125 103
7 143 101
8 28 141
9 230 128
10 55 68
11 72 180
12 159 41
13 8 4
14 257 58
15 57 155
16 186 26
17 231 243
18 247 132
19 89 61
20 84 231
21 116 240
22 110 79
23 110 74
24 180 106
25 240 73
26 13 265
27 134 147
28 257 59
29 160 108
30 289 130
31 27 255
32 234 146
33 69 208
34 115 196
35 250 228
36 159 89
37 105 81
38 149 183
39 159 300
40 47 277
41 209 269
42 212 26
43 14 149
44 74 117
45 140 140
46 152 241
47 222 83
48 88 124
49 136 68
50 250 124
51 109 299
52 258 244
53 208 47
54 212 62
55 259 59
56 150 104
57 77 233
58 212 45
59 57 125
60 232 121
61 255 132
62 18 184
63 165 113
64 143 111
65 248 41
66 8 263
67 109 110
68 106 71
69 259 240
70 38 139
71 277 41
72 255 57
73 9 122
74 102 76
75 43 286
76 60 160
77 172 225
78 161 22
79 88 110
80 122 127
81 52 63
82 53 141
83 175 281
84 265 141
85 250 126
86 147 281
87 255 240
88 188 142
89 154 26
90 59 64
91 114 204
92 235 242
93 34 150
94 140 214
95 59 113
96 282 104
97 145 184
98 184 277
99 129 77
100 96 199
101 67 154
102 2 81
103 208 208
104 169 173
105 106 108
106 15 2
107 227 26
108 147 285
109 141 286
110 231 70
111 242 73
112 15 259
113 93 165
114 10 198
115 149 294
116 82 100
117 256 286
118 172 2
119 277 172
120 73 81
121 217 69
122 85 224
123 0 153
124 147 43
125 143 288
126 112 272
127 200 26
128 140 143
129 83 236
130 253 84
131 53 288
132 256 239
133 224 79
134 110 107
135 125 136
136 149 76
137 203 166
138 211 61
139 107 103
140 262 62
141 227 80
142 269 103
143 119 254
144 122 96
145 248 245
146 181 297
147 65 69
148 16 151
149 254 206
150 167 176
151 280 172
152 285 285
153 149 282
154 277 100
155 223 23
156 25 191
157 266 212
158 272 183
159 135 251
160 11 191
161 25 119
162 215 68
163 137 104
164 113 202
165 160 24
166 51 217
167 14 177
168 225 22
169 194 234
170 262 14
171 259 126
172 214 234
173 216 23
174 111 110
175 145 182
176 51 2
177 30 243
178 186 228
179 132 146
180 176 72
181 108 3
182 216 62
183 271 106
184 140 290
185 64 59
186 206 157
187 66 157
188 132 297
189 109 105
190 64 55
191 173 64
192 213 65
193 17 205
194 224 229
195 78 236
196 274 6
197 207 237
198 161 26
199 119 104
200 169 171
201 296 235
202 220 74
203 109 148
204 212 270
205 265 197
206 174 238
207 223 74
208 47 203
209 69 90
210 33 231
211 8 265
212 136 144
213 286 175
214 151 30
215 150 184
216 157 25
217 131 78
218 232 240
219 53 285
220 278 176
221 225 192
222 115 197
223 167 179
224 6 168
225 163 180
226 135 210
227 277 104
228 262 241
229 162 148
230 61 138
231 117 155
232 126 127
233 157 221
234 19 290
235 65 156
236 159 177
237 12 10
238 67 175
239 78 232
240 201 175
241 249 133
242 139 110
243 252 128
244 57 123
245 71 154
246 157 276
247 111 98
248 221 70
249 70 57
250 236 108
251 268 113
252 40 1
253 106 243
254 37 126
255 259 58
256 167 193
257 168 204
258 72 286
259 254 240
260 241 183
261 75 191
262 26 27
263 12 270
264 81 238
265 140 294
266 11 242
267 224 77
268 166 123
269 92 241
270 280 180
271 151 113
272 65 49
273 203 36
274 129 83
275 38 74
276 166 105
277 129 98
278 30 226
279 15 178
280 108 298
281 296 211
282 236 72
283 277 177
284 99 73
285 166 113
286 271 8
287 228 41
288 80 131
289 284 176
290 208 117
291 119 183
292 246 166
293 144 292
294 128 155
295 113 188
296 155 93
297 161 210
298 168 176
299 60 64
300 165 204
301 280 158
302 241 71
303 57 68
304 219 152
305 72 89
306 85 75
307 3 205
308 235 243
309 12 275
310 76 160
311 56 116
312 170 53
313 34 5
314 280 175
315 288 127
316 103 8
317 229 25
318 12 198
319 66 54
320 120 60
321 110 31
322 218 20
323 226 248
324 275 100
325 217 73
326 88 225
327 123 92
328 293 62
329 4 149
330 216 25
331 63 59
332 63 155
333 158 140
334 84 236
335 260 58
336 284 244
337 190 181
338 159 287
339 285 283
340 65 68
341 61 157
342 102 173
343 300 44
344 103 78
345 144 182
346 24 76
347 149 186
348 165 182
349 179 123
350 157 84
351 17 209
352 233 119
353 167 105
354 238 206
355 127 101
356 263 291
357 281 68
358 251 237
359 108 109
360 199 28
361 3 119
362 252 219
363 234 213
364 136 140
365 191 49
366 251 241
367 119 214
368 275 182
369 103 260
370 2 238
371 94 93
372 158 291
373 230 248
374 207 20
375 54 285
376 160 107
377 59 280
378 208 290
379 248 280
380 138 100
381 8 155
382 208 235
383 111 112
384 128 94
385 110 262
386 162 203
387 160 179
388 16 204
389 239 295
390 157 31
391 147 178
392 170 174
393 157 254
394 277 101
395 283 144
396 156 182
397 274 97
398 66 56
399 158 27
400 156 26
401 257 133
402 264 61
403 296 279
404 220 66
405 240 71
406 112 43
407 4 296
408 222 73
409 209 84
410 250 134
411 59 287
412 13 202
413 93 117
414 62 53
415 275 97
416 206 121
417 107 174
418 224 61
419 124 174
420 101 110
421 112 201
422 80 86
423 5 189
424 141 100
425 165 256
426 108 113
427 37 159
428 136 104
429 107 71
430 97 232
431 127 266
432 14 204
433 278 177
434 209 246
435 134 148
436 283 65
437 108 80
438 55 62
439 141 137
440 224 138
441 163 150
442 213 68
443 113 62
444 100 138
445 126 266
446 10 150
447 137 150
448 258 232
449 191 234
450 213 119
451 5 195
452 166 203
453 100 73
454 147 185
455 60 156
456 239 77
457 163 202
458 81 219
459 155 28
460 160 27
461 43 62
462 235 241
463 291 148
464 64 53
465 168 42
466 183 282
467 289 79
468 1 272
469 87 183
470 234 107
471 52 288
472 236 66
473 264 35
474 233 245
475 144 100
476 260 64
477 130 96
478 202 292
479 7 31
480 96 86
481 141 102
482 170 93
483 85 228
484 10 147
485 18 206
486 164 202
487 1 81
488 148 157
489 159 110
490 229 40
491 67 161
492 131 220
493 112 199
494 238 69
495 258 247
496 205 130
497 109 61
498 59 67
499 151 294
500 26 0
501 45 190
502 56 212
503 148 288
504 275 263
505 272 97
506 143 67
507 29 8
508 152 29
509 176 235
510 30 145
511 61 70
512 16 196
513 168 108
514 15 209
515 211 66
516 256 54
517 11 207
518 58 240
519 131 95
520 116 14
521 154 31
522 86 230
523 133 99
524 290 37
525 9 145
526 140 292
527 134 146
528 229 179
529 72 20
530 149 285
531 257 137
532 225 73
533 71 294
534 156 57
535 177 281
536 117 168
537 162 250
538 116 245
539 153 28
540 176 70
541 50 285
542 257 243
543 246 133
544 140 100
545 69 134
546 236 248
547 217 21
548 161 112
549 233 242
550 127 77
551 155 180
552 144 173
553 65 56
554 130 102
555 76 280
556 110 76
557 271 101
558 216 203
559 136 241
560 160 17
561 64 91
562 107 39
563 106 77
564 103 93
565 138 101
566 15 52
567 160 111
568 81 223
569 113 114
570 162 206
571 203 183
572 113 4
573 176 263
574 173 72
575 279 189
576 9 144
577 266 104
578 253 57
579 296 252
580 254 87
581 114 198
582 220 43
583 11 265
584 250 130
585 299 153
586 133 187
587 246 137
588 238 103
589 220 182
590 213 61
591 290 219
592 153 61
593 55 285
594 276 66
595 236 240
596 244 13
597 163 200
598 62 65
599 189 240
600 145 183
601 140 108
602 15 209
603 139 110
604 216 25
605 4 149
606 133 187
607 260 64
PICKUP_AND_DELIVERY_SECTION
1 0 0 4823 0 0 0
2 -17 3227 3827 10 161 0
3 -20 90 690 10 489 0
4 -10 1804 2404 10 212 0
5 7 1094 1694 10 0 44
6 20 53 653 10 0 136
7 10 49 649 10 0 565
8 -12 2340 2940 10 160 0
9 21 1282 1882 10 0 186
10 30 330 930 10 0 508
11 -40 1248 1848 10 245 0
12 -20 985 1585 10 214 0
13 -41 515 1115 10 176 0
14 -19 412 1012 10 24 0
15 -21 167 767 10 417 0
16 25 2019 2619 10 0 58
17 10 193 793 10 0 157
18 10 668 1268 10 0 389
19 -2 772 1372 10 310 0
20 -20 1938 2538 10 193 0
21 -11 1861 2461 10 559 0
22 20 521 1121 10 0 247
23 30 314 914 10 0 596
24 19 53 653 10 0 14
25 20 217 817 10 0 557
26 -10 415 1015 10 75 0
27 -20 121 721 10 392 0
28 20 456 1056 10 0 328
29 10 43 643 10 0 296
30 -10 1078 1678 10 213 0
31 -30 722 1322 10 593 0
32 -33 1168 1768 10 504 0
33 17 2088 2688 10 0 226
34 10 57 657 10 0 153
35 -3 2867 3467 10 238 0
36 -10 3065 3665 10 303 0
37 20 82 682 10 0 574
38 10 33 633 10 0 449
39 -20 301 901 10 581 0
40 20 354 954 10 0 338
41 -23 1543 2143 10 492 0
42 30 653 1253 10 0 592
43 -40 287 887 10 517 0
44 -7 2978 3578 10 5 0
45 30 14 614 10 0 232
46 -10 2444 3044 10 109 0
47 20 98 698 10 0 141
48 -20 67 667 10 383 0
49 -20 2137 2737 10 134 0
50 4 292 892 10 0 357
51 24 1266 1866 10 0 535
52 10 611 1211 10 0 591
53 6 173 773 10 0 168
54 20 476 1076 10 0 408
55 -10 504 1104 10 442 0
56 21 46 646 10 0 90
57 -10 418 1018 10 122 0
58 -25 2278 2878 10 16 0
59 23 603 1203 10 0 564
60 15 2069 2669 10 0 588
61 10 369 969 10 0 433
62 -10 1243 1843 10 454 0
63 20 351 951 10 0 103
64 20 39 639 10 0 277
65 -10 1636 2236 10 151 0
66 -10 518 1118 10 541 0
67 20 115 715 10 0 336
68 -30 213 813 10 556 0
69 10 784 1384 10 0 448
70 -20 1108 1708 10 223 0
71 -20 1137 1737 10 270 0
72 -20 303 903 10 267 0
73 -18 626 1226 10 451 0
74 -32 3134 3734 10 422 0
75 10 433 1033 10 0 26
76 20 103 703 10 0 79
77 -20 198 798 10 257 0
78 10 572 1172 10 0 460
79 -20 2296 2896 10 76 0
80 1 36 636 10 0 174
81 -20 393 993 10 554 0
82 -20 97 697 10 150 0
83 17 2322 2922 10 0 478
84 22 161 761 10 0 127
85 20 558 1158 10 0 314
86 -30 850 1450 10 345 0
87 20 463 1063 10 0 495
88 -16 4175 4775 10 250 0
89 -10 377 977 10 548 0
90 -21 504 1104 10 56 0
91 -10 172 772 10 175 0
92 10 470 1070 10 0 132
93 15 1334 1934 10 0 558
94 -17 2218 2818 10 469 0
95 -10 736 1336 10 381 0
96 19 844 1444 10 0 201
97 10 81 681 10 0 412
98 17 567 1167 10 0 372
99 11 2311 2911 10 0 286
100 -14 3837 4437 10 278 0
101 -30 463 1063 10 439 0
102 -20 818 1418 10 438 0
103 -20 182 782 10 63 0
104 10 29 629 10 0 435
105 20 210 810 10 0 396
106 -20 1355 1955 10 276 0
107 -19 284 884 10 350 0
108 -20 794 1394 10 293 0
109 10 730 1330 10 0 46
110 10 337 937 10 0 202
111 20 265 865 10 0 130
112 -29 2471 3071 10 208 0
113 13 58 658 10 0 167
114 10 695 1295 10 0 369
115 -20 447 1047 10 421 0
116 -20 2070 2670 10 148 0
117 -19 2937 3537 10 467 0
118 9 2170 2770 10 0 550
119 10 557 1157 10 0 403
120 -5 1983 2583 10 423 0
121 10 211 811 10 0 472
122 10 592 1192 10 0 57
123 20 620 1220 10 0 497
124 14 171 771 10 0 365
125 -20 566 1166 10 552 0
126 -20 1109 1709 10 471 0
127 -22 1538 2138 10 84 0
128 20 12 612 10 0 589
129 -30 260 860 10 486 0
130 -20 1378 1978 10 111 0
131 20 600 1200 10 0 378
132 -10 509 1109 10 92 0
133 30 209 809 10 0 532
134 20 449 1049 10 0 49
135 5 28 628 10 0 575
136 -20 2960 3560 10 6 0
137 -30 3721 4321 10 549 0
138 20 431 1031 10 0 524
139 20 348 948 10 0 406
140 10 701 1301 10 0 470
141 -20 157 757 10 47 0
142 20 636 1236 10 0 577
143 -26 2987 3587 10 385 0
144 19 350 950 10 0 181
145 -10 246 846 10 474 0
146 10 410 1010 10 0 178
147 -30 777 1377 10 525 0
148 20 236 836 10 0 116
149 -10 2245 2845 10 364 0
150 20 31 631 10 0 82
151 10 505 1105 10 0 65
152 -22 2562 3162 10 339 0
153 -10 228 828 10 34 0
154 -20 336 936 10 531 0
155 -10 391 991 10 459 0
156 -20 679 1279 10 522 0
157 -10 1090 1690 10 17 0
158 -22 2585 3185 10 354 0
159 -20 1697 2297 10 493 0
160 12 2663 3263 10 0 8
161 17 433 1033 10 0 2
162 10 162 762 10 0 402
163 30 316 916 10 0 189
164 10 123 723 10 0 188
165 -20 523 1123 10 353 0
166 -40 838 1438 10 568 0
167 -13 305 905 10 113 0
168 -6 342 942 10 53 0
169 -30 94 694 10 452 0
170 21 2553 3153 10 0 496
171 20 437 1037 10 0 283
172 -30 2681 3281 10 289 0
173 10 549 1149 10 0 374
174 -1 67 667 10 80 0
175 10 215 815 10 0 91
176 41 628 1228 10 0 13
177 6 905 1505 10 0 411
178 -10 1412 2012 10 146 0
179 -30 72 672 10 200 0
180 6 2058 2658 10 0 217
181 -19 2443 3043 10 144 0
182 20 330 930 10 0 594
183 -23 2110 2710 10 315 0
184 -10 674 1274 10 391 0
185 30 201 801 10 0 464
186 -21 3402 4002 10 9 0
187 10 411 1011 10 0 484
188 -10 415 1015 10 164 0
189 -30 400 1000 10 163 0
190 20 299 899 10 0 316
191 -10 2047 2647 10 344 0
192 20 529 1129 10 0 578
193 20 380 980 10 0 20
194 16 1124 1724 10 0 450
195 10 366 966 10 0 375
196 -30 1837 2437 10 255 0
197 11 1711 2311 10 0 393
198 10 628 1228 10 0 507
199 -30 527 1127 10 384 0
200 30 28 628 10 0 179
201 -19 2001 2601 10 96 0
202 -10 567 1167 10 110 0
203 -10 41 641 10 420 0
204 21 2127 2727 10 0 256
205 -20 1046 1646 10 228 0
206 -10 3853 4453 10 526 0
207 -20 515 1115 10 590 0
208 29 2439 3039 10 0 112
209 23 2865 3465 10 0 510
210 36 2741 3341 10 0 458
211 -20 566 1166 10 264 0
212 10 15 615 10 0 4
213 10 389 989 10 0 30
214 20 229 829 10 0 12
215 20 34 634 10 0 537
216 20 471 1071 10 0 321
217 -6 2072 2672 10 180 0
218 -14 662 1262 10 268 0
219 10 652 1252 10 0 468
220 -10 614 1214 10 584 0
221 -10 1945 2545 10 527 0
222 10 240 840 10 0 233
223 20 54 654 10 0 70
224 -20 2738 3338 10 239 0
225 -10 160 760 10 348 0
226 -17 3368 3968 10 33 0
227 20 240 840 10 0 360
228 20 732 1332 10 0 205
229 -32 2761 3361 10 387 0
230 -5 2332 2932 10 573 0
231 -13 3791 4391 10 305 0
232 -30 33 633 10 45 0
233 -10 1402 2002 10 222 0
234 -12 1309 1909 10 261 0
235 10 365 965 10 0 244
236 30 220 820 10 0 599
237 -12 1435 2035 10 500 0
238 3 865 1465 10 0 35
239 20 464 1064 10 0 224
240 10 2531 3131 10 0 337
241 10 148 748 10 0 436
242 21 3196 3796 0 0 603
243 -20 507 1107 10 394 0
244 -10 421 1021 10 235 0
245 40 519 1119 10 0 11
246 18 205 805 10 0 445
247 -20 846 1446 10 22 0
248 10 417 1017 10 0 580
249 -20 620 1220 10 544 0
250 16 3300 3900 10 0 88
251 -18 3131 3731 10 292 0
252 -30 1556 2156 10 376 0
253 22 512 1112 10 0 502
254 19 375 975 10 0 340
255 30 548 1148 10 0 196
256 -21 3852 4452 10 204 0
257 20 56 656 10 0 77
258 -22 1369 1969 10 419 0
259 -10 419 1019 10 366 0
260 -22 3134 3734 10 281 0
261 12 85 685 10 0 234
262 16 3239 3839 10 0 371
263 20 730 1330 10 0 407
264 20 311 911 10 0 211
265 18 1397 1997 10 0 370
266 16 1828 2428 10 0 518
267 20 257 857 10 0 72
268 14 31 631 10 0 218
269 3 2827 3427 10 0 430
270 20 278 878 10 0 71
271 -22 1144 1744 10 284 0
272 20 455 1055 10 0 498
273 -10 1349 1949 10 368 0
274 -10 2247 2847 10 563 0
275 -10 361 961 10 553 0
276 20 148 748 10 0 106
277 -20 252 852 10 64 0
278 14 3512 4112 10 0 100
279 -8 2832 3432 10 361 0
280 -10 3281 3881 10 297 0
281 22 546 1146 10 0 260
282 20 528 1128 10 0 505
283 -20 702 1302 10 171 0
284 22 120 720 10 0 271
285 10 307 907 10 0 462
286 -11 2802 3402 10 99 0
287 -20 3009 3609 10 453 0
288 14 1095 1695 10 0 443
289 30 340 940 10 0 172
290 -15 73 673 10 441 0
291 -46 2028 2628 10 545 0
292 18 1937 2537 10 0 251
293 20 509 1109 10 0 108
294 11 22 622 10 0 455
295 -24 975 1575 10 444 0
296 -10 313 913 10 29 0
297 10 91 691 10 0 280
298 20 31 631 10 0 447
299 -12 548 1148 10 480 0
300 -20 56 656 10 347 0
301 -4 2351 2951 10 349 0
302 20 314 914 10 0 325
303 10 282 882 10 0 36
304 -16 3596 4196 10 440 0
305 13 1971 2571 10 0 231
306 -15 2664 3264 10 413 0
307 10 615 1215 10 0 576
308 -10 426 1026 10 546 0
309 -20 1808 2408 10 326 0
310 2 74 674 10 0 19
311 -40 679 1279 10 341 0
312 21 407 1007 10 0 547
313 -30 2700 3300 10 567 0
314 -20 453 1053 10 85 0
315 23 2602 3202 10 0 183
316 -20 2487 3087 10 190 0
317 -10 1734 2334 10 415 0
318 -13 743 1343 10 431 0
319 -20 515 1115 10 331 0
320 12 1810 2410 10 0 352
321 -20 1212 1812 10 216 0
322 -20 454 1054 10 521 0
323 -12 3171 3771 10 585 0
324 -10 384 984 10 587 0
325 -20 620 1220 10 302 0
326 20 97 697 10 0 309
327 20 63 663 10 0 534
328 -20 429 1029 10 28 0
329 20 557 1157 0 0 605
330 30 597 1197 0 0 604
331 20 611 1211 10 0 319
332 10 316 916 10 0 427
333 5 12 612 10 0 335
334 10 216 816 10 0 512
335 -5 592 1192 10 333 0
336 -20 2704 3304 10 67 0
337 -10 3378 3978 10 240 0
338 -20 1346 1946 10 40 0
339 22 1974 2574 10 0 152
340 -19 733 1333 10 254 0
341 40 265 865 10 0 311
342 15 53 653 10 0 491
343 -22 2787 3387 10 418 0
344 10 85 685 10 0 191
345 30 171 771 10 0 86
346 -21 1746 2346 10 566 0
347 20 36 636 10 0 300
348 10 109 709 10 0 225
349 4 39 639 10 0 301
350 19 162 762 10 0 107
351 -14 282 882 10 536 0
352 -12 3514 4114 10 320 0
353 20 192 792 10 0 165
354 22 2052 2652 10 0 158
355 -10 54 654 10 481 0
356 -20 509 1109 10 373 0
357 -4 1788 2388 10 50 0
358 -30 362 962 10 595 0
359 -10 161 761 10 426 0
360 -20 1587 2187 10 227 0
361 8 2515 3115 10 0 279
362 23 965 1565 10 0 463
363 15 328 928 10 0 416
364 10 17 617 10 0 149
365 -14 281 881 10 124 0
366 10 306 906 10 0 259
367 -12 2234 2834 10 425 0
368 10 216 816 10 0 273
369 -10 3337 3937 10 114 0
370 -18 3122 3722 10 265 0
371 -16 3398 3998 10 262 0
372 -17 409 1009 10 98 0
373 20 254 854 10 0 356
374 -10 501 1101 10 173 0
375 -10 696 1296 10 195 0
376 30 44 644 10 0 252
377 -10 806 1406 10 583 0
378 -20 982 1582 10 131 0
379 -26 922 1522 10 571 0
380 30 174 774 10 0 487
381 10 693 1293 10 0 95
382 -6 3050 3650 10 395 0
383 20 54 654 10 0 48
384 30 105 705 10 0 199
385 26 1729 2329 10 0 143
386 -30 200 800 10 551 0
387 32 2878 3478 10 0 229
388 -10 426 1026 10 600 0
389 -10 2770 3370 10 18 0
390 -10 779 1379 10 539 0
391 10 273 873 10 0 184
392 20 31 631 10 0 27
393 -11 1826 2426 10 197 0
394 20 292 892 10 0 243
395 6 233 833 10 0 382
396 -20 2154 2754 10 105 0
397 10 480 1080 10 0 409
398 -10 563 1163 10 414 0
399 10 722 1322 10 0 562
400 -10 425 1025 10 513 0
401 -30 320 920 10 410 0
402 -10 652 1252 10 162 0
403 -10 1750 2350 10 119 0
404 -20 268 868 10 456 0
405 30 358 958 10 0 516
406 -20 1971 2571 10 139 0
407 -20 3094 3694 10 263 0
408 -20 470 1070 10 54 0
409 -10 1289 1889 10 397 0
410 30 193 793 10 0 401
411 -6 1746 2346 10 177 0
412 -10 480 1080 10 97 0
413 15 1159 1759 10 0 306
414 10 350 950 10 0 398
415 10 436 1036 10 0 317
416 -15 2744 3344 10 363 0
417 21 49 649 10 0 15
418 22 1654 2254 10 0 343
419 22 35 635 10 0 258
420 10 272 872 10 0 203
421 20 77 677 10 0 115
422 32 2161 2761 10 0 74
423 5 345 945 10 0 120
424 10 82 682 10 0 529
425 12 2107 2707 10 0 367
426 10 55 655 10 0 359
427 -10 226 826 10 332 0
428 20 272 872 10 0 519
429 20 257 857 10 0 437
430 -3 3492 4092 10 269 0
431 13 250 850 10 0 318
432 -42 2132 2732 10 466 0
433 -10 658 1258 10 61 0
434 -30 1255 1855 10 503 0
435 -10 165 765 10 104 0
436 -10 1560 2160 10 241 0
437 -20 472 1072 10 429 0
438 20 446 1046 10 0 102
439 30 15 615 10 0 101
440 16 3395 3995 10 0 304
441 15 13 613 10 0 290
442 10 114 714 10 0 55
443 -14 1854 2454 10 288 0
444 24 580 1180 10 0 295
445 -18 1736 2336 10 246 0
446 -10 344 944 10 485 0
447 -20 219 819 10 298 0
448 -10 856 1456 10 69 0
449 -10 93 693 10 38 0
450 -16 2675 3275 10 194 0
451 18 502 1102 10 0 73
452 30 55 655 10 0 169
453 20 147 747 10 0 287
454 10 35 635 10 0 62
455 -11 219 819 10 294 0
456 20 160 760 10 0 404
457 20 245 845 10 0 509
458 -36 3614 4214 10 210 0
459 10 328 928 10 0 155
460 -10 674 1274 10 78 0
461 -29 3043 3643 10 479 0
462 -10 565 1165 10 285 0
463 -23 2302 2902 10 362 0
464 -30 398 998 10 185 0
465 -39 2292 2892 10 482 0
466 42 1526 2126 10 0 432
467 19 1322 1922 10 0 117
468 -10 645 1245 10 219 0
469 17 1860 2460 10 0 94
470 -10 1114 1714 10 140 0
471 20 556 1156 10 0 126
472 -10 464 1064 10 121 0
473 -18 3692 4292 10 540 0
474 10 375 975 10 0 145
475 20 50 650 10 0 520
476 23 1492 2092 0 0 607
477 -10 203 803 10 601 0
478 -17 3392 3992 10 83 0
479 29 2931 3531 10 0 461
480 12 83 683 10 0 299
481 10 48 648 10 0 355
482 39 1662 2262 10 0 465
483 -30 536 1136 10 570 0
484 -10 396 996 10 187 0
485 10 335 935 10 0 446
486 30 289 889 10 0 129
487 -30 1042 1642 10 380 0
488 24 7 607 10 0 538
489 20 41 641 10 0 3
490 13 717 1317 10 0 560
491 -15 83 683 10 342 0
492 23 243 843 10 0 41
493 20 62 662 10 0 159
494 20 409 1009 10 0 515
495 -20 663 1263 10 87 0
496 -21 3518 4118 10 170 0
497 -20 1347 1947 10 123 0
498 -20 233 833 10 272 0
499 20 399 999 10 0 530
500 12 1739 2339 10 0 237
501 -10 1540 2140 10 597 0
502 -22 1650 2250 10 253 0
503 30 333 933 10 0 434
504 33 428 1028 10 0 32
505 -20 528 1128 10 282 0
506 14 83 683 10 0 572
507 -10 2764 3364 10 198 0
508 -30 3357 3957 10 10 0
509 -20 88 688 10 457 0
510 -23 3148 3748 10 209 0
511 -20 179 779 10 523 0
512 -10 800 1400 10 334 0
513 10 245 845 10 0 400
514 25 3289 3889 0 0 602
515 -20 578 1178 10 494 0
516 -30 356 956 10 405 0
517 40 542 1142 10 0 43
518 -16 2858 3458 10 266 0
519 -20 158 758 10 428 0
520 -20 2375 2975 10 475 0
521 20 176 776 10 0 322
522 20 151 751 10 0 156
523 20 309 909 10 0 511
524 -20 3025 3625 10 138 0
525 30 445 1045 10 0 147
526 10 626 1226 10 0 206
527 10 24 624 10 0 221
528 -10 728 1328 10 542 0
529 -10 2497 3097 10 424 0
530 -20 280 880 10 499 0
531 20 264 864 10 0 154
532 -30 1835 2435 10 133 0
533 -27 2023 2623 10 555 0
534 -20 2486 3086 10 327 0
535 -24 1462 2062 10 51 0
536 14 37 637 10 0 351
537 -20 542 1142 10 215 0
538 -24 2069 2669 10 488 0
539 10 280 880 10 0 390
540 18 2448 3048 10 0 473
541 10 502 1102 10 0 66
542 10 565 1165 10 0 528
543 30 714 1314 10 0 582
544 20 126 726 10 0 249
545 46 2256 2856 10 0 291
546 10 318 918 10 0 308
547 -21 500 1100 10 312 0
548 10 39 639 10 0 89
549 30 614 1214 10 0 137
550 -9 3079 3679 10 118 0
551 30 30 630 10 0 386
552 20 336 936 10 0 125
553 10 253 853 10 0 275
554 20 366 966 10 0 81
555 27 1699 2299 10 0 533
556 30 362 962 10 0 68
557 -20 585 1185 10 25 0
558 -15 1923 2523 10 93 0
559 11 1246 1846 10 0 21
560 -13 1121 1721 10 490 0
561 29 158 758 10 0 598
562 -10 1122 1722 10 399 0
563 10 418 1018 10 0 274
564 -23 2025 2625 10 59 0
565 -10 218 818 10 7 0
566 21 367 967 10 0 346
567 30 40 640 10 0 313
568 40 649 1249 10 0 166
569 20 51 651 10 0 579
570 30 148 748 10 0 483
571 26 62 662 10 0 379
572 -14 923 1523 10 506 0
573 5 2199 2799 10 0 230
574 -20 2503 3103 10 37 0
575 -5 2138 2738 10 135 0
576 -10 489 1089 10 307 0
577 -20 689 1289 10 142 0
578 -20 255 855 10 192 0
579 -20 2917 3517 10 569 0
580 -10 3944 4544 10 248 0
581 20 60 660 10 0 39
582 -30 1499 2099 10 543 0
583 10 463 1063 10 0 377
584 10 614 1214 10 0 220
585 12 1400 2000 10 0 323
586 16 4030 4630 0 0 606
587 10 96 696 10 0 324
588 -15 2649 3249 10 60 0
589 -20 2212 2812 10 128 0
590 20 383 983 10 0 207
591 -10 508 1108 10 52 0
592 -30 795 1395 10 42 0
593 30 740 1340 10 0 31
594 -20 306 906 10 182 0
595 30 519 1119 10 0 358
596 -30 2652 3252 10 23 0
597 10 338 938 10 0 501
598 -29 676 1276 10 561 0
599 -30 139 739 10 236 0
600 10 125 725 10 0 388
601 10 376 976 10 0 477
602 -25 3289 3889 10 514 0
603 -21 3196 3796 10 242 0
604 -30 597 1197 10 330 0
605 -20 557 1157 10 329 0
606 -16 4030 4630 10 586 0
607 -23 1492 2092 10 476 0
DEPOT_SECTION
1
-1
EOF
