NAME: lrc2_6_6
TYPE: PDPTW
COMMENT: Li & Lim PDPTW benchmark converted from SINTEF format
DIMENSION: 607
VEHICLES: 150
CAPACITY: 1000
EDGE_WEIGHT_TYPE: EUC_2D
NODE_COORD_SECTION
1 150 150
2 125 168
3 162 107
4 199 213
5 61 84
6 125 103
7 143 101
8 28 141
9 230 128
10 55 68
11 72 180
12 159 41
13 8 4
14 257 58
15 57 155
16 186 26
17 231 243
18 247 132
19 89 61
20 84 231
21 116 240
22 110 79
23 110 74
24 180 106
25 240 73
26 13 265
27 134 147
28 257 59
29 160 108
30 289 130
31 27 255
32 234 146
33 69 208
34 115 196
35 250 228
36 159 89
37 105 81
38 149 183
39 159 300
40 47 277
41 209 269
42 212 26
43 14 149
44 74 117
45 140 140
46 152 241
47 222 83
48 88 124
49 136 68
50 250 124
51 109 299
52 258 244
53 208 47
54 212 62
55 259 59
56 150 104
57 77 233
58 212 45
59 57 125
60 232 121
61 255 132
62 18 184
63 165 113
64 143 111
65 248 41
66 8 263
67 109 110
68 106 71
69 259 240
70 38 139
71 277 41
72 255 57
73 9 122
74 102 76
75 43 286
76 60 160
77 172 225
78 161 22
79 88 110
80 122 127
81 52 63
82 53 141
83 175 281
84 265 141
85 250 126
86 147 281
87 255 240
88 188 142
89 154 26
90 59 64
91 114 204
92 235 242
93 34 150
94 140 214
95 59 113
96 282 104
97 145 184
98 184 277
99 129 77
100 96 199
101 67 154
102 2 81
103 208 208
104 169 173
105 106 108
106 15 2
107 227 26
108 147 285
109 141 286
110 231 70
111 242 73
112 15 259
113 93 165
114 10 198
115 149 294
116 82 100
117 256 286
118 172 2
119 277 172
120 73 81
121 217 69
122 85 224
123 0 153
124 147 43
125 143 288
126 112 272
127 200 26
128 140 143
129 83 236
130 253 84
131 53 288
132 256 239
133 224 79
134 110 107
135 125 136
136 149 76
137 203 166
138 211 61
139 107 103
140 262 62
141 227 80
142 269 103
143 119 254
144 122 96
145 248 245
146 181 297
147 65 69
148 16 151
149 254 206
150 167 176
151 280 172
152 285 285
153 149 282
154 277 100
155 223 23
156 25 191
157 266 212
158 272 183
159 135 251
160 11 191
161 25 119
162 215 68
163 137 104
164 113 202
165 160 24
166 51 217
167 14 177
168 225 22
169 194 234
170 262 14
171 259 126
172 214 234
173 216 23
174 111 110
175 145 182
176 51 2
177 30 243
178 186 228
179 132 146
180 176 72
181 108 3
182 216 62
183 271 106
184 140 290
185 64 59
186 206 157
187 66 157
188 132 297
189 109 105
190 64 55
191 173 64
192 213 65
193 17 205
194 224 229
195 78 236
196 274 6
197 207 237
198 161 26
199 119 104
200 169 171
201 296 235
202 220 74
203 109 148
204 212 270
205 265 197
206 174 238
207 223 74
208 47 203
209 69 90
210 33 231
211 8 265
212 136 144
213 286 175
214 151 30
215 150 184
216 157 25
217 131 78
218 232 240
219 53 285
220 278 176
221 225 192
222 115 197
223 167 179
224 6 168
225 163 180
226 135 210
227 277 104
228 262 241
229 162 148
230 61 138
231 117 155
232 126 127
233 157 221
234 19 290
235 65 156
236 159 177
237 12 10
238 67 175
239 78 232
240 201 175
241 249 133
242 139 110
243 252 128
244 57 123
245 71 154
246 157 276
247 111 98
248 221 70
249 70 57
250 236 108
251 268 113
252 40 1
253 106 243
254 37 126
255 259 58
256 167 193
257 168 204
258 72 286
259 254 240
260 241 183
261 75 191
262 26 27
263 12 270
264 81 238
265 140 294
266 11 242
267 224 77
268 166 123
269 92 241
270 280 180
271 151 113
272 65 49
273 203 36
274 129 83
275 38 74
276 166 105
277 129 98
278 30 226
279 15 178
280 108 298
281 296 211
282 236 72
283 277 177
284 99 73
285 166 113
286 271 8
287 228 41
288 80 131
289 284 176
290 208 117
291 119 183
292 246 166
293 144 292
294 128 155
295 113 188
296 155 93
297 161 210
298 168 176
299 60 64
300 165 204
301 280 158
302 241 71
303 57 68
304 219 152
305 72 89
306 85 75
307 3 205
308 235 243
309 12 275
310 76 160
311 56 116
312 170 53
313 34 5
314 280 175
315 288 127
316 103 8
317 229 25
318 12 198
319 66 54
320 120 60
321 110 31
322 218 20
323 226 248
324 275 100
325 217 73
326 88 225
327 123 92
328 293 62
329 4 149
330 216 25
331 63 59
332 63 155
333 158 140
334 84 236
335 260 58
336 284 244
337 190 181
338 159 287
339 285 283
340 65 68
341 61 157
342 102 173
343 300 44
344 103 78
345 144 182
346 24 76
347 149 186
348 165 182
349 179 123
350 157 84
351 17 209
352 233 119
353 167 105
354 238 206
355 127 101
356 263 291
357 281 68
358 251 237
359 108 109
360 199 28
361 3 119
362 252 219
363 234 213
364 136 140
365 191 49
366 251 241
367 119 214
368 275 182
369 103 260
370 2 238
371 94 93
372 158 291
373 230 248
374 207 20
375 54 285
376 160 107
377 59 280
378 208 290
379 248 280
380 138 100
381 8 155
382 208 235
383 111 112
384 128 94
385 110 262
386 162 203
387 160 179
388 16 204
389 239 295
390 157 31
391 147 178
392 170 174
393 157 254
394 277 101
395 283 144
396 156 182
397 274 97
398 66 56
399 158 27
400 156 26
401 257 133
402 264 61
403 296 279
404 220 66
405 240 71
406 112 43
407 4 296
408 222 73
409 209 84
410 250 134
411 59 287
412 13 202
413 93 117
414 62 53
415 275 97
416 206 121
417 107 174
418 224 61
419 124 174
420 101 110
421 112 201
422 80 86
423 5 189
424 141 100
425 165 256
426 108 113
427 37 159
428 136 104
429 107 71
430 97 232
431 127 266
432 14 204
433 278 177
434 209 246
435 134 148
436 283 65
437 108 80
438 55 62
439 141 137
440 224 138
441 163 150
442 213 68
443 113 62
444 100 138
445 126 266
446 10 150
447 137 150
448 258 232
449 191 234
450 213 119
451 5 195
452 166 203
453 100 73
454 147 185
455 60 156
456 239 77
457 163 202
458 81 219
459 155 28
460 160 27
461 43 62
462 235 241
463 291 148
464 64 53
465 168 42
466 183 282
467 289 79
468 1 272
469 87 183
470 234 107
471 52 288
472 236 66
473 264 35
474 233 245
475 144 100
476 260 64
477 130 96
478 202 292
479 7 31
480 96 86
481 141 102
482 170 93
483 85 228
484 10 147
485 18 206
486 164 202
487 1 81
488 148 157
489 159 110
490 229 40
491 67 161
492 131 220
493 112 199
494 238 69
495 258 247
496 205 130
497 109 61
498 59 67
499 151 294
500 26 0
501 45 190
502 56 212
503 148 288
504 275 263
505 272 97
506 143 67
507 29 8
508 152 29
509 176 235
510 30 145
511 61 70
512 16 196
513 168 108
514 15 209
515 211 66
516 256 54
517 11 207
518 58 240
519 131 95
520 116 14
521 154 31
522 86 230
523 133 99
524 290 37
525 9 145
526 140 292
527 134 146
528 229 179
529 72 20
530 149 285
531 257 137
532 225 73
533 71 294
534 156 57
535 177 281
536 117 168
537 162 250
538 116 245
539 153 28
540 176 70
541 50 285
542 257 243
543 246 133
544 140 100
545 69 134
546 236 248
547 217 21
548 161 112
549 233 242
550 127 77
551 155 180
552 144 173
553 65 56
554 130 102
555 76 280
556 110 76
557 271 101
558 216 203
559 136 241
560 160 17
561 64 91
562 107 39
563 106 77
564 103 93
565 138 101
566 15 52
567 160 111
568 81 223
569 113 114
570 162 206
571 203 183
572 113 4
573 176 263
574 173 72
575 279 189
576 9 144
577 266 104
578 253 57
579 296 252
580 254 87
581 114 198
582 220 43
583 11 265
584 250 130
585 299 153
586 133 187
587 246 137
588 238 103
589 220 182
590 213 61
591 290 219
592 153 61
593 55 285
594 276 66
595 236 240
596 244 13
597 163 200
598 62 65
599 189 240
600 145 183
601 140 108
602 256 286
603 102 76
604 219 152
605 63 155
606 155 93
607 213 119
PICKUP_AND_DELIVERY_SECTION
1 0 0 4823 0 0 0
2 -12 3407 3647 10 226 0
3 10 270 510 10 0 513
4 13 1984 2224 10 0 301
5 7 1274 1514 10 0 62
6 20 93 333 10 0 37
7 10 164 404 10 0 312
8 25 2520 2760 10 0 231
9 -24 1462 1702 10 470 0
10 30 510 750 10 0 464
11 -10 1428 1668 10 248 0
12 -30 1165 1405 10 42 0
13 -10 695 935 10 81 0
14 10 592 832 10 0 594
15 20 347 587 10 0 148
16 -10 2199 2439 10 424 0
17 10 373 613 10 0 579
18 -10 848 1088 10 151 0
19 -20 952 1192 10 47 0
20 -20 2118 2358 10 598 0
21 17 2041 2281 10 0 306
22 20 701 941 10 0 340
23 -30 494 734 10 439 0
24 19 93 333 10 0 550
25 20 397 637 10 0 207
26 20 595 835 10 0 338
27 20 301 541 10 0 79
28 -14 636 876 10 506 0
29 -10 178 418 10 548 0
30 -20 1258 1498 10 521 0
31 -20 902 1142 10 522 0
32 -20 1348 1588 10 85 0
33 -20 2268 2508 10 319 0
34 10 111 351 10 0 91
35 22 3047 3287 10 0 323
36 -31 3245 3485 10 572 0
37 -20 210 450 10 6 0
38 10 68 308 10 0 109
39 15 481 721 10 0 337
40 20 534 774 10 0 535
41 17 1723 1963 10 0 197
42 30 833 1073 10 0 12
43 10 467 707 10 0 541
44 -20 3158 3398 10 331 0
45 30 14 254 10 0 420
46 -30 2624 2864 10 570 0
47 20 273 513 10 0 19
48 2 205 445 10 0 303
49 -20 2317 2557 10 494 0
50 4 472 712 10 0 213
51 -20 1446 1686 10 377 0
52 10 791 1031 10 0 433
53 -14 353 593 10 124 0
54 20 656 896 10 0 245
55 10 684 924 10 0 286
56 21 217 457 10 0 476
57 -20 598 838 10 264 0
58 -20 2458 2698 10 335 0
59 -20 783 1023 10 105 0
60 -23 2249 2489 10 362 0
61 10 549 789 10 0 321
62 -7 1423 1663 10 5 0
63 20 531 771 10 0 444
64 20 39 279 10 0 560
65 -14 1816 2056 10 71 0
66 30 698 938 10 0 407
67 20 295 535 10 0 426
68 -30 393 633 10 384 0
69 10 964 1204 10 0 206
70 12 1288 1528 10 0 545
71 14 1317 1557 10 0 65
72 10 483 723 10 0 273
73 -20 806 1046 10 484 0
74 17 3314 3554 0 0 603
75 10 613 853 10 0 468
76 -10 283 523 10 491 0
77 13 378 618 10 0 240
78 -10 752 992 10 400 0
79 -20 2476 2716 10 27 0
80 1 36 276 10 0 511
81 10 573 813 10 0 13
82 16 270 510 10 0 446
83 -8 2502 2742 10 393 0
84 22 341 581 10 0 410
85 20 738 978 10 0 32
86 -10 1030 1270 10 115 0
87 -10 643 883 10 368 0
88 -39 4507 4747 10 482 0
89 -20 557 797 10 544 0
90 -30 684 924 10 447 0
91 -10 352 592 10 34 0
92 10 650 890 10 0 132
93 15 1514 1754 10 0 502
94 -20 2398 2638 10 249 0
95 16 916 1156 10 0 361
96 19 1024 1264 10 0 196
97 10 261 501 10 0 288
98 17 747 987 10 0 448
99 -13 2491 2731 10 564 0
100 -25 4017 4257 10 514 0
101 20 643 883 10 0 234
102 -22 998 1238 10 311 0
103 -26 362 602 10 571 0
104 10 41 281 10 0 270
105 20 390 630 10 0 59
106 -10 1535 1775 10 414 0
107 20 464 704 10 0 596
108 -7 974 1214 10 169 0
109 -10 910 1150 10 38 0
110 10 517 757 10 0 515
111 -14 445 685 10 268 0
112 9 2651 2891 10 0 430
113 13 116 356 10 0 310
114 -10 875 1115 10 334 0
115 10 627 867 10 0 86
116 -32 2250 2490 10 422 0
117 31 3117 3357 0 0 602
118 -10 2350 2590 10 399 0
119 -10 737 977 10 587 0
120 15 2163 2403 10 0 305
121 10 391 631 10 0 282
122 -20 772 1012 10 404 0
123 -20 800 1040 10 453 0
124 14 351 591 10 0 53
125 -20 746 986 10 293 0
126 -10 1289 1529 10 153 0
127 -20 1718 1958 10 142 0
128 20 12 252 10 0 135
129 -10 440 680 10 348 0
130 11 1558 1798 10 0 287
131 20 780 1020 10 0 258
132 -10 689 929 10 92 0
133 30 389 629 10 0 405
134 20 629 869 10 0 437
135 -20 28 268 10 128 0
136 -17 3140 3380 10 497 0
137 -30 3901 4141 10 324 0
138 -20 611 851 10 276 0
139 -12 528 768 10 480 0
140 -10 881 1121 10 578 0
141 30 337 577 10 0 217
142 20 816 1056 10 0 127
143 -6 3167 3407 10 177 0
144 -10 530 770 10 175 0
145 -15 426 666 10 363 0
146 -18 590 830 10 246 0
147 -10 957 1197 10 189 0
148 -20 416 656 10 15 0
149 29 2425 2665 10 0 352
150 -20 182 422 10 392 0
151 10 685 925 10 0 18
152 -15 2742 2982 10 205 0
153 10 408 648 10 0 126
154 10 516 756 10 0 382
155 -40 571 811 10 168 0
156 16 859 1099 10 0 279
157 11 1270 1510 10 0 336
158 12 2765 3005 10 0 186
159 -20 1877 2117 10 263 0
160 -14 2843 3083 10 536 0
161 -30 613 853 10 556 0
162 -5 342 582 10 333 0
163 30 496 736 10 0 563
164 10 303 543 10 0 307
165 -20 703 943 10 475 0
166 36 1018 1258 10 0 309
167 -7 485 725 10 427 0
168 40 522 762 10 0 155
169 7 259 499 10 0 108
170 -12 2733 2973 10 360 0
171 -20 617 857 10 302 0
172 -15 2861 3101 10 290 0
173 -10 729 969 10 459 0
174 10 247 487 10 0 272
175 10 395 635 10 0 144
176 -16 808 1048 10 275 0
177 6 1085 1325 10 0 143
178 -30 1592 1832 10 593 0
179 20 252 492 10 0 583
180 -4 2238 2478 10 271 0
181 -29 2623 2863 10 561 0
182 20 510 750 10 0 295
183 -27 2290 2530 10 379 0
184 -13 854 1094 10 431 0
185 30 381 621 10 0 438
186 -12 3582 3822 10 158 0
187 -20 591 831 10 326 0
188 -30 595 835 10 551 0
189 10 580 820 10 0 147
190 20 479 719 10 0 371
191 -20 2227 2467 10 390 0
192 20 709 949 10 0 247
193 20 560 800 10 0 211
194 16 1304 1544 10 0 416
195 10 546 786 10 0 462
196 -19 2017 2257 10 96 0
197 -17 1891 2131 10 41 0
198 10 808 1048 10 0 540
199 -10 707 947 10 601 0
200 30 28 268 10 0 366
201 -16 2181 2421 10 528 0
202 -10 747 987 10 415 0
203 19 91 331 10 0 219
204 -5 2307 2547 10 573 0
205 15 1226 1466 10 0 152
206 -10 4033 4273 10 69 0
207 -20 695 935 10 25 0
208 -19 2619 2859 10 432 0
209 -10 3045 3285 10 299 0
210 -40 2921 3161 10 517 0
211 -20 746 986 10 193 0
212 10 153 393 10 0 527
213 -4 569 809 10 50 0
214 -19 409 649 10 350 0
215 20 114 354 10 0 297
216 20 651 891 10 0 330
217 -30 2252 2492 10 141 0
218 20 842 1082 10 0 463
219 -19 832 1072 10 203 0
220 -15 794 1034 10 441 0
221 -30 2125 2365 10 225 0
222 -12 420 660 10 261 0
223 20 234 474 10 0 504
224 21 2918 3158 10 0 280
225 30 340 580 10 0 221
226 12 3548 3788 10 0 2
227 20 420 660 10 0 289
228 20 912 1152 10 0 389
229 -16 2941 3181 10 588 0
230 9 2512 2752 10 0 461
231 -25 3971 4211 10 8 0
232 40 33 273 10 0 553
233 10 1582 1822 10 0 533
234 -20 1489 1729 10 101 0
235 10 545 785 10 0 341
236 30 400 640 10 0 597
237 22 1615 1855 10 0 529
238 -20 1045 1285 10 489 0
239 20 644 884 10 0 253
240 -13 2711 2951 10 77 0
241 10 328 568 10 0 585
242 -9 3376 3616 10 443 0
243 10 687 927 10 0 592
244 19 601 841 10 0 329
245 -20 699 939 10 54 0
246 18 385 625 10 0 146
247 -20 1026 1266 10 192 0
248 10 597 837 10 0 11
249 20 800 1040 10 0 94
250 -22 3480 3720 10 251 0
251 22 3311 3551 10 0 250
252 38 1736 1976 10 0 479
253 -20 692 932 10 239 0
254 -10 555 795 10 344 0
255 30 728 968 10 0 418
256 -10 4032 4272 10 478 0
257 -10 108 348 10 454 0
258 -20 1549 1789 10 131 0
259 20 599 839 10 0 495
260 -22 3314 3554 10 354 0
261 12 262 502 10 0 222
262 -20 3419 3659 10 520 0
263 20 910 1150 10 0 159
264 20 491 731 10 0 57
265 -20 1577 1817 10 471 0
266 -18 2008 2248 10 451 0
267 20 437 677 10 0 406
268 14 31 271 10 0 111
269 -20 3007 3247 10 518 0
270 -10 458 698 10 104 0
271 4 1324 1564 10 0 180
272 -10 635 875 10 174 0
273 -10 1529 1769 10 72 0
274 -20 2427 2667 10 456 0
275 16 541 781 10 0 176
276 20 328 568 10 0 138
277 20 432 672 10 0 398
278 -17 3692 3932 10 411 0
279 -16 3012 3252 10 156 0
280 -21 3461 3701 10 224 0
281 22 726 966 10 0 314
282 -10 708 948 10 121 0
283 -2 882 1122 10 356 0
284 -20 300 540 10 519 0
285 10 487 727 10 0 353
286 -10 2982 3222 10 55 0
287 -11 3189 3429 10 130 0
288 -10 1275 1515 10 97 0
289 -20 520 760 10 227 0
290 15 253 493 10 0 172
291 -17 2208 2448 10 469 0
292 -19 2117 2357 10 591 0
293 20 689 929 10 0 125
294 11 22 262 10 0 493
295 -20 1155 1395 10 182 0
296 33 493 733 0 0 606
297 -20 271 511 10 215 0
298 20 138 378 10 0 358
299 10 728 968 10 0 209
300 20 202 442 10 0 503
301 -13 2531 2771 10 4 0
302 20 494 734 10 0 171
303 -2 462 702 10 48 0
304 8 3776 4016 0 0 604
305 -15 2151 2391 10 120 0
306 -17 2844 3084 10 21 0
307 -10 795 1035 10 164 0
308 -10 606 846 10 474 0
309 -36 1988 2228 10 166 0
310 -13 179 419 10 113 0
311 22 859 1099 10 0 102
312 -10 587 827 10 7 0
313 16 2880 3120 10 0 507
314 -22 633 873 10 281 0
315 -13 2782 3022 10 589 0
316 -12 2667 2907 10 500 0
317 -28 1914 2154 10 582 0
318 -5 923 1163 10 423 0
319 20 695 935 10 0 33
320 -20 1990 2230 10 408 0
321 -10 1392 1632 10 61 0
322 -13 634 874 10 374 0
323 -22 3351 3591 10 35 0
324 30 564 804 10 0 137
325 -30 800 1040 10 472 0
326 20 269 509 10 0 187
327 20 224 464 10 0 525
328 10 609 849 10 0 532
329 -19 737 977 10 244 0
330 -20 777 1017 10 216 0
331 20 791 1031 10 0 44
332 10 496 736 0 0 605
333 5 12 252 10 0 162
334 10 396 636 10 0 114
335 20 772 1012 10 0 58
336 -11 2884 3124 10 157 0
337 -15 3558 3798 10 39 0
338 -20 1526 1766 10 26 0
339 -10 2154 2394 10 546 0
340 -20 913 1153 10 22 0
341 -10 445 685 10 235 0
342 15 93 333 10 0 581
343 3 2967 3207 10 0 473
344 10 264 504 10 0 254
345 30 351 591 10 0 428
346 -20 1926 2166 10 355 0
347 20 163 403 10 0 530
348 10 289 529 10 0 129
349 4 39 279 10 0 531
350 19 342 582 10 0 214
351 10 462 702 10 0 375
352 -29 3694 3934 10 149 0
353 -10 372 612 10 285 0
354 22 2232 2472 10 0 260
355 20 144 384 10 0 346
356 2 689 929 10 0 283
357 -13 1968 2208 10 409 0
358 -20 542 782 10 298 0
359 -20 341 581 10 383 0
360 12 1767 2007 10 0 170
361 -16 2695 2935 10 95 0
362 23 1145 1385 10 0 60
363 15 508 748 10 0 145
364 10 97 337 10 0 569
365 12 461 701 10 0 557
366 -30 486 726 10 200 0
367 -20 2414 2654 10 435 0
368 10 396 636 10 0 87
369 -20 3517 3757 10 412 0
370 -42 3302 3542 10 466 0
371 -20 3578 3818 10 190 0
372 18 589 829 10 0 499
373 20 434 674 10 0 595
374 13 681 921 10 0 322
375 -10 876 1116 10 351 0
376 30 222 462 10 0 590
377 20 986 1226 10 0 51
378 16 1162 1402 10 0 434
379 27 1102 1342 10 0 183
380 -10 354 594 10 481 0
381 -20 873 1113 10 477 0
382 -10 3230 3470 10 154 0
383 20 138 378 10 0 359
384 30 285 525 10 0 68
385 -10 1909 2149 10 485 0
386 30 380 620 10 0 492
387 -20 3058 3298 10 396 0
388 -20 606 846 10 455 0
389 -20 2950 3190 10 228 0
390 20 959 1199 10 0 191
391 -10 453 693 10 600 0
392 20 87 327 10 0 150
393 8 2006 2246 10 0 83
394 20 472 712 10 0 543
395 6 413 653 10 0 584
396 20 2334 2574 10 0 387
397 -10 660 900 10 442 0
398 -20 743 983 10 277 0
399 10 902 1142 10 0 118
400 10 605 845 10 0 78
401 20 500 740 10 0 562
402 -30 832 1072 10 516 0
403 -10 1930 2170 10 542 0
404 20 448 688 10 0 122
405 -30 538 778 10 133 0
406 -20 2151 2391 10 267 0
407 -30 3274 3514 10 66 0
408 20 650 890 10 0 320
409 13 1469 1709 10 0 357
410 -22 373 613 10 84 0
411 17 1926 2166 10 0 278
412 20 660 900 10 0 369
413 -20 1339 1579 10 554 0
414 10 530 770 10 0 106
415 10 616 856 10 0 202
416 -16 2924 3164 10 194 0
417 21 77 317 10 0 421
418 -30 1834 2074 10 255 0
419 22 35 275 10 0 512
420 -30 452 692 10 45 0
421 -21 257 497 10 417 0
422 32 2341 2581 10 0 116
423 5 525 765 10 0 318
424 10 262 502 10 0 16
425 -18 2287 2527 10 599 0
426 -20 190 430 10 67 0
427 7 406 646 10 0 167
428 -30 452 692 10 345 0
429 20 437 677 10 0 576
430 -9 3672 3912 10 112 0
431 13 430 670 10 0 184
432 19 2312 2552 10 0 208
433 -10 838 1078 10 52 0
434 -16 1435 1675 10 378 0
435 20 345 585 10 0 367
436 -19 1740 1980 10 467 0
437 -20 652 892 10 134 0
438 -30 626 866 10 185 0
439 30 33 273 10 0 23
440 -30 3575 3815 10 575 0
441 15 13 253 10 0 220
442 10 294 534 10 0 397
443 9 2034 2274 10 0 242
444 -20 760 1000 10 63 0
445 27 1916 2156 10 0 555
446 -16 524 764 10 82 0
447 30 399 639 10 0 90
448 -17 1036 1276 10 98 0
449 -24 254 494 10 488 0
450 25 2855 3095 0 0 607
451 18 682 922 10 0 266
452 30 157 397 10 0 559
453 20 327 567 10 0 123
454 10 212 452 10 0 257
455 20 399 639 10 0 388
456 20 340 580 10 0 274
457 -30 425 665 10 486 0
458 27 3794 4034 10 0 586
459 10 508 748 10 0 173
460 30 854 1094 10 0 496
461 -9 3223 3463 10 230 0
462 -10 745 985 10 195 0
463 -20 2482 2722 10 218 0
464 -30 578 818 10 10 0
465 -13 2472 2712 10 490 0
466 42 1706 1946 10 0 370
467 19 1502 1742 10 0 436
468 -10 825 1065 10 75 0
469 17 2040 2280 10 0 291
470 24 1294 1534 10 0 9
471 20 736 976 10 0 265
472 30 644 884 10 0 325
473 -3 3872 4112 10 343 0
474 10 555 795 10 0 308
475 20 210 450 10 0 165
476 -21 1672 1912 10 56 0
477 20 383 623 10 0 381
478 10 3572 3812 10 0 256
479 -38 3111 3351 10 252 0
480 12 215 455 10 0 139
481 10 115 355 10 0 380
482 39 1842 2082 10 0 88
483 10 716 956 10 0 537
484 20 576 816 10 0 73
485 10 515 755 10 0 385
486 30 469 709 10 0 457
487 21 1222 1462 10 0 510
488 24 7 247 10 0 449
489 20 130 370 10 0 238
490 13 897 1137 10 0 465
491 10 215 455 10 0 76
492 -30 423 663 10 386 0
493 -11 209 449 10 294 0
494 20 589 829 10 0 49
495 -20 843 1083 10 259 0
496 -30 3698 3938 10 460 0
497 17 1527 1767 10 0 136
498 10 413 653 10 0 566
499 -18 579 819 10 372 0
500 12 1919 2159 10 0 316
501 -20 1720 1960 10 552 0
502 -15 1830 2070 10 93 0
503 -20 513 753 10 300 0
504 -20 608 848 10 223 0
505 40 708 948 10 0 524
506 14 213 453 10 0 28
507 -16 2944 3184 10 313 0
508 -27 3537 3777 10 534 0
509 33 236 476 10 0 526
510 -21 3328 3568 10 487 0
511 -1 359 599 10 80 0
512 -22 980 1220 10 419 0
513 -10 425 665 10 3 0
514 25 3469 3709 10 0 100
515 -10 758 998 10 110 0
516 30 536 776 10 0 402
517 40 722 962 10 0 210
518 20 3038 3278 10 0 269
519 20 338 578 10 0 284
520 20 2555 2795 10 0 262
521 20 356 596 10 0 30
522 20 331 571 10 0 31
523 20 489 729 10 0 538
524 -40 3205 3445 10 505 0
525 -20 625 865 10 327 0
526 -33 806 1046 10 509 0
527 -10 204 444 10 212 0
528 16 908 1148 10 0 201
529 -22 2677 2917 10 237 0
530 -20 460 700 10 347 0
531 -4 444 684 10 349 0
532 -10 2015 2255 10 328 0
533 -10 2203 2443 10 233 0
534 27 2666 2906 10 0 508
535 -20 1642 1882 10 40 0
536 14 37 277 10 0 160
537 -10 722 962 10 483 0
538 -20 2249 2489 10 523 0
539 -20 460 700 10 565 0
540 -10 2628 2868 10 198 0
541 -10 682 922 10 43 0
542 10 745 985 10 0 403
543 -20 894 1134 10 394 0
544 20 306 546 10 0 89
545 -12 2436 2676 10 70 0
546 10 498 738 10 0 339
547 30 680 920 10 0 574
548 10 39 279 10 0 29
549 30 794 1034 10 0 558
550 -19 3259 3499 10 24 0
551 30 30 270 10 0 188
552 20 516 756 10 0 501
553 -40 433 673 10 232 0
554 20 546 786 10 0 413
555 -27 1879 2119 10 445 0
556 30 542 782 10 0 161
557 -12 765 1005 10 365 0
558 -30 2103 2343 10 549 0
559 -30 1426 1666 10 452 0
560 -20 1301 1541 10 64 0
561 29 338 578 10 0 181
562 -20 1302 1542 10 401 0
563 -30 598 838 10 163 0
564 13 2205 2445 10 0 99
565 20 398 638 10 0 539
566 -10 547 787 10 498 0
567 30 84 324 10 0 568
568 -30 829 1069 10 567 0
569 -10 86 326 10 364 0
570 30 328 568 10 0 46
571 26 220 460 10 0 103
572 31 1103 1343 10 0 36
573 5 2379 2619 10 0 204
574 -30 2683 2923 10 547 0
575 30 2318 2558 10 0 440
576 -20 669 909 10 429 0
577 10 869 1109 10 0 580
578 10 435 675 10 0 140
579 -10 3097 3337 10 17 0
580 -10 4124 4364 10 577 0
581 -15 160 400 10 342 0
582 28 1679 1919 10 0 317
583 -20 643 883 10 179 0
584 -6 794 1034 10 395 0
585 -10 1580 1820 10 241 0
586 -27 4210 4450 10 458 0
587 10 268 508 10 0 119
588 16 2829 3069 10 0 229
589 13 2392 2632 10 0 315
590 -30 563 803 10 376 0
591 19 688 928 10 0 292
592 -10 975 1215 10 243 0
593 30 920 1160 10 0 178
594 -10 486 726 10 14 0
595 -20 699 939 10 373 0
596 -20 2832 3072 10 107 0
597 -30 518 758 10 236 0
598 20 856 1096 10 0 20
599 18 319 559 10 0 425
600 10 305 545 10 0 391
601 10 556 796 10 0 199
602 -31 3117 3357 10 117 0
603 -17 3314 3554 10 74 0
604 -8 3776 4016 10 304 0
605 -10 496 736 10 332 0
606 -33 493 733 10 296 0
607 -25 2855 3095 10 450 0
DEPOT_SECTION
1
-1
EOF
