NAME: lrc2_6_9
TYPE: PDPTW
COMMENT: Li & Lim PDPTW benchmark converted from SINTEF format
DIMENSION: 605
VEHICLES: 150
CAPACITY: 1000
EDGE_WEIGHT_TYPE: EUC_2D
NODE_COORD_SECTION
1 150 150
2 125 168
3 162 107
4 199 213
5 61 84
6 125 103
7 143 101
8 28 141
9 230 128
10 55 68
11 72 180
12 159 41
13 8 4
14 257 58
15 57 155
16 186 26
17 231 243
18 247 132
19 89 61
20 84 231
21 116 240
22 110 79
23 110 74
24 180 106
25 240 73
26 13 265
27 134 147
28 257 59
29 160 108
30 289 130
31 27 255
32 234 146
33 69 208
34 115 196
35 250 228
36 159 89
37 105 81
38 149 183
39 159 300
40 47 277
41 209 269
42 212 26
43 14 149
44 74 117
45 140 140
46 152 241
47 222 83
48 88 124
49 136 68
50 250 124
51 109 299
52 258 244
53 208 47
54 212 62
55 259 59
56 150 104
57 77 233
58 212 45
59 57 125
60 232 121
61 255 132
62 18 184
63 165 113
64 143 111
65 248 41
66 8 263
67 109 110
68 106 71
69 259 240
70 38 139
71 277 41
72 255 57
73 9 122
74 102 76
75 43 286
76 60 160
77 172 225
78 161 22
79 88 110
80 122 127
81 52 63
82 53 141
83 175 281
84 265 141
85 250 126
86 147 281
87 255 240
88 188 142
89 154 26
90 59 64
91 114 204
92 235 242
93 34 150
94 140 214
95 59 113
96 282 104
97 145 184
98 184 277
99 129 77
100 96 199
101 67 154
102 2 81
103 208 208
104 169 173
105 106 108
106 15 2
107 227 26
108 147 285
109 141 286
110 231 70
111 242 73
112 15 259
113 93 165
114 10 198
115 149 294
116 82 100
117 256 286
118 172 2
119 277 172
120 73 81
121 217 69
122 85 224
123 0 153
124 147 43
125 143 288
126 112 272
127 200 26
128 140 143
129 83 236
130 253 84
131 53 288
132 256 239
133 224 79
134 110 107
135 125 136
136 149 76
137 203 166
138 211 61
139 107 103
140 262 62
141 227 80
142 269 103
143 119 254
144 122 96
145 248 245
146 181 297
147 65 69
148 16 151
149 254 206
150 167 176
151 280 172
152 285 285
153 149 282
154 277 100
155 223 23
156 25 191
157 266 212
158 272 183
159 135 251
160 11 191
161 25 119
162 215 68
163 137 104
164 113 202
165 160 24
166 51 217
167 14 177
168 225 22
169 194 234
170 262 14
171 259 126
172 214 234
173 216 23
174 111 110
175 145 182
176 51 2
177 30 243
178 186 228
179 132 146
180 176 72
181 108 3
182 216 62
183 271 106
184 140 290
185 64 59
186 206 157
187 66 157
188 132 297
189 109 105
190 64 55
191 173 64
192 213 65
193 17 205
194 224 229
195 78 236
196 274 6
197 207 237
198 161 26
199 119 104
200 169 171
201 296 235
202 220 74
203 109 148
204 212 270
205 265 197
206 174 238
207 223 74
208 47 203
209 69 90
210 33 231
211 8 265
212 136 144
213 286 175
214 151 30
215 150 184
216 157 25
217 131 78
218 232 240
219 53 285
220 278 176
221 225 192
222 115 197
223 167 179
224 6 168
225 163 180
226 135 210
227 277 104
228 262 241
229 162 148
230 61 138
231 117 155
232 126 127
233 157 221
234 19 290
235 65 156
236 159 177
237 12 10
238 67 175
239 78 232
240 201 175
241 249 133
242 139 110
243 252 128
244 57 123
245 71 154
246 157 276
247 111 98
248 221 70
249 70 57
250 236 108
251 268 113
252 40 1
253 106 243
254 37 126
255 259 58
256 167 193
257 168 204
258 72 286
259 254 240
260 241 183
261 75 191
262 26 27
263 12 270
264 81 238
265 140 294
266 11 242
267 224 77
268 166 123
269 92 241
270 280 180
271 151 113
272 65 49
273 203 36
274 129 83
275 38 74
276 166 105
277 129 98
278 30 226
279 15 178
280 108 298
281 296 211
282 236 72
283 277 177
284 99 73
285 166 113
286 271 8
287 228 41
288 80 131
289 284 176
290 208 117
291 119 183
292 246 166
293 144 292
294 128 155
295 113 188
296 155 93
297 161 210
298 168 176
299 60 64
300 165 204
301 280 158
302 241 71
303 57 68
304 219 152
305 72 89
306 85 75
307 3 205
308 235 243
309 12 275
310 76 160
311 56 116
312 170 53
313 34 5
314 280 175
315 288 127
316 103 8
317 229 25
318 12 198
319 66 54
320 120 60
321 110 31
322 218 20
323 226 248
324 275 100
325 217 73
326 88 225
327 123 92
328 293 62
329 4 149
330 216 25
331 63 59
332 63 155
333 158 140
334 84 236
335 260 58
336 284 244
337 190 181
338 159 287
339 285 283
340 65 68
341 61 157
342 102 173
343 300 44
344 103 78
345 144 182
346 24 76
347 149 186
348 165 182
349 179 123
350 157 84
351 17 209
352 233 119
353 167 105
354 238 206
355 127 101
356 263 291
357 281 68
358 251 237
359 108 109
360 199 28
361 3 119
362 252 219
363 234 213
364 136 140
365 191 49
366 251 241
367 119 214
368 275 182
369 103 260
370 2 238
371 94 93
372 158 291
373 230 248
374 207 20
375 54 285
376 160 107
377 59 280
378 208 290
379 248 280
380 138 100
381 8 155
382 208 235
383 111 112
384 128 94
385 110 262
386 162 203
387 160 179
388 16 204
389 239 295
390 157 31
391 147 178
392 170 174
393 157 254
394 277 101
395 283 144
396 156 182
397 274 97
398 66 56
399 158 27
400 156 26
401 257 133
402 264 61
403 296 279
404 220 66
405 240 71
406 112 43
407 4 296
408 222 73
409 209 84
410 250 134
411 59 287
412 13 202
413 93 117
414 62 53
415 275 97
416 206 121
417 107 174
418 224 61
419 124 174
420 101 110
421 112 201
422 80 86
423 5 189
424 141 100
425 165 256
426 108 113
427 37 159
428 136 104
429 107 71
430 97 232
431 127 266
432 14 204
433 278 177
434 209 246
435 134 148
436 283 65
437 108 80
438 55 62
439 141 137
440 224 138
441 163 150
442 213 68
443 113 62
444 100 138
445 126 266
446 10 150
447 137 150
448 258 232
449 191 234
450 213 119
451 5 195
452 166 203
453 100 73
454 147 185
455 60 156
456 239 77
457 163 202
458 81 219
459 155 28
460 160 27
461 43 62
462 235 241
463 291 148
464 64 53
465 168 42
466 183 282
467 289 79
468 1 272
469 87 183
470 234 107
471 52 288
472 236 66
473 264 35
474 233 245
475 144 100
476 260 64
477 130 96
478 202 292
479 7 31
480 96 86
481 141 102
482 170 93
483 85 228
484 10 147
485 18 206
486 164 202
487 1 81
488 148 157
489 159 110
490 229 40
491 67 161
492 131 220
493 112 199
494 238 69
495 258 247
496 205 130
497 109 61
498 59 67
499 151 294
500 26 0
501 45 190
502 56 212
503 148 288
504 275 263
505 272 97
506 143 67
507 29 8
508 152 29
509 176 235
510 30 145
511 61 70
512 16 196
513 168 108
514 15 209
515 211 66
516 256 54
517 11 207
518 58 240
519 131 95
520 116 14
521 154 31
522 86 230
523 133 99
524 290 37
525 9 145
526 140 292
527 134 146
528 229 179
529 72 20
530 149 285
531 257 137
532 225 73
533 71 294
534 156 57
535 177 281
536 117 168
537 162 250
538 116 245
539 153 28
540 176 70
541 50 285
542 257 243
543 246 133
544 140 100
545 69 134
546 236 248
547 217 21
548 161 112
549 233 242
550 127 77
551 155 180
552 144 173
553 65 56
554 130 102
555 76 280
556 110 76
557 271 101
558 216 203
559 136 241
560 160 17
561 64 91
562 107 39
563 106 77
564 103 93
565 138 101
566 15 52
567 160 111
568 81 223
569 113 114
570 162 206
571 203 183
572 113 4
573 176 263
574 173 72
575 279 189
576 9 144
577 266 104
578 253 57
579 296 252
580 254 87
581 114 198
582 220 43
583 11 265
584 250 130
585 299 153
586 133 187
587 246 137
588 238 103
589 220 182
590 213 61
591 290 219
592 153 61
593 55 285
594 276 66
595 236 240
596 244 13
597 163 200
598 62 65
599 189 240
600 145 183
601 140 108
602 100 138
603 202 292
604 119 183
605 37 126
PICKUP_AND_DELIVERY_SECTION
1 0 0 4823 0 0 0
2 -20 3287 3767 10 521 0
3 -20 150 630 10 215 0
4 -21 1864 2344 10 338 0
5 -20 1154 1634 10 123 0
6 20 53 533 10 0 544
7 10 49 529 10 0 428
8 25 2400 2880 10 0 430
9 -10 1342 1822 10 92 0
10 -20 390 870 10 68 0
11 -10 1308 1788 10 122 0
12 11 1045 1525 10 0 443
13 -20 575 1055 10 453 0
14 10 472 952 10 0 335
15 20 227 707 10 0 375
16 -6 2079 2559 10 180 0
17 10 253 733 10 0 448
18 -20 728 1208 10 171 0
19 -10 832 1312 10 539 0
20 21 1998 2478 10 0 100
21 -24 1921 2401 10 62 0
22 -15 581 1061 10 441 0
23 -20 374 854 10 64 0
24 19 53 533 10 0 289
25 20 277 757 10 0 110
26 -10 475 955 10 468 0
27 20 181 661 10 0 446
28 20 516 996 10 0 505
29 -20 58 538 10 569 0
30 -26 1138 1618 10 571 0
31 -40 782 1262 10 341 0
32 38 1228 1708 10 0 46
33 -29 2148 2628 10 208 0
34 10 57 537 10 0 220
35 -20 2927 3407 10 326 0
36 -20 3125 3605 10 520 0
37 20 90 570 10 0 272
38 -20 33 513 10 392 0
39 15 361 841 10 0 528
40 -20 414 894 10 76 0
41 -16 1603 2083 10 194 0
42 -20 713 1193 10 325 0
43 10 347 827 10 0 479
44 -9 3038 3518 10 230 0
45 30 14 494 10 0 424
46 -38 2504 2984 10 32 0
47 20 153 633 10 0 267
48 -19 85 565 10 203 0
49 -20 2197 2677 10 54 0
50 4 352 832 10 0 227
51 -5 1326 1806 10 423 0
52 10 671 1151 10 0 339
53 -10 233 713 10 442 0
54 20 536 1016 10 0 49
55 10 564 1044 10 0 317
56 21 97 577 10 0 327
57 20 478 958 10 0 126
58 -20 2338 2818 10 216 0
59 23 663 1143 10 0 367
60 -20 2129 2609 10 223 0
61 -20 429 909 10 276 0
62 24 1303 1783 10 0 21
63 20 411 891 10 0 418
64 20 39 519 10 0 23
65 -16 1696 2176 10 247 0
66 30 578 1058 10 0 432
67 -1 175 655 10 80 0
68 20 273 753 10 0 10
69 -40 844 1324 10 495 0
70 -10 1168 1648 10 213 0
71 14 1197 1677 10 0 585
72 -5 363 843 10 333 0
73 19 686 1166 10 0 340
74 -10 3194 3674 10 235 0
75 10 493 973 10 0 112
76 20 163 643 10 0 40
77 -30 258 738 10 236 0
78 10 632 1112 10 0 337
79 -15 2356 2836 10 413 0
80 1 36 516 10 0 67
81 10 453 933 10 0 237
82 16 150 630 10 0 422
83 -2 2382 2862 10 356 0
84 22 221 701 10 0 269
85 20 618 1098 10 0 470
86 20 910 1390 10 0 218
87 -18 523 1003 10 246 0
88 -30 4295 4775 10 516 0
89 20 437 917 10 0 396
90 10 564 1044 10 0 438
91 20 232 712 10 0 270
92 10 530 1010 10 0 9
93 -20 1394 1874 10 531 0
94 -27 2278 2758 10 379 0
95 -20 796 1276 10 329 0
96 19 904 1384 10 0 450
97 -30 141 621 10 200 0
98 17 627 1107 10 0 549
99 11 2371 2851 10 0 371
100 -21 3897 4377 10 20 0
101 -40 523 1003 10 232 0
102 -10 878 1358 10 147 0
103 16 242 722 10 0 518
104 10 29 509 10 0 296
105 -5 270 750 10 135 0
106 -29 1415 1895 10 561 0
107 -10 344 824 10 162 0
108 -12 854 1334 10 261 0
109 -20 790 1270 10 239 0
110 -20 397 877 10 25 0
111 20 325 805 10 0 494
112 -10 2531 3011 10 75 0
113 13 58 538 10 0 555
114 -6 755 1235 10 395 0
115 -30 507 987 10 503 0
116 -20 2130 2610 10 598 0
117 -10 2997 3477 10 153 0
118 9 2230 2710 10 0 440
119 -30 617 1097 10 314 0
120 15 2043 2523 10 0 305
121 -4 271 751 10 349 0
122 10 652 1132 10 0 11
123 20 680 1160 10 0 5
124 14 231 711 10 0 437
125 -10 626 1106 10 526 0
126 -20 1169 1649 10 57 0
127 -10 1598 2078 10 328 0
128 20 12 492 10 0 480
129 10 320 800 10 0 530
130 -33 1438 1918 10 509 0
131 20 660 1140 10 0 541
132 -10 569 1049 10 348 0
133 30 269 749 10 0 202
134 -10 509 989 10 189 0
135 5 28 508 10 0 105
136 -10 3020 3500 10 508 0
137 -16 3781 4261 10 287 0
138 20 491 971 10 0 312
139 20 408 888 10 0 420
140 10 761 1241 10 0 273
141 30 217 697 10 0 173
142 -17 696 1176 10 594 0
143 -30 3047 3527 10 512 0
144 -30 410 890 10 380 0
145 -10 306 786 10 146 0
146 10 470 950 10 0 145
147 10 837 1317 10 0 102
148 20 296 776 10 0 576
149 -5 2305 2785 10 558 0
150 20 62 542 10 0 183
151 -20 565 1045 10 283 0
152 -16 2622 3102 10 535 0
153 10 288 768 10 0 117
154 10 396 876 10 0 399
155 -20 451 931 10 322 0
156 16 739 1219 10 0 278
157 -20 1150 1630 10 373 0
158 -11 2645 3125 10 197 0
159 -10 1757 2237 10 483 0
160 -10 2723 3203 10 485 0
161 17 493 973 10 0 313
162 10 222 702 10 0 107
163 30 376 856 10 0 332
164 10 183 663 10 0 386
165 10 583 1063 10 0 465
166 36 898 1378 10 0 318
167 -10 365 845 10 491 0
168 -30 402 882 10 547 0
169 7 139 619 10 0 372
170 -12 2613 3093 10 360 0
171 20 497 977 10 0 18
172 21 2741 3221 10 0 206
173 -30 609 1089 10 141 0
174 10 127 607 10 0 519
175 10 275 755 10 0 552
176 -10 688 1168 10 553 0
177 6 965 1445 10 0 538
178 5 1472 1952 10 0 233
179 20 132 612 10 0 545
180 6 2118 2598 10 0 16
181 -30 2503 2983 10 398 0
182 20 390 870 10 0 397
183 -20 2170 2650 10 150 0
184 -13 734 1214 10 431 0
185 30 261 741 10 0 331
186 -16 3462 3942 10 588 0
187 10 471 951 10 0 550
188 -20 475 955 10 499 0
189 10 460 940 10 0 134
190 20 359 839 10 0 252
191 -30 2107 2587 10 324 0
192 20 589 1069 10 0 400
193 20 440 920 10 0 586
194 16 1184 1664 10 0 41
195 10 426 906 10 0 434
196 -20 1897 2377 10 402 0
197 11 1771 2251 10 0 158
198 -10 688 1168 10 248 0
199 10 587 1067 10 0 409
200 30 28 508 10 0 97
201 -15 2061 2541 10 205 0
202 -30 627 1107 10 133 0
203 19 41 521 10 0 48
204 -10 2187 2667 10 366 0
205 15 1106 1586 10 0 201
206 -21 3913 4393 10 172 0
207 10 575 1055 10 0 490
208 29 2499 2979 10 0 33
209 -18 2925 3405 10 540 0
210 -40 2801 3281 10 568 0
211 20 626 1106 10 0 514
212 10 33 513 10 0 295
213 10 449 929 10 0 70
214 20 289 769 10 0 221
215 20 34 514 10 0 3
216 20 531 1011 10 0 58
217 -40 2132 2612 10 245 0
218 -20 722 1202 10 86 0
219 -20 712 1192 10 455 0
220 -10 674 1154 10 34 0
221 -20 2005 2485 10 214 0
222 10 300 780 10 0 457
223 20 114 594 10 0 60
224 -8 2798 3278 10 361 0
225 30 220 700 10 0 482
226 -23 3428 3908 10 476 0
227 -4 300 780 10 50 0
228 -10 792 1272 10 358 0
229 25 2821 3301 10 0 507
230 9 2392 2872 10 0 44
231 -23 3851 4331 10 346 0
232 40 33 513 10 0 101
233 -5 1462 1942 10 178 0
234 12 1369 1849 10 0 369
235 10 425 905 10 0 74
236 30 280 760 10 0 77
237 -10 1495 1975 10 81 0
238 -20 925 1405 10 554 0
239 20 524 1004 10 0 109
240 -10 2591 3071 10 416 0
241 10 208 688 10 0 445
242 -10 3256 3736 10 414 0
243 10 567 1047 10 0 315
244 -10 481 961 10 381 0
245 40 579 1059 10 0 217
246 18 265 745 10 0 87
247 16 906 1386 10 0 65
248 10 477 957 10 0 198
249 20 680 1160 10 0 500
250 -20 3360 3840 10 302 0
251 -12 3191 3671 10 320 0
252 -20 1616 2096 10 190 0
253 -21 572 1052 10 417 0
254 19 435 915 0 0 605
255 -13 608 1088 10 374 0
256 -30 3912 4392 10 543 0
257 20 56 536 10 0 474
258 -15 1429 1909 10 342 0
259 -20 479 959 10 308 0
260 12 3194 3674 10 0 304
261 12 142 622 10 0 108
262 -18 3299 3779 10 306 0
263 20 790 1270 10 0 266
264 20 371 851 10 0 334
265 -16 1457 1937 10 378 0
266 -20 1888 2368 10 263 0
267 -20 317 797 10 47 0
268 -10 31 511 10 454 0
269 -22 2887 3367 10 84 0
270 -20 338 818 10 91 0
271 -10 1204 1684 10 285 0
272 -20 515 995 10 37 0
273 -10 1409 1889 10 140 0
274 -30 2307 2787 10 384 0
275 -20 421 901 10 319 0
276 20 208 688 10 0 61
277 20 312 792 10 0 359
278 -16 3572 4052 10 156 0
279 -30 2892 3372 10 447 0
280 -20 3341 3821 10 377 0
281 -20 606 1086 10 421 0
282 20 588 1068 10 0 515
283 20 762 1242 10 0 151
284 22 180 660 10 0 299
285 10 367 847 10 0 271
286 36 2862 3342 10 0 580
287 16 3069 3549 10 0 137
288 -20 1155 1635 10 475 0
289 -19 400 880 10 24 0
290 15 133 613 10 0 537
291 6 2088 2568 0 0 604
292 18 1997 2477 10 0 387
293 20 569 1049 10 0 354
294 11 22 502 10 0 427
295 -10 1035 1515 10 212 0
296 -10 373 853 10 104 0
297 -20 151 631 10 581 0
298 20 31 511 10 0 600
299 -22 608 1088 10 284 0
300 20 82 562 10 0 301
301 -20 2411 2891 10 300 0
302 20 374 854 10 0 250
303 10 342 822 10 0 529
304 -12 3656 4136 10 260 0
305 -15 2031 2511 10 120 0
306 18 2724 3204 10 0 262
307 -10 675 1155 10 368 0
308 20 486 966 10 0 259
309 -14 1868 2348 10 536 0
310 2 74 554 10 0 593
311 22 739 1219 10 0 461
312 -20 467 947 10 138 0
313 -17 2760 3240 10 161 0
314 30 513 993 10 0 119
315 -10 2662 3142 10 243 0
316 -10 2547 3027 10 481 0
317 -10 1794 2274 10 55 0
318 -36 803 1283 10 166 0
319 20 575 1055 10 0 275
320 12 1870 2350 10 0 251
321 15 1272 1752 10 0 562
322 20 514 994 10 0 155
323 -22 3231 3711 10 419 0
324 30 444 924 10 0 191
325 20 680 1160 10 0 42
326 20 149 629 10 0 35
327 -21 104 584 10 56 0
328 10 489 969 10 0 127
329 20 617 1097 10 0 95
330 -10 657 1137 10 557 0
331 -30 671 1151 10 185 0
332 -30 376 856 10 163 0
333 5 12 492 10 0 72
334 -20 276 756 10 264 0
335 -10 652 1132 10 14 0
336 -30 2764 3244 10 575 0
337 -10 3438 3918 10 78 0
338 21 1406 1886 10 0 4
339 -10 2034 2514 10 52 0
340 -19 793 1273 10 73 0
341 40 325 805 10 0 31
342 15 53 533 10 0 258
343 -10 2847 3327 10 596 0
344 -14 144 624 10 506 0
345 30 231 711 10 0 350
346 23 1806 2286 10 0 231
347 20 43 523 10 0 589
348 10 169 649 10 0 132
349 4 39 519 10 0 121
350 -30 222 702 10 345 0
351 10 342 822 10 0 533
352 -25 3574 4054 10 473 0
353 20 252 732 10 0 517
354 -20 2112 2592 10 293 0
355 20 54 534 10 0 565
356 2 569 1049 10 0 83
357 -30 1848 2328 10 556 0
358 10 422 902 10 0 228
359 -20 221 701 10 277 0
360 12 1647 2127 10 0 170
361 8 2575 3055 10 0 224
362 -10 1025 1505 10 542 0
363 -10 388 868 10 597 0
364 10 17 497 10 0 426
365 -20 341 821 10 404 0
366 10 366 846 10 0 204
367 -23 2294 2774 10 59 0
368 10 276 756 10 0 307
369 -12 3397 3877 10 234 0
370 21 3182 3662 10 0 407
371 -11 3458 3938 10 99 0
372 -7 469 949 10 169 0
373 20 314 794 10 0 157
374 13 561 1041 10 0 255
375 -20 756 1236 10 15 0
376 -20 102 582 10 383 0
377 20 866 1346 10 0 280
378 16 1042 1522 10 0 265
379 27 982 1462 10 0 94
380 30 234 714 10 0 144
381 10 753 1233 10 0 244
382 -23 3110 3590 10 492 0
383 20 54 534 10 0 376
384 30 165 645 10 0 274
385 -10 1789 2269 10 548 0
386 -10 260 740 10 164 0
387 -18 2938 3418 10 292 0
388 -18 486 966 10 451 0
389 11 2830 3310 10 0 496
390 -30 839 1319 10 472 0
391 10 333 813 10 0 582
392 20 31 511 10 0 38
393 -10 1886 2366 10 546 0
394 20 352 832 10 0 460
395 6 293 773 10 0 114
396 -20 2214 2694 10 89 0
397 -20 540 1020 10 182 0
398 30 623 1103 10 0 181
399 -10 782 1262 10 154 0
400 -20 485 965 10 192 0
401 -10 380 860 10 513 0
402 20 712 1192 10 0 196
403 15 1810 2290 10 0 425
404 20 328 808 10 0 365
405 30 418 898 10 0 406
406 -30 2031 2511 10 405 0
407 -21 3154 3634 10 370 0
408 -20 530 1010 10 456 0
409 -10 1349 1829 10 199 0
410 30 253 733 10 0 501
411 -20 1806 2286 10 412 0
412 20 540 1020 10 0 411
413 15 1219 1699 10 0 79
414 10 410 890 10 0 242
415 10 496 976 10 0 524
416 10 2804 3284 10 0 240
417 21 49 529 10 0 253
418 -20 1714 2194 10 63 0
419 22 35 515 10 0 323
420 -20 332 812 10 139 0
421 20 137 617 10 0 281
422 -16 2221 2701 10 82 0
423 5 405 885 10 0 51
424 -30 142 622 10 45 0
425 -15 2167 2647 10 403 0
426 -10 70 550 10 364 0
427 -11 286 766 10 294 0
428 -10 332 812 10 7 0
429 20 317 797 10 0 464
430 -25 3552 4032 10 8 0
431 13 310 790 10 0 184
432 -30 2192 2672 10 66 0
433 20 718 1198 10 0 584
434 -10 1315 1795 10 195 0
435 20 225 705 10 0 583
436 27 1620 2100 10 0 467
437 -14 532 1012 10 124 0
438 -10 506 986 10 90 0
439 30 15 495 10 0 566
440 -9 3455 3935 10 118 0
441 15 13 493 10 0 22
442 10 174 654 10 0 53
443 -11 1914 2394 10 12 0
444 24 640 1120 0 0 602
445 -10 1796 2276 10 241 0
446 -20 404 884 10 27 0
447 30 279 759 10 0 279
448 -10 916 1396 10 17 0
449 9 134 614 10 0 599
450 -19 2735 3215 10 96 0
451 18 562 1042 10 0 388
452 -30 55 535 10 486 0
453 20 207 687 10 0 13
454 10 92 572 10 0 268
455 20 279 759 10 0 219
456 20 220 700 10 0 408
457 -10 305 785 10 222 0
458 -17 3674 4154 10 469 0
459 10 388 868 10 0 532
460 -20 734 1214 10 394 0
461 -22 3103 3583 10 311 0
462 30 625 1105 10 0 595
463 -10 2362 2842 10 577 0
464 -20 458 938 10 429 0
465 -10 2352 2832 10 165 0
466 -11 1586 2066 10 559 0
467 -27 1382 1862 10 436 0
468 10 705 1185 10 0 26
469 17 1920 2400 10 0 458
470 -20 1174 1654 10 85 0
471 20 616 1096 10 0 510
472 30 524 1004 10 0 390
473 25 3752 4232 10 0 352
474 -20 435 915 10 257 0
475 20 90 570 10 0 288
476 23 1552 2032 10 0 226
477 -10 263 743 10 601 0
478 10 3452 3932 0 0 603
479 -10 2991 3471 10 43 0
480 -20 95 575 10 128 0
481 10 48 528 10 0 316
482 -30 1722 2202 10 225 0
483 10 596 1076 10 0 159
484 -10 456 936 10 527 0
485 10 395 875 10 0 160
486 30 349 829 10 0 452
487 -30 1102 1582 10 525 0
488 24 7 487 10 0 493
489 20 41 521 10 0 564
490 -10 777 1257 10 207 0
491 10 95 575 10 0 167
492 23 303 783 10 0 382
493 -24 89 569 10 488 0
494 -20 469 949 10 111 0
495 40 723 1203 10 0 69
496 -11 3578 4058 10 389 0
497 -31 1407 1887 10 572 0
498 -30 293 773 10 511 0
499 20 459 939 10 0 188
500 -20 1799 2279 10 249 0
501 -30 1600 2080 10 410 0
502 -10 1710 2190 10 587 0
503 30 393 873 10 0 115
504 33 488 968 10 0 573
505 -20 588 1068 10 28 0
506 14 93 573 10 0 344
507 -25 2824 3304 10 229 0
508 10 3417 3897 10 0 136
509 33 116 596 10 0 130
510 -20 3208 3688 10 471 0
511 30 239 719 10 0 498
512 30 860 1340 10 0 143
513 10 305 785 10 0 401
514 -20 3349 3829 10 211 0
515 -20 638 1118 10 282 0
516 30 416 896 10 0 88
517 -20 602 1082 10 353 0
518 -16 2918 3398 10 103 0
519 -10 218 698 10 174 0
520 20 2435 2915 10 0 36
521 20 236 716 10 0 2
522 20 211 691 10 0 579
523 -30 369 849 10 567 0
524 -10 3085 3565 10 415 0
525 30 505 985 10 0 487
526 10 686 1166 10 0 125
527 10 84 564 10 0 484
528 -15 788 1268 10 39 0
529 -10 2557 3037 10 303 0
530 -10 340 820 10 129 0
531 20 324 804 10 0 93
532 -10 1895 2375 10 459 0
533 -10 2083 2563 10 351 0
534 -8 2546 3026 10 574 0
535 16 1522 2002 10 0 152
536 14 37 517 10 0 309
537 -15 602 1082 10 290 0
538 -6 2129 2609 10 177 0
539 10 340 820 10 0 19
540 18 2508 2988 10 0 209
541 -20 562 1042 10 131 0
542 10 625 1105 10 0 362
543 30 774 1254 10 0 256
544 -20 186 666 10 6 0
545 -20 2316 2796 10 179 0
546 10 378 858 10 0 393
547 30 560 1040 10 0 168
548 10 39 519 10 0 385
549 -17 674 1154 10 98 0
550 -10 3139 3619 10 187 0
551 30 30 510 10 0 563
552 -10 396 876 10 175 0
553 10 313 793 10 0 176
554 20 426 906 10 0 238
555 -13 1759 2239 10 113 0
556 30 422 902 10 0 357
557 10 645 1125 10 0 330
558 5 1983 2463 10 0 149
559 11 1306 1786 10 0 466
560 -12 1181 1661 10 592 0
561 29 218 698 10 0 106
562 -15 1182 1662 10 321 0
563 -30 478 958 10 551 0
564 -20 2085 2565 10 489 0
565 -20 278 758 10 355 0
566 -30 427 907 10 439 0
567 30 40 520 10 0 523
568 40 709 1189 10 0 210
569 20 51 531 10 0 29
570 30 208 688 10 0 591
571 26 100 580 10 0 30
572 31 983 1463 10 0 497
573 -33 2259 2739 10 504 0
574 8 2563 3043 10 0 534
575 30 2198 2678 10 0 336
576 -20 549 1029 10 148 0
577 10 749 1229 10 0 463
578 -20 315 795 10 590 0
579 -20 2977 3457 10 522 0
580 -36 4004 4484 10 286 0
581 20 60 540 10 0 297
582 -10 1559 2039 10 391 0
583 -20 523 1003 10 435 0
584 -20 674 1154 10 433 0
585 -14 1460 1940 10 71 0
586 -20 4090 4570 10 193 0
587 10 148 628 10 0 502
588 16 2709 3189 10 0 186
589 -20 2272 2752 10 347 0
590 20 443 923 10 0 578
591 -30 568 1048 10 570 0
592 12 855 1335 10 0 560
593 -2 800 1280 10 310 0
594 17 366 846 10 0 142
595 -30 579 1059 10 462 0
596 10 2712 3192 10 0 343
597 10 398 878 10 0 363
598 20 736 1216 10 0 116
599 -9 199 679 10 449 0
600 -20 185 665 10 298 0
601 10 436 916 10 0 477
602 -24 640 1120 10 444 0
603 -10 3452 3932 10 478 0
604 -6 2088 2568 10 291 0
605 -19 435 915 10 254 0
DEPOT_SECTION
1
-1
EOF
