NAME: lrc2_6_3
TYPE: PDPTW
COMMENT: Li & Lim PDPTW benchmark converted from SINTEF format
DIMENSION: 607
VEHICLES: 150
CAPACITY: 1000
EDGE_WEIGHT_TYPE: EUC_2D
NODE_COORD_SECTION
1 150 150
2 125 168
3 162 107
4 199 213
5 61 84
6 125 103
7 143 101
8 28 141
9 230 128
10 55 68
11 72 180
12 159 41
13 8 4
14 257 58
15 57 155
16 186 26
17 231 243
18 247 132
19 89 61
20 84 231
21 116 240
22 110 79
23 110 74
24 180 106
25 240 73
26 13 265
27 134 147
28 257 59
29 160 108
30 289 130
31 27 255
32 234 146
33 69 208
34 115 196
35 250 228
36 159 89
37 105 81
38 149 183
39 159 300
40 47 277
41 209 269
42 212 26
43 14 149
44 74 117
45 140 140
46 152 241
47 222 83
48 88 124
49 136 68
50 250 124
51 109 299
52 258 244
53 208 47
54 212 62
55 259 59
56 150 104
57 77 233
58 212 45
59 57 125
60 232 121
61 255 132
62 18 184
63 165 113
64 143 111
65 248 41
66 8 263
67 109 110
68 106 71
69 259 240
70 38 139
71 277 41
72 255 57
73 9 122
74 102 76
75 43 286
76 60 160
77 172 225
78 161 22
79 88 110
80 122 127
81 52 63
82 53 141
83 175 281
84 265 141
85 250 126
86 147 281
87 255 240
88 188 142
89 154 26
90 59 64
91 114 204
92 235 242
93 34 150
94 140 214
95 59 113
96 282 104
97 145 184
98 184 277
99 129 77
100 96 199
101 67 154
102 2 81
103 208 208
104 169 173
105 106 108
106 15 2
107 227 26
108 147 285
109 141 286
110 231 70
111 242 73
112 15 259
113 93 165
114 10 198
115 149 294
116 82 100
117 256 286
118 172 2
119 277 172
120 73 81
121 217 69
122 85 224
123 0 153
124 147 43
125 143 288
126 112 272
127 200 26
128 140 143
129 83 236
130 253 84
131 53 288
132 256 239
133 224 79
134 110 107
135 125 136
136 149 76
137 203 166
138 211 61
139 107 103
140 262 62
141 227 80
142 269 103
143 119 254
144 122 96
145 248 245
146 181 297
147 65 69
148 16 151
149 254 206
150 167 176
151 280 172
152 285 285
153 149 282
154 277 100
155 223 23
156 25 191
157 266 212
158 272 183
159 135 251
160 11 191
161 25 119
162 215 68
163 137 104
164 113 202
165 160 24
166 51 217
167 14 177
168 225 22
169 194 234
170 262 14
171 259 126
172 214 234
173 216 23
174 111 110
175 145 182
176 51 2
177 30 243
178 186 228
179 132 146
180 176 72
181 108 3
182 216 62
183 271 106
184 140 290
185 64 59
186 206 157
187 66 157
188 132 297
189 109 105
190 64 55
191 173 64
192 213 65
193 17 205
194 224 229
195 78 236
196 274 6
197 207 237
198 161 26
199 119 104
200 169 171
201 296 235
202 220 74
203 109 148
204 212 270
205 265 197
206 174 238
207 223 74
208 47 203
209 69 90
210 33 231
211 8 265
212 136 144
213 286 175
214 151 30
215 150 184
216 157 25
217 131 78
218 232 240
219 53 285
220 278 176
221 225 192
222 115 197
223 167 179
224 6 168
225 163 180
226 135 210
227 277 104
228 262 241
229 162 148
230 61 138
231 117 155
232 126 127
233 157 221
234 19 290
235 65 156
236 159 177
237 12 10
238 67 175
239 78 232
240 201 175
241 249 133
242 139 110
243 252 128
244 57 123
245 71 154
246 157 276
247 111 98
248 221 70
249 70 57
250 236 108
251 268 113
252 40 1
253 106 243
254 37 126
255 259 58
256 167 193
257 168 204
258 72 286
259 254 240
260 241 183
261 75 191
262 26 27
263 12 270
264 81 238
265 140 294
266 11 242
267 224 77
268 166 123
269 92 241
270 280 180
271 151 113
272 65 49
273 203 36
274 129 83
275 38 74
276 166 105
277 129 98
278 30 226
279 15 178
280 108 298
281 296 211
282 236 72
283 277 177
284 99 73
285 166 113
286 271 8
287 228 41
288 80 131
289 284 176
290 208 117
291 119 183
292 246 166
293 144 292
294 128 155
295 113 188
296 155 93
297 161 210
298 168 176
299 60 64
300 165 204
301 280 158
302 241 71
303 57 68
304 219 152
305 72 89
306 85 75
307 3 205
308 235 243
309 12 275
310 76 160
311 56 116
312 170 53
313 34 5
314 280 175
315 288 127
316 103 8
317 229 25
318 12 198
319 66 54
320 120 60
321 110 31
322 218 20
323 226 248
324 275 100
325 217 73
326 88 225
327 123 92
328 293 62
329 4 149
330 216 25
331 63 59
332 63 155
333 158 140
334 84 236
335 260 58
336 284 244
337 190 181
338 159 287
339 285 283
340 65 68
341 61 157
342 102 173
343 300 44
344 103 78
345 144 182
346 24 76
347 149 186
348 165 182
349 179 123
350 157 84
351 17 209
352 233 119
353 167 105
354 238 206
355 127 101
356 263 291
357 281 68
358 251 237
359 108 109
360 199 28
361 3 119
362 252 219
363 234 213
364 136 140
365 191 49
366 251 241
367 119 214
368 275 182
369 103 260
370 2 238
371 94 93
372 158 291
373 230 248
374 207 20
375 54 285
376 160 107
377 59 280
378 208 290
379 248 280
380 138 100
381 8 155
382 208 235
383 111 112
384 128 94
385 110 262
386 162 203
387 160 179
388 16 204
389 239 295
390 157 31
391 147 178
392 170 174
393 157 254
394 277 101
395 283 144
396 156 182
397 274 97
398 66 56
399 158 27
400 156 26
401 257 133
402 264 61
403 296 279
404 220 66
405 240 71
406 112 43
407 4 296
408 222 73
409 209 84
410 250 134
411 59 287
412 13 202
413 93 117
414 62 53
415 275 97
416 206 121
417 107 174
418 224 61
419 124 174
420 101 110
421 112 201
422 80 86
423 5 189
424 141 100
425 165 256
426 108 113
427 37 159
428 136 104
429 107 71
430 97 232
431 127 266
432 14 204
433 278 177
434 209 246
435 134 148
436 283 65
437 108 80
438 55 62
439 141 137
440 224 138
441 163 150
442 213 68
443 113 62
444 100 138
445 126 266
446 10 150
447 137 150
448 258 232
449 191 234
450 213 119
451 5 195
452 166 203
453 100 73
454 147 185
455 60 156
456 239 77
457 163 202
458 81 219
459 155 28
460 160 27
461 43 62
462 235 241
463 291 148
464 64 53
465 168 42
466 183 282
467 289 79
468 1 272
469 87 183
470 234 107
471 52 288
472 236 66
473 264 35
474 233 245
475 144 100
476 260 64
477 130 96
478 202 292
479 7 31
480 96 86
481 141 102
482 170 93
483 85 228
484 10 147
485 18 206
486 164 202
487 1 81
488 148 157
489 159 110
490 229 40
491 67 161
492 131 220
493 112 199
494 238 69
495 258 247
496 205 130
497 109 61
498 59 67
499 151 294
500 26 0
501 45 190
502 56 212
503 148 288
504 275 263
505 272 97
506 143 67
507 29 8
508 152 29
509 176 235
510 30 145
511 61 70
512 16 196
513 168 108
514 15 209
515 211 66
516 256 54
517 11 207
518 58 240
519 131 95
520 116 14
521 154 31
522 86 230
523 133 99
524 290 37
525 9 145
526 140 292
527 134 146
528 229 179
529 72 20
530 149 285
531 257 137
532 225 73
533 71 294
534 156 57
535 177 281
536 117 168
537 162 250
538 116 245
539 153 28
540 176 70
541 50 285
542 257 243
543 246 133
544 140 100
545 69 134
546 236 248
547 217 21
548 161 112
549 233 242
550 127 77
551 155 180
552 144 173
553 65 56
554 130 102
555 76 280
556 110 76
557 271 101
558 216 203
559 136 241
560 160 17
561 64 91
562 107 39
563 106 77
564 103 93
565 138 101
566 15 52
567 160 111
568 81 223
569 113 114
570 162 206
571 203 183
572 113 4
573 176 263
574 173 72
575 279 189
576 9 144
577 266 104
578 253 57
579 296 252
580 254 87
581 114 198
582 220 43
583 11 265
584 250 130
585 299 153
586 133 187
587 246 137
588 238 103
589 220 182
590 213 61
591 290 219
592 153 61
593 55 285
594 276 66
595 236 240
596 244 13
597 163 200
598 62 65
599 189 240
600 145 183
601 140 108
602 300 44
603 4 149
604 60 156
605 162 148
606 129 77
607 160 179
PICKUP_AND_DELIVERY_SECTION
1 0 0 4823 0 0 0
2 -20 3467 3587 10 15 0
3 10 0 4769 10 0 519
4 -24 0 4734 10 62 0
5 -20 0 4703 10 331 0
6 20 153 273 10 0 344
7 10 224 344 10 0 214
8 25 0 4691 10 0 74
9 21 1522 1642 10 0 287
10 -20 0 4688 10 249 0
11 27 0 4730 10 0 93
12 11 0 4704 10 0 564
13 29 0 4610 10 0 529
14 -10 652 772 10 207 0
15 20 0 4720 10 0 2
16 25 2259 2379 10 0 513
17 -30 0 4690 10 549 0
18 -10 0 4715 10 241 0
19 -12 0 4706 10 480 0
20 -20 0 4709 10 581 0
21 -18 2101 2221 10 265 0
22 -30 0 4732 10 556 0
23 -13 0 4728 10 374 0
24 -6 0 4760 10 180 0
25 20 0 4695 10 0 302
26 20 655 775 10 0 112
27 20 361 481 10 0 263
28 -10 0 4673 10 55 0
29 -30 0 4770 10 567 0
30 -18 1318 1438 10 292 0
31 -10 962 1082 10 195 0
32 38 1408 1528 10 0 585
33 -20 2328 2448 10 139 0
34 10 171 291 10 0 75
35 -20 3107 3227 10 429 0
36 -11 3305 3425 10 550 0
37 20 270 390 10 0 502
38 -10 0 4780 10 97 0
39 -20 0 4663 10 223 0
40 -20 594 714 10 421 0
41 17 1783 1903 10 0 314
42 30 893 1013 10 0 539
43 10 0 4677 10 0 446
44 24 3218 3338 10 0 510
45 30 0 4799 10 0 128
46 2 0 4722 10 0 69
47 20 333 453 10 0 196
48 2 0 4746 10 0 501
49 19 0 4730 10 0 120
50 -30 0 4710 10 575 0
51 -10 1506 1626 10 219 0
52 -30 851 971 10 452 0
53 6 413 533 10 0 494
54 20 0 4706 10 0 273
55 10 744 864 10 0 28
56 21 277 397 10 0 202
57 -20 0 4703 10 215 0
58 -20 0 4692 10 322 0
59 23 843 963 10 0 73
60 -20 0 4727 10 401 0
61 -10 0 4707 10 526 0
62 24 1483 1603 10 0 4
63 20 0 4774 10 0 271
64 -20 0 4774 10 355 0
65 11 0 4667 10 0 286
66 -10 0 4632 10 600 0
67 20 355 475 10 0 500
68 -30 453 573 10 384 0
69 -2 0 4672 10 46 0
70 12 1348 1468 10 0 371
71 -20 1377 1497 10 402 0
72 10 0 4673 10 0 357
73 -23 0 4670 10 59 0
74 -25 3374 3494 10 8 0
75 -10 673 793 10 34 0
76 -10 343 463 10 527 0
77 13 438 558 10 0 125
78 -19 0 4685 10 350 0
79 -21 2536 2656 10 487 0
80 1 0 4777 10 0 190
81 10 633 753 10 0 272
82 16 330 450 10 0 284
83 17 0 4680 10 0 197
84 22 401 521 10 0 289
85 20 798 918 10 0 290
86 -10 1090 1210 10 530 0
87 20 0 4675 10 0 256
88 -13 4567 4687 10 490 0
89 -10 0 4689 10 173 0
90 10 744 864 10 0 147
91 20 0 4749 10 0 240
92 10 0 4688 10 0 599
93 -27 0 4697 10 11 0
94 24 0 4749 10 0 568
95 16 976 1096 10 0 361
96 19 0 4674 10 0 577
97 10 321 441 10 0 38
98 17 0 4682 10 0 297
99 11 0 4738 0 0 606
100 -25 4077 4197 10 514 0
101 -20 703 823 10 453 0
102 32 1058 1178 10 0 545
103 -30 0 4731 10 503 0
104 10 101 221 10 0 243
105 20 450 570 10 0 194
106 5 0 4613 10 0 572
107 -10 0 4668 10 584 0
108 10 1034 1154 10 0 588
109 10 970 1090 10 0 478
110 10 577 697 10 0 282
111 20 505 625 10 0 136
112 -20 2711 2831 10 26 0
113 -13 0 4755 10 305 0
114 -40 0 4665 10 245 0
115 10 687 807 10 0 558
116 -20 2310 2430 10 138 0
117 -10 0 4641 10 420 0
118 -30 2410 2530 10 330 0
119 -10 797 917 10 213 0
120 -19 2223 2343 10 49 0
121 10 451 571 10 0 255
122 -10 832 952 10 391 0
123 20 0 4663 10 0 576
124 -10 411 531 10 424 0
125 -13 0 4675 10 77 0
126 -10 1349 1469 10 541 0
127 -20 1778 1898 10 192 0
128 -30 0 4801 10 45 0
129 -20 500 620 10 522 0
130 -11 1618 1738 10 463 0
131 20 840 960 10 0 593
132 10 749 869 10 0 201
133 30 0 4711 10 0 325
134 20 689 809 10 0 199
135 -10 0 4785 10 498 0
136 -20 3200 3320 10 111 0
137 -22 3961 4081 10 354 0
138 20 0 4706 10 0 116
139 20 0 4750 10 0 33
140 -30 941 1061 10 516 0
141 30 0 4709 10 0 394
142 20 0 4686 10 0 482
143 -10 3227 3347 10 212 0
144 19 590 710 10 0 189
145 -11 0 4677 10 389 0
146 10 650 770 10 0 301
147 -10 0 4696 10 90 0
148 20 476 596 10 0 484
149 -10 0 4695 10 348 0
150 20 242 362 10 0 378
151 -26 0 4682 10 221 0
152 -18 2802 2922 10 451 0
153 10 468 588 10 0 372
154 10 576 696 10 0 324
155 -20 0 4667 10 182 0
156 -14 919 1039 10 288 0
157 11 1330 1450 10 0 362
158 -21 2825 2945 10 338 0
159 31 1937 2057 10 0 492
160 12 2903 3023 10 0 264
161 -14 673 793 10 536 0
162 10 0 4709 10 0 416
163 -20 556 676 10 475 0
164 -6 0 4750 10 177 0
165 -40 763 883 10 168 0
166 36 1078 1198 10 0 538
167 -7 545 665 10 427 0
168 40 582 702 10 0 165
169 7 319 439 10 0 363
170 21 0 4637 10 0 594
171 -6 677 797 10 395 0
172 21 0 4708 10 0 382
173 10 0 4670 10 0 89
174 10 0 4758 10 0 294
175 -10 455 575 10 454 0
176 41 868 988 10 0 520
177 6 0 4662 10 0 164
178 -10 0 4728 10 332 0
179 20 0 4795 10 0 351
180 6 2298 2418 10 0 24
181 16 0 4661 10 0 209
182 20 0 4703 10 0 155
183 22 0 4685 10 0 251
184 20 0 4673 10 0 250
185 30 441 561 10 0 438
186 -26 3642 3762 10 385 0
187 10 0 4729 10 0 310
188 40 0 4665 10 0 347
189 -19 640 760 10 144 0
190 -1 539 659 10 80 0
191 -23 2287 2407 10 315 0
192 20 0 4708 10 0 127
193 -9 0 4670 10 279 0
194 -20 0 4705 10 105 0
195 10 606 726 10 0 31
196 -20 0 4623 10 47 0
197 -17 1951 2071 10 83 0
198 -20 0 4689 10 216 0
199 -20 767 887 10 134 0
200 30 53 173 10 0 386
201 -10 0 4645 10 132 0
202 -21 807 927 10 56 0
203 -20 0 4772 10 383 0
204 -20 0 4678 10 448 0
205 -20 0 4689 10 499 0
206 -12 4093 4213 10 425 0
207 10 0 4708 10 0 14
208 -20 2679 2799 10 412 0
209 -16 0 4713 10 181 0
210 -16 2981 3101 10 266 0
211 -10 806 926 10 583 0
212 10 213 333 10 0 143
213 10 0 4675 10 0 119
214 -10 469 589 10 7 0
215 20 0 4779 10 0 57
216 20 711 831 10 0 198
217 -10 0 4739 10 459 0
218 20 902 1022 10 0 466
219 10 892 1012 10 0 51
220 20 0 4683 10 0 418
221 26 2185 2305 10 0 151
222 10 0 4755 10 0 493
223 20 294 414 10 0 39
224 -10 2978 3098 10 468 0
225 -20 0 4781 10 396 0
226 12 0 4752 10 0 571
227 20 480 600 10 0 328
228 20 0 4669 10 0 308
229 25 0 4801 0 0 605
230 -22 2572 2692 10 311 0
231 -19 4031 4151 10 254 0
232 40 73 193 10 0 566
233 -10 1642 1762 10 358 0
234 -20 0 4622 10 377 0
235 10 605 725 10 0 379
236 -30 460 580 10 551 0
237 22 1675 1795 10 0 313
238 3 1105 1225 10 0 431
239 20 0 4704 10 0 555
240 -20 0 4757 10 91 0
241 10 388 508 10 0 18
242 -20 3436 3556 10 276 0
243 -10 0 4709 10 104 0
244 -30 0 4717 10 525 0
245 40 0 4734 10 0 114
246 -20 0 4687 10 298 0
247 -20 1086 1206 10 353 0
248 -9 0 4707 10 532 0
249 20 0 4691 10 0 10
250 -20 3540 3660 10 184 0
251 -22 3371 3491 10 183 0
252 -10 1796 1916 10 553 0
253 22 0 4711 10 0 445
254 19 615 735 10 0 231
255 -10 0 4671 10 121 0
256 -20 4092 4212 10 87 0
257 -30 0 4757 10 486 0
258 -20 0 4657 10 552 0
259 -20 0 4676 10 373 0
260 -10 0 4717 10 368 0
261 -15 322 442 10 342 0
262 -20 0 4639 10 319 0
263 -20 970 1090 10 27 0
264 -12 0 4702 10 160 0
265 18 1637 1757 10 0 21
266 16 0 4647 10 0 210
267 20 497 617 10 0 476
268 -10 0 4782 10 508 0
269 3 0 4706 10 0 586
270 -15 518 638 10 441 0
271 -20 1384 1504 10 63 0
272 -10 695 815 10 81 0
273 -20 0 4688 10 54 0
274 -24 2487 2607 10 560 0
275 16 0 4678 10 0 340
276 20 388 508 10 0 242
277 20 0 4757 10 0 337
278 -10 3752 3872 10 597 0
279 9 0 4676 10 0 193
280 -10 0 4660 10 375 0
281 -26 0 4655 10 434 0
282 -10 768 888 10 110 0
283 -20 942 1062 10 433 0
284 -16 0 4721 10 82 0
285 -10 547 667 10 548 0
286 -11 0 4627 10 65 0
287 -21 0 4679 10 9 0
288 14 0 4741 10 0 156
289 -22 580 700 10 84 0
290 -20 0 4747 10 85 0
291 -22 0 4768 10 419 0
292 18 0 4716 10 0 30
293 -8 0 4671 10 393 0
294 -10 0 4791 10 174 0
295 -10 1215 1335 10 483 0
296 33 0 4756 10 0 582
297 -17 0 4752 10 98 0
298 20 198 318 10 0 246
299 10 0 4689 10 0 598
300 20 262 382 10 0 546
301 -10 0 4683 10 146 0
302 -20 0 4693 10 25 0
303 -10 0 4690 10 414 0
304 -16 3836 3956 10 440 0
305 13 0 4714 10 0 113
306 18 2904 3024 10 0 569
307 -30 855 975 10 439 0
308 -20 0 4688 10 228 0
309 18 2048 2168 10 0 485
310 -10 0 4739 10 187 0
311 22 0 4714 10 0 230
312 21 647 767 10 0 465
313 -22 2940 3060 10 237 0
314 -17 0 4681 10 41 0
315 23 0 4674 10 0 191
316 16 2727 2847 10 0 511
317 17 1974 2094 10 0 442
318 -20 0 4667 10 435 0
319 20 0 4686 10 0 262
320 12 2050 2170 10 0 422
321 -30 1452 1572 10 460 0
322 20 0 4667 10 0 58
323 17 0 4689 10 0 570
324 -10 624 744 10 154 0
325 -30 0 4711 10 133 0
326 20 329 449 10 0 334
327 20 284 404 10 0 356
328 -20 0 4646 10 227 0
329 20 0 4667 0 0 603
330 30 837 957 10 0 118
331 20 0 4688 10 0 5
332 10 556 676 10 0 178
333 5 0 4801 10 0 578
334 -20 456 576 10 326 0
335 20 832 952 10 0 524
336 -40 2944 3064 10 517 0
337 -20 3618 3738 10 277 0
338 21 0 4676 10 0 158
339 -16 0 4624 10 367 0
340 -16 0 4695 10 275 0
341 40 0 4724 10 0 469
342 15 0 4760 10 0 261
343 3 3027 3147 0 0 602
344 -20 0 4728 10 6 0
345 30 0 4781 10 0 458
346 -10 0 4667 10 364 0
347 -40 0 4777 10 188 0
348 10 349 469 10 0 149
349 4 98 218 10 0 408
350 19 402 522 10 0 78
351 -20 522 642 10 179 0
352 -20 0 4725 10 392 0
353 20 432 552 10 0 247
354 22 2292 2412 10 0 137
355 20 0 4759 10 0 64
356 -20 0 4633 10 327 0
357 -10 0 4659 10 72 0
358 10 602 722 10 0 233
359 20 0 4755 10 0 447
360 -8 0 4682 10 574 0
361 -16 0 4663 10 95 0
362 -11 0 4690 10 157 0
363 -7 568 688 10 169 0
364 10 157 277 10 0 346
365 -10 0 4704 10 481 0
366 10 546 666 10 0 495
367 16 2474 2594 10 0 339
368 10 456 576 10 0 260
369 14 0 4694 10 0 589
370 -20 3362 3482 10 471 0
371 -12 3638 3758 10 70 0
372 -10 0 4672 10 153 0
373 20 494 614 10 0 259
374 13 0 4672 10 0 23
375 10 0 4648 10 0 280
376 30 282 402 10 0 565
377 20 0 4655 10 0 234
378 -20 1222 1342 10 150 0
379 -10 0 4651 10 235 0
380 30 0 4762 10 0 428
381 10 0 4671 10 0 444
382 -21 3290 3410 10 172 0
383 20 0 4759 10 0 203
384 30 0 4753 10 0 68
385 26 1969 2089 10 0 186
386 -30 440 560 10 200 0
387 32 0 4783 0 0 607
388 10 0 4669 10 0 518
389 11 3010 3130 10 0 145
390 20 0 4694 10 0 497
391 10 0 4785 10 0 122
392 20 147 267 10 0 352
393 8 0 4709 10 0 293
394 -30 0 4677 10 141 0
395 6 473 593 10 0 171
396 20 2394 2514 10 0 225
397 -19 0 4679 10 467 0
398 30 0 4687 10 0 461
399 10 962 1082 10 0 534
400 -30 0 4689 10 472 0
401 20 0 4705 10 0 60
402 20 0 4669 10 0 71
403 -9 1990 2110 10 449 0
404 20 508 628 10 0 547
405 30 0 4694 10 0 515
406 -20 0 4700 10 590 0
407 -17 3334 3454 10 411 0
408 -4 0 4708 10 349 0
409 -18 1529 1649 10 540 0
410 30 433 553 10 0 470
411 17 0 4649 10 0 407
412 20 0 4667 10 0 208
413 -29 0 4748 10 561 0
414 10 0 4683 10 0 303
415 -25 0 4678 10 473 0
416 -10 2984 3104 10 162 0
417 21 137 257 10 0 491
418 -20 1894 2014 10 220 0
419 22 82 202 10 0 291
420 10 512 632 10 0 117
421 20 317 437 10 0 40
422 -12 0 4719 10 320 0
423 5 585 705 10 0 488
424 10 322 442 10 0 124
425 12 2347 2467 10 0 206
426 10 0 4758 10 0 507
427 7 0 4700 10 0 167
428 -30 0 4765 10 380 0
429 20 497 617 10 0 35
430 11 0 4716 10 0 533
431 -3 0 4695 10 238 0
432 19 0 4667 10 0 512
433 20 898 1018 10 0 283
434 26 1495 1615 10 0 281
435 20 0 4797 10 0 318
436 -10 1800 1920 10 596 0
437 -14 0 4732 10 506 0
438 -30 0 4684 10 185 0
439 30 93 213 10 0 307
440 16 0 4739 10 0 304
441 15 13 133 10 0 270
442 -17 0 4710 10 317 0
443 -9 0 4718 10 562 0
444 -10 0 4762 10 381 0
445 -22 1976 2096 10 253 0
446 -10 0 4673 10 43 0
447 -20 0 4800 10 359 0
448 20 1096 1216 10 0 204
449 9 314 434 10 0 403
450 -40 2915 3035 10 505 0
451 18 742 862 10 0 152
452 30 217 337 10 0 52
453 20 387 507 10 0 101
454 10 272 392 10 0 175
455 20 0 4723 0 0 604
456 20 0 4698 10 0 496
457 -30 0 4760 10 595 0
458 -30 3854 3974 10 345 0
459 10 0 4691 10 0 217
460 30 914 1034 10 0 321
461 -30 0 4675 10 398 0
462 30 0 4689 10 0 559
463 11 0 4672 10 0 130
464 30 0 4684 10 0 479
465 -21 0 4704 10 312 0
466 -20 1766 1886 10 218 0
467 19 1562 1682 10 0 397
468 10 885 1005 10 0 224
469 -40 2100 2220 10 341 0
470 -30 1354 1474 10 410 0
471 20 0 4644 10 0 370
472 30 704 824 10 0 400
473 25 0 4652 10 0 415
474 10 0 4687 10 0 573
475 20 0 4763 10 0 163
476 -20 0 4674 10 267 0
477 -10 0 4756 10 601 0
478 -10 0 4662 10 109 0
479 -30 3171 3291 10 464 0
480 12 275 395 10 0 19
481 10 175 295 10 0 365
482 -20 0 4753 10 142 0
483 10 0 4712 10 0 295
484 -20 636 756 10 148 0
485 -18 0 4670 10 309 0
486 30 0 4760 10 0 257
487 21 0 4649 10 0 79
488 -5 0 4806 10 423 0
489 20 190 310 10 0 544
490 13 0 4678 10 0 88
491 -21 275 395 10 417 0
492 -31 0 4741 10 159 0
493 -10 269 389 10 222 0
494 -6 0 4694 10 53 0
495 -10 903 1023 10 366 0
496 -20 3758 3878 10 456 0
497 -20 1587 1707 10 390 0
498 10 473 593 10 0 135
499 20 0 4669 10 0 205
500 -20 0 4619 10 67 0
501 -2 1780 1900 10 48 0
502 -20 1890 2010 10 37 0
503 30 0 4675 10 0 103
504 -10 0 4645 10 563 0
505 40 768 888 10 0 450
506 14 273 393 10 0 437
507 -10 0 4627 10 426 0
508 10 0 4692 10 0 268
509 33 296 416 10 0 579
510 -24 3388 3508 10 44 0
511 -16 0 4694 10 316 0
512 -19 1040 1160 10 432 0
513 -25 0 4768 10 16 0
514 25 3529 3649 10 0 100
515 -30 818 938 10 405 0
516 30 596 716 10 0 140
517 40 782 902 10 0 336
518 -10 3098 3218 10 388 0
519 -10 0 4755 10 3 0
520 -41 0 4673 10 176 0
521 20 416 536 10 0 592
522 20 391 511 10 0 129
523 20 549 669 10 0 554
524 -20 0 4634 10 335 0
525 30 0 4672 10 0 244
526 10 866 986 10 0 61
527 10 264 384 10 0 76
528 16 968 1088 10 0 543
529 -29 2737 2857 10 13 0
530 10 0 4678 10 0 86
531 -10 504 624 10 587 0
532 9 2075 2195 10 0 248
533 -11 2263 2383 10 430 0
534 -10 0 4720 10 399 0
535 16 1702 1822 10 0 591
536 14 0 4776 10 0 161
537 -10 0 4713 10 542 0
538 -36 2309 2429 10 166 0
539 -30 0 4691 10 42 0
540 18 0 4729 10 0 409
541 10 742 862 10 0 126
542 10 805 925 10 0 537
543 -16 0 4716 10 528 0
544 -20 366 486 10 489 0
545 -32 2496 2616 10 102 0
546 -20 0 4683 10 300 0
547 -20 0 4668 10 404 0
548 10 98 218 10 0 285
549 30 0 4690 10 0 17
550 11 0 4737 10 0 36
551 30 0 4783 10 0 236
552 20 576 696 10 0 258
553 10 493 613 10 0 252
554 -20 0 4761 10 523 0
555 -20 0 4664 10 239 0
556 30 0 4729 10 0 22
557 10 0 4683 10 0 580
558 -10 0 4729 10 115 0
559 -30 1486 1606 10 462 0
560 24 0 4680 10 0 274
561 29 0 4709 10 0 413
562 9 1362 1482 10 0 443
563 10 0 4728 10 0 504
564 -11 2265 2385 10 12 0
565 -30 458 578 10 376 0
566 -40 607 727 10 232 0
567 30 144 264 10 0 29
568 -24 0 4713 10 94 0
569 -18 0 4762 10 306 0
570 -17 0 4756 10 323 0
571 -12 0 4751 10 226 0
572 -5 0 4663 10 106 0
573 -10 2439 2559 10 474 0
574 8 0 4732 10 0 360
575 30 2378 2498 10 0 50
576 -20 0 4672 10 123 0
577 -19 0 4689 10 96 0
578 -5 0 4675 10 333 0
579 -33 0 4635 10 509 0
580 -10 4184 4304 10 557 0
581 20 220 340 10 0 20
582 -33 0 4686 10 296 0
583 10 703 823 10 0 211
584 10 854 974 10 0 107
585 -38 1640 1760 10 32 0
586 -3 4270 4390 10 269 0
587 10 328 448 10 0 531
588 -10 2889 3009 10 108 0
589 -14 2452 2572 10 369 0
590 20 623 743 10 0 406
591 -16 0 4657 10 535 0
592 -20 1035 1155 10 521 0
593 -20 980 1100 10 131 0
594 -21 0 4662 10 170 0
595 30 0 4689 10 0 457
596 10 0 4647 10 0 436
597 10 578 698 10 0 278
598 -10 0 4691 10 299 0
599 -10 0 4715 10 92 0
600 10 0 4780 10 0 66
601 10 616 736 10 0 477
602 -3 3027 3147 10 343 0
603 -20 0 4667 10 329 0
604 -20 0 4723 10 455 0
605 -25 0 4801 10 229 0
606 -11 0 4738 10 99 0
607 -32 0 4783 10 387 0
DEPOT_SECTION
1
-1
EOF
