NAME: lrc2_6_8
TYPE: PDPTW
COMMENT: Li & Lim PDPTW benchmark converted from SINTEF format
DIMENSION: 609
VEHICLES: 150
CAPACITY: 1000
EDGE_WEIGHT_TYPE: EUC_2D
NODE_COORD_SECTION
1 150 150
2 125 168
3 162 107
4 199 213
5 61 84
6 125 103
7 143 101
8 28 141
9 230 128
10 55 68
11 72 180
12 159 41
13 8 4
14 257 58
15 57 155
16 186 26
17 231 243
18 247 132
19 89 61
20 84 231
21 116 240
22 110 79
23 110 74
24 180 106
25 240 73
26 13 265
27 134 147
28 257 59
29 160 108
30 289 130
31 27 255
32 234 146
33 69 208
34 115 196
35 250 228
36 159 89
37 105 81
38 149 183
39 159 300
40 47 277
41 209 269
42 212 26
43 14 149
44 74 117
45 140 140
46 152 241
47 222 83
48 88 124
49 136 68
50 250 124
51 109 299
52 258 244
53 208 47
54 212 62
55 259 59
56 150 104
57 77 233
58 212 45
59 57 125
60 232 121
61 255 132
62 18 184
63 165 113
64 143 111
65 248 41
66 8 263
67 109 110
68 106 71
69 259 240
70 38 139
71 277 41
72 255 57
73 9 122
74 102 76
75 43 286
76 60 160
77 172 225
78 161 22
79 88 110
80 122 127
81 52 63
82 53 141
83 175 281
84 265 141
85 250 126
86 147 281
87 255 240
88 188 142
89 154 26
90 59 64
91 114 204
92 235 242
93 34 150
94 140 214
95 59 113
96 282 104
97 145 184
98 184 277
99 129 77
100 96 199
101 67 154
102 2 81
103 208 208
104 169 173
105 106 108
106 15 2
107 227 26
108 147 285
109 141 286
110 231 70
111 242 73
112 15 259
113 93 165
114 10 198
115 149 294
116 82 100
117 256 286
118 172 2
119 277 172
120 73 81
121 217 69
122 85 224
123 0 153
124 147 43
125 143 288
126 112 272
127 200 26
128 140 143
129 83 236
130 253 84
131 53 288
132 256 239
133 224 79
134 110 107
135 125 136
136 149 76
137 203 166
138 211 61
139 107 103
140 262 62
141 227 80
142 269 103
143 119 254
144 122 96
145 248 245
146 181 297
147 65 69
148 16 151
149 254 206
150 167 176
151 280 172
152 285 285
153 149 282
154 277 100
155 223 23
156 25 191
157 266 212
158 272 183
159 135 251
160 11 191
161 25 119
162 215 68
163 137 104
164 113 202
165 160 24
166 51 217
167 14 177
168 225 22
169 194 234
170 262 14
171 259 126
172 214 234
173 216 23
174 111 110
175 145 182
176 51 2
177 30 243
178 186 228
179 132 146
180 176 72
181 108 3
182 216 62
183 271 106
184 140 290
185 64 59
186 206 157
187 66 157
188 132 297
189 109 105
190 64 55
191 173 64
192 213 65
193 17 205
194 224 229
195 78 236
196 274 6
197 207 237
198 161 26
199 119 104
200 169 171
201 296 235
202 220 74
203 109 148
204 212 270
205 265 197
206 174 238
207 223 74
208 47 203
209 69 90
210 33 231
211 8 265
212 136 144
213 286 175
214 151 30
215 150 184
216 157 25
217 131 78
218 232 240
219 53 285
220 278 176
221 225 192
222 115 197
223 167 179
224 6 168
225 163 180
226 135 210
227 277 104
228 262 241
229 162 148
230 61 138
231 117 155
232 126 127
233 157 221
234 19 290
235 65 156
236 159 177
237 12 10
238 67 175
239 78 232
240 201 175
241 249 133
242 139 110
243 252 128
244 57 123
245 71 154
246 157 276
247 111 98
248 221 70
249 70 57
250 236 108
251 268 113
252 40 1
253 106 243
254 37 126
255 259 58
256 167 193
257 168 204
258 72 286
259 254 240
260 241 183
261 75 191
262 26 27
263 12 270
264 81 238
265 140 294
266 11 242
267 224 77
268 166 123
269 92 241
270 280 180
271 151 113
272 65 49
273 203 36
274 129 83
275 38 74
276 166 105
277 129 98
278 30 226
279 15 178
280 108 298
281 296 211
282 236 72
283 277 177
284 99 73
285 166 113
286 271 8
287 228 41
288 80 131
289 284 176
290 208 117
291 119 183
292 246 166
293 144 292
294 128 155
295 113 188
296 155 93
297 161 210
298 168 176
299 60 64
300 165 204
301 280 158
302 241 71
303 57 68
304 219 152
305 72 89
306 85 75
307 3 205
308 235 243
309 12 275
310 76 160
311 56 116
312 170 53
313 34 5
314 280 175
315 288 127
316 103 8
317 229 25
318 12 198
319 66 54
320 120 60
321 110 31
322 218 20
323 226 248
324 275 100
325 217 73
326 88 225
327 123 92
328 293 62
329 4 149
330 216 25
331 63 59
332 63 155
333 158 140
334 84 236
335 260 58
336 284 244
337 190 181
338 159 287
339 285 283
340 65 68
341 61 157
342 102 173
343 300 44
344 103 78
345 144 182
346 24 76
347 149 186
348 165 182
349 179 123
350 157 84
351 17 209
352 233 119
353 167 105
354 238 206
355 127 101
356 263 291
357 281 68
358 251 237
359 108 109
360 199 28
361 3 119
362 252 219
363 234 213
364 136 140
365 191 49
366 251 241
367 119 214
368 275 182
369 103 260
370 2 238
371 94 93
372 158 291
373 230 248
374 207 20
375 54 285
376 160 107
377 59 280
378 208 290
379 248 280
380 138 100
381 8 155
382 208 235
383 111 112
384 128 94
385 110 262
386 162 203
387 160 179
388 16 204
389 239 295
390 157 31
391 147 178
392 170 174
393 157 254
394 277 101
395 283 144
396 156 182
397 274 97
398 66 56
399 158 27
400 156 26
401 257 133
402 264 61
403 296 279
404 220 66
405 240 71
406 112 43
407 4 296
408 222 73
409 209 84
410 250 134
411 59 287
412 13 202
413 93 117
414 62 53
415 275 97
416 206 121
417 107 174
418 224 61
419 124 174
420 101 110
421 112 201
422 80 86
423 5 189
424 141 100
425 165 256
426 108 113
427 37 159
428 136 104
429 107 71
430 97 232
431 127 266
432 14 204
433 278 177
434 209 246
435 134 148
436 283 65
437 108 80
438 55 62
439 141 137
440 224 138
441 163 150
442 213 68
443 113 62
444 100 138
445 126 266
446 10 150
447 137 150
448 258 232
449 191 234
450 213 119
451 5 195
452 166 203
453 100 73
454 147 185
455 60 156
456 239 77
457 163 202
458 81 219
459 155 28
460 160 27
461 43 62
462 235 241
463 291 148
464 64 53
465 168 42
466 183 282
467 289 79
468 1 272
469 87 183
470 234 107
471 52 288
472 236 66
473 264 35
474 233 245
475 144 100
476 260 64
477 130 96
478 202 292
479 7 31
480 96 86
481 141 102
482 170 93
483 85 228
484 10 147
485 18 206
486 164 202
487 1 81
488 148 157
489 159 110
490 229 40
491 67 161
492 131 220
493 112 199
494 238 69
495 258 247
496 205 130
497 109 61
498 59 67
499 151 294
500 26 0
501 45 190
502 56 212
503 148 288
504 275 263
505 272 97
506 143 67
507 29 8
508 152 29
509 176 235
510 30 145
511 61 70
512 16 196
513 168 108
514 15 209
515 211 66
516 256 54
517 11 207
518 58 240
519 131 95
520 116 14
521 154 31
522 86 230
523 133 99
524 290 37
525 9 145
526 140 292
527 134 146
528 229 179
529 72 20
530 149 285
531 257 137
532 225 73
533 71 294
534 156 57
535 177 281
536 117 168
537 162 250
538 116 245
539 153 28
540 176 70
541 50 285
542 257 243
543 246 133
544 140 100
545 69 134
546 236 248
547 217 21
548 161 112
549 233 242
550 127 77
551 155 180
552 144 173
553 65 56
554 130 102
555 76 280
556 110 76
557 271 101
558 216 203
559 136 241
560 160 17
561 64 91
562 107 39
563 106 77
564 103 93
565 138 101
566 15 52
567 160 111
568 81 223
569 113 114
570 162 206
571 203 183
572 113 4
573 176 263
574 173 72
575 279 189
576 9 144
577 266 104
578 253 57
579 296 252
580 254 87
581 114 198
582 220 43
583 11 265
584 250 130
585 299 153
586 133 187
587 246 137
588 238 103
589 220 182
590 213 61
591 290 219
592 153 61
593 55 285
594 276 66
595 236 240
596 244 13
597 163 200
598 62 65
599 189 240
600 145 183
601 140 108
602 13 202
603 29 8
604 259 240
605 30 145
606 168 42
607 234 107
608 155 93
609 149 186
PICKUP_AND_DELIVERY_SECTION
1 0 0 4823 0 0 0
2 -11 3308 3746 10 430 0
3 10 247 533 10 0 590
4 -15 1896 2312 10 413 0
5 -19 1252 1536 10 73 0
6 20 53 472 10 0 453
7 10 49 746 10 0 312
8 -10 2326 2954 10 114 0
9 -10 1475 1689 10 119 0
10 30 429 831 10 0 303
11 -20 1283 1814 10 521 0
12 -20 1067 1502 10 105 0
13 29 659 971 10 0 316
14 10 487 937 10 0 357
15 20 186 748 10 0 59
16 25 2096 2542 10 0 170
17 10 192 794 10 0 132
18 10 760 1176 10 0 532
19 14 919 1225 10 0 443
20 21 2018 2458 10 0 33
21 -18 1903 2418 10 265 0
22 -30 468 1174 10 23 0
23 30 290 937 10 0 22
24 19 91 336 10 0 110
25 20 321 713 10 0 472
26 20 446 985 10 0 555
27 20 88 755 10 0 244
28 -10 590 922 10 248 0
29 10 43 696 10 0 251
30 -20 1245 1511 10 227 0
31 5 684 1360 10 0 411
32 -20 1178 1758 10 283 0
33 -21 2153 2623 10 20 0
34 10 95 367 10 0 522
35 22 2776 3558 10 0 323
36 -20 3175 3556 10 484 0
37 20 82 609 10 0 598
38 10 33 730 10 0 246
39 15 436 766 10 0 499
40 20 272 1036 10 0 377
41 -30 1614 2072 10 486 0
42 -10 684 1222 10 513 0
43 10 387 788 10 0 219
44 -20 2974 3581 10 340 0
45 30 14 638 10 0 135
46 -26 2458 3030 10 434 0
47 20 218 568 10 0 182
48 2 140 510 10 0 480
49 -24 2098 2776 10 560 0
50 4 394 791 10 0 61
51 -13 1383 1749 10 77 0
52 -2 547 1274 10 356 0
53 6 133 812 10 0 374
54 -10 567 985 10 173 0
55 -20 494 1115 10 302 0
56 -20 46 692 10 428 0
57 -10 462 975 10 195 0
58 30 2436 2720 10 0 287
59 -20 627 1180 10 15 0
60 -10 2036 2701 10 199 0
61 -4 356 981 10 50 0
62 24 1351 1736 10 0 469
63 20 451 851 10 0 196
64 20 39 322 10 0 589
65 -20 1680 2193 10 494 0
66 30 496 1140 10 0 541
67 20 57 928 10 0 99
68 20 279 747 10 0 163
69 10 713 1455 0 0 604
70 12 1145 1670 10 0 79
71 -17 1169 1706 10 594 0
72 -20 315 891 10 404 0
73 19 736 1116 10 0 5
74 -17 3298 3570 10 161 0
75 10 513 954 10 0 258
76 -14 239 568 10 536 0
77 13 381 615 10 0 51
78 -20 637 1108 10 214 0
79 -12 2282 2910 10 70 0
80 1 36 641 10 0 519
81 -10 452 934 10 174 0
82 16 97 938 10 0 329
83 17 2358 2886 10 0 396
84 22 239 683 10 0 220
85 -15 591 1124 10 290 0
86 20 883 1417 10 0 445
87 -10 591 935 10 366 0
88 -29 4239 4775 10 149 0
89 -30 482 872 10 380 0
90 -10 564 1044 10 553 0
91 20 140 804 10 0 231
92 -23 502 1037 10 492 0
93 -20 1476 1791 10 544 0
94 -11 2292 2744 10 559 0
95 16 861 1212 10 0 116
96 19 922 1366 10 0 317
97 10 62 699 10 0 466
98 17 711 1023 10 0 526
99 -20 2579 2644 10 67 0
100 -14 3820 4453 10 278 0
101 20 453 1073 10 0 487
102 -10 852 1384 10 147 0
103 16 115 850 10 0 201
104 10 29 295 10 0 298
105 20 462 558 10 0 12
106 5 1377 1932 10 0 262
107 20 249 918 10 0 202
108 -18 886 1303 10 372 0
109 -9 647 1414 10 449 0
110 -19 428 846 10 24 0
111 20 238 891 10 0 580
112 9 2491 3050 10 0 370
113 -20 58 799 10 179 0
114 10 790 1200 10 0 8
115 10 545 950 10 0 293
116 -16 2113 2628 10 95 0
117 31 3022 3453 10 0 206
118 -10 2183 2757 10 415 0
119 10 539 1175 10 0 9
120 -10 2064 2502 10 332 0
121 -20 393 629 10 408 0
122 -20 619 1166 10 421 0
123 20 751 1088 10 0 564
124 -10 275 666 10 481 0
125 -7 728 1004 10 169 0
126 -30 1046 1772 10 570 0
127 -30 1634 2041 10 567 0
128 20 12 189 10 0 420
129 -22 441 679 10 419 0
130 -10 1312 2045 10 577 0
131 -15 732 1069 10 342 0
132 -10 568 1049 10 17 0
133 30 154 864 10 0 456
134 20 451 1046 10 0 523
135 -30 28 546 10 45 0
136 -30 2957 3562 10 556 0
137 -20 3858 4184 10 142 0
138 -30 444 1018 10 330 0
139 -10 361 935 10 601 0
140 -5 720 1283 10 333 0
141 30 159 754 10 0 402
142 20 673 1199 10 0 137
143 -20 3216 3357 10 184 0
144 -20 326 974 10 216 0
145 10 227 865 10 0 389
146 -30 551 868 10 551 0
147 10 843 1311 10 0 102
148 20 376 697 10 0 451
149 29 2301 2789 10 0 88
150 -20 115 490 10 392 0
151 10 503 1108 10 0 180
152 -19 2689 3036 10 591 0
153 -30 244 812 10 386 0
154 10 475 797 10 0 395
155 10 369 1013 10 0 490
156 -10 587 1371 10 483 0
157 11 1217 1563 10 0 336
158 -22 2681 3088 10 418 0
159 -30 1823 2170 10 462 0
160 -30 2689 3237 10 512 0
161 17 428 1038 10 0 74
162 10 175 749 10 0 467
163 -20 429 804 10 68 0
164 -10 110 736 10 222 0
165 -20 503 1143 10 565 0
166 36 742 1533 10 0 361
167 17 317 893 10 0 351
168 -30 511 773 10 547 0
169 7 187 572 10 0 125
170 -25 2644 3063 10 16 0
171 20 442 1032 10 0 191
172 -23 2763 3198 10 315 0
173 10 692 1005 10 0 54
174 10 234 501 10 0 81
175 10 282 748 10 0 218
176 -20 722 1135 10 327 0
177 -10 1131 1280 10 334 0
178 -16 1368 2055 10 194 0
179 20 155 590 10 0 113
180 -10 2153 2562 10 151 0
181 -22 2410 3077 10 237 0
182 -20 370 890 10 47 0
183 22 2189 2631 10 0 337
184 20 626 1322 10 0 143
185 -16 175 827 10 275 0
186 -3 3450 3954 10 343 0
187 -10 524 898 10 527 0
188 40 573 858 10 0 518
189 10 586 813 10 0 242
190 20 563 636 10 0 209
191 -20 2174 2520 10 171 0
192 20 555 1103 10 0 505
193 20 549 812 10 0 210
194 16 1282 1566 10 0 178
195 10 419 913 10 0 57
196 -20 1925 2348 10 63 0
197 11 1846 2177 10 0 367
198 10 723 1134 10 0 399
199 10 542 1112 10 0 60
200 30 28 567 10 0 571
201 -16 2029 2573 10 103 0
202 -20 666 1069 10 107 0
203 19 41 1093 10 0 291
204 -8 2186 2669 10 393 0
205 -23 1161 1531 10 362 0
206 -31 4050 4255 10 117 0
207 10 665 965 10 0 557
208 -37 2677 2802 10 538 0
209 -20 2900 3429 10 190 0
210 -20 2787 3295 10 193 0
211 -10 645 1087 10 583 0
212 10 15 640 10 0 232
213 10 456 923 10 0 543
214 20 421 636 10 0 78
215 20 34 446 10 0 369
216 20 556 986 10 0 144
217 -20 1958 2787 10 277 0
218 -10 852 1073 10 175 0
219 -10 767 1137 10 43 0
220 -22 585 1243 10 84 0
221 -14 2031 2460 10 288 0
222 10 446 633 10 0 164
223 20 56 652 10 0 225
224 -19 2704 3372 10 432 0
225 -20 162 758 10 223 0
226 -18 3335 4002 10 407 0
227 20 298 782 10 0 30
228 -10 766 1298 10 474 0
229 -16 2913 3209 10 535 0
230 -46 2326 2938 10 545 0
231 -20 3972 4209 10 91 0
232 -10 33 601 10 212 0
233 -10 1401 2003 10 454 0
234 12 1341 1877 10 0 514
235 10 474 856 10 0 422
236 30 274 765 10 0 530
237 22 1496 1973 10 0 181
238 -24 930 1400 10 444 0
239 -20 557 971 10 264 0
240 -18 2499 3162 10 292 0
241 -10 121 775 10 587 0
242 -10 3333 3659 10 189 0
243 10 627 986 10 0 575
244 -20 457 985 10 27 0
245 -20 691 948 10 435 0
246 -10 179 830 10 38 0
247 16 838 1454 10 0 497
248 10 513 920 10 0 28
249 -30 709 1130 10 464 0
250 -36 3452 3749 10 286 0
251 -10 3274 3587 10 29 0
252 -29 1686 2027 10 561 0
253 -13 764 859 10 431 0
254 19 475 874 10 0 576
255 -14 448 1248 10 268 0
256 -10 3804 4499 10 478 0
257 20 56 749 10 0 549
258 -10 1287 2051 10 75 0
259 20 437 1001 10 0 504
260 -34 3303 3564 10 301 0
261 12 227 536 10 0 341
262 -5 3194 3884 10 106 0
263 20 889 1171 10 0 471
264 20 301 922 10 0 239
265 18 1290 2104 10 0 21
266 16 1949 2308 10 0 279
267 20 339 775 10 0 282
268 14 31 552 10 0 255
269 -17 2789 3465 10 280 0
270 -30 279 876 10 324 0
271 4 1177 1712 10 0 382
272 -20 572 937 10 319 0
273 -10 1488 1810 10 548 0
274 15 2287 2808 10 0 534
275 16 447 875 10 0 185
276 -10 47 949 10 285 0
277 20 407 697 10 0 217
278 14 3574 4050 10 0 100
279 -16 2870 3394 10 266 0
280 17 3297 3865 10 0 269
281 -10 644 1048 10 368 0
282 -20 589 1067 10 267 0
283 20 882 1121 10 0 32
284 22 215 624 10 0 320
285 10 278 935 10 0 276
286 36 2838 3367 10 0 250
287 -30 3193 3425 10 58 0
288 14 1337 1453 10 0 221
289 30 280 1000 10 0 463
290 15 230 516 10 0 85
291 -19 2177 2479 10 203 0
292 18 1913 2561 10 0 240
293 -10 577 1041 10 115 0
294 11 22 173 10 0 388
295 -10 1022 1528 10 539 0
296 33 246 979 0 0 608
297 10 197 586 10 0 385
298 -10 31 602 10 104 0
299 -10 566 1130 10 498 0
300 -10 56 731 10 600 0
301 34 2485 2817 10 0 260
302 20 410 818 10 0 55
303 -30 344 820 10 10 0
304 -20 3649 4143 10 322 0
305 13 2189 2353 10 0 306
306 -13 2677 3251 10 305 0
307 10 605 1224 10 0 318
308 -10 470 981 10 597 0
309 -10 1876 2340 10 446 0
310 -30 74 568 10 447 0
311 -20 450 1509 10 455 0
312 -10 632 782 10 7 0
313 -30 2844 3156 10 398 0
314 -15 648 858 10 441 0
315 23 2671 3132 10 0 172
316 -29 2539 3034 10 13 0
317 -19 1679 2389 10 96 0
318 -10 802 1283 10 307 0
319 20 664 966 10 0 272
320 -22 1792 2428 10 284 0
321 15 1250 1773 10 0 508
322 20 597 911 10 0 304
323 -22 3236 3707 10 35 0
324 30 473 895 10 0 270
325 -20 779 1061 10 353 0
326 -20 159 620 10 493 0
327 20 95 593 10 0 176
328 10 555 904 10 0 596
329 -16 573 1141 10 82 0
330 30 573 1220 10 0 138
331 -30 629 1193 10 511 0
332 10 363 869 10 0 120
333 5 12 253 10 0 140
334 10 152 880 10 0 177
335 20 821 963 10 0 476
336 -11 2581 3428 10 157 0
337 -22 3508 3848 10 183 0
338 21 1400 1892 10 0 425
339 -15 1948 2601 10 403 0
340 20 715 1350 10 0 44
341 -12 459 670 10 261 0
342 15 53 813 10 0 131
343 3 2929 3245 10 0 186
344 10 85 808 10 0 461
345 -24 246 695 10 488 0
346 23 1669 2423 10 0 550
347 20 36 842 0 0 609
348 10 313 504 10 0 579
349 4 39 728 10 0 410
350 19 92 831 10 0 390
351 -17 411 752 10 167 0
352 -30 3595 4032 10 376 0
353 20 297 688 10 0 325
354 22 1979 2724 10 0 588
355 20 76 453 10 0 563
356 2 699 919 10 0 52
357 -10 1748 2429 10 14 0
358 10 505 819 10 0 448
359 20 178 744 10 0 384
360 12 1581 2192 10 0 524
361 -36 2782 2849 10 166 0
362 23 934 1596 10 0 205
363 15 298 959 10 0 379
364 10 194 239 10 0 477
365 -20 520 643 10 489 0
366 10 306 905 10 0 87
367 -11 2255 2812 10 197 0
368 10 340 693 10 0 281
369 -20 3254 4020 10 215 0
370 -9 3128 3716 10 112 0
371 -32 3493 3904 10 529 0
372 18 517 900 10 0 108
373 20 452 655 10 0 542
374 -6 442 1161 10 53 0
375 -30 803 1189 10 593 0
376 30 89 595 10 0 352
377 -20 725 1487 10 40 0
378 -16 886 1677 10 528 0
379 -15 1125 1319 10 363 0
380 30 178 769 10 0 89
381 -30 821 1164 10 525 0
382 -4 3085 3615 10 271 0
383 20 54 490 10 0 520
384 -20 60 795 10 359 0
385 -10 1898 2161 10 297 0
386 30 271 729 10 0 153
387 -20 2899 3457 10 457 0
388 -11 418 1034 10 294 0
389 -10 2847 3292 10 145 0
390 -19 848 1310 10 350 0
391 10 381 764 10 0 573
392 20 31 387 10 0 150
393 8 1941 2310 10 0 204
394 20 311 874 10 0 409
395 -10 406 660 10 154 0
396 -17 2260 2647 10 83 0
397 -10 408 1152 10 515 0
398 30 608 1119 10 0 313
399 -10 797 1247 10 198 0
400 10 415 1035 10 0 460
401 20 277 963 10 0 482
402 -30 716 1188 10 141 0
403 15 1780 2319 10 0 339
404 20 449 686 10 0 72
405 30 590 725 10 0 578
406 -31 2091 2451 10 572 0
407 18 3146 3642 10 0 226
408 20 437 1102 10 0 121
409 -20 1274 1905 10 394 0
410 -4 415 571 10 349 0
411 -5 1875 2216 10 31 0
412 20 494 1066 0 0 602
413 15 1247 1671 10 0 4
414 10 282 1018 10 0 479
415 10 348 1125 10 0 118
416 10 2744 3344 10 0 496
417 21 49 536 10 0 533
418 22 1562 2345 10 0 158
419 22 35 726 10 0 129
420 -20 471 673 10 128 0
421 20 63 790 10 0 122
422 -10 2166 2756 10 235 0
423 -7 412 878 10 427 0
424 10 110 654 10 0 475
425 -21 2209 2605 10 338 0
426 10 55 618 10 0 566
427 7 215 836 10 0 423
428 20 425 719 10 0 56
429 20 273 841 10 0 562
430 11 3639 3944 10 0 2
431 13 430 670 10 0 253
432 19 2262 2603 10 0 224
433 20 757 1158 10 0 584
434 26 1420 1690 10 0 46
435 20 328 603 10 0 245
436 -30 1666 2054 10 516 0
437 -20 567 978 10 554 0
438 -20 726 766 10 569 0
439 30 61 245 10 0 500
440 -10 3538 3852 10 442 0
441 15 13 572 10 0 314
442 10 133 695 10 0 440
443 -14 1998 2311 10 19 0
444 24 613 1146 10 0 238
445 -20 1866 2206 10 86 0
446 10 493 794 10 0 309
447 30 298 740 10 0 310
448 -10 905 1407 10 358 0
449 9 141 607 10 0 109
450 -5 2766 3185 10 558 0
451 -20 579 1026 10 148 0
452 30 55 523 10 0 595
453 -20 204 690 10 6 0
454 10 139 526 10 0 233
455 20 222 817 10 0 311
456 -30 217 703 10 133 0
457 20 460 630 10 0 387
458 -10 3790 4038 10 468 0
459 -14 339 917 10 506 0
460 -10 712 1237 10 400 0
461 -10 3083 3603 10 344 0
462 30 783 946 10 0 159
463 -30 2383 2821 10 289 0
464 30 648 749 10 0 249
465 26 2312 2872 0 0 606
466 -10 1498 2154 10 97 0
467 -10 1438 1806 10 162 0
468 10 741 1150 10 0 458
469 -24 1854 2467 10 62 0
470 24 1218 1609 0 0 607
471 -20 594 1118 10 263 0
472 -20 569 958 10 25 0
473 -28 3717 4266 10 582 0
474 10 433 916 10 0 228
475 -10 187 473 10 424 0
476 -20 1567 2017 10 335 0
477 -10 307 700 10 364 0
478 10 3592 3792 10 0 256
479 -10 2914 3548 10 414 0
480 -2 118 552 10 48 0
481 10 48 548 10 0 124
482 -20 1719 2205 10 401 0
483 10 685 988 10 0 156
484 20 417 974 10 0 36
485 -20 317 953 10 581 0
486 30 356 823 10 0 41
487 -20 944 1740 10 101 0
488 24 7 564 10 0 345
489 20 41 680 10 0 365
490 -10 775 1258 10 155 0
491 10 121 549 10 0 586
492 23 262 824 10 0 92
493 20 62 851 10 0 326
494 20 393 1026 10 0 65
495 -10 693 1233 10 546 0
496 -10 3570 4066 10 416 0
497 -16 1227 2066 10 247 0
498 10 281 786 10 0 299
499 -15 388 1010 10 39 0
500 -30 1665 2413 10 439 0
501 -12 1715 1965 10 592 0
502 -33 1691 2209 10 509 0
503 -18 265 1000 10 599 0
504 -20 514 942 10 259 0
505 -20 674 982 10 192 0
506 14 83 637 10 0 459
507 24 2756 3372 0 0 603
508 -15 3503 3811 10 321 0
509 33 276 436 10 0 502
510 23 3169 3727 0 0 605
511 30 313 645 10 0 331
512 30 984 1216 10 0 160
513 10 146 944 10 0 42
514 -12 3548 3630 10 234 0
515 10 660 1096 10 0 397
516 30 387 925 10 0 436
517 -40 803 880 10 568 0
518 -40 3013 3302 10 188 0
519 -1 136 779 10 80 0
520 -20 2436 2915 10 383 0
521 20 211 741 10 0 11
522 -10 202 699 10 34 0
523 -20 243 974 10 134 0
524 -12 3077 3573 10 360 0
525 30 471 1019 10 0 381
526 -17 713 1138 10 98 0
527 10 112 537 10 0 187
528 16 995 1060 10 0 378
529 32 2674 2920 10 0 371
530 -30 398 763 10 236 0
531 20 397 730 10 0 585
532 -10 2009 2260 10 18 0
533 -21 2214 2431 10 417 0
534 -15 2562 3009 10 274 0
535 16 1425 2099 10 0 229
536 14 37 516 10 0 76
537 -20 587 1098 10 552 0
538 37 2084 2653 10 0 208
539 10 392 768 10 0 295
540 -8 2519 2978 10 574 0
541 -30 556 1047 10 66 0
542 -20 486 1244 10 373 0
543 -10 976 1052 10 213 0
544 20 224 627 10 0 93
545 46 2251 2861 10 0 230
546 10 273 963 10 0 495
547 30 544 1056 10 0 168
548 10 39 438 10 0 273
549 -20 727 1100 10 257 0
550 -23 3230 3527 10 346 0
551 30 30 641 10 0 146
552 20 335 937 10 0 537
553 10 421 686 10 0 90
554 20 407 924 10 0 437
555 -20 1808 2190 10 26 0
556 30 335 988 10 0 136
557 -10 554 1216 10 207 0
558 5 1955 2492 10 0 450
559 11 1246 1846 10 0 94
560 24 1200 1643 10 0 49
561 29 239 676 10 0 252
562 -20 1235 1610 10 429 0
563 -20 559 877 10 355 0
564 -20 1951 2699 10 123 0
565 20 405 630 10 0 165
566 -10 420 915 10 426 0
567 30 40 386 10 0 127
568 40 763 1135 10 0 517
569 20 51 371 10 0 438
570 30 57 1047 10 0 126
571 -30 129 552 10 200 0
572 31 890 1556 10 0 406
573 -10 2315 2682 10 391 0
574 8 2348 3257 10 0 540
575 -10 2071 2804 10 243 0
576 -19 612 966 10 254 0
577 10 654 1323 10 0 130
578 -30 348 763 10 405 0
579 -10 3094 3339 10 348 0
580 -20 4077 4411 10 111 0
581 20 140 420 10 0 485
582 28 1418 2181 10 0 473
583 10 566 961 10 0 211
584 -20 829 999 10 433 0
585 -20 1276 2125 10 531 0
586 -10 4063 4597 10 491 0
587 10 161 614 10 0 241
588 -22 2726 3173 10 354 0
589 -20 2222 2801 10 64 0
590 -10 563 802 10 3 0
591 19 561 1054 10 0 152
592 12 712 1477 10 0 501
593 30 628 1453 10 0 375
594 17 371 841 10 0 71
595 -30 479 1158 10 452 0
596 -10 2545 3360 10 328 0
597 10 554 723 10 0 308
598 -20 747 1204 10 37 0
599 18 210 668 10 0 503
600 10 205 644 10 0 300
601 10 498 854 10 0 139
602 -20 494 1066 10 412 0
603 -24 2756 3372 10 507 0
604 -10 713 1455 10 69 0
605 -23 3169 3727 10 510 0
606 -26 2312 2872 10 465 0
607 -24 1218 1609 10 470 0
608 -33 246 979 10 296 0
609 -20 36 842 10 347 0
DEPOT_SECTION
1
-1
EOF
