NAME: lc1_4_5
TYPE: PDPTW
COMMENT: Li & Lim PDPTW benchmark converted from SINTEF format
DIMENSION: 423
VEHICLES: 100
CAPACITY: 200
EDGE_WEIGHT_TYPE: EUC_2D
NODE_COORD_SECTION
1 100 100
2 181 172
3 154 31
4 123 106
5 23 137
6 190 28
7 8 71
8 103 130
9 62 50
10 89 161
11 117 91
12 12 156
13 88 165
14 107 125
15 8 74
16 105 125
17 118 192
18 146 11
19 93 13
20 188 125
21 87 117
22 123 31
23 121 189
24 174 128
25 197 80
26 151 165
27 140 4
28 78 184
29 96 150
30 96 147
31 149 182
32 87 191
33 189 151
34 99 144
35 64 52
36 7 151
37 151 99
38 87 118
39 179 141
40 192 151
41 143 0
42 66 58
43 122 14
44 66 52
45 173 55
46 119 37
47 199 28
48 90 161
49 36 193
50 159 160
51 194 112
52 176 173
53 117 193
54 186 96
55 39 56
56 189 120
57 29 139
58 37 190
59 165 117
60 16 84
61 187 97
62 10 153
63 194 149
64 187 112
65 103 70
66 193 159
67 77 115
68 190 154
69 3 75
70 17 93
71 151 167
72 12 85
73 120 11
74 140 181
75 6 67
76 137 4
77 103 124
78 10 67
79 48 30
80 53 67
81 164 113
82 47 49
83 187 92
84 121 115
85 46 51
86 144 189
87 180 93
88 152 168
89 117 95
90 195 25
91 108 168
92 149 103
93 60 58
94 197 79
95 39 58
96 147 186
97 154 163
98 96 128
99 30 187
100 123 121
101 104 68
102 102 128
103 18 89
104 197 77
105 156 11
106 144 33
107 101 67
108 159 121
109 84 192
110 139 7
111 7 152
112 181 147
113 104 170
114 13 81
115 172 57
116 80 108
117 180 171
118 146 3
119 123 33
120 127 8
121 185 115
122 192 113
123 194 75
124 135 0
125 157 30
126 53 29
127 85 110
128 182 171
129 79 193
130 181 52
131 148 103
132 190 109
133 119 188
134 197 140
135 162 123
136 102 170
137 120 198
138 175 50
139 23 142
140 149 99
141 102 174
142 30 142
143 175 143
144 193 27
145 193 82
146 103 67
147 55 64
148 197 25
149 42 105
150 100 129
151 120 115
152 183 120
153 115 89
154 196 27
155 131 38
156 145 31
157 196 137
158 98 150
159 159 8
160 15 88
161 191 27
162 196 111
163 150 6
164 95 74
165 42 101
166 53 59
167 193 23
168 40 105
169 152 4
170 100 151
171 24 140
172 87 195
173 140 6
174 197 113
175 40 183
176 127 114
177 182 46
178 151 190
179 8 69
180 44 52
181 43 54
182 179 174
183 13 152
184 137 1
185 127 118
186 118 92
187 129 40
188 123 4
189 55 24
190 41 182
191 22 133
192 151 101
193 82 194
194 185 124
195 180 147
196 97 7
197 108 165
198 47 50
199 93 167
200 186 91
201 124 6
202 149 167
203 125 38
204 123 8
205 199 76
206 194 129
207 124 117
208 115 4
209 105 70
210 120 92
211 200 136
212 14 84
213 100 150
214 190 112
215 146 7
216 196 28
217 100 6
218 118 97
219 12 154
220 97 162
221 196 78
222 172 114
223 14 92
224 7 142
225 63 55
226 54 30
227 141 8
228 156 12
229 134 6
230 198 78
231 65 53
232 52 28
233 125 15
234 199 115
235 32 178
236 179 55
237 11 151
238 99 154
239 95 16
240 83 197
241 27 135
242 102 121
243 179 165
244 87 196
245 38 190
246 183 167
247 46 49
248 149 5
249 84 194
250 93 150
251 35 186
252 177 146
253 26 147
254 21 85
255 195 97
256 99 146
257 195 129
258 105 127
259 190 24
260 178 165
261 68 50
262 190 110
263 60 51
264 180 50
265 181 151
266 143 189
267 56 59
268 48 108
269 50 67
270 101 70
271 185 123
272 38 188
273 151 28
274 121 8
275 25 143
276 26 138
277 176 144
278 78 119
279 51 31
280 109 175
281 150 98
282 180 52
283 141 4
284 152 3
285 166 117
286 93 7
287 113 94
288 83 188
289 8 73
290 154 2
291 17 150
292 116 189
293 140 11
294 189 97
295 184 116
296 198 76
297 186 94
298 97 65
299 154 172
300 90 160
301 109 126
302 148 98
303 144 170
304 193 83
305 15 87
306 89 158
307 153 29
308 183 152
309 53 61
310 123 36
311 59 57
312 102 122
313 45 48
314 185 96
315 120 192
316 165 113
317 177 145
318 126 192
319 103 66
320 69 47
321 150 3
322 110 164
323 178 123
324 53 31
325 193 131
326 83 118
327 145 9
328 12 69
329 145 189
330 97 67
331 193 28
332 79 115
333 63 58
334 187 142
335 99 12
336 181 89
337 111 93
338 192 28
339 198 132
340 57 54
341 39 112
342 118 5
343 122 37
344 100 70
345 150 103
346 28 193
347 121 36
348 152 31
349 175 57
350 149 101
351 140 3
352 165 116
353 143 5
354 153 160
355 121 116
356 147 6
357 162 118
358 12 66
359 98 4
360 189 95
361 91 160
362 147 26
363 85 192
364 178 147
365 40 113
366 122 8
367 119 113
368 45 104
369 84 118
370 8 154
371 25 146
372 178 140
373 146 103
374 40 108
375 183 148
376 99 128
377 151 35
378 154 27
379 42 102
380 45 46
381 144 190
382 129 38
383 199 132
384 193 111
385 172 51
386 188 88
387 40 49
388 52 38
389 178 54
390 181 175
391 41 187
392 49 104
393 150 99
394 106 166
395 5 73
396 148 32
397 182 154
398 116 12
399 78 115
400 121 188
401 61 50
402 159 121
403 37 190
404 176 173
405 190 154
406 143 0
407 8 154
408 117 193
409 78 184
410 172 51
411 95 74
412 97 67
413 153 29
414 154 163
415 45 48
416 102 122
417 97 162
418 62 50
419 50 67
420 151 99
421 181 147
422 123 106
423 96 128
PICKUP_AND_DELIVERY_SECTION
1 0 0 1501 0 0 0
2 -10 333 434 90 182 0
3 10 746 909 90 0 348
4 20 727 817 0 0 422
5 20 675 791 90 0 191
6 20 115 270 90 0 148
7 -20 700 795 90 358 0
8 -30 350 445 90 150 0
9 20 454 587 0 0 418
10 -30 297 398 90 361 0
11 -30 437 522 90 186 0
12 -20 486 634 90 62 0
13 30 185 322 90 0 250
14 -20 617 738 90 376 0
15 20 516 613 90 0 289
16 -20 709 829 90 102 0
17 30 219 332 90 0 318
18 10 100 214 90 0 327
19 30 508 612 90 0 239
20 -10 396 514 90 194 0
21 -10 785 928 90 38 0
22 20 645 786 90 0 347
23 -10 584 732 90 315 0
24 20 79 161 90 0 39
25 10 213 347 90 0 296
26 10 592 727 90 0 354
27 10 416 516 90 0 184
28 20 967 1080 0 0 409
29 -10 759 840 90 34 0
30 10 142 317 90 0 213
31 -20 687 811 90 74 0
32 10 115 255 90 0 249
33 30 127 259 90 0 397
34 10 44 163 90 0 29
35 -10 826 966 90 324 0
36 20 780 896 90 0 224
37 10 360 465 0 0 420
38 10 682 849 90 0 21
39 -20 227 320 90 24 0
40 10 319 443 90 0 308
41 10 790 882 0 0 406
42 -10 1108 1241 90 44 0
43 -20 1043 1200 90 366 0
44 10 739 868 90 0 42
45 20 130 222 90 0 236
46 -30 853 953 90 343 0
47 20 606 726 90 0 90
48 10 382 495 90 0 306
49 20 608 704 90 0 99
50 20 84 196 90 0 202
51 10 585 710 90 0 132
52 20 105 211 0 0 404
53 30 129 240 0 0 408
54 -20 864 985 90 294 0
55 10 121 211 90 0 198
56 -30 491 609 90 323 0
57 10 81 170 90 0 276
58 10 497 628 0 0 403
59 10 485 580 90 0 135
60 -10 778 879 90 103 0
61 -10 774 893 90 200 0
62 20 325 426 90 0 12
63 20 221 354 90 0 66
64 30 87 267 90 0 234
65 10 155 271 90 0 146
66 -20 505 636 90 63 0
67 20 335 449 90 0 369
68 30 419 529 0 0 405
69 -10 411 528 90 75 0
70 20 126 228 90 0 160
71 -30 321 426 90 299 0
72 10 482 615 90 0 212
73 10 132 236 90 0 274
74 20 90 200 90 0 31
75 10 226 335 90 0 69
76 -20 1074 1164 90 283 0
77 20 807 915 90 0 242
78 30 139 235 90 0 328
79 50 222 315 90 0 189
80 -20 548 692 90 166 0
81 20 65 240 90 0 285
82 -20 767 870 90 380 0
83 20 300 428 90 0 360
84 20 128 284 90 0 100
85 -20 929 1071 90 180 0
86 30 315 427 90 0 178
87 -30 1045 1179 90 314 0
88 20 216 347 90 0 303
89 10 36 180 90 0 218
90 -20 877 1012 90 47 0
91 -20 480 602 90 141 0
92 -20 719 842 90 192 0
93 20 58 182 90 0 147
94 -10 305 438 90 145 0
95 30 74 192 90 0 247
96 -30 592 716 90 329 0
97 10 676 829 0 0 414
98 30 28 184 0 0 423
99 -20 786 915 90 49 0
100 -20 427 542 90 84 0
101 10 342 453 90 0 319
102 20 244 366 90 0 16
103 10 82 203 90 0 60
104 -20 678 797 90 230 0
105 -20 1165 1264 90 290 0
106 30 80 201 90 0 125
107 -10 616 728 90 209 0
108 20 765 863 0 0 402
109 10 313 423 90 0 240
110 20 228 338 90 0 124
111 -20 684 809 90 291 0
112 20 392 546 0 0 421
113 20 104 218 90 0 136
114 30 581 704 90 0 254
115 10 83 213 90 0 349
116 -10 56 170 90 127 0
117 20 413 537 90 0 246
118 10 393 545 90 0 321
119 -10 559 688 90 310 0
120 -10 861 1002 90 188 0
121 -10 589 704 90 152 0
122 20 232 314 90 0 162
123 -20 858 986 90 304 0
124 -20 974 1074 90 110 0
125 -30 673 797 90 106 0
126 -30 476 631 90 388 0
127 10 18 124 90 0 116
128 30 496 639 90 0 243
129 -10 866 983 90 193 0
130 -10 563 715 90 282 0
131 30 795 948 90 0 373
132 -10 854 992 90 51 0
133 -30 773 909 90 292 0
134 10 228 348 90 0 206
135 -10 666 775 90 59 0
136 -20 198 308 90 113 0
137 10 409 519 90 0 400
138 -10 865 981 90 177 0
139 -20 487 607 90 275 0
140 20 84 194 90 0 281
141 20 281 412 90 0 91
142 10 111 237 90 0 171
143 -10 950 1085 90 195 0
144 10 419 541 90 0 167
145 10 147 224 90 0 94
146 -10 444 534 90 65 0
147 -20 382 480 90 93 0
148 -20 690 829 90 6 0
149 20 465 581 90 0 379
150 30 155 270 90 0 8
151 -30 46 184 90 367 0
152 10 110 244 90 0 121
153 -20 523 622 90 210 0
154 10 782 923 90 0 259
155 -20 99 219 90 187 0
156 20 134 211 90 0 273
157 -20 122 267 90 325 0
158 10 255 391 90 0 238
159 10 1056 1186 90 0 228
160 -20 309 420 90 70 0
161 10 154 260 90 0 331
162 -20 502 608 90 122 0
163 -10 591 717 90 248 0
164 20 894 1018 0 0 411
165 10 660 753 90 0 368
166 20 184 306 90 0 80
167 -10 962 1112 90 144 0
168 -20 387 475 90 341 0
169 20 777 902 90 0 284
170 -10 464 548 90 256 0
171 -10 572 707 90 142 0
172 10 492 615 90 0 244
173 -10 286 462 90 293 0
174 20 400 527 90 0 262
175 20 126 259 90 0 245
176 -20 613 734 90 185 0
177 10 778 873 90 0 138
178 -30 504 612 90 86 0
179 -10 777 903 90 395 0
180 20 285 421 90 0 85
181 10 207 315 90 0 387
182 10 148 250 90 0 2
183 20 149 233 90 0 237
184 -10 880 984 90 27 0
185 20 515 644 90 0 176
186 30 331 446 90 0 11
187 20 66 169 90 0 155
188 10 691 799 90 0 120
189 -50 389 528 90 79 0
190 30 101 228 90 0 272
191 -20 775 879 90 5 0
192 20 439 570 90 0 92
193 10 779 884 90 0 129
194 10 297 426 90 0 20
195 10 492 628 90 0 143
196 -30 312 429 90 217 0
197 -10 565 702 90 394 0
198 -10 831 987 90 55 0
199 40 91 225 90 0 300
200 10 208 337 90 0 61
201 -20 771 903 90 398 0
202 -20 491 641 90 50 0
203 -10 280 410 90 382 0
204 10 222 333 90 0 208
205 30 507 602 90 0 221
206 -10 690 816 90 134 0
207 -10 328 452 90 355 0
208 -10 593 702 90 204 0
209 10 247 364 90 0 107
210 20 243 350 90 0 153
211 20 316 449 90 0 383
212 -10 675 798 90 72 0
213 -10 357 472 90 30 0
214 20 125 236 90 0 384
215 10 231 339 90 0 356
216 -30 522 624 90 338 0
217 30 132 236 90 0 196
218 -10 151 251 90 89 0
219 10 408 529 90 0 241
220 10 621 773 0 0 417
221 -30 765 892 90 205 0
222 -10 197 310 90 316 0
223 30 198 343 90 0 305
224 -20 866 1007 90 36 0
225 -10 1015 1146 90 226 0
226 10 575 715 90 0 225
227 20 145 237 90 0 351
228 -10 1203 1307 90 159 0
229 -10 1164 1261 90 353 0
230 20 408 516 90 0 104
231 -10 928 1047 90 320 0
232 -20 318 408 90 279 0
233 -20 967 1089 90 342 0
234 -30 305 435 90 64 0
235 -30 966 1121 90 346 0
236 -20 297 430 90 45 0
237 -20 218 350 90 183 0
238 -10 548 650 90 158 0
239 -30 599 708 90 19 0
240 -10 682 794 90 109 0
241 -10 968 1064 90 219 0
242 -20 985 1104 90 77 0
243 -30 696 815 90 128 0
244 -10 592 697 90 172 0
245 -20 409 534 90 175 0
246 -20 590 733 90 117 0
247 -30 657 797 90 95 0
248 10 499 626 90 0 163
249 -10 407 512 90 32 0
250 -30 856 928 90 13 0
251 -20 894 996 90 391 0
252 10 671 815 90 0 277
253 20 200 341 90 0 371
254 -30 870 977 90 114 0
255 -20 583 708 90 386 0
256 10 80 192 90 0 170
257 -10 608 716 90 339 0
258 10 432 549 90 0 301
259 -10 1072 1188 90 154 0
260 -30 791 903 90 390 0
261 -10 653 770 90 401 0
262 -20 757 907 90 174 0
263 -10 284 392 90 311 0
264 -20 690 771 90 389 0
265 -10 783 930 90 375 0
266 10 124 253 90 0 381
267 30 94 210 90 0 309
268 20 52 174 90 0 374
269 10 471 582 0 0 419
270 -30 65 178 90 344 0
271 30 210 332 90 0 295
272 -30 329 430 90 190 0
273 -20 384 529 90 156 0
274 -10 399 521 90 73 0
275 20 393 517 90 0 139
276 -10 845 1001 90 57 0
277 -10 865 987 90 252 0
278 30 425 548 90 0 326
279 20 124 227 90 0 232
280 20 395 493 90 0 322
281 -20 177 284 90 140 0
282 10 488 607 90 0 130
283 20 595 702 90 0 76
284 -20 880 981 90 169 0
285 -20 295 405 90 81 0
286 20 410 518 90 0 298
287 30 14 157 90 0 337
288 30 89 210 90 0 363
289 -20 605 707 90 15 0
290 20 964 1081 90 0 105
291 20 96 216 90 0 111
292 30 90 189 90 0 133
293 10 97 211 90 0 173
294 20 689 795 90 0 54
295 -30 694 782 90 271 0
296 -10 577 715 90 25 0
297 -10 399 513 90 336 0
298 -20 711 822 90 286 0
299 30 142 232 90 0 71
300 -40 482 577 90 199 0
301 -10 527 642 90 258 0
302 20 48 152 90 0 350
303 -20 409 532 90 88 0
304 20 94 227 90 0 123
305 -30 395 516 90 223 0
306 -10 570 673 90 48 0
307 20 486 611 0 0 413
308 -10 682 847 90 40 0
309 -30 256 418 90 267 0
310 10 463 597 90 0 119
311 10 96 205 90 0 263
312 10 900 1008 0 0 416
313 10 568 704 0 0 415
314 30 961 1071 90 0 87
315 10 323 412 90 0 23
316 10 112 200 90 0 222
317 -10 780 889 90 372 0
318 -30 498 626 90 17 0
319 -10 517 643 90 101 0
320 10 557 679 90 0 231
321 -10 685 809 90 118 0
322 -20 652 801 90 280 0
323 30 81 208 90 0 56
324 10 685 788 90 0 35
325 20 98 204 90 0 157
326 -30 518 645 90 278 0
327 -10 145 240 90 18 0
328 -30 868 1000 90 78 0
329 30 422 503 90 0 96
330 10 824 892 0 0 412
331 -10 307 471 90 161 0
332 30 160 260 90 0 399
333 20 55 157 90 0 340
334 10 315 428 90 0 364
335 30 88 188 90 0 359
336 10 81 208 90 0 297
337 -30 622 714 90 287 0
338 30 227 369 90 0 216
339 10 492 645 90 0 257
340 -20 183 304 90 333 0
341 20 177 309 90 0 168
342 20 499 610 90 0 233
343 30 368 509 90 0 46
344 30 30 167 90 0 270
345 -20 639 739 90 393 0
346 30 694 813 90 0 235
347 -20 758 863 90 22 0
348 -10 866 973 90 3 0
349 -10 215 322 90 115 0
350 -20 534 660 90 302 0
351 -20 485 630 90 227 0
352 10 386 498 90 0 357
353 10 682 800 90 0 229
354 -10 773 919 90 26 0
355 10 254 340 90 0 207
356 -10 311 441 90 215 0
357 -10 561 690 90 352 0
358 20 94 228 90 0 7
359 -30 219 334 90 335 0
360 -20 480 618 90 83 0
361 30 60 169 90 0 10
362 -10 295 428 90 396 0
363 -30 219 334 90 288 0
364 -10 591 714 90 334 0
365 10 93 211 90 0 392
366 20 290 448 90 0 43
367 30 23 115 90 0 151
368 -10 747 855 90 165 0
369 -20 603 743 90 67 0
370 20 596 713 0 0 407
371 -20 307 417 90 253 0
372 10 130 234 90 0 317
373 -30 901 1026 90 131 0
374 -20 265 411 90 268 0
375 10 95 209 90 0 265
376 20 47 196 90 0 14
377 -20 953 1075 90 378 0
378 20 574 708 90 0 377
379 -20 574 658 90 149 0
380 20 495 592 90 0 82
381 -10 218 342 90 266 0
382 10 200 302 90 0 203
383 -20 427 527 90 211 0
384 -20 668 810 90 214 0
385 10 938 1095 0 0 410
386 20 121 237 90 0 255
387 -10 394 502 90 181 0
388 30 78 195 90 0 126
389 20 365 545 90 0 264
390 30 232 349 90 0 260
391 20 240 333 90 0 251
392 -10 839 951 90 365 0
393 20 274 370 90 0 345
394 10 66 216 90 0 197
395 10 314 440 90 0 179
396 10 196 335 90 0 362
397 -30 598 747 90 33 0
398 20 89 208 90 0 201
399 -30 244 359 90 332 0
400 -10 700 799 90 137 0
401 10 369 489 90 0 261
402 -20 765 863 90 108 0
403 -10 497 628 90 58 0
404 -20 105 211 90 52 0
405 -30 419 529 90 68 0
406 -10 790 882 90 41 0
407 -20 596 713 90 370 0
408 -30 129 240 90 53 0
409 -20 967 1080 90 28 0
410 -10 938 1095 90 385 0
411 -20 894 1018 90 164 0
412 -10 824 892 90 330 0
413 -20 486 611 90 307 0
414 -10 676 829 90 97 0
415 -10 568 704 90 313 0
416 -10 900 1008 90 312 0
417 -10 621 773 90 220 0
418 -20 454 587 90 9 0
419 -10 471 582 90 269 0
420 -10 360 465 90 37 0
421 -20 392 546 90 112 0
422 -20 727 817 90 4 0
423 -30 28 184 90 98 0
DEPOT_SECTION
1
-1
EOF
