NAME: lc1_4_7
TYPE: PDPTW
COMMENT: Li & Lim PDPTW benchmark converted from SINTEF format
DIMENSION: 423
VEHICLES: 100
CAPACITY: 200
EDGE_WEIGHT_TYPE: EUC_2D
NODE_COORD_SECTION
1 100 100
2 181 172
3 154 31
4 123 106
5 23 137
6 190 28
7 8 71
8 103 130
9 62 50
10 89 161
11 117 91
12 12 156
13 88 165
14 107 125
15 8 74
16 105 125
17 118 192
18 146 11
19 93 13
20 188 125
21 87 117
22 123 31
23 121 189
24 174 128
25 197 80
26 151 165
27 140 4
28 78 184
29 96 150
30 96 147
31 149 182
32 87 191
33 189 151
34 99 144
35 64 52
36 7 151
37 151 99
38 87 118
39 179 141
40 192 151
41 143 0
42 66 58
43 122 14
44 66 52
45 173 55
46 119 37
47 199 28
48 90 161
49 36 193
50 159 160
51 194 112
52 176 173
53 117 193
54 186 96
55 39 56
56 189 120
57 29 139
58 37 190
59 165 117
60 16 84
61 187 97
62 10 153
63 194 149
64 187 112
65 103 70
66 193 159
67 77 115
68 190 154
69 3 75
70 17 93
71 151 167
72 12 85
73 120 11
74 140 181
75 6 67
76 137 4
77 103 124
78 10 67
79 48 30
80 53 67
81 164 113
82 47 49
83 187 92
84 121 115
85 46 51
86 144 189
87 180 93
88 152 168
89 117 95
90 195 25
91 108 168
92 149 103
93 60 58
94 197 79
95 39 58
96 147 186
97 154 163
98 96 128
99 30 187
100 123 121
101 104 68
102 102 128
103 18 89
104 197 77
105 156 11
106 144 33
107 101 67
108 159 121
109 84 192
110 139 7
111 7 152
112 181 147
113 104 170
114 13 81
115 172 57
116 80 108
117 180 171
118 146 3
119 123 33
120 127 8
121 185 115
122 192 113
123 194 75
124 135 0
125 157 30
126 53 29
127 85 110
128 182 171
129 79 193
130 181 52
131 148 103
132 190 109
133 119 188
134 197 140
135 162 123
136 102 170
137 120 198
138 175 50
139 23 142
140 149 99
141 102 174
142 30 142
143 175 143
144 193 27
145 193 82
146 103 67
147 55 64
148 197 25
149 42 105
150 100 129
151 120 115
152 183 120
153 115 89
154 196 27
155 131 38
156 145 31
157 196 137
158 98 150
159 159 8
160 15 88
161 191 27
162 196 111
163 150 6
164 95 74
165 42 101
166 53 59
167 193 23
168 40 105
169 152 4
170 100 151
171 24 140
172 87 195
173 140 6
174 197 113
175 40 183
176 127 114
177 182 46
178 151 190
179 8 69
180 44 52
181 43 54
182 179 174
183 13 152
184 137 1
185 127 118
186 118 92
187 129 40
188 123 4
189 55 24
190 41 182
191 22 133
192 151 101
193 82 194
194 185 124
195 180 147
196 97 7
197 108 165
198 47 50
199 93 167
200 186 91
201 124 6
202 149 167
203 125 38
204 123 8
205 199 76
206 194 129
207 124 117
208 115 4
209 105 70
210 120 92
211 200 136
212 14 84
213 100 150
214 190 112
215 146 7
216 196 28
217 100 6
218 118 97
219 12 154
220 97 162
221 196 78
222 172 114
223 14 92
224 7 142
225 63 55
226 54 30
227 141 8
228 156 12
229 134 6
230 198 78
231 65 53
232 52 28
233 125 15
234 199 115
235 32 178
236 179 55
237 11 151
238 99 154
239 95 16
240 83 197
241 27 135
242 102 121
243 179 165
244 87 196
245 38 190
246 183 167
247 46 49
248 149 5
249 84 194
250 93 150
251 35 186
252 177 146
253 26 147
254 21 85
255 195 97
256 99 146
257 195 129
258 105 127
259 190 24
260 178 165
261 68 50
262 190 110
263 60 51
264 180 50
265 181 151
266 143 189
267 56 59
268 48 108
269 50 67
270 101 70
271 185 123
272 38 188
273 151 28
274 121 8
275 25 143
276 26 138
277 176 144
278 78 119
279 51 31
280 109 175
281 150 98
282 180 52
283 141 4
284 152 3
285 166 117
286 93 7
287 113 94
288 83 188
289 8 73
290 154 2
291 17 150
292 116 189
293 140 11
294 189 97
295 184 116
296 198 76
297 186 94
298 97 65
299 154 172
300 90 160
301 109 126
302 148 98
303 144 170
304 193 83
305 15 87
306 89 158
307 153 29
308 183 152
309 53 61
310 123 36
311 59 57
312 102 122
313 45 48
314 185 96
315 120 192
316 165 113
317 177 145
318 126 192
319 103 66
320 69 47
321 150 3
322 110 164
323 178 123
324 53 31
325 193 131
326 83 118
327 145 9
328 12 69
329 145 189
330 97 67
331 193 28
332 79 115
333 63 58
334 187 142
335 99 12
336 181 89
337 111 93
338 192 28
339 198 132
340 57 54
341 39 112
342 118 5
343 122 37
344 100 70
345 150 103
346 28 193
347 121 36
348 152 31
349 175 57
350 149 101
351 140 3
352 165 116
353 143 5
354 153 160
355 121 116
356 147 6
357 162 118
358 12 66
359 98 4
360 189 95
361 91 160
362 147 26
363 85 192
364 178 147
365 40 113
366 122 8
367 119 113
368 45 104
369 84 118
370 8 154
371 25 146
372 178 140
373 146 103
374 40 108
375 183 148
376 99 128
377 151 35
378 154 27
379 42 102
380 45 46
381 144 190
382 129 38
383 199 132
384 193 111
385 172 51
386 188 88
387 40 49
388 52 38
389 178 54
390 181 175
391 41 187
392 49 104
393 150 99
394 106 166
395 5 73
396 148 32
397 182 154
398 116 12
399 78 115
400 121 188
401 61 50
402 60 58
403 178 165
404 140 4
405 7 151
406 159 121
407 180 147
408 108 165
409 172 51
410 154 163
411 146 103
412 152 31
413 95 16
414 36 193
415 39 56
416 162 118
417 83 188
418 68 50
419 103 67
420 190 154
421 91 160
422 118 192
423 100 150
PICKUP_AND_DELIVERY_SECTION
1 0 0 1501 0 0 0
2 10 294 474 90 0 128
3 -20 738 918 90 378 0
4 -20 682 862 90 81 0
5 -10 643 823 90 142 0
6 20 115 295 90 0 148
7 -20 658 838 90 15 0
8 -30 307 487 90 98 0
9 20 430 610 90 0 42
10 10 257 437 90 0 48
11 -10 389 569 90 89 0
12 -20 470 650 90 183 0
13 30 163 343 90 0 250
14 -20 587 767 90 376 0
15 20 475 655 90 0 7
16 -20 679 859 90 113 0
17 30 186 366 0 0 422
18 10 100 280 90 0 327
19 30 470 650 90 0 330
20 -30 365 545 90 271 0
21 -20 767 947 90 326 0
22 -30 625 805 90 343 0
23 -10 568 748 90 315 0
24 20 79 259 90 0 252
25 10 190 370 90 0 94
26 -40 569 749 90 202 0
27 10 376 556 0 0 404
28 -30 934 1114 90 129 0
29 20 709 889 90 0 77
30 10 139 319 90 0 242
31 -10 659 839 90 266 0
32 10 95 275 90 0 249
33 30 103 283 90 0 40
34 10 44 224 90 0 170
35 20 806 986 90 0 225
36 20 748 928 0 0 405
37 -20 323 503 90 302 0
38 -20 676 856 90 369 0
39 -10 183 363 90 372 0
40 -30 291 471 90 33 0
41 10 746 926 90 0 229
42 -20 1084 1264 90 9 0
43 -10 1031 1211 90 204 0
44 10 714 894 90 0 231
45 20 86 266 90 0 236
46 -20 813 993 90 347 0
47 20 576 756 90 0 259
48 -10 348 528 90 10 0
49 20 566 746 0 0 414
50 20 84 264 90 0 354
51 10 558 738 90 0 132
52 20 105 285 90 0 243
53 30 95 275 90 0 318
54 -20 835 1015 90 386 0
55 10 76 256 0 0 415
56 -30 460 640 90 323 0
57 10 81 261 90 0 191
58 10 473 653 90 0 346
59 -10 443 623 90 316 0
60 -20 738 918 90 212 0
61 -20 744 924 90 83 0
62 20 286 466 90 0 224
63 -10 198 378 90 375 0
64 30 87 267 90 0 234
65 -20 123 303 90 270 0
66 20 480 660 90 0 308
67 -20 302 482 90 116 0
68 30 384 564 0 0 420
69 -10 379 559 90 75 0
70 20 87 267 90 0 114
71 -30 283 463 90 299 0
72 -10 459 639 90 103 0
73 -20 94 274 90 398 0
74 20 90 270 90 0 178
75 10 191 371 90 0 69
76 -20 1029 1209 90 110 0
77 -20 771 951 90 29 0
78 -20 97 277 90 358 0
79 -20 179 359 90 279 0
80 -10 530 710 90 269 0
81 20 65 245 90 0 4
82 -10 728 908 90 313 0
83 20 274 454 90 0 61
84 20 116 296 90 0 207
85 -10 910 1090 90 198 0
86 30 281 461 90 0 96
87 -10 1022 1202 90 336 0
88 20 192 372 90 0 303
89 10 18 198 90 0 11
90 10 854 1034 90 0 167
91 -20 451 631 90 280 0
92 -20 690 870 90 393 0
93 20 58 238 0 0 402
94 -10 281 461 90 25 0
95 30 74 254 90 0 180
96 -30 564 744 90 86 0
97 10 663 843 0 0 410
98 30 28 208 90 0 8
99 10 760 940 90 0 251
100 -10 395 575 90 355 0
101 -10 307 487 90 209 0
102 20 215 395 90 0 258
103 10 82 262 90 0 72
104 -10 647 827 90 296 0
105 20 1125 1305 90 0 228
106 30 80 260 90 0 307
107 20 582 762 90 0 164
108 20 724 904 0 0 406
109 10 278 458 90 0 193
110 20 193 373 90 0 76
111 10 657 837 90 0 241
112 -10 379 559 90 334 0
113 20 71 251 90 0 16
114 -20 553 733 90 70 0
115 10 83 263 90 0 282
116 20 23 203 90 0 67
117 -10 385 565 90 182 0
118 10 379 559 90 0 248
119 -10 533 713 90 310 0
120 -10 841 1021 90 274 0
121 20 556 736 90 0 295
122 -20 183 363 90 214 0
123 -30 832 1012 90 221 0
124 -20 934 1114 90 283 0
125 -20 645 825 90 273 0
126 -10 463 643 90 232 0
127 10 18 198 90 0 278
128 -10 477 657 90 2 0
129 30 834 1014 90 0 28
130 10 549 729 90 0 177
131 -20 781 961 90 350 0
132 -10 833 1013 90 51 0
133 -20 751 931 90 400 0
134 -20 198 378 90 157 0
135 -20 631 811 90 285 0
136 40 163 343 90 0 141
137 -30 374 554 90 292 0
138 -20 833 1013 90 264 0
139 -20 457 637 90 275 0
140 20 49 229 90 0 345
141 -40 257 437 90 136 0
142 10 84 264 90 0 5
143 -20 927 1107 90 277 0
144 -30 390 570 90 338 0
145 10 96 276 90 0 230
146 20 399 579 0 0 419
147 -20 341 521 90 166 0
148 -20 670 850 90 6 0
149 -10 433 613 90 365 0
150 30 123 303 90 0 301
151 -30 25 205 90 367 0
152 10 87 267 90 0 194
153 20 482 662 90 0 337
154 -10 762 942 90 161 0
155 -20 69 249 90 187 0
156 20 82 262 90 0 396
157 20 105 285 90 0 134
158 -10 233 413 90 256 0
159 -20 1031 1211 90 284 0
160 -30 274 454 90 223 0
161 10 117 297 90 0 154
162 -20 465 645 90 174 0
163 20 564 744 90 0 321
164 -20 866 1046 90 107 0
165 -20 617 797 90 268 0
166 20 155 335 90 0 147
167 -10 947 1127 90 90 0
168 -30 341 521 90 374 0
169 -10 749 929 90 356 0
170 -10 416 596 90 34 0
171 -20 549 729 90 253 0
172 10 463 643 90 0 244
173 30 284 464 90 0 353
174 20 373 553 90 0 162
175 -30 102 282 90 190 0
176 -20 584 764 90 185 0
177 -10 735 915 90 130 0
178 -20 468 648 90 74 0
179 -10 750 930 90 395 0
180 -30 263 443 90 95 0
181 10 171 351 90 0 387
182 10 109 289 90 0 117
183 20 101 281 90 0 12
184 -10 842 1022 90 351 0
185 20 490 670 90 0 176
186 -20 298 478 90 218 0
187 20 66 246 90 0 155
188 10 655 835 90 0 233
189 -30 368 548 90 388 0
190 30 101 281 90 0 175
191 -10 737 917 90 57 0
192 -10 415 595 90 281 0
193 -10 741 921 90 109 0
194 -10 272 452 90 152 0
195 10 470 650 0 0 407
196 -30 280 460 90 217 0
197 10 544 724 0 0 408
198 10 819 999 90 0 85
199 40 68 248 90 0 220
200 10 182 362 90 0 314
201 -20 747 927 90 208 0
202 40 476 656 90 0 26
203 -10 255 435 90 382 0
204 10 188 368 90 0 43
205 -20 465 645 90 304 0
206 -10 663 843 90 339 0
207 -20 300 480 90 84 0
208 20 557 737 90 0 201
209 10 215 395 90 0 101
210 -30 206 386 90 287 0
211 -20 293 473 90 325 0
212 20 646 826 90 0 60
213 10 325 505 0 0 423
214 20 91 271 90 0 122
215 10 195 375 90 0 290
216 -20 483 663 90 331 0
217 30 94 274 90 0 196
218 20 111 291 90 0 186
219 -20 378 558 90 237 0
220 -40 607 787 90 199 0
221 30 738 918 90 0 123
222 20 163 343 90 0 352
223 30 180 360 90 0 160
224 -20 847 1027 90 62 0
225 -20 990 1170 90 35 0
226 10 555 735 90 0 324
227 -10 101 281 90 293 0
228 -20 1127 1307 90 105 0
229 -10 1122 1302 90 41 0
230 -10 372 552 90 145 0
231 -10 897 1077 90 44 0
232 10 273 453 90 0 126
233 -10 938 1118 90 188 0
234 -30 280 460 90 64 0
235 -20 954 1134 90 272 0
236 -20 273 453 90 45 0
237 20 194 374 90 0 219
238 10 509 689 90 0 312
239 20 564 744 0 0 413
240 -10 648 828 90 363 0
241 -10 926 1106 90 111 0
242 -10 955 1135 90 30 0
243 -20 666 846 90 52 0
244 -10 554 734 90 172 0
245 -20 382 562 90 391 0
246 -30 571 751 90 390 0
247 -20 637 817 90 380 0
248 -10 473 653 90 118 0
249 -10 370 550 90 32 0
250 -30 802 982 90 13 0
251 -10 855 1035 90 99 0
252 -20 653 833 90 24 0
253 20 181 361 90 0 171
254 -20 833 1013 90 305 0
255 20 556 736 90 0 294
256 10 46 226 90 0 158
257 -10 572 752 90 383 0
258 -20 401 581 90 102 0
259 -20 1040 1220 90 47 0
260 30 757 937 0 0 403
261 10 621 801 0 0 418
262 -20 742 922 90 384 0
263 20 248 428 90 0 320
264 20 641 821 90 0 138
265 -10 767 947 90 397 0
266 10 99 279 90 0 31
267 30 62 242 90 0 309
268 20 52 232 90 0 165
269 10 437 617 90 0 80
270 20 31 211 90 0 65
271 30 181 361 90 0 20
272 20 290 470 90 0 235
273 20 366 546 90 0 125
274 10 370 550 90 0 120
275 20 365 545 90 0 139
276 -30 833 1013 90 371 0
277 20 836 1016 90 0 143
278 -10 397 577 90 127 0
279 20 85 265 90 0 79
280 20 354 534 90 0 91
281 10 141 321 90 0 192
282 -10 458 638 90 115 0
283 20 559 739 90 0 124
284 20 840 1020 90 0 159
285 20 260 440 90 0 135
286 -20 374 554 90 359 0
287 30 14 194 90 0 210
288 30 89 269 0 0 417
289 20 566 746 90 0 328
290 -10 933 1113 90 215 0
291 20 96 276 90 0 370
292 30 90 270 90 0 137
293 10 97 277 90 0 227
294 -20 652 832 90 255 0
295 -20 648 828 90 121 0
296 10 556 736 90 0 104
297 20 366 546 90 0 360
298 -30 676 856 90 335 0
299 30 97 277 90 0 71
300 20 439 619 90 0 306
301 -30 495 675 90 150 0
302 20 48 228 90 0 37
303 -20 381 561 90 88 0
304 20 94 274 90 0 205
305 20 365 545 90 0 254
306 -20 532 712 90 300 0
307 -30 458 638 90 106 0
308 -20 675 855 90 66 0
309 -30 247 427 90 267 0
310 10 440 620 90 0 119
311 10 60 240 90 0 401
312 -10 864 1044 90 238 0
313 10 546 726 90 0 82
314 -10 926 1106 90 200 0
315 10 278 458 90 0 23
316 10 66 246 90 0 59
317 -10 744 924 90 364 0
318 -30 472 652 90 53 0
319 -30 490 670 90 344 0
320 -20 528 708 90 263 0
321 -20 657 837 90 163 0
322 -10 636 816 90 394 0
323 30 81 261 90 0 56
324 -10 646 826 90 226 0
325 20 98 278 90 0 211
326 20 492 672 90 0 21
327 -10 102 282 90 18 0
328 -20 844 1024 90 289 0
329 -10 372 552 90 381 0
330 -30 768 948 90 19 0
331 20 299 479 90 0 216
332 30 120 300 90 0 399
333 20 55 235 90 0 340
334 10 281 461 90 0 112
335 30 88 268 90 0 298
336 10 81 261 90 0 87
337 -20 578 758 90 153 0
338 30 208 388 90 0 144
339 10 478 658 90 0 206
340 -20 154 334 90 333 0
341 20 153 333 90 0 392
342 -20 464 644 90 366 0
343 30 349 529 90 0 22
344 30 30 210 90 0 319
345 -20 599 779 90 140 0
346 -10 664 844 90 58 0
347 20 720 900 90 0 46
348 10 830 1010 0 0 412
349 30 179 359 90 0 389
350 20 507 687 90 0 131
351 10 467 647 90 0 184
352 -20 352 532 90 222 0
353 -30 651 831 90 173 0
354 -20 756 936 90 50 0
355 10 207 387 90 0 100
356 10 286 466 90 0 169
357 20 536 716 0 0 416
358 20 94 274 90 0 78
359 20 187 367 90 0 286
360 -20 459 639 90 297 0
361 30 60 240 0 0 421
362 30 272 452 90 0 377
363 10 187 367 90 0 240
364 10 562 742 90 0 317
365 10 62 242 90 0 149
366 20 279 459 90 0 342
367 30 23 203 90 0 151
368 -30 711 891 90 379 0
369 20 583 763 90 0 38
370 -20 565 745 90 291 0
371 30 272 452 90 0 276
372 10 92 272 90 0 39
373 10 873 1053 0 0 411
374 30 248 428 90 0 168
375 10 95 275 90 0 63
376 20 31 211 90 0 14
377 -30 924 1104 90 362 0
378 20 551 731 90 0 3
379 30 526 706 90 0 368
380 20 454 634 90 0 247
381 10 190 370 90 0 329
382 10 161 341 90 0 203
383 10 387 567 90 0 257
384 20 649 829 90 0 262
385 10 927 1107 0 0 409
386 20 89 269 90 0 54
387 -10 358 538 90 181 0
388 30 78 258 90 0 189
389 -30 365 545 90 349 0
390 30 201 381 90 0 246
391 20 197 377 90 0 245
392 -20 805 985 90 341 0
393 20 232 412 90 0 92
394 10 66 246 90 0 322
395 10 287 467 90 0 179
396 -20 176 356 90 156 0
397 10 582 762 90 0 265
398 20 89 269 90 0 73
399 -30 211 391 90 332 0
400 20 659 839 90 0 133
401 -10 339 519 90 311 0
402 -20 58 238 90 93 0
403 -30 757 937 90 260 0
404 -10 376 556 90 27 0
405 -20 748 928 90 36 0
406 -20 724 904 90 108 0
407 -10 470 650 90 195 0
408 -10 544 724 90 197 0
409 -10 927 1107 90 385 0
410 -10 663 843 90 97 0
411 -10 873 1053 90 373 0
412 -10 830 1010 90 348 0
413 -20 564 744 90 239 0
414 -20 566 746 90 49 0
415 -10 76 256 90 55 0
416 -20 536 716 90 357 0
417 -30 89 269 90 288 0
418 -10 621 801 90 261 0
419 -20 399 579 90 146 0
420 -30 384 564 90 68 0
421 -30 60 240 90 361 0
422 -30 186 366 90 17 0
423 -10 325 505 90 213 0
DEPOT_SECTION
1
-1
EOF
