NAME: lc1_4_10
TYPE: PDPTW
COMMENT: Li & Lim PDPTW benchmark converted from SINTEF format
DIMENSION: 417
VEHICLES: 100
CAPACITY: 200
EDGE_WEIGHT_TYPE: EUC_2D
NODE_COORD_SECTION
1 100 100
2 181 172
3 154 31
4 123 106
5 23 137
6 190 28
7 8 71
8 103 130
9 62 50
10 89 161
11 117 91
12 12 156
13 88 165
14 107 125
15 8 74
16 105 125
17 118 192
18 146 11
19 93 13
20 188 125
21 87 117
22 123 31
23 121 189
24 174 128
25 197 80
26 151 165
27 140 4
28 78 184
29 96 150
30 96 147
31 149 182
32 87 191
33 189 151
34 99 144
35 64 52
36 7 151
37 151 99
38 87 118
39 179 141
40 192 151
41 143 0
42 66 58
43 122 14
44 66 52
45 173 55
46 119 37
47 199 28
48 90 161
49 36 193
50 159 160
51 194 112
52 176 173
53 117 193
54 186 96
55 39 56
56 189 120
57 29 139
58 37 190
59 165 117
60 16 84
61 187 97
62 10 153
63 194 149
64 187 112
65 103 70
66 193 159
67 77 115
68 190 154
69 3 75
70 17 93
71 151 167
72 12 85
73 120 11
74 140 181
75 6 67
76 137 4
77 103 124
78 10 67
79 48 30
80 53 67
81 164 113
82 47 49
83 187 92
84 121 115
85 46 51
86 144 189
87 180 93
88 152 168
89 117 95
90 195 25
91 108 168
92 149 103
93 60 58
94 197 79
95 39 58
96 147 186
97 154 163
98 96 128
99 30 187
100 123 121
101 104 68
102 102 128
103 18 89
104 197 77
105 156 11
106 144 33
107 101 67
108 159 121
109 84 192
110 139 7
111 7 152
112 181 147
113 104 170
114 13 81
115 172 57
116 80 108
117 180 171
118 146 3
119 123 33
120 127 8
121 185 115
122 192 113
123 194 75
124 135 0
125 157 30
126 53 29
127 85 110
128 182 171
129 79 193
130 181 52
131 148 103
132 190 109
133 119 188
134 197 140
135 162 123
136 102 170
137 120 198
138 175 50
139 23 142
140 149 99
141 102 174
142 30 142
143 175 143
144 193 27
145 193 82
146 103 67
147 55 64
148 197 25
149 42 105
150 100 129
151 120 115
152 183 120
153 115 89
154 196 27
155 131 38
156 145 31
157 196 137
158 98 150
159 159 8
160 15 88
161 191 27
162 196 111
163 150 6
164 95 74
165 42 101
166 53 59
167 193 23
168 40 105
169 152 4
170 100 151
171 24 140
172 87 195
173 140 6
174 197 113
175 40 183
176 127 114
177 182 46
178 151 190
179 8 69
180 44 52
181 43 54
182 179 174
183 13 152
184 137 1
185 127 118
186 118 92
187 129 40
188 123 4
189 55 24
190 41 182
191 22 133
192 151 101
193 82 194
194 185 124
195 180 147
196 97 7
197 108 165
198 47 50
199 93 167
200 186 91
201 124 6
202 149 167
203 125 38
204 123 8
205 199 76
206 194 129
207 124 117
208 115 4
209 105 70
210 120 92
211 200 136
212 14 84
213 100 150
214 190 112
215 146 7
216 196 28
217 100 6
218 118 97
219 12 154
220 97 162
221 196 78
222 172 114
223 14 92
224 7 142
225 63 55
226 54 30
227 141 8
228 156 12
229 134 6
230 198 78
231 65 53
232 52 28
233 125 15
234 199 115
235 32 178
236 179 55
237 11 151
238 99 154
239 95 16
240 83 197
241 27 135
242 102 121
243 179 165
244 87 196
245 38 190
246 183 167
247 46 49
248 149 5
249 84 194
250 93 150
251 35 186
252 177 146
253 26 147
254 21 85
255 195 97
256 99 146
257 195 129
258 105 127
259 190 24
260 178 165
261 68 50
262 190 110
263 60 51
264 180 50
265 181 151
266 143 189
267 56 59
268 48 108
269 50 67
270 101 70
271 185 123
272 38 188
273 151 28
274 121 8
275 25 143
276 26 138
277 176 144
278 78 119
279 51 31
280 109 175
281 150 98
282 180 52
283 141 4
284 152 3
285 166 117
286 93 7
287 113 94
288 83 188
289 8 73
290 154 2
291 17 150
292 116 189
293 140 11
294 189 97
295 184 116
296 198 76
297 186 94
298 97 65
299 154 172
300 90 160
301 109 126
302 148 98
303 144 170
304 193 83
305 15 87
306 89 158
307 153 29
308 183 152
309 53 61
310 123 36
311 59 57
312 102 122
313 45 48
314 185 96
315 120 192
316 165 113
317 177 145
318 126 192
319 103 66
320 69 47
321 150 3
322 110 164
323 178 123
324 53 31
325 193 131
326 83 118
327 145 9
328 12 69
329 145 189
330 97 67
331 193 28
332 79 115
333 63 58
334 187 142
335 99 12
336 181 89
337 111 93
338 192 28
339 198 132
340 57 54
341 39 112
342 118 5
343 122 37
344 100 70
345 150 103
346 28 193
347 121 36
348 152 31
349 175 57
350 149 101
351 140 3
352 165 116
353 143 5
354 153 160
355 121 116
356 147 6
357 162 118
358 12 66
359 98 4
360 189 95
361 91 160
362 147 26
363 85 192
364 178 147
365 40 113
366 122 8
367 119 113
368 45 104
369 84 118
370 8 154
371 25 146
372 178 140
373 146 103
374 40 108
375 183 148
376 99 128
377 151 35
378 154 27
379 42 102
380 45 46
381 144 190
382 129 38
383 199 132
384 193 111
385 172 51
386 188 88
387 40 49
388 52 38
389 178 54
390 181 175
391 41 187
392 49 104
393 150 99
394 106 166
395 5 73
396 148 32
397 182 154
398 116 12
399 78 115
400 121 188
401 61 50
402 159 121
403 26 147
404 140 3
405 105 125
406 146 103
407 120 11
408 173 55
409 183 152
410 87 195
411 39 56
412 154 27
413 186 96
414 96 147
415 98 4
416 53 67
417 166 117
PICKUP_AND_DELIVERY_SECTION
1 0 0 1501 0 0 0
2 10 112 656 90 0 128
3 -30 687 968 90 362 0
4 -20 453 1092 90 295 0
5 20 565 900 90 0 191
6 20 115 569 90 0 144
7 -20 493 1003 90 289 0
8 20 175 620 90 0 301
9 -20 242 799 90 263 0
10 10 61 651 90 0 13
11 -20 265 693 90 210 0
12 -20 363 757 90 237 0
13 -10 66 626 90 10 0
14 10 504 850 90 0 77
15 20 341 788 90 0 179
16 10 578 960 0 0 405
17 30 93 571 90 0 400
18 10 100 537 90 0 290
19 -20 368 752 90 196 0
20 10 190 719 90 0 157
21 -10 657 1056 90 250 0
22 -20 476 955 90 119 0
23 -10 448 869 90 315 0
24 20 79 509 90 0 40
25 10 99 509 90 0 94
26 -40 430 889 90 202 0
27 10 231 701 90 0 41
28 -10 781 1266 90 170 0
29 20 528 1071 90 0 242
30 10 47 759 0 0 414
31 -20 451 1046 90 280 0
32 -10 91 566 90 363 0
33 30 102 774 90 0 397
34 10 44 568 90 0 238
35 -20 690 1102 90 333 0
36 -20 548 1127 90 370 0
37 -20 174 652 90 393 0
38 -10 538 993 90 48 0
39 20 113 434 90 0 112
40 -20 132 629 90 24 0
41 -10 568 1105 90 27 0
42 -10 786 1357 90 231 0
43 -20 870 1323 90 398 0
44 -20 672 936 90 93 0
45 20 85 593 0 0 408
46 -10 686 1120 90 310 0
47 20 453 880 90 0 148
48 10 293 584 90 0 38
49 -20 436 876 90 272 0
50 20 84 497 90 0 195
51 -20 381 914 90 122 0
52 20 105 454 90 0 117
53 30 94 561 90 0 133
54 20 759 1090 0 0 413
55 10 75 497 0 0 411
56 -30 275 826 90 323 0
57 10 81 572 90 0 254
58 -30 274 852 90 190 0
59 -20 274 791 90 100 0
60 -20 575 1081 90 171 0
61 -20 625 1043 90 81 0
62 20 105 647 90 0 276
63 20 106 653 90 0 265
64 -10 87 653 90 352 0
65 10 30 523 90 0 146
66 -10 351 789 90 372 0
67 20 190 595 90 0 368
68 -10 221 727 90 334 0
69 -10 243 695 90 395 0
70 20 83 533 90 0 160
71 10 84 700 90 0 88
72 10 318 779 90 0 392
73 10 91 578 0 0 407
74 -30 90 579 90 299 0
75 10 99 607 90 0 328
76 10 829 1309 90 0 229
77 -10 640 1082 90 14 0
78 -20 95 447 90 305 0
79 50 87 625 90 0 324
80 20 377 863 0 0 416
81 20 65 497 90 0 61
82 -10 546 1091 90 181 0
83 20 113 615 90 0 314
84 20 25 409 90 0 176
85 -30 702 1298 90 95 0
86 -10 173 570 90 266 0
87 -10 902 1321 90 336 0
88 -10 85 586 90 71 0
89 10 17 476 90 0 186
90 10 754 1134 90 0 259
91 20 250 831 90 0 322
92 20 519 1041 90 0 131
93 20 58 483 90 0 44
94 -10 99 733 90 25 0
95 30 74 471 90 0 85
96 -10 462 847 90 381 0
97 -10 519 986 90 394 0
98 30 28 500 90 0 306
99 10 560 1141 90 0 235
100 20 236 734 90 0 59
101 10 136 658 90 0 107
102 20 109 500 90 0 150
103 10 82 546 90 0 358
104 -20 554 920 90 230 0
105 20 837 1306 90 0 228
106 30 80 675 90 0 307
107 -10 479 865 90 101 0
108 20 586 1043 0 0 402
109 -30 176 560 90 288 0
110 20 100 671 90 0 353
111 10 546 947 90 0 224
112 -20 191 747 90 39 0
113 20 70 618 90 0 136
114 -20 492 793 90 268 0
115 10 83 545 90 0 282
116 20 21 529 90 0 223
117 -20 240 710 90 52 0
118 10 317 621 90 0 283
119 20 402 845 90 0 22
120 -20 754 1108 90 208 0
121 -30 356 936 90 271 0
122 20 92 581 90 0 51
123 -30 616 1229 90 221 0
124 -10 768 1280 90 184 0
125 -20 562 908 90 156 0
126 30 356 750 90 0 226
127 10 18 548 90 0 391
128 -10 310 824 90 2 0
129 -10 732 1117 90 193 0
130 10 397 881 90 0 138
131 -20 688 1054 90 92 0
132 -20 748 1098 90 222 0
133 -30 584 1099 90 53 0
134 -10 104 484 90 194 0
135 -30 524 917 90 207 0
136 -20 70 593 90 113 0
137 10 258 670 90 0 318
138 -10 744 1103 90 130 0
139 -20 273 821 90 291 0
140 20 49 548 90 0 192
141 20 74 667 90 0 303
142 10 81 689 90 0 183
143 -10 741 1293 90 317 0
144 -20 268 693 90 6 0
145 -20 94 522 90 304 0
146 -10 191 787 90 65 0
147 -20 188 674 90 309 0
148 -20 516 1003 90 47 0
149 -30 287 759 90 374 0
150 -20 29 618 90 102 0
151 20 25 493 90 0 258
152 10 85 453 90 0 234
153 20 327 818 90 0 337
154 10 593 1112 90 0 216
155 -20 69 539 90 187 0
156 20 82 493 90 0 125
157 -10 102 561 90 20 0
158 10 108 538 90 0 244
159 -20 901 1302 90 284 0
160 -20 141 587 90 70 0
161 10 116 611 90 0 167
162 -20 300 810 90 174 0
163 20 432 877 90 0 169
164 -20 738 1173 90 319 0
165 -20 474 939 90 212 0
166 -30 62 670 90 267 0
167 -10 738 1291 90 161 0
168 10 125 737 90 0 379
169 -20 555 1124 90 163 0
170 10 274 738 90 0 28
171 20 447 832 90 0 60
172 10 338 769 0 0 410
173 -20 123 625 90 227 0
174 20 249 677 90 0 162
175 20 102 462 90 0 245
176 -20 415 933 90 84 0
177 10 534 1116 90 0 385
178 -30 354 763 90 329 0
179 -20 508 1171 90 15 0
180 20 176 530 90 0 380
181 10 73 565 90 0 82
182 10 108 669 90 0 390
183 -10 101 550 90 142 0
184 10 671 1194 90 0 124
185 20 397 763 90 0 357
186 -10 124 652 90 89 0
187 20 66 555 90 0 155
188 -20 423 1067 90 366 0
189 10 140 777 90 0 320
190 30 101 530 90 0 58
191 -20 618 1035 90 5 0
192 -20 250 760 90 140 0
193 10 591 1072 90 0 129
194 10 92 632 90 0 134
195 -20 301 819 90 50 0
196 20 108 633 90 0 19
197 -10 381 886 90 249 0
198 -20 705 1113 90 387 0
199 40 67 495 90 0 312
200 10 86 584 90 0 386
201 -10 588 1087 90 274 0
202 40 348 784 90 0 26
203 30 110 580 90 0 343
204 10 94 694 90 0 342
205 30 308 802 90 0 296
206 -20 527 979 90 325 0
207 30 111 669 90 0 135
208 20 440 855 90 0 120
209 10 97 513 90 0 233
210 20 21 576 90 0 11
211 20 113 653 90 0 257
212 20 524 949 90 0 165
213 10 163 666 90 0 240
214 20 90 577 90 0 384
215 10 103 561 90 0 248
216 -10 336 810 90 154 0
217 -30 94 589 90 335 0
218 -30 18 502 90 287 0
219 10 209 727 90 0 241
220 -10 479 915 90 256 0
221 30 494 1163 90 0 123
222 20 73 438 90 0 132
223 -20 100 441 90 116 0
224 -10 695 1178 90 111 0
225 -10 766 1353 90 401 0
226 -30 491 798 90 126 0
227 20 100 638 90 0 173
228 -20 714 1307 90 105 0
229 -10 755 1312 90 76 0
230 20 268 656 90 0 104
231 10 815 1160 90 0 42
232 10 86 676 90 0 261
233 -10 785 1271 90 209 0
234 -10 116 624 90 152 0
235 -10 821 1267 90 99 0
236 -30 169 557 90 349 0
237 20 102 543 90 0 12
238 -10 355 842 90 34 0
239 -20 436 871 90 286 0
240 -10 450 1027 90 213 0
241 -10 723 1309 90 219 0
242 -20 867 1223 90 29 0
243 20 457 1055 90 0 354
244 -10 429 860 90 158 0
245 -20 167 776 90 175 0
246 10 450 873 90 0 252
247 -10 569 885 90 313 0
248 -10 311 814 90 215 0
249 10 178 741 90 0 197
250 10 645 1140 90 0 21
251 -30 692 1199 90 346 0
252 -10 480 1007 90 246 0
253 20 87 487 0 0 403
254 -10 677 1170 90 57 0
255 -10 434 857 90 316 0
256 10 46 629 90 0 220
257 -20 379 946 90 211 0
258 -20 307 674 90 151 0
259 -10 762 1294 90 90 0
260 -10 638 1055 90 375 0
261 -10 407 1016 90 232 0
262 20 529 1135 90 0 294
263 20 98 578 90 0 9
264 -20 499 962 90 389 0
265 -20 544 1170 90 63 0
266 10 98 567 90 0 86
267 30 60 508 90 0 166
268 20 52 606 90 0 114
269 10 210 843 90 0 326
270 -30 30 664 90 344 0
271 30 124 418 90 0 121
272 20 119 640 90 0 49
273 20 144 768 90 0 377
274 10 166 753 90 0 201
275 20 120 789 90 0 371
276 -20 700 1146 90 62 0
277 -10 655 1196 90 364 0
278 30 261 713 90 0 369
279 -30 84 588 90 388 0
280 20 203 685 90 0 31
281 -20 50 544 90 302 0
282 -10 323 772 90 115 0
283 -10 392 906 90 118 0
284 20 724 1136 90 0 159
285 20 68 676 0 0 417
286 20 173 756 90 0 239
287 30 14 494 90 0 218
288 30 89 805 90 0 109
289 20 438 873 90 0 7
290 -10 647 1300 90 18 0
291 20 96 796 90 0 139
292 -20 90 669 90 376 0
293 10 97 557 90 0 356
294 -20 480 1004 90 262 0
295 20 521 955 90 0 4
296 -30 385 907 90 205 0
297 -10 113 800 90 360 0
298 20 562 971 90 0 330
299 30 90 500 90 0 74
300 -30 352 706 90 361 0
301 -20 362 808 90 8 0
302 20 48 418 90 0 281
303 -20 270 672 90 141 0
304 20 94 641 90 0 145
305 20 176 734 90 0 78
306 -30 476 767 90 98 0
307 -30 355 741 90 106 0
308 30 541 989 0 0 409
309 20 99 576 90 0 147
310 10 250 810 90 0 46
311 10 59 493 90 0 340
312 -40 713 1195 90 199 0
313 10 382 890 90 0 247
314 -20 750 1282 90 83 0
315 10 117 619 90 0 23
316 10 66 586 90 0 255
317 10 540 1129 90 0 143
318 -10 315 809 90 137 0
319 20 354 806 90 0 164
320 -10 386 850 90 189 0
321 -10 689 805 90 327 0
322 -20 539 914 90 91 0
323 30 81 539 90 0 56
324 -50 488 985 90 79 0
325 20 98 671 90 0 206
326 -10 378 785 90 269 0
327 10 101 505 90 0 321
328 -10 621 1247 90 75 0
329 30 191 733 90 0 178
330 -20 580 1136 90 298 0
331 -30 138 641 90 338 0
332 30 58 363 90 0 399
333 20 55 379 90 0 35
334 10 185 557 90 0 68
335 30 88 395 90 0 217
336 10 81 714 90 0 87
337 -20 439 896 90 153 0
338 30 116 719 90 0 331
339 -10 262 875 90 383 0
340 -10 62 549 90 311 0
341 -10 62 664 90 365 0
342 -10 324 785 90 204 0
343 -30 78 799 90 203 0
344 30 30 520 90 0 270
345 -20 471 908 90 350 0
346 30 565 942 90 0 251
347 -10 543 1077 90 382 0
348 -10 695 1144 90 396 0
349 30 86 805 90 0 236
350 20 438 756 90 0 345
351 10 332 782 0 0 404
352 10 244 640 90 0 64
353 -20 433 1050 90 110 0
354 -20 584 1109 90 243 0
355 -30 60 534 90 367 0
356 -10 162 590 90 293 0
357 -20 429 823 90 185 0
358 -10 94 488 90 103 0
359 20 96 584 0 0 415
360 10 411 688 90 0 297
361 30 60 430 90 0 300
362 30 150 573 90 0 3
363 10 93 647 90 0 32
364 10 420 884 90 0 277
365 10 61 677 90 0 341
366 20 137 601 90 0 188
367 30 23 716 90 0 355
368 -20 560 1042 90 67 0
369 -30 389 956 90 278 0
370 20 427 883 90 0 36
371 -20 174 550 90 275 0
372 10 87 546 90 0 66
373 10 702 1224 0 0 406
374 30 112 564 90 0 149
375 10 95 610 90 0 260
376 20 28 304 90 0 292
377 -20 740 1288 90 273 0
378 20 402 879 0 0 412
379 -10 333 899 90 168 0
380 -20 357 731 90 180 0
381 10 111 449 90 0 96
382 10 68 638 90 0 347
383 10 228 726 90 0 339
384 -20 528 950 90 214 0
385 -10 796 1238 90 177 0
386 -10 88 454 90 200 0
387 20 234 662 90 0 198
388 30 78 599 90 0 279
389 20 211 698 90 0 264
390 -10 137 444 90 182 0
391 -10 120 453 90 127 0
392 -10 647 1143 90 72 0
393 20 89 554 90 0 37
394 10 66 608 90 0 97
395 10 184 570 90 0 69
396 10 83 692 90 0 348
397 -30 433 911 90 33 0
398 20 89 487 90 0 43
399 -30 50 552 90 332 0
400 -30 574 924 90 17 0
401 10 174 684 90 0 225
402 -20 586 1043 90 108 0
403 -20 87 487 90 253 0
404 -10 332 782 90 351 0
405 -10 578 960 90 16 0
406 -10 702 1224 90 373 0
407 -10 91 578 90 73 0
408 -20 85 593 90 45 0
409 -30 541 989 90 308 0
410 -10 338 769 90 172 0
411 -10 75 497 90 55 0
412 -20 402 879 90 378 0
413 -20 759 1090 90 54 0
414 -10 47 759 90 30 0
415 -20 96 584 90 359 0
416 -20 377 863 90 80 0
417 -20 68 676 90 285 0
DEPOT_SECTION
1
-1
EOF
