NAME: lc1_4_1
TYPE: PDPTW
COMMENT: Li & Lim PDPTW benchmark converted from SINTEF format
DIMENSION: 423
VEHICLES: 100
CAPACITY: 200
EDGE_WEIGHT_TYPE: EUC_2D
NODE_COORD_SECTION
1 100 100
2 181 172
3 154 31
4 123 106
5 23 137
6 190 28
7 8 71
8 103 130
9 62 50
10 89 161
11 117 91
12 12 156
13 88 165
14 107 125
15 8 74
16 105 125
17 118 192
18 146 11
19 93 13
20 188 125
21 87 117
22 123 31
23 121 189
24 174 128
25 197 80
26 151 165
27 140 4
28 78 184
29 96 150
30 96 147
31 149 182
32 87 191
33 189 151
34 99 144
35 64 52
36 7 151
37 151 99
38 87 118
39 179 141
40 192 151
41 143 0
42 66 58
43 122 14
44 66 52
45 173 55
46 119 37
47 199 28
48 90 161
49 36 193
50 159 160
51 194 112
52 176 173
53 117 193
54 186 96
55 39 56
56 189 120
57 29 139
58 37 190
59 165 117
60 16 84
61 187 97
62 10 153
63 194 149
64 187 112
65 103 70
66 193 159
67 77 115
68 190 154
69 3 75
70 17 93
71 151 167
72 12 85
73 120 11
74 140 181
75 6 67
76 137 4
77 103 124
78 10 67
79 48 30
80 53 67
81 164 113
82 47 49
83 187 92
84 121 115
85 46 51
86 144 189
87 180 93
88 152 168
89 117 95
90 195 25
91 108 168
92 149 103
93 60 58
94 197 79
95 39 58
96 147 186
97 154 163
98 96 128
99 30 187
100 123 121
101 104 68
102 102 128
103 18 89
104 197 77
105 156 11
106 144 33
107 101 67
108 159 121
109 84 192
110 139 7
111 7 152
112 181 147
113 104 170
114 13 81
115 172 57
116 80 108
117 180 171
118 146 3
119 123 33
120 127 8
121 185 115
122 192 113
123 194 75
124 135 0
125 157 30
126 53 29
127 85 110
128 182 171
129 79 193
130 181 52
131 148 103
132 190 109
133 119 188
134 197 140
135 162 123
136 102 170
137 120 198
138 175 50
139 23 142
140 149 99
141 102 174
142 30 142
143 175 143
144 193 27
145 193 82
146 103 67
147 55 64
148 197 25
149 42 105
150 100 129
151 120 115
152 183 120
153 115 89
154 196 27
155 131 38
156 145 31
157 196 137
158 98 150
159 159 8
160 15 88
161 191 27
162 196 111
163 150 6
164 95 74
165 42 101
166 53 59
167 193 23
168 40 105
169 152 4
170 100 151
171 24 140
172 87 195
173 140 6
174 197 113
175 40 183
176 127 114
177 182 46
178 151 190
179 8 69
180 44 52
181 43 54
182 179 174
183 13 152
184 137 1
185 127 118
186 118 92
187 129 40
188 123 4
189 55 24
190 41 182
191 22 133
192 151 101
193 82 194
194 185 124
195 180 147
196 97 7
197 108 165
198 47 50
199 93 167
200 186 91
201 124 6
202 149 167
203 125 38
204 123 8
205 199 76
206 194 129
207 124 117
208 115 4
209 105 70
210 120 92
211 200 136
212 14 84
213 100 150
214 190 112
215 146 7
216 196 28
217 100 6
218 118 97
219 12 154
220 97 162
221 196 78
222 172 114
223 14 92
224 7 142
225 63 55
226 54 30
227 141 8
228 156 12
229 134 6
230 198 78
231 65 53
232 52 28
233 125 15
234 199 115
235 32 178
236 179 55
237 11 151
238 99 154
239 95 16
240 83 197
241 27 135
242 102 121
243 179 165
244 87 196
245 38 190
246 183 167
247 46 49
248 149 5
249 84 194
250 93 150
251 35 186
252 177 146
253 26 147
254 21 85
255 195 97
256 99 146
257 195 129
258 105 127
259 190 24
260 178 165
261 68 50
262 190 110
263 60 51
264 180 50
265 181 151
266 143 189
267 56 59
268 48 108
269 50 67
270 101 70
271 185 123
272 38 188
273 151 28
274 121 8
275 25 143
276 26 138
277 176 144
278 78 119
279 51 31
280 109 175
281 150 98
282 180 52
283 141 4
284 152 3
285 166 117
286 93 7
287 113 94
288 83 188
289 8 73
290 154 2
291 17 150
292 116 189
293 140 11
294 189 97
295 184 116
296 198 76
297 186 94
298 97 65
299 154 172
300 90 160
301 109 126
302 148 98
303 144 170
304 193 83
305 15 87
306 89 158
307 153 29
308 183 152
309 53 61
310 123 36
311 59 57
312 102 122
313 45 48
314 185 96
315 120 192
316 165 113
317 177 145
318 126 192
319 103 66
320 69 47
321 150 3
322 110 164
323 178 123
324 53 31
325 193 131
326 83 118
327 145 9
328 12 69
329 145 189
330 97 67
331 193 28
332 79 115
333 63 58
334 187 142
335 99 12
336 181 89
337 111 93
338 192 28
339 198 132
340 57 54
341 39 112
342 118 5
343 122 37
344 100 70
345 150 103
346 28 193
347 121 36
348 152 31
349 175 57
350 149 101
351 140 3
352 165 116
353 143 5
354 153 160
355 121 116
356 147 6
357 162 118
358 12 66
359 98 4
360 189 95
361 91 160
362 147 26
363 85 192
364 178 147
365 40 113
366 122 8
367 119 113
368 45 104
369 84 118
370 8 154
371 25 146
372 178 140
373 146 103
374 40 108
375 183 148
376 99 128
377 151 35
378 154 27
379 42 102
380 45 46
381 144 190
382 129 38
383 199 132
384 193 111
385 172 51
386 188 88
387 40 49
388 52 38
389 178 54
390 181 175
391 41 187
392 49 104
393 150 99
394 106 166
395 5 73
396 148 32
397 182 154
398 116 12
399 78 115
400 121 188
401 61 50
402 37 190
403 176 173
404 192 151
405 134 6
406 11 151
407 91 160
408 120 198
409 82 194
410 175 57
411 178 140
412 103 130
413 153 160
414 39 56
415 108 168
416 172 114
417 60 51
418 53 67
419 146 103
420 101 67
421 123 106
422 154 31
423 97 7
PICKUP_AND_DELIVERY_SECTION
1 0 0 1501 0 0 0
2 10 348 419 90 0 260
3 10 795 860 0 0 422
4 20 747 797 0 0 421
5 -20 703 763 90 171 0
6 20 115 177 90 0 148
7 -10 713 783 90 395 0
8 20 369 426 0 0 412
9 20 486 555 90 0 261
10 10 309 385 90 0 306
11 20 446 513 90 0 153
12 30 540 580 90 0 241
13 30 220 286 90 0 48
14 10 657 697 90 0 16
15 -10 535 595 90 75 0
16 -10 746 793 90 14 0
17 -30 243 309 90 53 0
18 10 100 160 90 0 290
19 -30 525 595 90 335 0
20 10 426 484 90 0 121
21 -30 832 881 90 332 0
22 20 682 748 90 0 46
23 -30 628 688 90 292 0
24 20 79 140 90 0 277
25 10 248 313 90 0 296
26 10 630 688 90 0 97
27 -20 428 505 90 110 0
28 -30 993 1055 90 244 0
29 -10 765 834 90 170 0
30 -10 188 271 90 256 0
31 -20 724 773 90 74 0
32 10 152 218 90 0 363
33 30 159 227 90 0 66
34 10 44 102 90 0 158
35 -10 865 926 90 226 0
36 -20 808 867 90 370 0
37 10 377 448 90 0 345
38 -10 743 789 90 399 0
39 20 251 296 90 0 112
40 10 348 413 0 0 404
41 -10 809 863 90 293 0
42 -10 1145 1203 90 311 0
43 -20 1087 1155 90 120 0
44 -20 780 828 90 333 0
45 20 150 203 90 0 389
46 -20 874 931 90 22 0
47 20 637 695 90 0 90
48 -30 404 472 90 13 0
49 -10 633 678 90 245 0
50 20 84 140 90 0 88
51 -30 613 683 90 162 0
52 20 105 168 0 0 403
53 30 151 219 90 0 17
54 -20 895 955 90 297 0
55 10 129 204 0 0 414
56 -30 522 578 90 323 0
57 10 81 135 90 0 139
58 10 528 598 0 0 402
59 -20 513 553 90 81 0
60 20 805 852 90 0 254
61 -20 811 857 90 386 0
62 -20 348 404 90 291 0
63 -10 254 321 90 375 0
64 30 87 137 90 0 384
65 10 176 250 90 0 319
66 -30 544 597 90 33 0
67 20 359 425 90 0 278
68 30 443 506 90 0 397
69 10 445 494 90 0 289
70 20 152 202 90 0 114
71 10 337 410 90 0 303
72 -10 517 580 90 160 0
73 10 143 224 90 0 342
74 20 90 140 90 0 31
75 10 251 310 90 0 15
76 -20 1091 1146 90 283 0
77 -20 821 901 90 280 0
78 -20 150 224 90 358 0
79 50 239 299 90 0 189
80 20 590 650 0 0 418
81 20 65 119 90 0 59
82 -20 787 849 90 180 0
83 20 337 391 90 0 255
84 20 178 234 90 0 176
85 -10 969 1031 90 313 0
86 30 341 402 90 0 329
87 -30 1072 1151 90 314 0
88 -20 260 303 90 50 0
89 10 68 149 90 0 186
90 -20 906 982 90 47 0
91 20 512 569 0 0 415
92 20 753 808 90 0 131
93 20 58 102 90 0 166
94 -10 333 409 90 145 0
95 30 74 131 90 0 181
96 -10 625 683 90 266 0
97 -10 714 792 90 26 0
98 30 28 89 90 0 301
99 10 817 884 90 0 251
100 20 456 513 90 0 185
101 10 364 430 90 0 146
102 -20 281 328 90 376 0
103 10 82 136 90 0 305
104 20 709 766 90 0 221
105 -10 1190 1240 90 159 0
106 30 80 129 90 0 396
107 20 641 702 0 0 420
108 -10 786 843 90 352 0
109 10 342 393 90 0 249
110 20 242 323 90 0 27
111 -10 715 779 90 219 0
112 -20 445 493 90 39 0
113 20 140 182 90 0 141
114 -20 610 676 90 70 0
115 10 83 140 90 0 385
116 20 86 140 90 0 369
117 20 452 498 90 0 243
118 10 439 500 90 0 284
119 -20 586 660 90 187 0
120 20 904 958 90 0 43
121 -10 618 675 90 20 0
122 20 248 299 90 0 132
123 -30 892 952 90 205 0
124 -20 988 1060 90 227 0
125 -20 709 761 90 273 0
126 -20 513 593 90 279 0
127 10 18 73 90 0 326
128 30 548 587 90 0 246
129 -20 892 956 90 240 0
130 10 603 674 90 0 264
131 -20 835 908 90 92 0
132 -20 892 955 90 122 0
133 -20 807 875 90 400 0
134 10 250 326 90 0 339
135 -20 693 749 90 285 0
136 -10 216 290 90 394 0
137 10 427 501 0 0 408
138 -30 896 951 90 236 0
139 -10 522 573 90 57 0
140 -20 112 167 90 302 0
141 -20 310 383 90 113 0
142 10 146 202 90 0 253
143 -10 988 1047 90 195 0
144 -30 449 512 90 338 0
145 10 148 223 90 0 94
146 -10 463 515 90 101 0
147 -20 398 463 90 309 0
148 -20 732 788 90 6 0
149 -10 494 552 90 365 0
150 30 180 245 90 0 258
151 -30 80 151 90 367 0
152 10 152 202 90 0 295
153 -20 554 591 90 11 0
154 10 822 882 90 0 167
155 20 124 194 90 0 310
156 20 143 201 90 0 378
157 20 166 223 90 0 206
158 -10 295 350 90 34 0
159 10 1095 1146 90 0 105
160 10 335 394 90 0 72
161 10 174 239 90 0 216
162 30 522 589 90 0 51
163 -10 623 686 90 327 0
164 -10 928 983 90 209 0
165 10 682 732 90 0 392
166 -20 221 270 90 93 0
167 -10 1008 1067 90 154 0
168 10 396 465 90 0 379
169 -10 813 865 90 248 0
170 10 476 536 90 0 29
171 20 609 670 90 0 5
172 -30 525 581 90 288 0
173 30 347 401 90 0 351
174 -20 435 491 90 214 0
175 20 168 216 90 0 272
176 -20 638 710 90 84 0
177 -10 799 851 90 282 0
178 -10 523 593 90 381 0
179 20 808 872 90 0 328
180 20 316 389 90 0 82
181 -30 236 285 90 95 0
182 10 165 233 90 0 390
183 20 157 225 90 0 224
184 -10 913 952 90 353 0
185 -20 555 604 90 100 0
186 -10 365 412 90 89 0
187 20 66 154 90 0 119
188 10 717 774 90 0 201
189 -50 442 475 90 79 0
190 30 101 166 90 0 391
191 -30 796 858 90 371 0
192 -20 472 538 90 393 0
193 10 798 865 0 0 409
194 -30 332 392 90 271 0
195 10 533 587 90 0 143
196 20 340 400 0 0 423
197 10 603 665 90 0 312
198 -20 891 928 90 387 0
199 40 135 181 90 0 300
200 -10 242 303 90 336 0
201 -10 803 872 90 188 0
202 -30 537 595 90 299 0
203 30 319 371 90 0 347
204 10 252 304 90 0 233
205 30 516 593 90 0 123
206 -20 714 793 90 157 0
207 -10 356 425 90 355 0
208 -20 617 677 90 366 0
209 10 278 333 90 0 164
210 -20 274 318 90 218 0
211 20 361 405 90 0 383
212 -30 704 768 90 223 0
213 10 384 445 90 0 238
214 20 148 213 90 0 174
215 10 265 304 90 0 228
216 -10 540 607 90 161 0
217 30 141 227 90 0 330
218 20 169 232 90 0 210
219 10 433 503 90 0 111
220 10 672 723 90 0 250
221 -20 802 854 90 104 0
222 20 229 278 0 0 416
223 30 251 290 90 0 212
224 -20 914 960 90 183 0
225 -30 1046 1115 90 388 0
226 10 612 678 90 0 35
227 20 160 222 90 0 124
228 -10 1247 1307 90 215 0
229 20 1186 1238 0 0 405
230 -20 432 493 90 304 0
231 -10 951 1023 90 320 0
232 10 328 399 90 0 324
233 -10 997 1060 90 204 0
234 20 336 404 90 0 262
235 -30 1002 1085 90 346 0
236 30 337 389 90 0 138
237 20 260 307 0 0 406
238 -10 575 622 90 213 0
239 20 619 689 90 0 298
240 20 703 774 90 0 129
241 -30 983 1049 90 12 0
242 -20 1016 1074 90 322 0
243 -20 729 783 90 117 0
244 30 616 673 90 0 28
245 10 435 508 90 0 49
246 -30 629 694 90 128 0
247 -20 695 759 90 380 0
248 10 535 591 90 0 169
249 -10 437 483 90 109 0
250 -10 862 922 90 220 0
251 -10 920 971 90 99 0
252 -10 719 768 90 334 0
253 -10 246 296 90 142 0
254 -20 899 947 90 60 0
255 -20 623 668 90 83 0
256 10 108 165 90 0 30
257 -20 635 689 90 325 0
258 -30 460 521 90 150 0
259 -20 1099 1161 90 331 0
260 -10 811 883 90 2 0
261 -20 681 741 90 9 0
262 -20 798 866 90 234 0
263 20 305 371 0 0 417
264 -10 699 763 90 130 0
265 -30 829 885 90 308 0
266 10 153 224 90 0 96
267 30 125 179 90 0 269
268 20 52 106 90 0 368
269 -30 497 556 90 267 0
270 -30 97 146 90 344 0
271 30 247 295 90 0 194
272 -20 351 409 90 175 0
273 20 428 484 90 0 125
274 -20 431 488 90 398 0
275 20 423 486 90 0 276
276 -20 886 960 90 275 0
277 -20 893 958 90 24 0
278 -20 458 515 90 67 0
279 20 141 210 90 0 126
280 20 411 477 90 0 77
281 10 207 254 90 0 350
282 10 526 570 90 0 177
283 20 615 683 90 0 76
284 -10 894 966 90 118 0
285 20 318 382 90 0 135
286 -20 431 497 90 359 0
287 30 14 74 90 0 337
288 30 89 141 90 0 172
289 -10 632 680 90 69 0
290 -10 993 1053 90 18 0
291 20 96 163 90 0 62
292 30 90 153 90 0 23
293 10 97 139 90 0 41
294 -10 715 768 90 360 0
295 -10 711 764 90 152 0
296 -10 619 672 90 25 0
297 20 433 479 90 0 54
298 -20 735 797 90 239 0
299 30 159 215 90 0 202
300 -40 495 564 90 199 0
301 -30 566 604 90 98 0
302 20 48 123 90 0 140
303 -10 436 505 90 71 0
304 20 94 156 90 0 230
305 -10 430 481 90 103 0
306 -10 601 642 90 10 0
307 -30 526 571 90 362 0
308 30 730 800 90 0 265
309 20 311 364 90 0 147
310 -20 501 560 90 155 0
311 10 116 185 90 0 42
312 -10 920 988 90 197 0
313 10 598 674 90 0 85
314 30 981 1050 90 0 87
315 10 335 401 90 0 318
316 10 125 187 90 0 357
317 -10 800 868 90 364 0
318 -10 536 588 90 315 0
319 -10 541 618 90 65 0
320 10 585 650 90 0 231
321 -10 724 771 90 356 0
322 20 688 764 90 0 242
323 30 81 166 90 0 56
324 -10 703 769 90 232 0
325 20 98 164 90 0 257
326 -10 550 614 90 127 0
327 10 161 224 90 0 163
328 -20 902 965 90 179 0
329 -30 437 488 90 86 0
330 -30 822 894 90 217 0
331 20 369 410 90 0 259
332 30 187 234 90 0 21
333 20 55 111 90 0 44
334 10 343 399 90 0 252
335 30 88 125 90 0 19
336 10 81 151 90 0 200
337 -30 636 699 90 287 0
338 30 263 333 90 0 144
339 -10 540 597 90 134 0
340 20 213 275 90 0 401
341 20 213 273 90 0 374
342 -10 522 586 90 73 0
343 -10 410 467 90 382 0
344 30 30 75 90 0 270
345 -10 659 719 90 37 0
346 30 727 781 90 0 235
347 -30 785 836 90 203 0
348 10 885 954 90 0 377
349 30 237 301 0 0 410
350 -10 560 633 90 281 0
351 -30 526 589 90 173 0
352 10 421 462 90 0 108
353 10 711 772 90 0 184
354 40 819 873 0 0 413
355 10 266 328 90 0 207
356 10 351 401 90 0 321
357 -10 595 656 90 316 0
358 20 94 159 90 0 78
359 20 237 316 90 0 286
360 10 517 581 90 0 294
361 30 60 107 0 0 407
362 30 325 398 90 0 307
363 -10 245 308 90 32 0
364 10 630 675 90 0 317
365 10 120 185 90 0 149
366 20 344 393 90 0 208
367 30 23 77 90 0 151
368 -20 770 832 90 268 0
369 -20 642 703 90 116 0
370 20 629 681 90 0 36
371 30 337 386 90 0 191
372 10 147 217 0 0 411
373 10 938 988 0 0 419
374 -20 309 367 90 341 0
375 10 95 158 90 0 63
376 20 87 155 90 0 102
377 -10 988 1040 90 348 0
378 -20 607 675 90 156 0
379 -10 585 647 90 168 0
380 20 506 582 90 0 247
381 10 255 306 90 0 178
382 10 223 280 90 0 343
383 -20 446 509 90 211 0
384 -30 708 771 90 64 0
385 -10 983 1051 90 115 0
386 20 154 203 90 0 61
387 20 413 482 90 0 198
388 30 78 138 90 0 225
389 -20 429 480 90 45 0
390 -10 262 320 90 182 0
391 -30 262 311 90 190 0
392 -10 862 928 90 165 0
393 20 300 344 90 0 192
394 10 66 114 90 0 136
395 10 342 412 90 0 7
396 -30 228 304 90 106 0
397 -30 645 699 90 68 0
398 20 89 155 90 0 274
399 10 278 325 90 0 38
400 20 723 775 90 0 133
401 -20 397 462 90 340 0
402 -10 528 598 90 58 0
403 -20 105 168 90 52 0
404 -10 348 413 90 40 0
405 -20 1186 1238 90 229 0
406 -20 260 307 90 237 0
407 -30 60 107 90 361 0
408 -10 427 501 90 137 0
409 -10 798 865 90 193 0
410 -30 237 301 90 349 0
411 -10 147 217 90 372 0
412 -20 369 426 90 8 0
413 -40 819 873 90 354 0
414 -10 129 204 90 55 0
415 -20 512 569 90 91 0
416 -20 229 278 90 222 0
417 -20 305 371 90 263 0
418 -20 590 650 90 80 0
419 -10 938 988 90 373 0
420 -20 641 702 90 107 0
421 -20 747 797 90 4 0
422 -10 795 860 90 3 0
423 -20 340 400 90 196 0
DEPOT_SECTION
1
-1
EOF
