NAME: lc1_4_6
TYPE: PDPTW
COMMENT: Li & Lim PDPTW benchmark converted from SINTEF format
DIMENSION: 423
VEHICLES: 100
CAPACITY: 200
EDGE_WEIGHT_TYPE: EUC_2D
NODE_COORD_SECTION
1 100 100
2 181 172
3 154 31
4 123 106
5 23 137
6 190 28
7 8 71
8 103 130
9 62 50
10 89 161
11 117 91
12 12 156
13 88 165
14 107 125
15 8 74
16 105 125
17 118 192
18 146 11
19 93 13
20 188 125
21 87 117
22 123 31
23 121 189
24 174 128
25 197 80
26 151 165
27 140 4
28 78 184
29 96 150
30 96 147
31 149 182
32 87 191
33 189 151
34 99 144
35 64 52
36 7 151
37 151 99
38 87 118
39 179 141
40 192 151
41 143 0
42 66 58
43 122 14
44 66 52
45 173 55
46 119 37
47 199 28
48 90 161
49 36 193
50 159 160
51 194 112
52 176 173
53 117 193
54 186 96
55 39 56
56 189 120
57 29 139
58 37 190
59 165 117
60 16 84
61 187 97
62 10 153
63 194 149
64 187 112
65 103 70
66 193 159
67 77 115
68 190 154
69 3 75
70 17 93
71 151 167
72 12 85
73 120 11
74 140 181
75 6 67
76 137 4
77 103 124
78 10 67
79 48 30
80 53 67
81 164 113
82 47 49
83 187 92
84 121 115
85 46 51
86 144 189
87 180 93
88 152 168
89 117 95
90 195 25
91 108 168
92 149 103
93 60 58
94 197 79
95 39 58
96 147 186
97 154 163
98 96 128
99 30 187
100 123 121
101 104 68
102 102 128
103 18 89
104 197 77
105 156 11
106 144 33
107 101 67
108 159 121
109 84 192
110 139 7
111 7 152
112 181 147
113 104 170
114 13 81
115 172 57
116 80 108
117 180 171
118 146 3
119 123 33
120 127 8
121 185 115
122 192 113
123 194 75
124 135 0
125 157 30
126 53 29
127 85 110
128 182 171
129 79 193
130 181 52
131 148 103
132 190 109
133 119 188
134 197 140
135 162 123
136 102 170
137 120 198
138 175 50
139 23 142
140 149 99
141 102 174
142 30 142
143 175 143
144 193 27
145 193 82
146 103 67
147 55 64
148 197 25
149 42 105
150 100 129
151 120 115
152 183 120
153 115 89
154 196 27
155 131 38
156 145 31
157 196 137
158 98 150
159 159 8
160 15 88
161 191 27
162 196 111
163 150 6
164 95 74
165 42 101
166 53 59
167 193 23
168 40 105
169 152 4
170 100 151
171 24 140
172 87 195
173 140 6
174 197 113
175 40 183
176 127 114
177 182 46
178 151 190
179 8 69
180 44 52
181 43 54
182 179 174
183 13 152
184 137 1
185 127 118
186 118 92
187 129 40
188 123 4
189 55 24
190 41 182
191 22 133
192 151 101
193 82 194
194 185 124
195 180 147
196 97 7
197 108 165
198 47 50
199 93 167
200 186 91
201 124 6
202 149 167
203 125 38
204 123 8
205 199 76
206 194 129
207 124 117
208 115 4
209 105 70
210 120 92
211 200 136
212 14 84
213 100 150
214 190 112
215 146 7
216 196 28
217 100 6
218 118 97
219 12 154
220 97 162
221 196 78
222 172 114
223 14 92
224 7 142
225 63 55
226 54 30
227 141 8
228 156 12
229 134 6
230 198 78
231 65 53
232 52 28
233 125 15
234 199 115
235 32 178
236 179 55
237 11 151
238 99 154
239 95 16
240 83 197
241 27 135
242 102 121
243 179 165
244 87 196
245 38 190
246 183 167
247 46 49
248 149 5
249 84 194
250 93 150
251 35 186
252 177 146
253 26 147
254 21 85
255 195 97
256 99 146
257 195 129
258 105 127
259 190 24
260 178 165
261 68 50
262 190 110
263 60 51
264 180 50
265 181 151
266 143 189
267 56 59
268 48 108
269 50 67
270 101 70
271 185 123
272 38 188
273 151 28
274 121 8
275 25 143
276 26 138
277 176 144
278 78 119
279 51 31
280 109 175
281 150 98
282 180 52
283 141 4
284 152 3
285 166 117
286 93 7
287 113 94
288 83 188
289 8 73
290 154 2
291 17 150
292 116 189
293 140 11
294 189 97
295 184 116
296 198 76
297 186 94
298 97 65
299 154 172
300 90 160
301 109 126
302 148 98
303 144 170
304 193 83
305 15 87
306 89 158
307 153 29
308 183 152
309 53 61
310 123 36
311 59 57
312 102 122
313 45 48
314 185 96
315 120 192
316 165 113
317 177 145
318 126 192
319 103 66
320 69 47
321 150 3
322 110 164
323 178 123
324 53 31
325 193 131
326 83 118
327 145 9
328 12 69
329 145 189
330 97 67
331 193 28
332 79 115
333 63 58
334 187 142
335 99 12
336 181 89
337 111 93
338 192 28
339 198 132
340 57 54
341 39 112
342 118 5
343 122 37
344 100 70
345 150 103
346 28 193
347 121 36
348 152 31
349 175 57
350 149 101
351 140 3
352 165 116
353 143 5
354 153 160
355 121 116
356 147 6
357 162 118
358 12 66
359 98 4
360 189 95
361 91 160
362 147 26
363 85 192
364 178 147
365 40 113
366 122 8
367 119 113
368 45 104
369 84 118
370 8 154
371 25 146
372 178 140
373 146 103
374 40 108
375 183 148
376 99 128
377 151 35
378 154 27
379 42 102
380 45 46
381 144 190
382 129 38
383 199 132
384 193 111
385 172 51
386 188 88
387 40 49
388 52 38
389 178 54
390 181 175
391 41 187
392 49 104
393 150 99
394 106 166
395 5 73
396 148 32
397 182 154
398 116 12
399 78 115
400 121 188
401 61 50
402 28 193
403 182 154
404 12 156
405 181 175
406 123 106
407 56 59
408 119 188
409 79 193
410 175 57
411 149 103
412 100 6
413 176 144
414 151 35
415 102 170
416 47 50
417 162 118
418 109 126
419 60 51
420 143 5
421 100 150
422 153 160
423 100 70
PICKUP_AND_DELIVERY_SECTION
1 0 0 1501 0 0 0
2 -20 290 478 90 52 0
3 -20 727 929 90 273 0
4 20 706 839 0 0 406
5 20 667 799 90 0 191
6 20 115 450 90 0 90
7 -20 654 841 90 358 0
8 -20 292 502 90 376 0
9 -10 489 552 90 401 0
10 -30 285 409 90 361 0
11 -30 388 571 90 287 0
12 30 485 636 0 0 404
13 -40 226 281 90 199 0
14 -10 618 736 90 258 0
15 -10 514 616 90 69 0
16 -20 655 884 90 102 0
17 30 178 373 90 0 137
18 10 100 185 90 0 356
19 30 500 620 90 0 239
20 -10 369 540 90 194 0
21 -10 792 921 90 38 0
22 -10 604 827 90 310 0
23 -10 537 780 90 318 0
24 20 79 89 90 0 195
25 -10 276 285 90 145 0
26 10 506 813 90 0 97
27 10 429 504 90 0 41
28 -20 905 1143 90 240 0
29 -10 650 949 90 220 0
30 -10 120 339 90 256 0
31 -40 745 752 90 178 0
32 10 129 240 90 0 244
33 30 105 281 90 0 308
34 10 44 227 90 0 158
35 20 814 978 90 0 225
36 20 694 982 90 0 224
37 10 299 527 90 0 192
38 10 643 888 90 0 21
39 20 244 303 90 0 143
40 10 311 451 90 0 68
41 -10 809 864 90 27 0
42 -20 1114 1234 90 333 0
43 -20 1073 1169 90 366 0
44 -10 695 912 90 261 0
45 20 95 257 90 0 389
46 -30 801 1004 90 203 0
47 -20 659 673 90 216 0
48 10 337 539 90 0 250
49 20 570 741 90 0 251
50 20 84 355 90 0 299
51 -20 615 681 90 174 0
52 20 105 130 90 0 2
53 30 172 198 90 0 400
54 -20 819 1030 90 294 0
55 10 75 292 90 0 180
56 -30 532 568 90 323 0
57 10 81 266 90 0 275
58 -20 496 630 90 272 0
59 -10 451 614 90 316 0
60 -20 758 899 90 212 0
61 -20 769 898 90 255 0
62 -20 262 490 90 291 0
63 20 122 453 90 0 265
64 30 87 324 90 0 234
65 10 133 294 90 0 319
66 -10 477 663 90 375 0
67 -30 294 490 90 332 0
68 -10 409 540 90 40 0
69 10 400 538 90 0 15
70 20 107 246 90 0 254
71 10 284 463 90 0 303
72 -30 420 678 90 223 0
73 10 163 204 90 0 120
74 20 90 249 90 0 381
75 10 149 413 90 0 328
76 -10 1037 1200 90 124 0
77 -20 792 931 90 322 0
78 30 95 366 90 0 395
79 50 172 366 90 0 189
80 -20 521 718 90 309 0
81 20 65 209 90 0 352
82 20 759 877 90 0 85
83 20 336 391 90 0 360
84 20 204 209 90 0 100
85 -20 881 1119 90 82 0
86 30 229 514 90 0 96
87 -20 937 1287 90 297 0
88 20 202 362 90 0 202
89 10 17 228 90 0 210
90 -20 939 949 90 6 0
91 -10 461 620 90 394 0
92 20 696 864 0 0 411
93 20 58 230 90 0 269
94 10 258 484 90 0 205
95 30 74 178 90 0 181
96 -30 558 751 90 86 0
97 -10 727 779 90 26 0
98 30 28 173 90 0 150
99 -20 754 946 90 391 0
100 -20 470 500 90 84 0
101 10 327 467 90 0 146
102 20 191 419 90 0 16
103 10 82 220 90 0 114
104 -10 693 782 90 296 0
105 -20 1098 1306 90 284 0
106 30 80 189 90 0 125
107 20 581 763 90 0 164
108 -40 722 906 90 135 0
109 10 313 422 90 0 172
110 -20 156 410 90 227 0
111 -20 720 773 90 237 0
112 20 452 487 90 0 317
113 20 70 406 90 0 312
114 -10 526 760 90 103 0
115 10 83 124 90 0 236
116 20 29 197 90 0 399
117 20 394 557 90 0 260
118 10 437 502 90 0 321
119 20 458 788 90 0 347
120 -10 840 1023 90 73 0
121 -10 588 705 90 152 0
122 20 214 333 90 0 132
123 -30 908 936 90 221 0
124 10 947 1101 90 0 76
125 -30 660 809 90 106 0
126 30 548 558 90 0 226
127 10 18 111 90 0 326
128 30 443 691 90 0 243
129 30 822 1026 0 0 409
130 -10 598 679 90 282 0
131 -20 838 905 90 345 0
132 -20 858 989 90 122 0
133 20 794 888 0 0 408
134 10 166 409 90 0 257
135 40 713 728 90 0 108
136 40 144 361 0 0 415
137 -30 330 597 90 17 0
138 -20 885 961 90 264 0
139 -30 469 625 90 371 0
140 20 49 236 90 0 281
141 20 244 449 90 0 280
142 10 81 369 90 0 171
143 -20 906 1129 90 39 0
144 10 395 566 90 0 154
145 10 107 264 90 0 25
146 -10 406 572 90 101 0
147 -20 377 484 90 166 0
148 -20 640 880 90 331 0
149 20 366 680 90 0 368
150 -30 76 349 90 98 0
151 -30 25 213 90 367 0
152 10 85 332 90 0 121
153 20 410 734 90 0 337
154 -10 741 964 90 144 0
155 20 69 296 90 0 382
156 20 113 232 90 0 396
157 20 151 238 90 0 211
158 -10 257 388 90 34 0
159 -20 1071 1171 90 169 0
160 10 313 416 90 0 305
161 10 116 352 90 0 338
162 -20 523 587 90 214 0
163 -10 588 721 90 248 0
164 -20 884 1028 90 107 0
165 10 675 738 90 0 392
166 20 180 311 90 0 147
167 20 965 1110 90 0 259
168 -20 342 520 90 341 0
169 20 740 939 90 0 159
170 10 396 616 90 0 238
171 -10 544 734 90 142 0
172 -10 400 706 90 109 0
173 30 299 449 90 0 351
174 20 396 530 90 0 51
175 -30 167 218 90 190 0
176 -20 629 718 90 185 0
177 10 637 1014 90 0 385
178 40 530 586 90 0 31
179 -20 780 900 90 289 0
180 -10 257 448 90 55 0
181 -30 207 315 90 95 0
182 10 108 290 90 0 246
183 20 172 211 90 0 370
184 10 885 980 90 0 229
185 20 416 743 90 0 176
186 -20 317 460 90 218 0
187 20 66 367 90 0 343
188 -10 655 835 90 274 0
189 -50 409 508 90 79 0
190 30 101 167 90 0 175
191 -20 747 907 90 5 0
192 -10 402 608 90 37 0
193 -10 678 985 90 249 0
194 10 216 508 90 0 20
195 -20 467 654 90 24 0
196 -30 349 392 90 335 0
197 10 506 761 90 0 242
198 10 812 1006 0 0 416
199 40 67 327 90 0 13
200 10 249 296 90 0 314
201 20 788 886 90 0 233
202 -20 467 665 90 88 0
203 30 217 474 90 0 46
204 -20 132 423 90 398 0
205 -10 482 627 90 94 0
206 -10 660 846 90 339 0
207 -10 311 470 90 355 0
208 -20 606 689 90 342 0
209 -20 230 381 90 270 0
210 -10 229 363 90 89 0
211 -20 346 419 90 157 0
212 20 676 796 90 0 60
213 10 338 492 0 0 421
214 20 90 349 90 0 162
215 10 278 291 90 0 290
216 20 507 639 90 0 47
217 30 103 265 0 0 412
218 20 146 255 90 0 186
219 10 357 579 90 0 241
220 10 683 711 90 0 29
221 30 721 936 90 0 123
222 20 192 315 90 0 285
223 30 210 330 90 0 72
224 -20 865 1008 90 36 0
225 -20 940 1221 90 35 0
226 -30 582 708 90 126 0
227 20 100 288 90 0 110
228 -10 1158 1307 90 327 0
229 -10 1029 1312 90 184 0
230 -20 309 615 90 304 0
231 -10 906 1069 90 311 0
232 -20 289 438 90 279 0
233 -20 926 1131 90 201 0
234 -30 305 436 90 64 0
235 -10 1002 1086 90 245 0
236 -10 235 492 90 115 0
237 20 233 335 90 0 111
238 -10 445 752 90 170 0
239 -30 529 779 90 19 0
240 20 676 801 90 0 28
241 -10 944 1088 90 219 0
242 -10 896 1194 90 197 0
243 -30 684 828 90 128 0
244 -10 523 766 90 32 0
245 10 416 528 90 0 235
246 -10 626 696 90 182 0
247 -10 693 762 90 313 0
248 10 454 672 90 0 163
249 10 395 524 90 0 193
250 -10 889 895 90 48 0
251 -20 799 1091 90 49 0
252 -10 665 822 90 372 0
253 20 166 376 90 0 276
254 -20 867 980 90 70 0
255 20 611 681 90 0 61
256 10 46 261 90 0 30
257 -10 570 755 90 134 0
258 10 456 525 90 0 14
259 -20 1011 1249 90 167 0
260 -20 694 999 90 117 0
261 10 636 786 90 0 44
262 -20 761 904 90 384 0
263 20 281 395 0 0 419
264 20 667 794 90 0 138
265 -20 776 937 90 63 0
266 10 98 340 90 0 329
267 30 60 412 0 0 407
268 20 52 62 90 0 374
269 -20 435 619 90 93 0
270 20 30 338 90 0 209
271 30 254 287 90 0 295
272 20 245 514 90 0 58
273 20 336 576 90 0 3
274 10 360 560 90 0 188
275 -10 301 609 90 57 0
276 -20 820 1027 90 253 0
277 20 768 1084 0 0 413
278 30 333 640 90 0 369
279 20 85 266 90 0 232
280 -20 418 470 90 141 0
281 -20 166 296 90 140 0
282 10 437 659 90 0 130
283 -10 623 674 90 293 0
284 20 880 981 90 0 105
285 -20 258 442 90 222 0
286 20 380 549 90 0 298
287 30 14 166 90 0 11
288 30 89 266 90 0 363
289 20 621 690 90 0 179
290 -10 893 1153 90 215 0
291 20 96 178 90 0 62
292 30 90 96 90 0 315
293 10 97 191 90 0 283
294 20 686 798 90 0 54
295 -30 630 845 90 271 0
296 10 616 675 90 0 104
297 20 395 518 90 0 87
298 -20 689 843 90 286 0
299 -20 90 336 90 50 0
300 20 424 635 90 0 306
301 10 490 679 0 0 418
302 20 48 195 90 0 393
303 -10 456 485 90 71 0
304 20 94 246 90 0 230
305 -10 423 488 90 160 0
306 -20 532 712 90 300 0
307 20 497 599 90 0 378
308 -30 703 826 90 33 0
309 20 254 421 90 0 80
310 10 396 665 90 0 22
311 10 60 241 90 0 231
312 -20 872 1035 90 113 0
313 10 576 696 90 0 247
314 -10 916 1115 90 200 0
315 -30 306 430 90 292 0
316 10 91 222 90 0 59
317 -20 718 951 90 112 0
318 10 559 565 90 0 23
319 -10 439 720 90 65 0
320 -20 517 718 90 340 0
321 -10 670 824 90 118 0
322 20 633 820 90 0 77
323 30 81 274 90 0 56
324 -30 680 792 90 388 0
325 20 98 195 90 0 383
326 -10 548 616 90 127 0
327 10 130 255 90 0 228
328 -10 873 994 90 75 0
329 -10 389 536 90 266 0
330 -20 818 898 90 359 0
331 20 306 473 90 0 148
332 30 125 295 90 0 67
333 20 55 220 90 0 42
334 10 255 487 90 0 364
335 30 88 194 90 0 196
336 10 81 212 90 0 386
337 -20 600 736 90 153 0
338 -10 244 353 90 161 0
339 10 459 677 90 0 206
340 20 222 266 90 0 320
341 20 149 338 90 0 168
342 20 436 672 90 0 208
343 -20 337 541 90 187 0
344 30 30 208 0 0 423
345 20 652 726 90 0 131
346 30 704 803 0 0 402
347 -20 689 931 90 119 0
348 -30 846 994 90 362 0
349 30 214 323 0 0 410
350 20 576 618 90 0 373
351 -30 427 687 90 173 0
352 -20 408 476 90 81 0
353 10 659 823 0 0 420
354 40 806 887 0 0 422
355 10 215 380 90 0 207
356 -10 299 454 90 18 0
357 20 587 664 0 0 417
358 20 94 177 90 0 7
359 20 239 315 90 0 330
360 -20 487 611 90 83 0
361 30 60 196 90 0 10
362 30 231 493 90 0 348
363 -30 192 362 90 288 0
364 -10 550 755 90 334 0
365 10 93 211 90 0 379
366 20 361 376 90 0 43
367 30 23 85 90 0 151
368 -20 669 932 90 149 0
369 -30 567 779 90 278 0
370 -20 619 691 90 183 0
371 30 336 387 90 0 139
372 10 123 241 90 0 252
373 -20 898 1029 90 350 0
374 -20 273 403 90 268 0
375 10 95 148 90 0 66
376 20 95 148 90 0 8
377 20 986 1042 0 0 414
378 -20 587 695 90 307 0
379 -10 515 716 90 365 0
380 -20 497 590 90 387 0
381 -20 219 341 90 74 0
382 -20 161 341 90 155 0
383 -20 458 496 90 325 0
384 20 620 858 90 0 262
385 -10 984 1049 90 177 0
386 -10 134 223 90 336 0
387 20 362 534 90 0 380
388 30 78 354 90 0 324
389 -20 314 596 90 45 0
390 30 242 339 0 0 405
391 20 152 422 90 0 99
392 -10 772 1017 90 165 0
393 -20 251 393 90 302 0
394 10 66 275 90 0 91
395 -30 230 523 90 78 0
396 -20 187 345 90 156 0
397 10 583 762 0 0 403
398 20 89 221 90 0 204
399 -20 186 416 90 116 0
400 -30 711 788 90 53 0
401 10 314 544 90 0 9
402 -30 704 803 90 346 0
403 -10 583 762 90 397 0
404 -30 485 636 90 12 0
405 -30 242 339 90 390 0
406 -20 706 839 90 4 0
407 -30 60 412 90 267 0
408 -20 794 888 90 133 0
409 -30 822 1026 90 129 0
410 -30 214 323 90 349 0
411 -20 696 864 90 92 0
412 -30 103 265 90 217 0
413 -20 768 1084 90 277 0
414 -20 986 1042 90 377 0
415 -40 144 361 90 136 0
416 -10 812 1006 90 198 0
417 -20 587 664 90 357 0
418 -10 490 679 90 301 0
419 -20 281 395 90 263 0
420 -10 659 823 90 353 0
421 -10 338 492 90 213 0
422 -40 806 887 90 354 0
423 -30 30 208 90 344 0
DEPOT_SECTION
1
-1
EOF
