NAME: lc2_4_6
TYPE: PDPTW
COMMENT: Li & Lim PDPTW benchmark converted from SINTEF format
DIMENSION: 407
VEHICLES: 100
CAPACITY: 700
EDGE_WEIGHT_TYPE: EUC_2D
NODE_COORD_SECTION
1 100 100
2 37 48
3 42 100
4 131 31
5 108 13
6 17 166
7 147 134
8 48 103
9 127 166
10 50 181
11 19 156
12 146 157
13 93 166
14 170 83
15 79 13
16 73 112
17 87 87
18 118 50
19 79 70
20 67 102
21 48 166
22 45 88
23 61 101
24 54 175
25 126 39
26 107 73
27 42 75
28 74 102
29 72 118
30 65 135
31 27 89
32 84 133
33 178 69
34 127 46
35 28 96
36 100 47
37 69 167
38 98 59
39 79 84
40 61 174
41 138 135
42 170 156
43 119 169
44 66 192
45 120 76
46 29 171
47 89 11
48 170 64
49 135 146
50 85 134
51 19 179
52 95 137
53 163 125
54 30 54
55 16 77
56 28 168
57 78 188
58 27 83
59 136 57
60 59 98
61 170 49
62 114 138
63 78 154
64 69 190
65 60 171
66 112 53
67 99 123
68 28 50
69 97 163
70 150 135
71 136 134
72 120 153
73 79 89
74 162 44
75 163 55
76 103 91
77 74 91
78 126 31
79 16 146
80 84 20
81 21 91
82 37 162
83 89 168
84 72 10
85 55 160
86 63 189
87 164 124
88 20 96
89 82 88
90 76 157
91 74 196
92 85 14
93 77 86
94 142 141
95 119 66
96 7 176
97 92 55
98 168 43
99 89 113
100 98 85
101 46 99
102 62 120
103 93 1
104 144 58
105 20 54
106 32 191
107 143 72
108 68 190
109 140 51
110 119 130
111 37 195
112 29 163
113 120 70
114 12 186
115 118 59
116 90 74
117 165 151
118 125 72
119 177 122
120 64 78
121 67 60
122 167 55
123 173 56
124 179 78
125 83 74
126 140 70
127 81 191
128 101 37
129 34 182
130 99 61
131 168 126
132 139 131
133 134 46
134 66 78
135 71 189
136 70 185
137 16 78
138 57 73
139 92 39
140 5 58
141 75 61
142 186 50
143 14 199
144 80 139
145 110 72
146 40 87
147 155 38
148 155 108
149 152 149
150 55 195
151 86 100
152 36 107
153 103 148
154 29 88
155 32 93
156 79 132
157 25 182
158 25 187
159 23 102
160 128 80
161 165 62
162 34 84
163 82 100
164 162 37
165 138 132
166 65 182
167 53 168
168 114 55
169 24 164
170 74 5
171 109 73
172 102 146
173 144 38
174 93 11
175 73 106
176 51 190
177 106 113
178 81 80
179 138 22
180 69 173
181 75 18
182 166 55
183 89 68
184 126 59
185 88 137
186 99 152
187 178 54
188 132 51
189 100 147
190 36 96
191 6 59
192 102 62
193 55 188
194 135 54
195 6 66
196 88 116
197 29 75
198 143 140
199 15 181
200 130 42
201 17 99
202 182 68
203 27 187
204 40 34
205 57 183
206 64 140
207 2 178
208 34 89
209 149 149
210 147 158
211 110 150
212 83 149
213 42 105
214 83 108
215 20 78
216 38 85
217 101 74
218 82 128
219 73 110
220 81 136
221 91 14
222 96 62
223 130 47
224 14 163
225 21 56
226 88 41
227 20 92
228 73 20
229 95 18
230 17 87
231 123 32
232 124 170
233 84 141
234 116 44
235 133 162
236 74 31
237 107 23
238 25 102
239 97 71
240 83 147
241 38 94
242 149 146
243 93 117
244 124 154
245 115 40
246 84 136
247 88 111
248 143 135
249 143 30
250 148 139
251 68 69
252 97 157
253 146 113
254 118 9
255 125 16
256 81 92
257 148 57
258 89 27
259 165 157
260 70 89
261 25 101
262 6 95
263 89 80
264 76 15
265 3 56
266 82 48
267 81 89
268 20 79
269 30 75
270 160 137
271 150 130
272 156 137
273 169 54
274 13 90
275 49 64
276 39 99
277 91 43
278 60 197
279 15 69
280 101 164
281 153 161
282 11 83
283 127 55
284 33 103
285 43 101
286 175 70
287 122 144
288 68 16
289 93 32
290 164 61
291 79 31
292 69 178
293 86 155
294 87 67
295 99 48
296 72 8
297 108 82
298 69 121
299 67 13
300 33 73
301 68 176
302 106 127
303 106 60
304 35 90
305 84 13
306 133 168
307 21 76
308 67 89
309 67 97
310 69 40
311 13 120
312 68 173
313 190 122
314 104 59
315 117 53
316 84 25
317 109 169
318 120 50
319 52 79
320 69 99
321 91 39
322 108 26
323 116 171
324 65 164
325 106 83
326 55 97
327 39 79
328 13 173
329 95 29
330 160 136
331 105 55
332 146 62
333 73 196
334 95 150
335 26 169
336 161 139
337 77 126
338 66 81
339 132 36
340 101 152
341 94 75
342 158 122
343 81 20
344 180 126
345 47 76
346 60 37
347 35 185
348 36 177
349 48 191
350 169 36
351 177 45
352 72 119
353 26 107
354 15 57
355 54 73
356 68 152
357 93 26
358 40 101
359 111 24
360 46 128
361 177 55
362 132 139
363 101 62
364 97 116
365 81 83
366 157 59
367 91 49
368 81 32
369 47 80
370 119 62
371 43 98
372 101 55
373 31 63
374 145 144
375 56 192
376 101 158
377 30 86
378 33 188
379 156 64
380 154 44
381 171 63
382 139 169
383 121 52
384 139 102
385 84 10
386 7 63
387 184 55
388 58 168
389 156 135
390 165 52
391 128 141
392 79 106
393 102 56
394 87 132
395 23 172
396 64 172
397 82 104
398 99 156
399 146 142
400 14 81
401 79 19
402 55 188
403 6 59
404 167 55
405 138 22
406 42 100
407 102 56
PICKUP_AND_DELIVERY_SECTION
1 0 0 3693 0 0 0
2 10 106 627 90 0 225
3 30 493 958 0 0 406
4 -30 1972 2454 90 194 0
5 -10 1914 2283 90 368 0
6 10 1603 2324 90 0 335
7 20 2696 3255 90 0 248
8 -10 769 1242 90 175 0
9 20 2124 2426 90 0 391
10 -30 721 1170 90 356 0
11 10 2029 2501 90 0 243
12 -10 1387 1955 90 399 0
13 10 1424 1970 90 0 210
14 30 1869 2360 90 0 290
15 -20 1285 1738 90 296 0
16 10 60 559 90 0 29
17 -20 2478 3000 90 267 0
18 -20 1845 2257 90 184 0
19 -20 628 1210 90 263 0
20 -30 1815 2148 90 251 0
21 30 336 769 90 0 349
22 30 56 586 90 0 35
23 -20 426 958 90 392 0
24 -10 613 1084 90 85 0
25 10 1832 2211 90 0 168
26 30 27 552 90 0 145
27 -20 1321 1983 90 300 0
28 10 388 791 90 0 102
29 -10 838 1426 90 16 0
30 20 1186 1656 90 0 185
31 10 2313 2981 90 0 208
32 10 36 482 90 0 323
33 40 1518 2127 90 0 182
34 -10 2701 3267 90 318 0
35 -30 208 669 90 22 0
36 20 53 650 90 0 200
37 20 73 678 90 0 347
38 10 41 391 90 0 128
39 -30 2320 2779 90 308 0
40 10 1267 1799 90 0 86
41 -10 2818 3511 90 270 0
42 10 1870 2460 90 0 131
43 -20 2003 2350 90 69 0
44 -30 2223 2709 90 64 0
45 -10 1165 1714 90 95 0
46 20 2363 2939 90 0 56
47 -30 1420 2170 90 299 0
48 20 1930 2517 90 0 161
49 -10 3148 3546 90 280 0
50 20 37 685 90 0 398
51 30 838 1306 90 0 114
52 10 451 1030 90 0 287
53 -30 2518 3034 90 119 0
54 30 83 498 90 0 279
55 20 1258 1821 90 0 282
56 -20 2480 3008 90 46 0
57 -10 2674 3231 90 301 0
58 -10 2483 3003 90 204 0
59 30 1268 1829 90 0 133
60 10 1544 2220 90 0 365
61 30 688 1223 90 0 273
62 -20 2838 3313 90 340 0
63 10 58 719 90 0 108
64 30 2079 2666 90 0 44
65 -20 194 705 90 167 0
66 10 1918 2379 90 0 331
67 10 2321 2859 90 0 99
68 10 281 881 90 0 345
69 20 1578 2007 90 0 43
70 20 692 1142 90 0 374
71 -10 3000 3554 90 165 0
72 -20 2723 3216 90 376 0
73 -10 2801 3422 90 386 0
74 -10 371 765 90 147 0
75 -10 2518 3048 90 98 0
76 20 9 407 90 0 325
77 -20 2978 3436 90 201 0
78 -30 2117 2499 90 104 0
79 10 1950 2380 90 0 169
80 -10 2457 2897 90 310 0
81 -10 1766 2339 90 358 0
82 20 2627 3246 90 0 177
83 -30 2975 3346 90 91 0
84 20 893 1560 90 0 170
85 10 484 821 90 0 24
86 -10 2326 2795 90 40 0
87 -10 2426 2943 90 344 0
88 -20 1581 2153 90 152 0
89 -10 2591 3076 90 309 0
90 20 61 606 90 0 157
91 30 2648 3059 90 0 83
92 10 2150 2637 90 0 357
93 -10 2218 2694 90 269 0
94 20 989 1407 90 0 281
95 10 819 1489 90 0 45
96 -30 1574 1963 90 143 0
97 -10 2466 3063 90 160 0
98 10 644 1073 90 0 75
99 -10 2434 2954 90 67 0
100 -20 2856 3277 90 130 0
101 10 664 1157 90 0 246
102 -10 729 1335 90 28 0
103 20 1698 2280 90 0 316
104 30 1201 1698 90 0 78
105 20 468 893 90 0 307
106 10 113 817 90 0 203
107 -10 2879 3283 90 379 0
108 -10 2055 2508 90 63 0
109 10 1492 2015 90 0 339
110 -10 3141 3568 90 244 0
111 10 201 785 90 0 378
112 30 2609 3068 90 0 196
113 10 1039 1457 90 0 266
114 -30 1327 1815 90 51 0
115 10 700 1232 90 0 370
116 10 27 456 90 0 141
117 -10 1737 2211 90 242 0
118 -30 1133 1553 90 192 0
119 30 2206 2774 90 0 53
120 10 468 950 90 0 121
121 -10 1312 1753 90 120 0
122 30 2410 2788 0 0 404
123 20 978 1312 90 0 286
124 20 1849 2180 90 0 366
125 40 897 1520 90 0 275
126 30 1400 1888 90 0 367
127 -20 2843 3250 90 292 0
128 -10 227 622 90 38 0
129 -30 578 976 90 176 0
130 20 470 884 90 0 100
131 -10 2455 2726 90 42 0
132 -20 3048 3468 90 148 0
133 -30 1666 1996 90 59 0
134 30 336 899 90 0 183
135 -20 1920 2457 90 150 0
136 20 1786 2403 90 0 333
137 30 2105 2580 90 0 230
138 30 50 556 90 0 327
139 10 3011 3480 90 0 295
140 20 859 1268 90 0 162
141 -10 575 1064 90 116 0
142 -40 1277 1783 90 164 0
143 30 1245 1690 90 0 96
144 30 1376 1869 90 0 364
145 -30 76 705 90 26 0
146 -20 2612 3035 90 326 0
147 10 188 750 90 0 74
148 20 55 678 90 0 132
149 20 1684 2057 90 0 209
150 20 839 1449 90 0 135
151 -10 3110 3589 90 397 0
152 20 1003 1580 90 0 88
153 -20 773 1279 90 212 0
154 -30 2153 2744 90 371 0
155 20 86 601 90 0 311
156 -20 1891 2298 90 206 0
157 -20 698 1251 90 90 0
158 30 1073 1463 90 0 224
159 -10 2254 2832 90 284 0
160 10 1361 1715 90 0 97
161 -20 2237 2585 90 48 0
162 -20 2714 3149 90 140 0
163 10 18 594 90 0 190
164 40 453 876 90 0 142
165 10 3185 3554 90 0 71
166 -20 1144 1725 90 324 0
167 20 82 441 90 0 65
168 -10 2510 2887 90 25 0
169 -10 2121 2608 90 79 0
170 -20 1149 1676 90 84 0
171 -30 80 519 90 297 0
172 10 552 1314 90 0 306
173 -10 964 1482 90 254 0
174 -10 1650 2127 90 288 0
175 10 226 764 90 0 8
176 30 102 758 90 0 129
177 -20 2827 3333 90 82 0
178 10 149 690 90 0 338
179 30 752 1299 0 0 405
180 -10 1580 2045 90 205 0
181 -10 822 1253 90 236 0
182 -40 2428 2953 90 33 0
183 -30 863 1357 90 134 0
184 20 1625 2093 90 0 18
185 -20 1537 2088 90 30 0
186 40 928 1521 90 0 362
187 -10 1004 1657 90 361 0
188 20 1487 1984 90 0 283
189 -30 623 1060 90 293 0
190 -10 255 818 90 163 0
191 20 897 1412 0 0 403
192 30 210 778 90 0 118
193 30 98 334 0 0 402
194 30 1473 1810 90 0 4
195 -10 1011 1674 90 354 0
196 -30 2595 3168 90 112 0
197 -30 1535 1975 90 294 0
198 -20 871 1344 90 253 0
199 20 916 1417 90 0 207
200 -20 1734 2118 90 36 0
201 20 1576 1969 90 0 77
202 -20 1469 1988 90 332 0
203 -10 1115 1604 90 106 0
204 10 209 733 90 0 58
205 10 1019 1653 90 0 180
206 20 1291 1741 90 0 156
207 -20 1526 1821 90 199 0
208 -10 2248 2840 90 31 0
209 -20 1304 1840 90 149 0
210 -10 2463 2875 90 13 0
211 20 823 1423 90 0 232
212 20 51 632 90 0 153
213 20 963 1426 90 0 238
214 10 18 360 90 0 218
215 20 1723 2141 90 0 256
216 -20 2507 2954 90 227 0
217 30 26 486 90 0 237
218 -10 1994 2577 90 214 0
219 20 164 639 90 0 352
220 20 1752 2248 90 0 337
221 -40 2060 2536 90 385 0
222 10 2571 3155 90 0 341
223 10 60 528 90 0 351
224 -30 1842 2274 90 158 0
225 -10 510 1035 90 2 0
226 -10 60 428 90 277 0
227 20 1813 2108 90 0 216
228 10 698 1190 90 0 401
229 -10 1965 2438 90 305 0
230 -30 1851 2444 90 137 0
231 30 2171 2631 90 0 245
232 -20 2119 2621 90 211 0
233 -30 1507 1926 90 360 0
234 -30 2388 2805 90 372 0
235 -30 2477 3071 90 382 0
236 10 307 572 90 0 181
237 -30 372 870 90 217 0
238 -20 1259 1891 90 213 0
239 10 29 460 90 0 315
240 20 59 403 90 0 317
241 10 78 418 90 0 285
242 10 1184 1774 90 0 117
243 -10 2988 3390 90 11 0
244 10 2703 3049 90 0 110
245 -30 2241 2764 90 231 0
246 -10 1619 2194 90 101 0
247 -20 2559 3014 90 394 0
248 -20 2807 3331 90 7 0
249 -10 1009 1240 90 255 0
250 -30 828 1196 90 342 0
251 30 1074 1555 90 0 20
252 -30 1277 1918 90 334 0
253 20 47 678 90 0 198
254 10 537 1105 90 0 173
255 10 556 1286 90 0 249
256 -20 2728 3308 90 215 0
257 10 64 586 90 0 380
258 20 2674 3060 90 0 321
259 -10 1819 2321 90 384 0
260 -10 2051 2667 90 320 0
261 10 1207 1762 90 0 304
262 10 2094 2539 90 0 369
263 20 62 580 90 0 19
264 -30 871 1390 90 346 0
265 20 688 1254 90 0 268
266 -10 2276 2862 90 113 0
267 20 2732 3118 90 0 17
268 -20 1761 2284 90 265 0
269 10 1423 1865 90 0 93
270 10 186 897 90 0 41
271 -20 2690 3070 90 272 0
272 20 540 918 90 0 271
273 -30 729 1372 90 61 0
274 20 1943 2494 90 0 319
275 -40 1182 1666 90 125 0
276 20 597 1011 90 0 353
277 10 57 605 90 0 226
278 -30 2441 2878 90 312 0
279 -30 1240 1643 90 54 0
280 10 1685 2088 90 0 49
281 -20 1555 1982 90 94 0
282 -20 2016 2475 90 55 0
283 -20 2773 3392 90 188 0
284 10 1177 1596 90 0 159
285 -10 828 1373 90 241 0
286 -20 1682 2149 90 123 0
287 -10 2816 3536 90 52 0
288 10 625 1071 90 0 174
289 -10 2818 3297 90 329 0
290 -30 2261 2744 90 14 0
291 10 72 715 90 0 343
292 20 1741 2254 90 0 127
293 30 214 859 90 0 189
294 30 744 1292 90 0 197
295 -10 3091 3551 90 139 0
296 20 1116 1521 90 0 15
297 30 19 470 90 0 171
298 20 1132 1502 90 0 302
299 30 509 1001 90 0 47
300 20 1510 1964 90 0 27
301 10 1701 2109 90 0 57
302 -20 2234 2749 90 298 0
303 -10 573 1155 90 314 0
304 -10 2378 2893 90 261 0
305 10 1356 1858 90 0 229
306 -10 2259 2680 90 172 0
307 -20 1637 2042 90 105 0
308 30 1906 2625 90 0 39
309 10 1953 2383 90 0 89
310 10 187 894 90 0 80
311 -20 2136 2730 90 155 0
312 30 1496 1946 90 0 278
313 -20 1969 2621 90 389 0
314 10 524 1021 90 0 303
315 -10 2485 3099 90 239 0
316 -20 2455 3089 90 103 0
317 -20 1682 2290 90 240 0
318 10 2648 3124 90 0 34
319 -20 2965 3454 90 274 0
320 10 1888 2262 90 0 260
321 -20 2903 3405 90 258 0
322 10 323 731 90 0 359
323 -10 1842 2324 90 32 0
324 20 72 702 90 0 166
325 -20 18 440 90 76 0
326 20 45 538 90 0 146
327 -30 2682 3161 90 138 0
328 30 1580 2151 90 0 395
329 10 2183 2729 90 0 289
330 20 158 743 90 0 336
331 -10 2020 2470 90 66 0
332 20 59 516 90 0 202
333 -20 2469 3056 90 136 0
334 30 324 950 90 0 252
335 -10 2189 2732 90 6 0
336 -20 393 876 90 330 0
337 -20 1940 2442 90 220 0
338 -10 330 718 90 178 0
339 -10 1927 2310 90 109 0
340 20 1024 1608 90 0 62
341 -10 2730 3202 90 222 0
342 30 103 591 90 0 250
343 -10 2362 2805 90 291 0
344 10 2186 2605 90 0 87
345 -10 2827 3400 90 68 0
346 30 366 914 90 0 264
347 -20 511 858 90 37 0
348 30 570 1175 90 0 375
349 -30 765 1328 90 21 0
350 10 598 925 90 0 390
351 -10 1248 1611 90 223 0
352 -20 1063 1384 90 219 0
353 -20 1444 1897 90 276 0
354 10 622 1114 90 0 195
355 -30 2967 3550 90 373 0
356 30 146 712 90 0 10
357 -10 2696 3226 90 92 0
358 10 376 891 90 0 81
359 -10 426 1003 90 322 0
360 30 695 1153 90 0 233
361 10 967 1511 90 0 187
362 -40 3109 3553 90 186 0
363 40 362 807 90 0 383
364 -30 2776 3185 90 144 0
365 -10 2358 2924 90 60 0
366 -20 2624 3138 90 124 0
367 -30 2370 2967 90 126 0
368 10 70 499 90 0 5
369 -10 2705 3335 90 262 0
370 -10 849 1271 90 115 0
371 30 569 1066 90 0 154
372 30 45 526 90 0 234
373 30 78 642 90 0 355
374 -20 1079 1691 90 70 0
375 -30 979 1495 90 348 0
376 20 1209 1615 90 0 72
377 -30 2567 3107 90 400 0
378 -10 351 830 90 111 0
379 10 2776 3176 90 0 107
380 -10 129 617 90 257 0
381 -10 2070 2560 90 387 0
382 30 2294 2836 90 0 235
383 -40 1660 2255 90 363 0
384 10 39 562 90 0 259
385 40 1513 1886 90 0 221
386 10 1028 1470 90 0 73
387 10 1401 1849 90 0 381
388 20 513 988 90 0 396
389 20 584 1058 90 0 313
390 -10 1033 1643 90 350 0
391 -20 2877 3554 90 9 0
392 20 21 437 90 0 23
393 30 2055 2622 0 0 407
394 20 2087 2678 90 0 247
395 -30 2303 2805 90 328 0
396 -20 1359 1894 90 388 0
397 10 2887 3585 90 0 151
398 -20 1273 1738 90 50 0
399 10 1048 1537 90 0 12
400 30 1892 2347 90 0 377
401 -10 2319 2664 90 228 0
402 -30 98 334 90 193 0
403 -20 897 1412 90 191 0
404 -30 2410 2788 90 122 0
405 -30 752 1299 90 179 0
406 -30 493 958 90 3 0
407 -30 2055 2622 90 393 0
DEPOT_SECTION
1
-1
EOF
