NAME: lc2_4_4
TYPE: PDPTW
COMMENT: Li & Lim PDPTW benchmark converted from SINTEF format
DIMENSION: 407
VEHICLES: 100
CAPACITY: 700
EDGE_WEIGHT_TYPE: EUC_2D
NODE_COORD_SECTION
1 100 100
2 37 48
3 42 100
4 131 31
5 108 13
6 17 166
7 147 134
8 48 103
9 127 166
10 50 181
11 19 156
12 146 157
13 93 166
14 170 83
15 79 13
16 73 112
17 87 87
18 118 50
19 79 70
20 67 102
21 48 166
22 45 88
23 61 101
24 54 175
25 126 39
26 107 73
27 42 75
28 74 102
29 72 118
30 65 135
31 27 89
32 84 133
33 178 69
34 127 46
35 28 96
36 100 47
37 69 167
38 98 59
39 79 84
40 61 174
41 138 135
42 170 156
43 119 169
44 66 192
45 120 76
46 29 171
47 89 11
48 170 64
49 135 146
50 85 134
51 19 179
52 95 137
53 163 125
54 30 54
55 16 77
56 28 168
57 78 188
58 27 83
59 136 57
60 59 98
61 170 49
62 114 138
63 78 154
64 69 190
65 60 171
66 112 53
67 99 123
68 28 50
69 97 163
70 150 135
71 136 134
72 120 153
73 79 89
74 162 44
75 163 55
76 103 91
77 74 91
78 126 31
79 16 146
80 84 20
81 21 91
82 37 162
83 89 168
84 72 10
85 55 160
86 63 189
87 164 124
88 20 96
89 82 88
90 76 157
91 74 196
92 85 14
93 77 86
94 142 141
95 119 66
96 7 176
97 92 55
98 168 43
99 89 113
100 98 85
101 46 99
102 62 120
103 93 1
104 144 58
105 20 54
106 32 191
107 143 72
108 68 190
109 140 51
110 119 130
111 37 195
112 29 163
113 120 70
114 12 186
115 118 59
116 90 74
117 165 151
118 125 72
119 177 122
120 64 78
121 67 60
122 167 55
123 173 56
124 179 78
125 83 74
126 140 70
127 81 191
128 101 37
129 34 182
130 99 61
131 168 126
132 139 131
133 134 46
134 66 78
135 71 189
136 70 185
137 16 78
138 57 73
139 92 39
140 5 58
141 75 61
142 186 50
143 14 199
144 80 139
145 110 72
146 40 87
147 155 38
148 155 108
149 152 149
150 55 195
151 86 100
152 36 107
153 103 148
154 29 88
155 32 93
156 79 132
157 25 182
158 25 187
159 23 102
160 128 80
161 165 62
162 34 84
163 82 100
164 162 37
165 138 132
166 65 182
167 53 168
168 114 55
169 24 164
170 74 5
171 109 73
172 102 146
173 144 38
174 93 11
175 73 106
176 51 190
177 106 113
178 81 80
179 138 22
180 69 173
181 75 18
182 166 55
183 89 68
184 126 59
185 88 137
186 99 152
187 178 54
188 132 51
189 100 147
190 36 96
191 6 59
192 102 62
193 55 188
194 135 54
195 6 66
196 88 116
197 29 75
198 143 140
199 15 181
200 130 42
201 17 99
202 182 68
203 27 187
204 40 34
205 57 183
206 64 140
207 2 178
208 34 89
209 149 149
210 147 158
211 110 150
212 83 149
213 42 105
214 83 108
215 20 78
216 38 85
217 101 74
218 82 128
219 73 110
220 81 136
221 91 14
222 96 62
223 130 47
224 14 163
225 21 56
226 88 41
227 20 92
228 73 20
229 95 18
230 17 87
231 123 32
232 124 170
233 84 141
234 116 44
235 133 162
236 74 31
237 107 23
238 25 102
239 97 71
240 83 147
241 38 94
242 149 146
243 93 117
244 124 154
245 115 40
246 84 136
247 88 111
248 143 135
249 143 30
250 148 139
251 68 69
252 97 157
253 146 113
254 118 9
255 125 16
256 81 92
257 148 57
258 89 27
259 165 157
260 70 89
261 25 101
262 6 95
263 89 80
264 76 15
265 3 56
266 82 48
267 81 89
268 20 79
269 30 75
270 160 137
271 150 130
272 156 137
273 169 54
274 13 90
275 49 64
276 39 99
277 91 43
278 60 197
279 15 69
280 101 164
281 153 161
282 11 83
283 127 55
284 33 103
285 43 101
286 175 70
287 122 144
288 68 16
289 93 32
290 164 61
291 79 31
292 69 178
293 86 155
294 87 67
295 99 48
296 72 8
297 108 82
298 69 121
299 67 13
300 33 73
301 68 176
302 106 127
303 106 60
304 35 90
305 84 13
306 133 168
307 21 76
308 67 89
309 67 97
310 69 40
311 13 120
312 68 173
313 190 122
314 104 59
315 117 53
316 84 25
317 109 169
318 120 50
319 52 79
320 69 99
321 91 39
322 108 26
323 116 171
324 65 164
325 106 83
326 55 97
327 39 79
328 13 173
329 95 29
330 160 136
331 105 55
332 146 62
333 73 196
334 95 150
335 26 169
336 161 139
337 77 126
338 66 81
339 132 36
340 101 152
341 94 75
342 158 122
343 81 20
344 180 126
345 47 76
346 60 37
347 35 185
348 36 177
349 48 191
350 169 36
351 177 45
352 72 119
353 26 107
354 15 57
355 54 73
356 68 152
357 93 26
358 40 101
359 111 24
360 46 128
361 177 55
362 132 139
363 101 62
364 97 116
365 81 83
366 157 59
367 91 49
368 81 32
369 47 80
370 119 62
371 43 98
372 101 55
373 31 63
374 145 144
375 56 192
376 101 158
377 30 86
378 33 188
379 156 64
380 154 44
381 171 63
382 139 169
383 121 52
384 139 102
385 84 10
386 7 63
387 184 55
388 58 168
389 156 135
390 165 52
391 128 141
392 79 106
393 102 56
394 87 132
395 23 172
396 64 172
397 82 104
398 99 156
399 146 142
400 14 81
401 79 19
402 83 147
403 6 59
404 68 16
405 120 76
406 88 116
407 73 112
PICKUP_AND_DELIVERY_SECTION
1 0 0 3693 0 0 0
2 10 287 447 90 0 371
3 30 0 3545 90 0 40
4 -10 0 3528 90 359 0
5 20 0 3516 90 0 109
6 10 0 3497 90 0 143
7 -10 0 3545 90 42 0
8 -20 0 3551 90 392 0
9 -20 0 3532 90 153 0
10 -20 0 3508 90 82 0
11 10 0 3505 90 0 24
12 40 1591 1751 90 0 210
13 10 0 3537 90 0 83
14 30 2035 2195 90 0 273
15 20 0 3514 90 0 321
16 10 0 3574 0 0 407
17 -10 2659 2819 90 175 0
18 10 0 3550 90 0 294
19 20 839 999 90 0 167
20 -10 0 3570 90 397 0
21 30 0 3519 90 0 50
22 -30 0 3547 90 251 0
23 10 0 3564 90 0 39
24 -10 0 3516 90 11 0
25 -30 0 3537 90 231 0
26 30 0 3576 90 0 47
27 -30 0 3540 90 138 0
28 -30 0 3577 90 102 0
29 -30 1052 1212 90 360 0
30 20 0 3554 90 0 206
31 -20 0 3530 90 208 0
32 10 0 3567 90 0 302
33 40 0 3520 90 0 75
34 -20 2904 3064 90 332 0
35 20 0 3531 90 0 154
36 20 0 3550 90 0 171
37 -20 0 3530 90 57 0
38 -20 0 3562 90 289 0
39 -10 2469 2629 90 23 0
40 -30 1453 1613 90 3 0
41 -10 0 3552 90 248 0
42 10 0 3514 90 0 7
43 -20 2097 2257 90 376 0
44 -10 0 3505 90 205 0
45 30 0 3572 0 0 405
46 20 0 3503 90 0 356
47 -30 1715 1875 90 26 0
48 -10 0 3525 90 361 0
49 -10 0 3546 90 232 0
50 -30 0 3566 90 21 0
51 -10 0 3490 90 207 0
52 10 0 3566 90 0 172
53 30 0 3536 90 0 272
54 30 0 3520 90 0 58
55 -10 0 3516 90 204 0
56 20 2664 2824 90 0 337
57 20 2872 3032 90 0 37
58 -30 0 3529 90 54 0
59 30 0 3547 90 0 133
60 -20 0 3562 90 326 0
61 30 875 1035 90 0 290
62 -20 0 3563 90 287 0
63 10 0 3545 90 0 65
64 -20 0 3508 90 220 0
65 -10 370 530 90 63 0
66 10 0 3555 90 0 331
67 10 0 3580 90 0 317
68 10 0 3516 90 0 265
69 -10 0 3540 90 178 0
70 20 837 997 90 0 165
71 10 0 3554 90 0 110
72 10 0 3547 90 0 177
73 -20 0 3580 90 353 0
74 -10 0 3520 90 182 0
75 -40 0 3526 90 33 0
76 -10 0 3594 90 145 0
77 -20 3127 3287 90 352 0
78 -30 0 3530 90 217 0
79 -10 2085 2245 90 114 0
80 10 0 3522 90 0 222
81 20 0 3524 90 0 227
82 20 0 3515 90 0 10
83 -10 3081 3241 90 13 0
84 -20 1147 1307 90 258 0
85 10 572 732 90 0 292
86 -10 0 3507 90 135 0
87 20 0 3535 90 0 242
88 -20 0 3523 90 195 0
89 -10 0 3582 90 309 0
90 -30 0 3542 90 91 0
91 30 0 3504 90 0 90
92 10 0 3516 90 0 357
93 20 2376 2536 90 0 151
94 20 0 3545 90 0 250
95 -30 1074 1234 90 192 0
96 -30 0 3483 90 169 0
97 -30 0 3558 90 380 0
98 -10 0 3515 90 387 0
99 -20 0 3586 90 252 0
100 -10 0 3588 90 257 0
101 -20 0 3549 90 279 0
102 30 952 1112 90 0 28
103 20 0 3504 90 0 329
104 -30 0 3543 90 126 0
105 20 0 3511 90 0 354
106 10 0 3490 90 0 108
107 20 0 3552 90 0 118
108 -10 0 3508 90 106 0
109 -20 0 3540 90 5 0
110 -10 0 3568 90 71 0
111 10 0 3490 90 0 166
112 30 0 3509 90 0 129
113 10 0 3567 90 0 314
114 10 0 3480 90 0 79
115 10 886 1046 90 0 372
116 10 0 3576 90 0 201
117 -30 1894 2054 90 342 0
118 -20 0 3566 90 107 0
119 -20 0 3523 90 389 0
120 -20 0 3561 90 377 0
121 -20 1452 1612 90 275 0
122 -20 0 3523 90 142 0
123 20 0 3518 90 0 124
124 -20 0 3521 90 123 0
125 -20 0 3572 90 263 0
126 30 1564 1724 90 0 104
127 20 0 3511 90 0 312
128 30 344 504 90 0 200
129 -30 0 3498 90 112 0
130 20 597 757 90 0 383
131 20 0 3531 90 0 281
132 -20 0 3554 90 330 0
133 -30 0 3540 90 59 0
134 -20 0 3563 90 319 0
135 10 2109 2269 90 0 86
136 -20 0 3513 90 150 0
137 30 0 3517 90 0 284
138 30 50 210 90 0 27
139 -10 0 3542 90 236 0
140 20 983 1143 90 0 400
141 -30 0 3557 90 373 0
142 20 0 3504 90 0 122
143 -10 0 3472 90 6 0
144 -40 0 3560 90 180 0
145 10 0 3574 90 0 76
146 20 0 3542 90 0 241
147 10 389 549 90 0 363
148 -10 162 322 90 384 0
149 20 0 3532 90 0 271
150 20 1064 1224 90 0 136
151 -20 0 3589 90 93 0
152 -10 0 3539 90 358 0
153 20 0 3555 90 0 9
154 -20 0 3531 90 35 0
155 -10 0 3535 90 190 0
156 -30 0 3565 90 293 0
157 10 0 3492 90 0 328
158 30 1188 1348 90 0 395
159 30 0 3526 90 0 276
160 -30 0 3569 90 366 0
161 20 0 3528 90 0 390
162 -30 0 3536 90 355 0
163 -10 0 3585 90 320 0
164 -30 0 3515 90 351 0
165 -20 0 3554 90 70 0
166 -10 0 3514 90 111 0
167 -20 0 3521 90 19 0
168 10 0 3556 90 0 183
169 30 0 3504 90 0 96
170 -30 0 3505 90 181 0
171 -20 0 3575 90 36 0
172 -10 853 1013 90 52 0
173 30 1143 1303 90 0 283
174 20 1809 1969 90 0 368
175 10 0 3576 90 0 17
176 30 0 3501 90 0 375
177 -10 0 3589 90 72 0
178 10 339 499 90 0 69
179 -10 945 1105 90 255 0
180 40 0 3524 90 0 144
181 30 0 3518 90 0 170
182 10 0 3524 90 0 74
183 -10 0 3570 90 168 0
184 20 0 3555 90 0 297
185 -20 1733 1893 90 213 0
186 -20 1144 1304 90 340 0
187 20 0 3513 90 0 381
188 -10 0 3545 90 254 0
189 -10 0 3556 90 396 0
190 10 0 3539 90 0 155
191 20 0 3501 0 0 403
192 30 414 574 90 0 95
193 -10 0 3505 90 349 0
194 -20 0 3546 90 237 0
195 20 1262 1422 90 0 88
196 30 0 3583 0 0 406
197 20 0 3528 90 0 369
198 -20 0 3545 90 336 0
199 20 0 3486 90 0 348
200 -30 0 3538 90 128 0
201 -10 0 3520 90 116 0
202 10 0 3515 90 0 379
203 -10 1280 1440 90 214 0
204 10 0 3514 90 0 55
205 10 0 3510 90 0 44
206 -20 0 3550 90 30 0
207 10 0 3478 90 0 51
208 20 0 3537 90 0 31
209 -10 1492 1652 90 313 0
210 -40 0 3529 90 12 0
211 -30 1043 1203 90 364 0
212 -30 0 3552 90 285 0
213 20 1115 1275 90 0 185
214 10 0 3585 90 0 203
215 -10 0 3521 90 386 0
216 -20 0 3540 90 300 0
217 30 0 3577 90 0 78
218 -20 0 3570 90 278 0
219 20 0 3575 90 0 308
220 20 0 3563 90 0 64
221 -10 0 3517 90 226 0
222 -10 0 3565 90 80 0
223 -10 0 3543 90 322 0
224 -20 1978 2138 90 298 0
225 40 0 3513 90 0 238
226 10 0 3543 90 0 221
227 -20 0 3523 90 81 0
228 10 864 1024 90 0 305
229 -40 0 3521 90 385 0
230 -20 0 3519 90 274 0
231 30 0 3532 90 0 25
232 10 0 3529 90 0 49
233 30 0 3559 90 0 246
234 20 0 3545 90 0 341
235 10 0 3533 90 0 244
236 10 0 3530 90 0 139
237 20 0 3526 90 0 194
238 -40 0 3528 90 225 0
239 -10 0 3574 90 295 0
240 20 151 311 0 0 402
241 -20 0 3541 90 146 0
242 -20 1399 1559 90 87 0
243 40 0 3585 90 0 398
244 -10 0 3544 90 235 0
245 20 0 3542 90 0 367
246 -30 0 3564 90 233 0
247 -20 0 3587 90 388 0
248 10 2989 3149 90 0 41
249 30 0 3521 90 0 339
250 -20 0 3542 90 94 0
251 30 0 3559 90 0 22
252 20 0 3546 90 0 99
253 20 0 3556 90 0 270
254 10 0 3511 90 0 188
255 10 0 3516 90 0 179
256 -10 0 3583 90 338 0
257 10 0 3539 90 0 100
258 20 0 3530 90 0 84
259 20 0 3517 90 0 399
260 20 0 3572 90 0 267
261 -30 0 3528 90 268 0
262 -10 2237 2397 90 282 0
263 20 0 3581 90 0 125
264 20 1050 1210 90 0 343
265 -10 891 1051 90 68 0
266 -10 2489 2649 90 303 0
267 -20 0 3582 90 260 0
268 30 0 3521 90 0 261
269 10 0 3529 90 0 304
270 -20 462 622 90 253 0
271 -20 2800 2960 90 149 0
272 -30 0 3536 90 53 0
273 -30 0 3521 90 14 0
274 20 2138 2298 90 0 230
275 20 0 3541 90 0 121
276 -30 0 3542 90 159 0
277 10 0 3546 90 0 401
278 20 0 3499 90 0 218
279 20 1362 1522 90 0 101
280 10 0 3539 90 0 391
281 -20 0 3523 90 131 0
282 10 0 3513 90 0 262
283 -30 3003 3163 90 173 0
284 -30 0 3536 90 137 0
285 30 0 3546 90 0 212
286 -10 0 3523 90 350 0
287 20 3096 3256 90 0 62
288 10 0 3514 0 0 404
289 20 2977 3137 90 0 38
290 -30 0 3529 90 61 0
291 10 265 425 90 0 346
292 -10 1917 2077 90 85 0
293 30 0 3547 90 0 156
294 -10 0 3568 90 18 0
295 10 0 3551 90 0 239
296 -20 1239 1399 90 325 0
297 -20 0 3584 90 184 0
298 20 0 3566 90 0 224
299 -10 675 835 90 316 0
300 20 0 3531 90 0 216
301 -20 0 3521 90 324 0
302 -10 2412 2572 90 32 0
303 10 0 3563 90 0 266
304 -10 0 3538 90 269 0
305 -10 0 3515 90 228 0
306 10 0 3528 90 0 382
307 -10 0 3521 90 310 0
308 -20 0 3569 90 219 0
309 10 0 3570 90 0 89
310 10 0 3536 90 0 307
311 20 0 3514 90 0 365
312 -20 0 3524 90 127 0
313 10 0 3511 90 0 209
314 -10 692 852 90 113 0
315 -10 0 3554 90 370 0
316 10 0 3527 90 0 299
317 -10 1906 2066 90 67 0
318 10 0 3550 90 0 393
319 20 0 3551 90 0 134
320 10 1995 2155 90 0 163
321 -20 0 3542 90 15 0
322 10 447 607 90 0 223
323 20 0 3531 90 0 362
324 20 0 3531 90 0 301
325 20 0 3585 90 0 296
326 20 0 3558 90 0 60
327 10 0 3539 90 0 345
328 -10 0 3490 90 157 0
329 -20 2376 2536 90 103 0
330 20 0 3534 90 0 132
331 -10 2165 2325 90 66 0
332 20 0 3544 90 0 34
333 -10 0 3504 90 347 0
334 -20 0 3553 90 394 0
335 -30 0 3502 90 378 0
336 20 554 714 90 0 198
337 -20 0 3569 90 56 0
338 10 0 3565 90 0 256
339 -30 2038 2198 90 249 0
340 20 0 3551 90 0 186
341 -20 2886 3046 90 234 0
342 30 0 3541 90 0 117
343 -20 2504 2664 90 264 0
344 10 0 3519 90 0 374
345 -10 3034 3194 90 327 0
346 -10 0 3529 90 291 0
347 10 604 764 90 0 333
348 -20 0 3503 90 199 0
349 10 966 1126 90 0 193
350 10 682 842 90 0 286
351 30 0 3509 90 0 164
352 20 0 3570 90 0 77
353 20 0 3529 90 0 73
354 -20 788 948 90 105 0
355 30 0 3550 90 0 162
356 -20 0 3542 90 46 0
357 -10 0 3529 90 92 0
358 10 553 713 90 0 152
359 10 0 3527 90 0 4
360 30 844 1004 90 0 29
361 10 1159 1319 90 0 48
362 -20 0 3553 90 323 0
363 -10 0 3565 90 147 0
364 30 0 3587 90 0 211
365 -20 2561 2721 90 311 0
366 30 2801 2961 90 0 160
367 -20 2589 2749 90 245 0
368 -20 0 3533 90 174 0
369 -20 0 3547 90 197 0
370 10 0 3561 90 0 315
371 -10 0 3546 90 2 0
372 -10 0 3558 90 115 0
373 30 89 249 90 0 141
374 -10 0 3541 90 344 0
375 -30 0 3502 90 176 0
376 20 0 3545 90 0 43
377 20 2757 2917 90 0 120
378 30 0 3493 90 0 335
379 -10 0 3537 90 202 0
380 30 0 3526 90 0 97
381 -20 0 3523 90 187 0
382 -10 2485 2645 90 306 0
383 -20 0 3551 90 130 0
384 10 0 3564 90 0 148
385 40 0 3512 90 0 229
386 10 0 3503 90 0 215
387 10 0 3508 90 0 98
388 20 0 3524 90 0 247
389 20 0 3537 90 0 119
390 -20 0 3523 90 161 0
391 -10 0 3554 90 280 0
392 20 0 3582 90 0 8
393 -10 2259 2419 90 318 0
394 20 2302 2462 90 0 334
395 -30 2474 2634 90 158 0
396 10 1547 1707 90 0 189
397 10 0 3585 90 0 20
398 -40 1425 1585 90 243 0
399 -20 0 3541 90 259 0
400 -20 0 3515 90 140 0
401 -10 0 3520 90 277 0
402 -20 151 311 90 240 0
403 -20 0 3501 90 191 0
404 -10 0 3514 90 288 0
405 -30 0 3572 90 45 0
406 -30 0 3583 90 196 0
407 -10 0 3574 90 16 0
DEPOT_SECTION
1
-1
EOF
