NAME: lc2_4_10
TYPE: PDPTW
COMMENT: Li & Lim PDPTW benchmark converted from SINTEF format
DIMENSION: 405
VEHICLES: 100
CAPACITY: 700
EDGE_WEIGHT_TYPE: EUC_2D
NODE_COORD_SECTION
1 100 100
2 37 48
3 42 100
4 131 31
5 108 13
6 17 166
7 147 134
8 48 103
9 127 166
10 50 181
11 19 156
12 146 157
13 93 166
14 170 83
15 79 13
16 73 112
17 87 87
18 118 50
19 79 70
20 67 102
21 48 166
22 45 88
23 61 101
24 54 175
25 126 39
26 107 73
27 42 75
28 74 102
29 72 118
30 65 135
31 27 89
32 84 133
33 178 69
34 127 46
35 28 96
36 100 47
37 69 167
38 98 59
39 79 84
40 61 174
41 138 135
42 170 156
43 119 169
44 66 192
45 120 76
46 29 171
47 89 11
48 170 64
49 135 146
50 85 134
51 19 179
52 95 137
53 163 125
54 30 54
55 16 77
56 28 168
57 78 188
58 27 83
59 136 57
60 59 98
61 170 49
62 114 138
63 78 154
64 69 190
65 60 171
66 112 53
67 99 123
68 28 50
69 97 163
70 150 135
71 136 134
72 120 153
73 79 89
74 162 44
75 163 55
76 103 91
77 74 91
78 126 31
79 16 146
80 84 20
81 21 91
82 37 162
83 89 168
84 72 10
85 55 160
86 63 189
87 164 124
88 20 96
89 82 88
90 76 157
91 74 196
92 85 14
93 77 86
94 142 141
95 119 66
96 7 176
97 92 55
98 168 43
99 89 113
100 98 85
101 46 99
102 62 120
103 93 1
104 144 58
105 20 54
106 32 191
107 143 72
108 68 190
109 140 51
110 119 130
111 37 195
112 29 163
113 120 70
114 12 186
115 118 59
116 90 74
117 165 151
118 125 72
119 177 122
120 64 78
121 67 60
122 167 55
123 173 56
124 179 78
125 83 74
126 140 70
127 81 191
128 101 37
129 34 182
130 99 61
131 168 126
132 139 131
133 134 46
134 66 78
135 71 189
136 70 185
137 16 78
138 57 73
139 92 39
140 5 58
141 75 61
142 186 50
143 14 199
144 80 139
145 110 72
146 40 87
147 155 38
148 155 108
149 152 149
150 55 195
151 86 100
152 36 107
153 103 148
154 29 88
155 32 93
156 79 132
157 25 182
158 25 187
159 23 102
160 128 80
161 165 62
162 34 84
163 82 100
164 162 37
165 138 132
166 65 182
167 53 168
168 114 55
169 24 164
170 74 5
171 109 73
172 102 146
173 144 38
174 93 11
175 73 106
176 51 190
177 106 113
178 81 80
179 138 22
180 69 173
181 75 18
182 166 55
183 89 68
184 126 59
185 88 137
186 99 152
187 178 54
188 132 51
189 100 147
190 36 96
191 6 59
192 102 62
193 55 188
194 135 54
195 6 66
196 88 116
197 29 75
198 143 140
199 15 181
200 130 42
201 17 99
202 182 68
203 27 187
204 40 34
205 57 183
206 64 140
207 2 178
208 34 89
209 149 149
210 147 158
211 110 150
212 83 149
213 42 105
214 83 108
215 20 78
216 38 85
217 101 74
218 82 128
219 73 110
220 81 136
221 91 14
222 96 62
223 130 47
224 14 163
225 21 56
226 88 41
227 20 92
228 73 20
229 95 18
230 17 87
231 123 32
232 124 170
233 84 141
234 116 44
235 133 162
236 74 31
237 107 23
238 25 102
239 97 71
240 83 147
241 38 94
242 149 146
243 93 117
244 124 154
245 115 40
246 84 136
247 88 111
248 143 135
249 143 30
250 148 139
251 68 69
252 97 157
253 146 113
254 118 9
255 125 16
256 81 92
257 148 57
258 89 27
259 165 157
260 70 89
261 25 101
262 6 95
263 89 80
264 76 15
265 3 56
266 82 48
267 81 89
268 20 79
269 30 75
270 160 137
271 150 130
272 156 137
273 169 54
274 13 90
275 49 64
276 39 99
277 91 43
278 60 197
279 15 69
280 101 164
281 153 161
282 11 83
283 127 55
284 33 103
285 43 101
286 175 70
287 122 144
288 68 16
289 93 32
290 164 61
291 79 31
292 69 178
293 86 155
294 87 67
295 99 48
296 72 8
297 108 82
298 69 121
299 67 13
300 33 73
301 68 176
302 106 127
303 106 60
304 35 90
305 84 13
306 133 168
307 21 76
308 67 89
309 67 97
310 69 40
311 13 120
312 68 173
313 190 122
314 104 59
315 117 53
316 84 25
317 109 169
318 120 50
319 52 79
320 69 99
321 91 39
322 108 26
323 116 171
324 65 164
325 106 83
326 55 97
327 39 79
328 13 173
329 95 29
330 160 136
331 105 55
332 146 62
333 73 196
334 95 150
335 26 169
336 161 139
337 77 126
338 66 81
339 132 36
340 101 152
341 94 75
342 158 122
343 81 20
344 180 126
345 47 76
346 60 37
347 35 185
348 36 177
349 48 191
350 169 36
351 177 45
352 72 119
353 26 107
354 15 57
355 54 73
356 68 152
357 93 26
358 40 101
359 111 24
360 46 128
361 177 55
362 132 139
363 101 62
364 97 116
365 81 83
366 157 59
367 91 49
368 81 32
369 47 80
370 119 62
371 43 98
372 101 55
373 31 63
374 145 144
375 56 192
376 101 158
377 30 86
378 33 188
379 156 64
380 154 44
381 171 63
382 139 169
383 121 52
384 139 102
385 84 10
386 7 63
387 184 55
388 58 168
389 156 135
390 165 52
391 128 141
392 79 106
393 102 56
394 87 132
395 23 172
396 64 172
397 82 104
398 99 156
399 146 142
400 14 81
401 79 19
402 132 139
403 126 59
404 69 121
405 52 79
PICKUP_AND_DELIVERY_SECTION
1 0 0 3693 0 0 0
2 10 81 961 90 0 265
3 -20 285 1165 90 392 0
4 -30 1773 2653 90 372 0
5 -10 1658 2538 90 255 0
6 10 1524 2404 90 0 395
7 20 2535 3415 90 0 132
8 10 565 1445 90 0 102
9 20 1835 2715 90 0 382
10 -20 506 1386 90 90 0
11 10 1825 2705 90 0 243
12 -10 1231 2111 90 198 0
13 10 1257 2137 90 0 391
14 -20 1675 2555 90 142 0
15 -30 1072 1952 90 299 0
16 10 29 909 90 0 308
17 -40 2299 3179 90 125 0
18 -20 1611 2491 90 36 0
19 -30 479 1359 90 26 0
20 -20 1541 2421 90 201 0
21 30 113 993 90 0 244
22 30 56 936 90 0 352
23 10 252 1132 90 0 262
24 20 409 1289 90 0 86
25 -30 1581 2461 90 104 0
26 30 27 907 90 0 19
27 20 1212 2092 90 0 300
28 10 149 1029 90 0 338
29 20 692 1572 90 0 364
30 20 981 1861 90 0 218
31 -10 2207 3087 90 204 0
32 10 36 916 90 0 186
33 -20 1382 2262 90 332 0
34 -20 2544 3424 90 133 0
35 20 72 952 90 0 206
36 20 53 933 90 0 18
37 20 73 953 90 0 207
38 10 41 921 90 0 359
39 -20 2109 2989 90 377 0
40 10 1093 1973 90 0 127
41 -10 2672 3552 90 248 0
42 -20 1725 2605 90 148 0
43 20 1737 2617 90 0 306
44 20 2026 2906 90 0 333
45 -10 1000 1880 90 370 0
46 -30 2211 3091 90 224 0
47 -10 1355 2235 90 277 0
48 20 1784 2664 90 0 122
49 -30 2666 3546 90 398 0
50 20 37 917 90 0 334
51 -30 632 1512 90 348 0
52 10 300 1180 90 0 110
53 -10 2336 3216 90 344 0
54 -30 83 963 90 138 0
55 -20 1100 1980 90 140 0
56 -30 2304 3184 90 143 0
57 20 2512 3392 90 0 83
58 -30 2303 3183 90 294 0
59 -20 1108 1988 90 118 0
60 10 1442 2322 90 0 260
61 30 515 1395 90 0 187
62 -20 2636 3516 90 287 0
63 10 58 938 90 0 153
64 -10 1933 2813 90 349 0
65 20 81 961 90 0 375
66 -30 1708 2588 90 173 0
67 -20 2150 3030 90 337 0
68 10 141 1021 90 0 105
69 20 1352 2232 90 0 232
70 20 477 1357 90 0 250
71 -20 2674 3554 90 209 0
72 -20 2530 3410 90 278 0
73 10 2672 3552 90 0 256
74 -10 128 1008 90 147 0
75 -10 2343 3223 90 273 0
76 20 9 889 90 0 171
77 -10 2696 3576 90 304 0
78 20 1868 2748 90 0 222
79 -30 1725 2605 90 203 0
80 -10 2237 3117 90 92 0
81 -20 1612 2492 90 227 0
82 20 2497 3377 90 0 196
83 -20 2655 3535 90 57 0
84 20 787 1667 90 0 385
85 10 212 1092 90 0 292
86 -20 2121 3001 90 24 0
87 -20 2245 3125 90 131 0
88 -10 1427 2307 90 175 0
89 -20 2394 3274 90 219 0
90 20 61 941 90 0 10
91 -10 2413 3293 90 396 0
92 10 1954 2834 90 0 80
93 -10 2016 2896 90 261 0
94 20 758 1638 90 0 119
95 -20 714 1594 90 130 0
96 10 1329 2209 90 0 328
97 -30 2325 3205 90 128 0
98 10 419 1299 90 0 290
99 -30 2254 3134 90 144 0
100 -10 2627 3507 90 295 0
101 -20 471 1351 90 326 0
102 -10 592 1472 90 8 0
103 20 1549 2429 90 0 321
104 30 1010 1890 90 0 25
105 -10 240 1120 90 68 0
106 10 113 993 90 0 112
107 -30 2641 3521 90 366 0
108 -20 1842 2722 90 167 0
109 10 1313 2193 90 0 194
110 -10 2688 3568 90 52 0
111 10 113 993 90 0 114
112 -10 2399 3279 90 106 0
113 -10 808 1688 90 115 0
114 -10 1131 2011 90 111 0
115 10 526 1406 90 0 113
116 10 27 907 90 0 168
117 -10 1534 2414 90 374 0
118 20 903 1783 90 0 59
119 -20 2050 2930 90 94 0
120 -10 269 1149 90 163 0
121 10 1092 1972 90 0 162
122 -20 2159 3039 90 48 0
123 -40 705 1585 90 164 0
124 20 1575 2455 90 0 379
125 40 768 1648 90 0 17
126 -30 1204 2084 90 192 0
127 -10 2606 3486 90 40 0
128 30 63 943 90 0 97
129 -30 337 1217 90 378 0
130 20 237 1117 90 0 95
131 20 2150 3030 90 0 87
132 -20 2674 3554 90 7 0
133 20 1391 2271 90 0 34
134 30 177 1057 90 0 225
135 -30 1749 2629 90 312 0
136 -20 1655 2535 90 388 0
137 -10 1902 2782 90 354 0
138 30 50 930 90 0 54
139 -20 2662 3542 90 258 0
140 20 623 1503 90 0 55
141 -10 379 1259 90 145 0
142 20 1090 1970 90 0 14
143 30 1027 1907 90 0 56
144 30 1182 2062 90 0 99
145 10 29 909 90 0 141
146 -10 2384 3264 90 386 0
147 10 82 962 90 0 74
148 20 55 935 90 0 42
149 -10 1431 2311 90 270 0
150 20 704 1584 90 0 205
151 -30 2709 3589 90 400 0
152 20 851 1731 90 0 353
153 -10 586 1466 90 63 0
154 10 2009 2889 90 0 208
155 -10 68 948 90 241 0
156 20 1654 2534 90 0 247
157 -10 535 1415 90 347 0
158 -30 828 1708 90 176 0
159 30 2103 2983 90 0 320
160 10 1098 1978 90 0 200
161 -20 1971 2851 90 390 0
162 -10 2492 3372 90 121 0
163 10 18 898 90 0 120
164 40 225 1105 90 0 123
165 -20 2674 3554 90 281 0
166 20 994 1874 90 0 301
167 20 82 962 90 0 108
168 -10 2258 3138 90 116 0
169 -20 1925 2805 90 335 0
170 20 972 1852 90 0 221
171 -20 28 908 90 76 0
172 -30 493 1373 90 293 0
173 30 783 1663 90 0 66
174 20 1449 2329 90 0 289
175 10 55 935 90 0 88
176 30 102 982 90 0 158
177 -20 2640 3520 90 211 0
178 10 27 907 90 0 191
179 30 585 1465 90 0 367
180 -20 1372 2252 90 324 0
181 30 597 1477 90 0 316
182 -30 2250 3130 90 380 0
183 10 670 1550 90 0 275
184 20 1419 2299 0 0 403
185 -10 1373 2253 90 358 0
186 -10 784 1664 90 32 0
187 -30 890 1770 90 61 0
188 20 1295 2175 90 0 318
189 10 401 1281 90 0 376
190 10 97 977 90 0 246
191 -10 715 1595 90 178 0
192 30 54 934 90 0 126
193 30 98 978 90 0 199
194 -10 1201 2081 90 109 0
195 20 902 1782 90 0 282
196 -20 2441 3321 90 82 0
197 20 1315 2195 90 0 355
198 10 667 1547 90 0 12
199 -30 726 1606 90 193 0
200 -10 1486 2366 90 160 0
201 20 1333 2213 90 0 20
202 -10 1288 2168 90 350 0
203 30 920 1800 90 0 79
204 10 89 969 90 0 31
205 -20 896 1776 90 150 0
206 -20 1076 1956 90 35 0
207 -20 1233 2113 90 37 0
208 -10 2104 2984 90 154 0
209 20 1132 2012 90 0 71
210 -20 2229 3109 90 252 0
211 20 683 1563 90 0 177
212 20 51 931 90 0 323
213 -10 755 1635 90 214 0
214 10 18 898 90 0 213
215 -30 1492 2372 90 217 0
216 -10 2291 3171 90 230 0
217 30 26 906 90 0 215
218 -20 1846 2726 90 30 0
219 20 28 908 90 0 89
220 20 1560 2440 90 0 394
221 -20 1858 2738 90 170 0
222 -20 2423 3303 90 78 0
223 -20 60 940 90 237 0
224 30 1618 2498 90 0 46
225 -30 332 1212 90 134 0
226 10 60 940 90 0 228
227 20 1521 2401 90 0 81
228 -10 504 1384 90 226 0
229 -20 1762 2642 90 264 0
230 10 1708 2588 90 0 216
231 30 1961 2841 90 0 245
232 -20 1930 2810 90 69 0
233 30 1277 2157 90 0 302
234 20 2157 3037 90 0 341
235 -20 2334 3214 90 240 0
236 -10 73 953 90 368 0
237 20 181 1061 90 0 223
238 20 1135 2015 90 0 267
239 -20 29 909 90 325 0
240 20 49 929 90 0 235
241 10 62 942 90 0 155
242 -20 1039 1919 90 272 0
243 -10 2705 3585 90 11 0
244 -30 2436 3316 90 21 0
245 -30 2063 2943 90 231 0
246 -10 1467 2347 90 190 0
247 -20 2346 3226 90 156 0
248 10 2629 3509 90 0 41
249 -10 685 1565 90 322 0
250 -20 572 1452 90 70 0
251 30 874 1754 90 0 268
252 20 1157 2037 90 0 210
253 20 47 927 90 0 259
254 10 381 1261 90 0 331
255 10 481 1361 90 0 5
256 -10 2578 3458 90 73 0
257 10 64 944 90 0 361
258 20 2427 3307 90 0 139
259 -20 1630 2510 90 253 0
260 -10 1919 2799 90 60 0
261 10 1044 1924 90 0 93
262 -10 1877 2757 90 23 0
263 20 22 902 90 0 363
264 20 690 1570 90 0 229
265 -10 531 1411 90 2 0
266 -40 2129 3009 90 383 0
267 -20 2485 3365 90 238 0
268 -30 1583 2463 90 251 0
269 10 1204 2084 90 0 345
270 10 102 982 90 0 149
271 -10 2440 3320 90 313 0
272 20 289 1169 90 0 242
273 10 610 1490 90 0 75
274 -10 1778 2658 90 284 0
275 -10 984 1864 90 183 0
276 20 364 1244 90 0 360
277 10 57 937 90 0 47
278 20 2219 3099 90 0 72
279 -30 1002 1882 90 373 0
280 10 1446 2326 90 0 317
281 20 1329 2209 90 0 165
282 -20 1805 2685 90 195 0
283 20 2643 3523 90 0 315
284 10 946 1826 90 0 274
285 30 661 1541 90 0 309
286 -10 1476 2356 90 387 0
287 20 2674 3554 90 0 62
288 -10 408 1288 90 291 0
289 -20 2617 3497 90 174 0
290 -10 2063 2943 90 98 0
291 10 72 952 90 0 288
292 -10 1557 2437 90 85 0
293 30 97 977 90 0 172
294 30 578 1458 90 0 58
295 10 2671 3551 90 0 100
296 20 879 1759 90 0 401
297 30 19 899 90 0 327
298 20 877 1757 0 0 404
299 30 315 1195 90 0 15
300 -20 1297 2177 90 27 0
301 -20 1465 2345 90 166 0
302 -30 2052 2932 90 233 0
303 -10 424 1304 90 314 0
304 10 2195 3075 90 0 77
305 -10 1167 2047 90 310 0
306 -20 2029 2909 90 43 0
307 20 1400 2280 90 0 365
308 -10 1826 2706 90 16 0
309 -30 1728 2608 90 285 0
310 10 100 980 90 0 305
311 -30 1993 2873 90 371 0
312 30 1281 2161 90 0 135
313 10 1855 2735 90 0 271
314 10 332 1212 90 0 303
315 -20 2352 3232 90 283 0
316 -30 2332 3212 90 181 0
317 -10 1546 2426 90 280 0
318 -20 2446 3326 90 188 0
319 20 2671 3551 0 0 405
320 -30 1635 2515 90 159 0
321 -20 2662 3542 90 103 0
322 10 87 967 90 0 249
323 -20 1643 2523 90 212 0
324 20 72 952 90 0 180
325 20 18 898 90 0 239
326 20 45 925 90 0 101
327 -30 2482 3362 90 297 0
328 -10 1426 2306 90 96 0
329 -20 2016 2896 90 343 0
330 -10 69 949 90 384 0
331 -10 1805 2685 90 254 0
332 20 59 939 90 0 33
333 -20 2322 3202 90 44 0
334 -20 197 1077 90 50 0
335 20 2020 2900 90 0 169
336 20 194 1074 90 0 389
337 20 1751 2631 90 0 67
338 -10 84 964 90 28 0
339 20 1678 2558 90 0 393
340 -30 876 1756 90 356 0
341 -20 2526 3406 90 234 0
342 30 62 942 90 0 399
343 20 2144 3024 90 0 329
344 10 1955 2835 90 0 53
345 -10 2665 3545 90 269 0
346 30 200 1080 90 0 357
347 10 244 1124 90 0 157
348 30 433 1313 90 0 51
349 10 606 1486 90 0 64
350 10 322 1202 90 0 202
351 30 989 1869 90 0 381
352 -30 783 1663 90 22 0
353 -20 1231 2111 90 152 0
354 10 428 1308 90 0 137
355 -20 2670 3550 90 197 0
356 30 61 941 90 0 340
357 -30 2521 3401 90 346 0
358 10 193 1073 90 0 185
359 -10 275 1155 90 38 0
360 -20 484 1364 90 276 0
361 -10 799 1679 90 257 0
362 10 2673 3553 0 0 402
363 -20 145 1025 90 263 0
364 -20 2540 3420 90 29 0
365 -20 2201 3081 90 307 0
366 30 2441 3321 90 0 107
367 -30 2229 3109 90 179 0
368 10 70 950 90 0 236
369 10 2580 3460 90 0 397
370 10 620 1500 90 0 45
371 30 378 1258 90 0 311
372 30 45 925 90 0 4
373 30 78 958 90 0 279
374 10 945 1825 90 0 117
375 -20 797 1677 90 65 0
376 -10 972 1852 90 189 0
377 20 2397 3277 90 0 39
378 30 151 1031 90 0 129
379 -20 2536 3416 90 124 0
380 30 77 957 90 0 182
381 -30 1875 2755 90 351 0
382 -20 2125 3005 90 9 0
383 40 1518 2398 90 0 266
384 10 39 919 90 0 330
385 -20 1260 2140 90 84 0
386 10 809 1689 90 0 146
387 10 1185 2065 90 0 286
388 20 311 1191 90 0 136
389 -20 381 1261 90 336 0
390 20 898 1778 90 0 161
391 -10 2674 3554 90 13 0
392 20 21 901 90 0 3
393 -20 1899 2779 90 339 0
394 -20 1942 2822 90 220 0
395 -10 2114 2994 90 6 0
396 10 1187 2067 90 0 91
397 -10 2705 3585 90 369 0
398 30 1065 1945 90 0 49
399 -30 853 1733 90 342 0
400 30 1679 2559 90 0 151
401 -20 2051 2931 90 296 0
402 -10 2673 3553 90 362 0
403 -20 1419 2299 90 184 0
404 -20 877 1757 90 298 0
405 -20 2671 3551 90 319 0
DEPOT_SECTION
1
-1
EOF
