NAME: lc2_4_8
TYPE: PDPTW
COMMENT: Li & Lim PDPTW benchmark converted from SINTEF format
DIMENSION: 407
VEHICLES: 100
CAPACITY: 700
EDGE_WEIGHT_TYPE: EUC_2D
NODE_COORD_SECTION
1 100 100
2 37 48
3 42 100
4 131 31
5 108 13
6 17 166
7 147 134
8 48 103
9 127 166
10 50 181
11 19 156
12 146 157
13 93 166
14 170 83
15 79 13
16 73 112
17 87 87
18 118 50
19 79 70
20 67 102
21 48 166
22 45 88
23 61 101
24 54 175
25 126 39
26 107 73
27 42 75
28 74 102
29 72 118
30 65 135
31 27 89
32 84 133
33 178 69
34 127 46
35 28 96
36 100 47
37 69 167
38 98 59
39 79 84
40 61 174
41 138 135
42 170 156
43 119 169
44 66 192
45 120 76
46 29 171
47 89 11
48 170 64
49 135 146
50 85 134
51 19 179
52 95 137
53 163 125
54 30 54
55 16 77
56 28 168
57 78 188
58 27 83
59 136 57
60 59 98
61 170 49
62 114 138
63 78 154
64 69 190
65 60 171
66 112 53
67 99 123
68 28 50
69 97 163
70 150 135
71 136 134
72 120 153
73 79 89
74 162 44
75 163 55
76 103 91
77 74 91
78 126 31
79 16 146
80 84 20
81 21 91
82 37 162
83 89 168
84 72 10
85 55 160
86 63 189
87 164 124
88 20 96
89 82 88
90 76 157
91 74 196
92 85 14
93 77 86
94 142 141
95 119 66
96 7 176
97 92 55
98 168 43
99 89 113
100 98 85
101 46 99
102 62 120
103 93 1
104 144 58
105 20 54
106 32 191
107 143 72
108 68 190
109 140 51
110 119 130
111 37 195
112 29 163
113 120 70
114 12 186
115 118 59
116 90 74
117 165 151
118 125 72
119 177 122
120 64 78
121 67 60
122 167 55
123 173 56
124 179 78
125 83 74
126 140 70
127 81 191
128 101 37
129 34 182
130 99 61
131 168 126
132 139 131
133 134 46
134 66 78
135 71 189
136 70 185
137 16 78
138 57 73
139 92 39
140 5 58
141 75 61
142 186 50
143 14 199
144 80 139
145 110 72
146 40 87
147 155 38
148 155 108
149 152 149
150 55 195
151 86 100
152 36 107
153 103 148
154 29 88
155 32 93
156 79 132
157 25 182
158 25 187
159 23 102
160 128 80
161 165 62
162 34 84
163 82 100
164 162 37
165 138 132
166 65 182
167 53 168
168 114 55
169 24 164
170 74 5
171 109 73
172 102 146
173 144 38
174 93 11
175 73 106
176 51 190
177 106 113
178 81 80
179 138 22
180 69 173
181 75 18
182 166 55
183 89 68
184 126 59
185 88 137
186 99 152
187 178 54
188 132 51
189 100 147
190 36 96
191 6 59
192 102 62
193 55 188
194 135 54
195 6 66
196 88 116
197 29 75
198 143 140
199 15 181
200 130 42
201 17 99
202 182 68
203 27 187
204 40 34
205 57 183
206 64 140
207 2 178
208 34 89
209 149 149
210 147 158
211 110 150
212 83 149
213 42 105
214 83 108
215 20 78
216 38 85
217 101 74
218 82 128
219 73 110
220 81 136
221 91 14
222 96 62
223 130 47
224 14 163
225 21 56
226 88 41
227 20 92
228 73 20
229 95 18
230 17 87
231 123 32
232 124 170
233 84 141
234 116 44
235 133 162
236 74 31
237 107 23
238 25 102
239 97 71
240 83 147
241 38 94
242 149 146
243 93 117
244 124 154
245 115 40
246 84 136
247 88 111
248 143 135
249 143 30
250 148 139
251 68 69
252 97 157
253 146 113
254 118 9
255 125 16
256 81 92
257 148 57
258 89 27
259 165 157
260 70 89
261 25 101
262 6 95
263 89 80
264 76 15
265 3 56
266 82 48
267 81 89
268 20 79
269 30 75
270 160 137
271 150 130
272 156 137
273 169 54
274 13 90
275 49 64
276 39 99
277 91 43
278 60 197
279 15 69
280 101 164
281 153 161
282 11 83
283 127 55
284 33 103
285 43 101
286 175 70
287 122 144
288 68 16
289 93 32
290 164 61
291 79 31
292 69 178
293 86 155
294 87 67
295 99 48
296 72 8
297 108 82
298 69 121
299 67 13
300 33 73
301 68 176
302 106 127
303 106 60
304 35 90
305 84 13
306 133 168
307 21 76
308 67 89
309 67 97
310 69 40
311 13 120
312 68 173
313 190 122
314 104 59
315 117 53
316 84 25
317 109 169
318 120 50
319 52 79
320 69 99
321 91 39
322 108 26
323 116 171
324 65 164
325 106 83
326 55 97
327 39 79
328 13 173
329 95 29
330 160 136
331 105 55
332 146 62
333 73 196
334 95 150
335 26 169
336 161 139
337 77 126
338 66 81
339 132 36
340 101 152
341 94 75
342 158 122
343 81 20
344 180 126
345 47 76
346 60 37
347 35 185
348 36 177
349 48 191
350 169 36
351 177 45
352 72 119
353 26 107
354 15 57
355 54 73
356 68 152
357 93 26
358 40 101
359 111 24
360 46 128
361 177 55
362 132 139
363 101 62
364 97 116
365 81 83
366 157 59
367 91 49
368 81 32
369 47 80
370 119 62
371 43 98
372 101 55
373 31 63
374 145 144
375 56 192
376 101 158
377 30 86
378 33 188
379 156 64
380 154 44
381 171 63
382 139 169
383 121 52
384 139 102
385 84 10
386 7 63
387 184 55
388 58 168
389 156 135
390 165 52
391 128 141
392 79 106
393 102 56
394 87 132
395 23 172
396 64 172
397 82 104
398 99 156
399 146 142
400 14 81
401 79 19
402 14 163
403 119 130
404 27 89
405 139 169
406 87 87
407 178 54
PICKUP_AND_DELIVERY_SECTION
1 0 0 3693 0 0 0
2 -30 81 721 90 373 0
3 -30 405 1045 90 22 0
4 -20 1893 2533 90 133 0
5 -30 1778 2418 90 229 0
6 -20 1644 2284 90 65 0
7 20 2655 3295 90 0 132
8 10 685 1325 90 0 29
9 -20 1955 2595 90 212 0
10 -20 626 1266 90 388 0
11 -10 1945 2585 90 157 0
12 40 1351 1991 90 0 313
13 -20 1377 2017 90 211 0
14 30 1795 2435 90 0 161
15 20 1192 1832 90 0 92
16 -10 29 669 90 214 0
17 10 2419 3059 0 0 406
18 -30 1731 2371 90 104 0
19 20 599 1239 90 0 365
20 -20 1661 2301 90 300 0
21 -20 233 873 90 324 0
22 30 56 696 90 0 3
23 -20 372 1012 90 392 0
24 -20 529 1169 90 167 0
25 10 1701 2341 90 0 78
26 30 27 667 90 0 314
27 20 1332 1972 90 0 320
28 10 269 909 90 0 352
29 -10 812 1452 90 8 0
30 -30 1101 1741 90 360 0
31 10 2327 2967 0 0 404
32 10 36 676 90 0 376
33 -10 1502 2142 90 273 0
34 20 2664 3304 90 0 283
35 20 119 759 90 0 101
36 20 53 693 90 0 249
37 -20 73 713 90 90 0
38 10 41 681 90 0 359
39 10 2229 2869 90 0 89
40 10 1213 1853 90 0 83
41 -30 2844 3484 90 119 0
42 -20 1845 2485 90 250 0
43 -30 1857 2497 90 398 0
44 -10 2146 2786 90 135 0
45 -20 1120 1760 90 118 0
46 -20 2331 2971 90 129 0
47 -20 1475 2115 90 174 0
48 -20 1904 2544 90 381 0
49 10 2906 3546 90 0 287
50 20 37 677 90 0 210
51 -30 752 1392 90 348 0
52 10 420 1060 90 0 317
53 -20 2456 3096 90 94 0
54 30 83 723 90 0 265
55 -40 1220 1860 90 225 0
56 20 2424 3064 90 0 82
57 -10 2632 3272 90 85 0
58 -20 2423 3063 90 307 0
59 30 1228 1868 90 0 194
60 10 1562 2202 90 0 260
61 -10 635 1275 90 350 0
62 -30 2756 3396 90 334 0
63 10 58 698 90 0 106
64 30 2053 2693 90 0 177
65 20 130 770 90 0 6
66 10 1828 2468 90 0 393
67 -20 2270 2910 90 218 0
68 10 261 901 90 0 191
69 -20 1472 2112 90 340 0
70 20 597 1237 90 0 165
71 -10 2914 3554 90 344 0
72 -40 2650 3290 90 186 0
73 -10 2792 3432 90 282 0
74 20 248 888 90 0 202
75 -30 2463 3103 90 351 0
76 20 9 649 90 0 188
77 -10 2887 3527 90 190 0
78 -10 1988 2628 90 25 0
79 -10 1845 2485 90 114 0
80 10 2357 2997 90 0 316
81 -10 1732 2372 90 284 0
82 -20 2617 3257 90 56 0
83 -10 2841 3481 90 40 0
84 -10 907 1547 90 277 0
85 10 332 972 90 0 57
86 -10 2241 2881 90 301 0
87 -20 2365 3005 90 253 0
88 -30 1547 2187 90 371 0
89 -10 2514 3154 90 39 0
90 20 61 701 90 0 37
91 -20 2533 3173 90 333 0
92 -20 2074 2714 90 15 0
93 -20 2136 2776 90 141 0
94 20 878 1518 90 0 53
95 10 834 1474 90 0 160
96 -30 1449 2089 90 378 0
97 -20 2445 3085 90 331 0
98 -10 539 1179 90 147 0
99 -30 2374 3014 90 102 0
100 -10 2747 3387 90 145 0
101 -20 591 1231 90 35 0
102 30 712 1352 90 0 99
103 20 1669 2309 90 0 329
104 30 1130 1770 90 0 18
105 20 360 1000 90 0 195
106 -10 113 753 90 63 0
107 -10 2761 3401 90 257 0
108 20 1962 2602 90 0 278
109 10 1433 2073 90 0 383
110 20 2928 3568 0 0 403
111 10 173 813 90 0 203
112 -10 2519 3159 90 395 0
113 10 928 1568 90 0 126
114 10 1251 1891 90 0 79
115 10 646 1286 90 0 367
116 -20 27 667 90 263 0
117 -20 1654 2294 90 148 0
118 20 1023 1663 90 0 45
119 30 2170 2810 90 0 41
120 10 389 1029 90 0 247
121 -30 1212 1852 90 294 0
122 30 2279 2919 90 0 379
123 20 825 1465 90 0 286
124 -30 1695 2335 90 380 0
125 40 888 1528 90 0 269
126 -10 1324 1964 90 113 0
127 -20 2726 3366 90 292 0
128 30 104 744 90 0 179
129 20 457 1097 90 0 46
130 20 357 997 90 0 173
131 -20 2270 2910 90 336 0
132 -20 2914 3554 90 7 0
133 20 1511 2151 90 0 4
134 30 297 937 90 0 156
135 10 1869 2509 90 0 44
136 -30 1775 2415 90 356 0
137 -30 2022 2662 90 268 0
138 30 50 690 90 0 355
139 -20 2902 3542 90 258 0
140 20 743 1383 90 0 386
141 20 499 1139 90 0 93
142 20 1210 1850 90 0 290
143 -30 1147 1787 90 158 0
144 30 1302 1942 90 0 364
145 10 71 711 90 0 100
146 -20 2504 3144 90 353 0
147 10 149 789 90 0 98
148 20 55 695 90 0 117
149 -20 1551 2191 90 272 0
150 20 824 1464 90 0 166
151 -20 2949 3589 90 377 0
152 20 971 1611 90 0 208
153 20 706 1346 90 0 252
154 10 2129 2769 90 0 216
155 -10 68 708 90 241 0
156 -30 1774 2414 90 134 0
157 10 655 1295 90 0 11
158 30 948 1588 90 0 143
159 -20 2223 2863 90 274 0
160 -10 1218 1858 90 95 0
161 -30 2091 2731 90 14 0
162 10 2612 3252 90 0 267
163 10 18 658 90 0 326
164 -10 345 985 90 223 0
165 -20 2914 3554 90 70 0
166 -20 1114 1754 90 150 0
167 20 82 722 90 0 24
168 -20 2378 3018 90 339 0
169 -10 2045 2685 90 207 0
170 -30 1092 1732 90 299 0
171 -30 28 668 90 297 0
172 -10 613 1253 90 189 0
173 -20 903 1543 90 130 0
174 20 1569 2209 90 0 47
175 10 175 815 90 0 246
176 30 102 742 90 0 328
177 -30 2760 3400 90 64 0
178 10 99 739 90 0 327
179 -30 705 1345 90 128 0
180 -20 1492 2132 90 375 0
181 -10 717 1357 90 310 0
182 10 2370 3010 90 0 366
183 10 790 1430 90 0 275
184 -30 1539 2179 90 192 0
185 -10 1493 2133 90 338 0
186 40 904 1544 90 0 72
187 20 1010 1650 0 0 407
188 -20 1415 2055 90 76 0
189 10 521 1161 90 0 172
190 10 217 857 90 0 77
191 -10 835 1475 90 68 0
192 30 174 814 90 0 184
193 30 98 738 90 0 199
194 -30 1321 1961 90 59 0
195 -20 1022 1662 90 105 0
196 -10 2561 3201 90 347 0
197 20 1435 2075 90 0 308
198 -10 787 1427 90 270 0
199 -30 846 1486 90 193 0
200 30 1606 2246 90 0 245
201 20 1453 2093 90 0 262
202 -20 1408 2048 90 74 0
203 -10 1040 1680 90 111 0
204 10 151 791 90 0 354
205 -10 1016 1656 90 349 0
206 20 1196 1836 90 0 337
207 10 1353 1993 90 0 169
208 -20 2224 2864 90 152 0
209 -20 1252 1892 90 389 0
210 -20 2349 2989 90 50 0
211 20 803 1443 90 0 13
212 20 51 691 90 0 9
213 20 875 1515 90 0 238
214 10 18 658 90 0 16
215 20 1612 2252 90 0 230
216 -10 2411 3051 90 154 0
217 30 26 666 90 0 322
218 20 1966 2606 90 0 67
219 20 81 721 90 0 220
220 -20 1680 2320 90 219 0
221 -40 1978 2618 90 385 0
222 -20 2543 3183 90 325 0
223 10 60 700 90 0 164
224 30 1738 2378 0 0 402
225 40 452 1092 90 0 55
226 10 60 700 90 0 368
227 -10 1641 2281 90 261 0
228 -10 624 1264 90 291 0
229 30 1882 2522 90 0 5
230 -20 1828 2468 90 215 0
231 -20 2081 2721 90 237 0
232 10 2050 2690 90 0 235
233 30 1397 2037 90 0 394
234 -10 2277 2917 90 254 0
235 -10 2454 3094 90 232 0
236 10 120 760 90 0 295
237 20 301 941 90 0 231
238 -20 1255 1895 90 213 0
239 10 29 669 90 0 255
240 20 49 689 90 0 391
241 10 62 702 90 0 155
242 10 1159 1799 90 0 281
243 -20 2869 3509 90 335 0
244 -20 2556 3196 90 323 0
245 -30 2183 2823 90 200 0
246 -10 1587 2227 90 175 0
247 -10 2466 3106 90 120 0
248 -20 2749 3389 90 259 0
249 -20 805 1445 90 36 0
250 20 692 1332 90 0 42
251 30 994 1634 90 0 309
252 -20 1277 1917 90 153 0
253 20 47 687 90 0 87
254 10 501 1141 90 0 234
255 -10 601 1241 90 239 0
256 -30 2698 3338 90 345 0
257 10 64 704 90 0 107
258 20 2547 3187 90 0 139
259 20 1750 2390 90 0 248
260 -10 2039 2679 90 60 0
261 10 1164 1804 90 0 227
262 -20 1997 2637 90 201 0
263 20 22 662 90 0 116
264 -10 810 1450 90 288 0
265 -30 651 1291 90 54 0
266 30 2249 2889 90 0 341
267 -10 2605 3245 90 162 0
268 30 1703 2343 90 0 137
269 -40 1324 1964 90 125 0
270 10 222 862 90 0 198
271 -10 2560 3200 90 399 0
272 20 409 1049 90 0 149
273 10 730 1370 90 0 33
274 20 1898 2538 90 0 159
275 -10 1104 1744 90 183 0
276 20 484 1124 90 0 358
277 10 57 697 90 0 84
278 -20 2339 2979 90 108 0
279 20 1122 1762 90 0 400
280 10 1566 2206 90 0 362
281 -10 1449 2089 90 242 0
282 10 1925 2565 90 0 73
283 -20 2763 3403 90 34 0
284 10 1066 1706 90 0 81
285 30 781 1421 90 0 397
286 -20 1596 2236 90 123 0
287 -10 2856 3496 90 49 0
288 10 528 1168 90 0 264
289 20 2737 3377 90 0 321
290 -20 2183 2823 90 142 0
291 10 72 712 90 0 228
292 20 1677 2317 90 0 127
293 30 217 857 90 0 306
294 30 698 1338 90 0 121
295 -10 2911 3551 90 236 0
296 -30 999 1639 90 346 0
297 30 19 659 90 0 171
298 20 997 1637 90 0 302
299 30 435 1075 90 0 170
300 20 1417 2057 90 0 20
301 10 1585 2225 90 0 86
302 -20 2172 2812 90 298 0
303 10 544 1184 90 0 370
304 10 2315 2955 90 0 319
305 10 1287 1927 90 0 343
306 -30 2149 2789 90 293 0
307 20 1520 2160 90 0 58
308 -20 1946 2586 90 197 0
309 -30 1848 2488 90 251 0
310 10 220 860 90 0 181
311 20 2113 2753 90 0 369
312 -10 1401 2041 90 396 0
313 -40 1975 2615 90 12 0
314 -30 452 1092 90 26 0
315 20 2472 3112 90 0 318
316 -10 2452 3092 90 80 0
317 -10 1666 2306 90 52 0
318 -20 2566 3206 90 315 0
319 -10 2890 3530 90 304 0
320 -20 1755 2395 90 27 0
321 -20 2834 3474 90 289 0
322 -30 207 847 90 217 0
323 20 1763 2403 90 0 244
324 20 72 712 90 0 21
325 20 18 658 90 0 222
326 -10 45 685 90 163 0
327 -10 2602 3242 90 178 0
328 -30 1546 2186 90 176 0
329 -20 2136 2776 90 103 0
330 -30 131 771 90 342 0
331 20 1925 2565 90 0 97
332 20 59 699 90 0 390
333 20 2442 3082 90 0 91
334 30 317 957 90 0 62
335 20 2140 2780 90 0 243
336 20 314 954 90 0 131
337 -20 1871 2511 90 206 0
338 10 204 844 90 0 185
339 20 1798 2438 90 0 168
340 20 996 1636 90 0 69
341 -30 2646 3286 90 266 0
342 30 62 702 90 0 330
343 -10 2264 2904 90 305 0
344 10 2075 2715 90 0 71
345 30 2794 3434 90 0 256
346 30 320 960 90 0 296
347 10 364 1004 90 0 196
348 30 553 1193 90 0 51
349 10 726 1366 90 0 205
350 10 442 1082 90 0 61
351 30 1109 1749 90 0 75
352 -10 903 1543 90 28 0
353 20 1351 1991 90 0 146
354 -10 548 1188 90 204 0
355 -30 2910 3550 90 138 0
356 30 109 749 90 0 136
357 -10 2641 3281 90 401 0
358 -20 313 953 90 276 0
359 -10 395 1035 90 38 0
360 30 604 1244 90 0 30
361 10 919 1559 90 0 387
362 -10 2913 3553 90 280 0
363 40 265 905 90 0 372
364 -30 2660 3300 90 144 0
365 -20 2321 2961 90 19 0
366 -10 2561 3201 90 182 0
367 -10 2349 2989 90 115 0
368 -10 70 710 90 226 0
369 -20 2700 3340 90 311 0
370 -10 740 1380 90 303 0
371 30 498 1138 90 0 88
372 -40 45 685 90 363 0
373 30 78 718 90 0 2
374 -10 1065 1705 90 384 0
375 20 917 1557 90 0 180
376 -10 1092 1732 90 32 0
377 20 2517 3157 90 0 151
378 30 271 911 90 0 96
379 -30 2656 3296 90 122 0
380 30 77 717 90 0 124
381 20 1995 2635 90 0 48
382 30 2245 2885 0 0 405
383 -10 1638 2278 90 109 0
384 10 39 679 90 0 374
385 40 1380 2020 90 0 221
386 -20 929 1569 90 140 0
387 -10 1305 1945 90 361 0
388 20 431 1071 90 0 10
389 20 501 1141 90 0 209
390 -20 1018 1658 90 332 0
391 -20 2914 3554 90 240 0
392 20 21 661 90 0 23
393 -10 2019 2659 90 66 0
394 -30 2062 2702 90 233 0
395 10 2234 2874 90 0 112
396 10 1307 1947 90 0 312
397 -30 2945 3585 90 285 0
398 30 1185 1825 90 0 43
399 10 973 1613 90 0 271
400 -20 1799 2439 90 279 0
401 10 2171 2811 90 0 357
402 -30 1738 2378 90 224 0
403 -20 2928 3568 90 110 0
404 -10 2327 2967 90 31 0
405 -30 2245 2885 90 382 0
406 -10 2419 3059 90 17 0
407 -20 1010 1650 90 187 0
DEPOT_SECTION
1
-1
EOF
