NAME: lc2_4_5
TYPE: PDPTW
COMMENT: Li & Lim PDPTW benchmark converted from SINTEF format
DIMENSION: 407
VEHICLES: 100
CAPACITY: 700
EDGE_WEIGHT_TYPE: EUC_2D
NODE_COORD_SECTION
1 100 100
2 37 48
3 42 100
4 131 31
5 108 13
6 17 166
7 147 134
8 48 103
9 127 166
10 50 181
11 19 156
12 146 157
13 93 166
14 170 83
15 79 13
16 73 112
17 87 87
18 118 50
19 79 70
20 67 102
21 48 166
22 45 88
23 61 101
24 54 175
25 126 39
26 107 73
27 42 75
28 74 102
29 72 118
30 65 135
31 27 89
32 84 133
33 178 69
34 127 46
35 28 96
36 100 47
37 69 167
38 98 59
39 79 84
40 61 174
41 138 135
42 170 156
43 119 169
44 66 192
45 120 76
46 29 171
47 89 11
48 170 64
49 135 146
50 85 134
51 19 179
52 95 137
53 163 125
54 30 54
55 16 77
56 28 168
57 78 188
58 27 83
59 136 57
60 59 98
61 170 49
62 114 138
63 78 154
64 69 190
65 60 171
66 112 53
67 99 123
68 28 50
69 97 163
70 150 135
71 136 134
72 120 153
73 79 89
74 162 44
75 163 55
76 103 91
77 74 91
78 126 31
79 16 146
80 84 20
81 21 91
82 37 162
83 89 168
84 72 10
85 55 160
86 63 189
87 164 124
88 20 96
89 82 88
90 76 157
91 74 196
92 85 14
93 77 86
94 142 141
95 119 66
96 7 176
97 92 55
98 168 43
99 89 113
100 98 85
101 46 99
102 62 120
103 93 1
104 144 58
105 20 54
106 32 191
107 143 72
108 68 190
109 140 51
110 119 130
111 37 195
112 29 163
113 120 70
114 12 186
115 118 59
116 90 74
117 165 151
118 125 72
119 177 122
120 64 78
121 67 60
122 167 55
123 173 56
124 179 78
125 83 74
126 140 70
127 81 191
128 101 37
129 34 182
130 99 61
131 168 126
132 139 131
133 134 46
134 66 78
135 71 189
136 70 185
137 16 78
138 57 73
139 92 39
140 5 58
141 75 61
142 186 50
143 14 199
144 80 139
145 110 72
146 40 87
147 155 38
148 155 108
149 152 149
150 55 195
151 86 100
152 36 107
153 103 148
154 29 88
155 32 93
156 79 132
157 25 182
158 25 187
159 23 102
160 128 80
161 165 62
162 34 84
163 82 100
164 162 37
165 138 132
166 65 182
167 53 168
168 114 55
169 24 164
170 74 5
171 109 73
172 102 146
173 144 38
174 93 11
175 73 106
176 51 190
177 106 113
178 81 80
179 138 22
180 69 173
181 75 18
182 166 55
183 89 68
184 126 59
185 88 137
186 99 152
187 178 54
188 132 51
189 100 147
190 36 96
191 6 59
192 102 62
193 55 188
194 135 54
195 6 66
196 88 116
197 29 75
198 143 140
199 15 181
200 130 42
201 17 99
202 182 68
203 27 187
204 40 34
205 57 183
206 64 140
207 2 178
208 34 89
209 149 149
210 147 158
211 110 150
212 83 149
213 42 105
214 83 108
215 20 78
216 38 85
217 101 74
218 82 128
219 73 110
220 81 136
221 91 14
222 96 62
223 130 47
224 14 163
225 21 56
226 88 41
227 20 92
228 73 20
229 95 18
230 17 87
231 123 32
232 124 170
233 84 141
234 116 44
235 133 162
236 74 31
237 107 23
238 25 102
239 97 71
240 83 147
241 38 94
242 149 146
243 93 117
244 124 154
245 115 40
246 84 136
247 88 111
248 143 135
249 143 30
250 148 139
251 68 69
252 97 157
253 146 113
254 118 9
255 125 16
256 81 92
257 148 57
258 89 27
259 165 157
260 70 89
261 25 101
262 6 95
263 89 80
264 76 15
265 3 56
266 82 48
267 81 89
268 20 79
269 30 75
270 160 137
271 150 130
272 156 137
273 169 54
274 13 90
275 49 64
276 39 99
277 91 43
278 60 197
279 15 69
280 101 164
281 153 161
282 11 83
283 127 55
284 33 103
285 43 101
286 175 70
287 122 144
288 68 16
289 93 32
290 164 61
291 79 31
292 69 178
293 86 155
294 87 67
295 99 48
296 72 8
297 108 82
298 69 121
299 67 13
300 33 73
301 68 176
302 106 127
303 106 60
304 35 90
305 84 13
306 133 168
307 21 76
308 67 89
309 67 97
310 69 40
311 13 120
312 68 173
313 190 122
314 104 59
315 117 53
316 84 25
317 109 169
318 120 50
319 52 79
320 69 99
321 91 39
322 108 26
323 116 171
324 65 164
325 106 83
326 55 97
327 39 79
328 13 173
329 95 29
330 160 136
331 105 55
332 146 62
333 73 196
334 95 150
335 26 169
336 161 139
337 77 126
338 66 81
339 132 36
340 101 152
341 94 75
342 158 122
343 81 20
344 180 126
345 47 76
346 60 37
347 35 185
348 36 177
349 48 191
350 169 36
351 177 45
352 72 119
353 26 107
354 15 57
355 54 73
356 68 152
357 93 26
358 40 101
359 111 24
360 46 128
361 177 55
362 132 139
363 101 62
364 97 116
365 81 83
366 157 59
367 91 49
368 81 32
369 47 80
370 119 62
371 43 98
372 101 55
373 31 63
374 145 144
375 56 192
376 101 158
377 30 86
378 33 188
379 156 64
380 154 44
381 171 63
382 139 169
383 121 52
384 139 102
385 84 10
386 7 63
387 184 55
388 58 168
389 156 135
390 165 52
391 128 141
392 79 106
393 102 56
394 87 132
395 23 172
396 64 172
397 82 104
398 99 156
399 146 142
400 14 81
401 79 19
402 39 79
403 57 183
404 102 62
405 127 55
406 81 92
407 143 72
PICKUP_AND_DELIVERY_SECTION
1 0 0 3693 0 0 0
2 10 207 527 90 0 355
3 -10 565 885 90 241 0
4 -30 2053 2373 90 217 0
5 20 1938 2258 90 0 316
6 -20 1804 2124 90 167 0
7 -10 2815 3135 90 242 0
8 10 845 1165 90 0 302
9 20 2115 2435 90 0 49
10 -20 786 1106 90 37 0
11 -30 2105 2425 90 348 0
12 40 1511 1831 90 0 281
13 -20 1537 1857 90 211 0
14 -20 1955 2275 90 187 0
15 -20 1352 1672 90 170 0
16 -10 149 469 90 214 0
17 -10 2579 2899 90 60 0
18 -10 1891 2211 90 115 0
19 -20 759 1079 90 141 0
20 40 1821 2141 90 0 39
21 30 393 713 90 0 64
22 -20 56 376 90 326 0
23 -10 532 852 90 175 0
24 20 689 1009 90 0 301
25 10 1861 2181 90 0 339
26 30 27 347 90 0 130
27 -20 1492 1812 90 263 0
28 10 429 749 90 0 227
29 20 972 1292 90 0 206
30 -20 1261 1581 90 298 0
31 10 2487 2807 90 0 154
32 10 36 356 90 0 240
33 40 1662 1982 90 0 286
34 -20 2824 3144 90 234 0
35 20 279 599 90 0 190
36 20 164 484 90 0 359
37 20 190 510 90 0 10
38 10 41 361 90 0 322
39 -40 2389 2709 90 20 0
40 -20 1373 1693 90 65 0
41 -20 3004 3324 90 117 0
42 10 2005 2325 90 0 165
43 -10 2017 2337 90 317 0
44 -20 2306 2626 90 108 0
45 -10 1280 1600 90 113 0
46 20 2491 2811 90 0 112
47 10 1635 1955 90 0 80
48 -10 2064 2384 90 361 0
49 -20 3226 3546 90 9 0
50 20 37 357 90 0 382
51 -30 912 1232 90 176 0
52 10 580 900 90 0 159
53 -10 2616 2936 90 198 0
54 -30 108 428 90 138 0
55 20 1380 1700 90 0 345
56 20 2584 2904 90 0 177
57 -20 2792 3112 90 375 0
58 -20 2583 2903 90 307 0
59 30 1388 1708 90 0 133
60 10 1722 2042 90 0 17
61 30 795 1115 90 0 381
62 -30 2916 3236 90 91 0
63 10 58 378 90 0 324
64 -30 2213 2533 90 21 0
65 20 290 610 90 0 40
66 -10 1988 2308 90 314 0
67 10 2430 2750 90 0 196
68 10 421 741 90 0 230
69 20 1632 1952 90 0 306
70 20 757 1077 90 0 250
71 -20 3193 3513 90 259 0
72 -10 2810 3130 90 244 0
73 -20 2952 3272 90 319 0
74 20 408 728 90 0 75
75 -20 2623 2943 90 74 0
76 20 9 329 90 0 297
77 20 3047 3367 90 0 397
78 20 2148 2468 90 0 245
79 10 2005 2325 90 0 335
80 -10 2517 2837 90 47 0
81 -20 1892 2212 90 238 0
82 -10 2777 3097 90 111 0
83 -20 3001 3321 90 127 0
84 -10 1067 1387 90 368 0
85 10 492 812 90 0 334
86 -20 2401 2721 90 90 0
87 -20 2525 2845 90 253 0
88 20 1707 2027 90 0 146
89 -20 2674 2994 90 260 0
90 20 61 381 90 0 86
91 30 2693 3013 90 0 62
92 -20 2234 2554 90 221 0
93 -10 2296 2616 90 309 0
94 20 1038 1358 90 0 131
95 10 994 1314 90 0 367
96 -20 1609 1929 90 129 0
97 20 2605 2925 90 0 100
98 10 699 1019 90 0 202
99 -20 2534 2854 90 155 0
100 -20 2907 3227 90 97 0
101 -20 751 1071 90 392 0
102 30 872 1192 90 0 220
103 -10 1829 2149 90 305 0
104 30 1290 1610 90 0 200
105 -10 520 840 90 204 0
106 10 236 556 90 0 143
107 20 2921 3241 0 0 407
108 20 2122 2442 90 0 44
109 -30 1593 1913 90 179 0
110 -10 3248 3568 90 391 0
111 10 333 653 90 0 82
112 -20 2679 2999 90 46 0
113 10 1088 1408 90 0 45
114 10 1411 1731 90 0 207
115 10 806 1126 90 0 18
116 10 65 385 90 0 183
117 20 1814 2134 90 0 41
118 -10 1183 1503 90 171 0
119 30 2330 2650 90 0 132
120 10 549 869 90 0 308
121 -40 1372 1692 90 125 0
122 -10 2439 2759 90 290 0
123 20 985 1305 90 0 142
124 -10 1855 2175 90 257 0
125 40 1048 1368 90 0 121
126 30 1484 1804 90 0 184
127 20 2886 3206 90 0 83
128 30 264 584 90 0 194
129 20 617 937 90 0 96
130 -30 517 837 90 26 0
131 -20 2430 2750 90 94 0
132 -30 3098 3418 90 119 0
133 -30 1671 1991 90 59 0
134 -10 457 777 90 178 0
135 -20 2029 2349 90 166 0
136 -20 1935 2255 90 150 0
137 -10 2182 2502 90 354 0
138 30 50 370 90 0 54
139 -10 3085 3405 90 226 0
140 20 903 1223 90 0 279
141 20 659 979 90 0 19
142 -20 1370 1690 90 123 0
143 -10 1307 1627 90 106 0
144 -20 1462 1782 90 352 0
145 10 231 551 90 0 303
146 -20 2664 2984 90 88 0
147 10 309 629 90 0 350
148 20 82 402 90 0 272
149 -10 1711 2031 90 270 0
150 20 984 1304 90 0 136
151 -40 3248 3568 90 225 0
152 20 1131 1451 90 0 201
153 -30 866 1186 90 356 0
154 -10 2289 2609 90 31 0
155 20 184 504 90 0 99
156 -30 1934 2254 90 233 0
157 -30 815 1135 90 193 0
158 30 1108 1428 90 0 203
159 -10 2383 2703 90 52 0
160 10 1378 1698 90 0 341
161 -10 2251 2571 90 387 0
162 -10 2772 3092 90 282 0
163 10 18 338 90 0 215
164 -10 505 825 90 223 0
165 -10 3216 3536 90 42 0
166 20 1274 1594 90 0 135
167 20 82 402 90 0 6
168 10 2538 2858 90 0 318
169 -10 2205 2525 90 347 0
170 20 1252 1572 90 0 15
171 10 139 459 90 0 118
172 10 773 1093 90 0 210
173 -30 1063 1383 90 372 0
174 -10 1729 2049 90 310 0
175 10 335 655 90 0 23
176 30 127 447 90 0 51
177 -20 2920 3240 90 56 0
178 10 259 579 90 0 134
179 30 865 1185 90 0 109
180 -10 1652 1972 90 396 0
181 -30 877 1197 90 346 0
182 -30 2530 2850 90 380 0
183 -10 950 1270 90 116 0
184 -30 1699 2019 90 126 0
185 10 1653 1973 90 0 218
186 40 1064 1384 90 0 376
187 20 1170 1490 90 0 14
188 20 1575 1895 90 0 231
189 10 681 1001 90 0 287
190 -20 377 697 90 35 0
191 20 995 1315 90 0 195
192 30 334 654 0 0 404
193 30 98 418 90 0 157
194 -30 1481 1801 90 128 0
195 -20 1182 1502 90 191 0
196 -10 2721 3041 90 67 0
197 -20 1595 1915 90 300 0
198 10 947 1267 90 0 53
199 20 1006 1326 90 0 328
200 -30 1766 2086 90 104 0
201 -20 1613 1933 90 152 0
202 -10 1568 1888 90 98 0
203 -30 1200 1520 90 158 0
204 10 311 631 90 0 105
205 10 1176 1496 0 0 403
206 -20 1356 1676 90 29 0
207 -10 1513 1833 90 114 0
208 -20 2384 2704 90 274 0
209 20 1412 1732 90 0 344
210 -10 2509 2829 90 172 0
211 20 963 1283 90 0 13
212 20 163 483 90 0 293
213 20 1035 1355 90 0 261
214 10 18 338 90 0 16
215 -10 1772 2092 90 163 0
216 -20 2571 2891 90 311 0
217 30 26 346 90 0 4
218 -10 2126 2446 90 185 0
219 20 241 561 90 0 284
220 -30 1840 2160 90 102 0
221 20 2138 2458 90 0 92
222 -40 2703 3023 90 383 0
223 10 60 380 90 0 164
224 30 1898 2218 90 0 395
225 40 612 932 90 0 151
226 10 60 380 90 0 139
227 -10 1801 2121 90 28 0
228 -30 784 1104 90 299 0
229 -40 2042 2362 90 385 0
230 -10 1988 2308 90 68 0
231 -20 2241 2561 90 188 0
232 -20 2210 2530 90 340 0
233 30 1557 1877 90 0 156
234 20 2437 2757 90 0 34
235 10 2614 2934 90 0 362
236 -10 280 600 90 277 0
237 -10 461 781 90 239 0
238 20 1415 1735 90 0 81
239 10 29 349 90 0 237
240 -10 71 391 90 32 0
241 10 88 408 90 0 3
242 10 1319 1639 90 0 7
243 -20 3029 3349 90 247 0
244 10 2716 3036 90 0 72
245 -20 2343 2663 90 78 0
246 20 1747 2067 90 0 337
247 20 2626 2946 90 0 243
248 -20 2909 3229 90 271 0
249 -10 965 1285 90 254 0
250 -20 852 1172 90 70 0
251 -30 1154 1474 90 294 0
252 -30 1437 1757 90 398 0
253 20 47 367 90 0 87
254 10 661 981 90 0 249
255 10 761 1081 90 0 315
256 20 2858 3178 0 0 406
257 10 108 428 90 0 124
258 -10 2707 3027 90 288 0
259 20 1910 2230 90 0 71
260 20 2199 2519 90 0 89
261 -20 1324 1644 90 213 0
262 -30 2157 2477 90 285 0
263 20 161 481 90 0 27
264 20 970 1290 90 0 343
265 20 811 1131 90 0 268
266 -20 2409 2729 90 331 0
267 -20 2765 3085 90 365 0
268 -20 1863 2183 90 265 0
269 -10 1484 1804 90 338 0
270 10 382 702 90 0 149
271 20 2720 3040 90 0 248
272 -20 569 889 90 148 0
273 -20 890 1210 90 332 0
274 20 2058 2378 90 0 208
275 20 1264 1584 90 0 320
276 20 644 964 90 0 394
277 10 57 377 90 0 236
278 -10 2499 2819 90 349 0
279 -20 1282 1602 90 140 0
280 10 1726 2046 90 0 323
281 -40 1609 1929 90 12 0
282 10 2085 2405 90 0 162
283 20 2923 3243 0 0 405
284 -20 1226 1546 90 219 0
285 30 941 1261 90 0 262
286 -40 1756 2076 90 33 0
287 -10 3016 3336 90 189 0
288 10 688 1008 90 0 258
289 -10 2897 3217 90 291 0
290 10 2343 2663 90 0 122
291 10 185 505 90 0 289
292 -20 1837 2157 90 388 0
293 -20 377 697 90 212 0
294 30 858 1178 90 0 251
295 -10 3187 3507 90 321 0
296 20 1159 1479 90 0 329
297 -20 40 360 90 76 0
298 20 1157 1477 90 0 30
299 30 595 915 90 0 228
300 20 1577 1897 90 0 197
301 -20 1745 2065 90 24 0
302 -10 2332 2652 90 8 0
303 -10 704 1024 90 145 0
304 -30 2475 2795 90 371 0
305 10 1447 1767 90 0 103
306 -20 2309 2629 90 69 0
307 20 1680 2000 90 0 58
308 -10 2106 2426 90 120 0
309 10 2008 2328 90 0 93
310 10 380 700 90 0 174
311 20 2273 2593 90 0 216
312 30 1561 1881 90 0 333
313 -20 2135 2455 90 389 0
314 10 612 932 90 0 66
315 -10 2632 2952 90 255 0
316 -20 2612 2932 90 5 0
317 10 1826 2146 90 0 43
318 -10 2726 3046 90 168 0
319 20 3050 3370 90 0 73
320 -20 1915 2235 90 275 0
321 10 2994 3314 90 0 295
322 -10 367 687 90 38 0
323 -10 1923 2243 90 280 0
324 -10 95 415 90 63 0
325 20 18 338 90 0 363
326 20 45 365 90 0 22
327 10 2762 3082 0 0 402
328 -20 1706 2026 90 199 0
329 -20 2296 2616 90 296 0
330 20 291 611 90 0 374
331 20 2085 2405 90 0 266
332 20 59 379 90 0 273
333 -30 2602 2922 90 312 0
334 -10 477 797 90 85 0
335 -10 2300 2620 90 79 0
336 20 474 794 90 0 399
337 -20 2031 2351 90 246 0
338 10 364 684 90 0 269
339 -10 1958 2278 90 25 0
340 20 1156 1476 90 0 232
341 -10 2806 3126 90 160 0
342 -10 187 507 90 384 0
343 -20 2424 2744 90 264 0
344 -20 2235 2555 90 209 0
345 -20 2954 3274 90 55 0
346 30 480 800 90 0 181
347 10 524 844 90 0 169
348 30 713 1033 90 0 11
349 10 886 1206 90 0 278
350 -10 602 922 90 147 0
351 30 1269 1589 90 0 379
352 20 1063 1383 90 0 144
353 20 1511 1831 90 0 369
354 10 708 1028 90 0 137
355 -10 3146 3466 90 2 0
356 30 269 589 90 0 153
357 -10 2801 3121 90 401 0
358 10 473 793 90 0 360
359 -20 555 875 90 36 0
360 -10 764 1084 90 358 0
361 10 1079 1399 90 0 48
362 -10 3233 3553 90 235 0
363 -20 425 745 90 325 0
364 -30 2820 3140 90 378 0
365 20 2481 2801 90 0 267
366 -20 2721 3041 90 390 0
367 -10 2509 2829 90 95 0
368 10 93 413 90 0 84
369 -20 2860 3180 90 353 0
370 10 900 1220 90 0 393
371 30 658 978 90 0 304
372 30 66 386 90 0 173
373 30 78 398 90 0 377
374 -20 1225 1545 90 330 0
375 20 1077 1397 90 0 57
376 -40 1252 1572 90 186 0
377 -30 2677 2997 90 373 0
378 30 431 751 90 0 364
379 -30 2816 3136 90 351 0
380 30 213 533 90 0 182
381 -30 2155 2475 90 61 0
382 -20 2405 2725 90 50 0
383 40 1798 2118 90 0 222
384 10 39 359 90 0 342
385 40 1540 1860 90 0 229
386 10 1089 1409 90 0 400
387 10 1465 1785 90 0 161
388 20 591 911 90 0 292
389 20 661 981 90 0 313
390 20 1178 1498 90 0 366
391 10 3113 3433 90 0 110
392 20 51 371 90 0 101
393 -10 2179 2499 90 370 0
394 -20 2222 2542 90 276 0
395 -30 2394 2714 90 224 0
396 10 1467 1787 90 0 180
397 -20 3152 3472 90 77 0
398 30 1345 1665 90 0 252
399 -20 1133 1453 90 336 0
400 -10 1959 2279 90 386 0
401 10 2331 2651 90 0 357
402 -10 2762 3082 90 327 0
403 -10 1176 1496 90 205 0
404 -30 334 654 90 192 0
405 -20 2923 3243 90 283 0
406 -20 2858 3178 90 256 0
407 -20 2921 3241 90 107 0
DEPOT_SECTION
1
-1
EOF
