NAME: lc2_4_9
TYPE: PDPTW
COMMENT: Li & Lim PDPTW benchmark converted from SINTEF format
DIMENSION: 411
VEHICLES: 100
CAPACITY: 700
EDGE_WEIGHT_TYPE: EUC_2D
NODE_COORD_SECTION
1 100 100
2 37 48
3 42 100
4 131 31
5 108 13
6 17 166
7 147 134
8 48 103
9 127 166
10 50 181
11 19 156
12 146 157
13 93 166
14 170 83
15 79 13
16 73 112
17 87 87
18 118 50
19 79 70
20 67 102
21 48 166
22 45 88
23 61 101
24 54 175
25 126 39
26 107 73
27 42 75
28 74 102
29 72 118
30 65 135
31 27 89
32 84 133
33 178 69
34 127 46
35 28 96
36 100 47
37 69 167
38 98 59
39 79 84
40 61 174
41 138 135
42 170 156
43 119 169
44 66 192
45 120 76
46 29 171
47 89 11
48 170 64
49 135 146
50 85 134
51 19 179
52 95 137
53 163 125
54 30 54
55 16 77
56 28 168
57 78 188
58 27 83
59 136 57
60 59 98
61 170 49
62 114 138
63 78 154
64 69 190
65 60 171
66 112 53
67 99 123
68 28 50
69 97 163
70 150 135
71 136 134
72 120 153
73 79 89
74 162 44
75 163 55
76 103 91
77 74 91
78 126 31
79 16 146
80 84 20
81 21 91
82 37 162
83 89 168
84 72 10
85 55 160
86 63 189
87 164 124
88 20 96
89 82 88
90 76 157
91 74 196
92 85 14
93 77 86
94 142 141
95 119 66
96 7 176
97 92 55
98 168 43
99 89 113
100 98 85
101 46 99
102 62 120
103 93 1
104 144 58
105 20 54
106 32 191
107 143 72
108 68 190
109 140 51
110 119 130
111 37 195
112 29 163
113 120 70
114 12 186
115 118 59
116 90 74
117 165 151
118 125 72
119 177 122
120 64 78
121 67 60
122 167 55
123 173 56
124 179 78
125 83 74
126 140 70
127 81 191
128 101 37
129 34 182
130 99 61
131 168 126
132 139 131
133 134 46
134 66 78
135 71 189
136 70 185
137 16 78
138 57 73
139 92 39
140 5 58
141 75 61
142 186 50
143 14 199
144 80 139
145 110 72
146 40 87
147 155 38
148 155 108
149 152 149
150 55 195
151 86 100
152 36 107
153 103 148
154 29 88
155 32 93
156 79 132
157 25 182
158 25 187
159 23 102
160 128 80
161 165 62
162 34 84
163 82 100
164 162 37
165 138 132
166 65 182
167 53 168
168 114 55
169 24 164
170 74 5
171 109 73
172 102 146
173 144 38
174 93 11
175 73 106
176 51 190
177 106 113
178 81 80
179 138 22
180 69 173
181 75 18
182 166 55
183 89 68
184 126 59
185 88 137
186 99 152
187 178 54
188 132 51
189 100 147
190 36 96
191 6 59
192 102 62
193 55 188
194 135 54
195 6 66
196 88 116
197 29 75
198 143 140
199 15 181
200 130 42
201 17 99
202 182 68
203 27 187
204 40 34
205 57 183
206 64 140
207 2 178
208 34 89
209 149 149
210 147 158
211 110 150
212 83 149
213 42 105
214 83 108
215 20 78
216 38 85
217 101 74
218 82 128
219 73 110
220 81 136
221 91 14
222 96 62
223 130 47
224 14 163
225 21 56
226 88 41
227 20 92
228 73 20
229 95 18
230 17 87
231 123 32
232 124 170
233 84 141
234 116 44
235 133 162
236 74 31
237 107 23
238 25 102
239 97 71
240 83 147
241 38 94
242 149 146
243 93 117
244 124 154
245 115 40
246 84 136
247 88 111
248 143 135
249 143 30
250 148 139
251 68 69
252 97 157
253 146 113
254 118 9
255 125 16
256 81 92
257 148 57
258 89 27
259 165 157
260 70 89
261 25 101
262 6 95
263 89 80
264 76 15
265 3 56
266 82 48
267 81 89
268 20 79
269 30 75
270 160 137
271 150 130
272 156 137
273 169 54
274 13 90
275 49 64
276 39 99
277 91 43
278 60 197
279 15 69
280 101 164
281 153 161
282 11 83
283 127 55
284 33 103
285 43 101
286 175 70
287 122 144
288 68 16
289 93 32
290 164 61
291 79 31
292 69 178
293 86 155
294 87 67
295 99 48
296 72 8
297 108 82
298 69 121
299 67 13
300 33 73
301 68 176
302 106 127
303 106 60
304 35 90
305 84 13
306 133 168
307 21 76
308 67 89
309 67 97
310 69 40
311 13 120
312 68 173
313 190 122
314 104 59
315 117 53
316 84 25
317 109 169
318 120 50
319 52 79
320 69 99
321 91 39
322 108 26
323 116 171
324 65 164
325 106 83
326 55 97
327 39 79
328 13 173
329 95 29
330 160 136
331 105 55
332 146 62
333 73 196
334 95 150
335 26 169
336 161 139
337 77 126
338 66 81
339 132 36
340 101 152
341 94 75
342 158 122
343 81 20
344 180 126
345 47 76
346 60 37
347 35 185
348 36 177
349 48 191
350 169 36
351 177 45
352 72 119
353 26 107
354 15 57
355 54 73
356 68 152
357 93 26
358 40 101
359 111 24
360 46 128
361 177 55
362 132 139
363 101 62
364 97 116
365 81 83
366 157 59
367 91 49
368 81 32
369 47 80
370 119 62
371 43 98
372 101 55
373 31 63
374 145 144
375 56 192
376 101 158
377 30 86
378 33 188
379 156 64
380 154 44
381 171 63
382 139 169
383 121 52
384 139 102
385 84 10
386 7 63
387 184 55
388 58 168
389 156 135
390 165 52
391 128 141
392 79 106
393 102 56
394 87 132
395 23 172
396 64 172
397 82 104
398 99 156
399 146 142
400 14 81
401 79 19
402 88 111
403 65 182
404 166 55
405 94 75
406 139 131
407 86 100
408 117 53
409 84 25
410 77 86
411 48 103
PICKUP_AND_DELIVERY_SECTION
1 0 0 3693 0 0 0
2 10 81 708 90 0 307
3 30 461 989 90 0 358
4 -30 1548 2878 90 200 0
5 20 1647 2550 90 0 357
6 -30 1361 2567 90 203 0
7 -20 2551 3399 90 330 0
8 10 772 1238 0 0 411
9 20 1833 2717 90 0 362
10 20 263 1628 90 0 301
11 10 1746 2785 90 0 56
12 40 1165 2177 90 0 131
13 -20 1344 2051 90 212 0
14 -30 1663 2566 90 217 0
15 -20 1196 1828 90 76 0
16 10 29 721 90 0 219
17 -10 2175 3302 90 39 0
18 10 1913 2189 90 0 97
19 -30 424 1414 90 134 0
20 -20 1696 2267 90 27 0
21 30 97 1008 90 0 64
22 30 56 344 90 0 241
23 10 394 991 90 0 29
24 -20 315 1382 90 167 0
25 -10 1659 2384 90 359 0
26 30 27 730 90 0 401
27 20 1154 2150 90 0 20
28 -20 353 826 90 392 0
29 -10 703 1562 90 23 0
30 20 870 1973 90 0 243
31 -30 2440 2855 90 373 0
32 10 36 423 90 0 108
33 -30 1191 2453 90 380 0
34 20 2595 3373 90 0 168
35 -10 72 1063 90 163 0
36 -30 86 563 90 372 0
37 20 73 960 90 0 396
38 10 124 139 90 0 245
39 10 2076 3022 90 0 17
40 -30 1017 2050 90 176 0
41 -10 2981 3348 90 344 0
42 -20 1712 2619 90 259 0
43 -20 1770 2583 90 323 0
44 -10 1998 2934 90 205 0
45 -10 987 1892 90 370 0
46 -10 2210 3091 90 79 0
47 10 1376 2213 90 0 221
48 -20 1641 2807 90 74 0
49 10 2213 3546 90 0 287
50 20 37 1172 90 0 189
51 -10 814 1330 90 106 0
52 10 272 1208 90 0 235
53 -20 2074 3478 90 70 0
54 -10 83 1134 90 204 0
55 20 1534 1546 90 0 137
56 -10 2331 3156 90 11 0
57 -10 2797 3108 90 135 0
58 20 2289 3198 90 0 73
59 30 1290 1807 90 0 109
60 -20 1115 2650 90 141 0
61 30 172 1738 90 0 161
62 -10 2703 3449 90 391 0
63 -20 58 892 90 240 0
64 -30 1846 2900 90 21 0
65 20 210 689 90 0 278
66 -40 1874 2422 90 383 0
67 -20 2127 3054 90 218 0
68 -10 264 899 90 116 0
69 20 1132 2452 90 0 72
70 20 689 1145 90 0 53
71 -20 2183 3554 90 271 0
72 -20 2834 3105 90 69 0
73 -20 2451 3580 90 58 0
74 20 247 889 90 0 48
75 20 2422 3144 90 0 107
76 20 9 963 90 0 15
77 -20 2147 3576 90 155 0
78 20 1649 2967 90 0 231
79 10 1891 2438 90 0 46
80 10 2571 2783 90 0 222
81 20 1564 2541 90 0 304
82 -30 2630 3243 90 169 0
83 -20 2404 3535 90 136 0
84 20 760 1694 90 0 385
85 10 75 1578 90 0 349
86 -40 2198 2924 90 180 0
87 -30 2515 2855 90 119 0
88 20 1237 2497 90 0 154
89 -20 2530 3137 90 260 0
90 20 61 673 90 0 252
91 -20 2379 3327 90 388 0
92 -20 1987 2801 90 296 0
93 20 1742 3171 0 0 410
94 20 468 1928 90 0 110
95 10 817 1491 90 0 188
96 -10 1663 1875 90 347 0
97 -10 2711 2818 90 18 0
98 10 191 1527 90 0 122
99 -30 1957 3432 90 196 0
100 -20 2548 3585 90 184 0
101 10 424 1397 90 0 177
102 -10 837 1227 90 214 0
103 -10 1473 2505 90 236 0
104 30 1127 1773 90 0 283
105 20 120 1240 90 0 279
106 10 113 920 90 0 51
107 -20 2889 3273 90 75 0
108 -10 1970 2593 90 32 0
109 -30 1519 1987 90 59 0
110 -20 2160 3568 90 94 0
111 10 113 1448 90 0 158
112 -30 2382 3295 90 378 0
113 -10 1081 1415 90 145 0
114 10 947 2195 90 0 224
115 -20 720 1213 90 130 0
116 10 27 1382 90 0 68
117 20 1727 2221 90 0 248
118 -20 683 2004 90 325 0
119 30 1853 3128 90 0 87
120 10 442 976 90 0 183
121 -30 1227 1837 90 251 0
122 -10 2158 3040 90 98 0
123 20 696 1594 90 0 142
124 -20 1270 2759 90 286 0
125 40 573 1843 90 0 294
126 -30 1467 1821 90 173 0
127 -20 2088 3511 90 333 0
128 30 63 1298 90 0 255
129 20 282 1272 90 0 207
130 20 596 758 90 0 115
131 -40 2255 2926 90 12 0
132 20 3021 3495 0 0 406
133 -10 1449 2212 90 202 0
134 30 256 978 90 0 19
135 10 1512 2865 90 0 57
136 20 1972 2217 90 0 83
137 -20 2034 2651 90 55 0
138 -20 50 986 90 263 0
139 -10 3089 3401 90 160 0
140 20 747 1380 90 0 262
141 20 337 1301 90 0 60
142 -20 984 2075 90 123 0
143 -10 1049 1886 90 157 0
144 30 1284 1961 90 0 156
145 10 29 1242 90 0 113
146 20 2676 2971 90 0 319
147 10 82 930 90 0 179
148 20 55 1208 90 0 149
149 -20 1069 2672 90 148 0
150 20 677 1611 90 0 312
151 10 3327 3489 0 0 407
152 -20 800 1783 90 276 0
153 20 570 1482 90 0 280
154 -20 2001 2896 90 88 0
155 20 68 1080 90 0 77
156 -30 1720 2468 90 144 0
157 10 512 1437 90 0 143
158 -10 698 1838 90 111 0
159 -20 1867 3219 90 353 0
160 10 1236 1840 90 0 139
161 -30 2047 2776 90 61 0
162 -20 2779 3085 90 377 0
163 10 18 1182 90 0 35
164 40 88 1619 90 0 290
165 -20 2933 3554 90 272 0
166 20 765 2104 0 0 403
167 20 82 264 90 0 24
168 -20 2181 3215 90 34 0
169 30 2276 2453 90 0 82
170 20 1138 1687 90 0 329
171 10 28 1101 90 0 363
172 -30 429 1437 90 334 0
173 30 763 1682 90 0 126
174 -10 1564 2214 90 368 0
175 10 27 998 90 0 233
176 30 102 575 90 0 40
177 -10 3002 3157 90 101 0
178 10 125 713 90 0 308
179 -10 501 1550 90 147 0
180 40 1418 2207 90 0 86
181 30 561 1514 90 0 264
182 10 2291 3089 0 0 404
183 -10 502 1718 90 120 0
184 20 1568 2151 90 0 100
185 -30 1235 2391 90 360 0
186 40 891 1557 90 0 398
187 -10 1099 1562 90 350 0
188 -10 1582 1888 90 95 0
189 -20 540 1143 90 50 0
190 -30 64 1153 90 371 0
191 -40 516 1794 90 225 0
192 30 38 1303 90 0 367
193 30 98 958 90 0 375
194 -30 1120 2163 90 249 0
195 -10 518 2166 90 386 0
196 30 2517 3246 90 0 99
197 20 1276 2233 90 0 327
198 -20 964 1250 90 336 0
199 20 863 1470 90 0 328
200 30 1466 2387 90 0 4
201 -20 1191 2355 90 238 0
202 10 1668 1788 90 0 133
203 30 1061 1658 90 0 6
204 10 107 836 90 0 54
205 10 809 1863 90 0 44
206 20 1404 1629 90 0 220
207 -20 1171 2175 90 129 0
208 20 2040 3048 90 0 397
209 -10 1322 1822 90 374 0
210 -10 2123 3215 90 306 0
211 20 1056 1190 90 0 340
212 20 51 1049 90 0 13
213 20 727 1662 90 0 216
214 10 18 457 90 0 102
215 -30 1606 2257 90 346 0
216 -20 2553 2909 90 213 0
217 30 26 1266 90 0 14
218 20 1959 2613 90 0 67
219 -10 172 630 90 16 0
220 -20 1650 2349 90 206 0
221 -10 1896 2699 90 47 0
222 -10 2573 3153 90 80 0
223 -10 60 1101 90 314 0
224 -10 1715 2400 90 114 0
225 40 540 1005 90 0 191
226 10 60 720 90 0 291
227 -10 1785 2137 90 284 0
228 10 514 1375 90 0 288
229 30 1910 2494 90 0 258
230 10 1438 2858 90 0 355
231 -20 2085 2718 90 78 0
232 -10 2146 2594 90 317 0
233 -10 1449 1984 90 175 0
234 -10 2570 2623 90 254 0
235 -10 2430 3117 90 52 0
236 10 73 951 90 0 103
237 -10 604 637 90 322 0
238 20 1082 2068 90 0 201
239 10 29 870 90 0 277
240 20 49 1586 90 0 63
241 -30 62 1138 90 22 0
242 -10 945 2013 90 270 0
243 -20 1969 3585 90 30 0
244 -30 2545 3206 90 382 0
245 -10 2172 2834 90 38 0
246 20 1338 2475 90 0 337
247 20 2433 3139 0 0 402
248 -20 2685 3454 90 117 0
249 30 871 1379 90 0 194
250 -30 590 1434 90 342 0
251 30 1085 1543 90 0 121
252 -20 1207 1988 90 90 0
253 -10 47 752 90 384 0
254 10 378 1264 90 0 234
255 -30 492 1350 90 128 0
256 -10 2546 3491 90 282 0
257 10 64 561 90 0 387
258 -30 2281 3453 90 229 0
259 20 1789 2351 90 0 42
260 20 2125 2592 90 0 89
261 10 1430 1539 90 0 285
262 -20 1746 2887 90 140 0
263 20 219 423 90 0 138
264 -30 941 1320 90 181 0
265 -10 706 1235 90 354 0
266 30 2523 2616 90 0 343
267 -20 2497 3353 90 275 0
268 -20 1745 2300 90 300 0
269 10 1108 2180 90 0 400
270 10 70 1066 90 0 242
271 20 2647 3113 90 0 71
272 20 568 890 90 0 165
273 10 969 1131 90 0 366
274 20 1755 2681 90 0 345
275 20 904 1944 90 0 267
276 20 361 1248 90 0 152
277 -10 57 567 90 239 0
278 -20 2151 3168 90 65 0
279 -20 1247 1636 90 105 0
280 -20 1651 2121 90 153 0
281 20 1470 2068 90 0 313
282 10 1775 2715 90 0 256
283 -30 2819 3347 90 104 0
284 10 1155 1617 90 0 227
285 -10 528 1674 90 261 0
286 20 1466 2365 90 0 124
287 -10 2948 3404 90 49 0
288 -10 560 1136 90 228 0
289 -10 2604 3510 90 305 0
290 -40 2044 2962 90 164 0
291 -10 72 1026 90 226 0
292 -20 1657 2338 90 324 0
293 30 171 902 90 0 376
294 -40 347 1688 90 125 0
295 -10 2958 3551 90 321 0
296 20 859 1778 90 0 92
297 30 19 659 90 0 303
298 -20 972 1661 90 326 0
299 -10 93 1637 90 310 0
300 20 1273 2201 90 0 268
301 -20 1598 2213 90 10 0
302 30 2021 2963 90 0 364
303 -30 99 1630 90 297 0
304 -20 2213 3058 90 81 0
305 10 1102 2112 90 0 289
306 10 1851 3088 90 0 210
307 -10 1324 2356 90 2 0
308 -10 1998 2533 90 178 0
309 10 1500 2836 90 0 365
310 10 86 995 90 0 299
311 20 2098 2767 90 0 369
312 -20 1183 2260 90 150 0
313 -20 2168 2422 90 281 0
314 10 191 1354 90 0 223
315 20 2231 3352 0 0 408
316 10 2117 3427 0 0 409
317 10 1818 2153 90 0 232
318 -20 2666 3106 90 339 0
319 -20 2718 3551 90 146 0
320 -10 1848 2302 90 338 0
321 10 3133 3175 90 0 295
322 10 74 1255 90 0 237
323 20 1669 2496 90 0 43
324 20 72 714 90 0 292
325 20 18 464 90 0 118
326 20 45 1402 90 0 298
327 -20 2625 3218 90 197 0
328 -20 1244 2488 90 199 0
329 -20 2153 2759 90 170 0
330 20 69 1524 90 0 7
331 20 1751 2740 90 0 393
332 20 59 774 90 0 351
333 20 2529 2995 90 0 127
334 30 522 753 90 0 172
335 -30 2245 2675 90 356 0
336 20 376 893 90 0 198
337 -20 1548 2833 90 246 0
338 10 156 893 90 0 320
339 20 2038 2199 90 0 318
340 -20 578 2054 90 211 0
341 20 2523 3409 0 0 405
342 30 149 545 90 0 250
343 -30 2150 3018 90 266 0
344 10 1697 3093 90 0 41
345 -20 2927 3300 90 274 0
346 30 74 1419 90 0 215
347 10 631 737 90 0 96
348 30 468 1277 90 0 395
349 -10 759 1334 90 85 0
350 10 583 941 90 0 187
351 -20 941 1918 90 332 0
352 20 922 1525 90 0 394
353 20 1055 2286 90 0 159
354 10 389 1348 90 0 265
355 -10 2474 3550 90 230 0
356 30 61 1249 90 0 335
357 -20 2716 3207 90 5 0
358 -30 415 852 90 3 0
359 10 76 1568 90 0 25
360 30 492 1356 90 0 185
361 10 938 1540 90 0 390
362 -20 2541 3553 90 9 0
363 -10 370 800 90 171 0
364 -30 2837 3124 90 302 0
365 -10 2204 3079 90 309 0
366 -10 2871 2890 90 273 0
367 -30 2279 3058 90 192 0
368 10 70 890 90 0 174
369 -20 2123 3547 90 311 0
370 10 354 1765 90 0 45
371 30 384 1252 90 0 190
372 30 45 921 90 0 36
373 30 78 615 90 0 31
374 10 587 2182 90 0 209
375 -30 974 1500 90 193 0
376 -30 799 2025 90 293 0
377 20 2558 3117 90 0 162
378 30 110 1371 90 0 112
379 -20 2641 3310 90 381 0
380 30 126 619 90 0 33
381 20 2105 2526 90 0 379
382 30 2049 3081 90 0 244
383 40 1573 2342 90 0 66
384 10 39 433 90 0 253
385 -20 1272 2127 90 84 0
386 10 1121 1377 90 0 195
387 -10 960 2290 90 257 0
388 20 106 1395 90 0 91
389 20 572 1070 90 0 399
390 -10 885 1791 90 361 0
391 10 2668 3554 90 0 62
392 20 21 1263 90 0 28
393 -20 2165 2513 90 331 0
394 -20 2010 2754 90 352 0
395 -30 2320 2788 90 348 0
396 -20 1372 1881 90 37 0
397 -20 2722 3585 90 208 0
398 -40 1232 1778 90 186 0
399 -20 941 1645 90 389 0
400 -10 1682 2557 90 269 0
401 -30 2118 2865 90 26 0
402 -20 2433 3139 90 247 0
403 -20 765 2104 90 166 0
404 -10 2291 3089 90 182 0
405 -20 2523 3409 90 341 0
406 -20 3021 3495 90 132 0
407 -10 3327 3489 90 151 0
408 -20 2231 3352 90 315 0
409 -10 2117 3427 90 316 0
410 -20 1742 3171 90 93 0
411 -10 772 1238 90 8 0
DEPOT_SECTION
1
-1
EOF
