NAME: lc2_4_1
TYPE: PDPTW
COMMENT: Li & Lim PDPTW benchmark converted from SINTEF format
DIMENSION: 407
VEHICLES: 100
CAPACITY: 700
EDGE_WEIGHT_TYPE: EUC_2D
NODE_COORD_SECTION
1 100 100
2 37 48
3 42 100
4 131 31
5 108 13
6 17 166
7 147 134
8 48 103
9 127 166
10 50 181
11 19 156
12 146 157
13 93 166
14 170 83
15 79 13
16 73 112
17 87 87
18 118 50
19 79 70
20 67 102
21 48 166
22 45 88
23 61 101
24 54 175
25 126 39
26 107 73
27 42 75
28 74 102
29 72 118
30 65 135
31 27 89
32 84 133
33 178 69
34 127 46
35 28 96
36 100 47
37 69 167
38 98 59
39 79 84
40 61 174
41 138 135
42 170 156
43 119 169
44 66 192
45 120 76
46 29 171
47 89 11
48 170 64
49 135 146
50 85 134
51 19 179
52 95 137
53 163 125
54 30 54
55 16 77
56 28 168
57 78 188
58 27 83
59 136 57
60 59 98
61 170 49
62 114 138
63 78 154
64 69 190
65 60 171
66 112 53
67 99 123
68 28 50
69 97 163
70 150 135
71 136 134
72 120 153
73 79 89
74 162 44
75 163 55
76 103 91
77 74 91
78 126 31
79 16 146
80 84 20
81 21 91
82 37 162
83 89 168
84 72 10
85 55 160
86 63 189
87 164 124
88 20 96
89 82 88
90 76 157
91 74 196
92 85 14
93 77 86
94 142 141
95 119 66
96 7 176
97 92 55
98 168 43
99 89 113
100 98 85
101 46 99
102 62 120
103 93 1
104 144 58
105 20 54
106 32 191
107 143 72
108 68 190
109 140 51
110 119 130
111 37 195
112 29 163
113 120 70
114 12 186
115 118 59
116 90 74
117 165 151
118 125 72
119 177 122
120 64 78
121 67 60
122 167 55
123 173 56
124 179 78
125 83 74
126 140 70
127 81 191
128 101 37
129 34 182
130 99 61
131 168 126
132 139 131
133 134 46
134 66 78
135 71 189
136 70 185
137 16 78
138 57 73
139 92 39
140 5 58
141 75 61
142 186 50
143 14 199
144 80 139
145 110 72
146 40 87
147 155 38
148 155 108
149 152 149
150 55 195
151 86 100
152 36 107
153 103 148
154 29 88
155 32 93
156 79 132
157 25 182
158 25 187
159 23 102
160 128 80
161 165 62
162 34 84
163 82 100
164 162 37
165 138 132
166 65 182
167 53 168
168 114 55
169 24 164
170 74 5
171 109 73
172 102 146
173 144 38
174 93 11
175 73 106
176 51 190
177 106 113
178 81 80
179 138 22
180 69 173
181 75 18
182 166 55
183 89 68
184 126 59
185 88 137
186 99 152
187 178 54
188 132 51
189 100 147
190 36 96
191 6 59
192 102 62
193 55 188
194 135 54
195 6 66
196 88 116
197 29 75
198 143 140
199 15 181
200 130 42
201 17 99
202 182 68
203 27 187
204 40 34
205 57 183
206 64 140
207 2 178
208 34 89
209 149 149
210 147 158
211 110 150
212 83 149
213 42 105
214 83 108
215 20 78
216 38 85
217 101 74
218 82 128
219 73 110
220 81 136
221 91 14
222 96 62
223 130 47
224 14 163
225 21 56
226 88 41
227 20 92
228 73 20
229 95 18
230 17 87
231 123 32
232 124 170
233 84 141
234 116 44
235 133 162
236 74 31
237 107 23
238 25 102
239 97 71
240 83 147
241 38 94
242 149 146
243 93 117
244 124 154
245 115 40
246 84 136
247 88 111
248 143 135
249 143 30
250 148 139
251 68 69
252 97 157
253 146 113
254 118 9
255 125 16
256 81 92
257 148 57
258 89 27
259 165 157
260 70 89
261 25 101
262 6 95
263 89 80
264 76 15
265 3 56
266 82 48
267 81 89
268 20 79
269 30 75
270 160 137
271 150 130
272 156 137
273 169 54
274 13 90
275 49 64
276 39 99
277 91 43
278 60 197
279 15 69
280 101 164
281 153 161
282 11 83
283 127 55
284 33 103
285 43 101
286 175 70
287 122 144
288 68 16
289 93 32
290 164 61
291 79 31
292 69 178
293 86 155
294 87 67
295 99 48
296 72 8
297 108 82
298 69 121
299 67 13
300 33 73
301 68 176
302 106 127
303 106 60
304 35 90
305 84 13
306 133 168
307 21 76
308 67 89
309 67 97
310 69 40
311 13 120
312 68 173
313 190 122
314 104 59
315 117 53
316 84 25
317 109 169
318 120 50
319 52 79
320 69 99
321 91 39
322 108 26
323 116 171
324 65 164
325 106 83
326 55 97
327 39 79
328 13 173
329 95 29
330 160 136
331 105 55
332 146 62
333 73 196
334 95 150
335 26 169
336 161 139
337 77 126
338 66 81
339 132 36
340 101 152
341 94 75
342 158 122
343 81 20
344 180 126
345 47 76
346 60 37
347 35 185
348 36 177
349 48 191
350 169 36
351 177 45
352 72 119
353 26 107
354 15 57
355 54 73
356 68 152
357 93 26
358 40 101
359 111 24
360 46 128
361 177 55
362 132 139
363 101 62
364 97 116
365 81 83
366 157 59
367 91 49
368 81 32
369 47 80
370 119 62
371 43 98
372 101 55
373 31 63
374 145 144
375 56 192
376 101 158
377 30 86
378 33 188
379 156 64
380 154 44
381 171 63
382 139 169
383 121 52
384 139 102
385 84 10
386 7 63
387 184 55
388 58 168
389 156 135
390 165 52
391 128 141
392 79 106
393 102 56
394 87 132
395 23 172
396 64 172
397 82 104
398 99 156
399 146 142
400 14 81
401 79 19
402 37 195
403 84 20
404 164 124
405 68 190
406 117 53
407 125 16
PICKUP_AND_DELIVERY_SECTION
1 0 0 3693 0 0 0
2 10 287 447 90 0 354
3 30 645 805 90 0 302
4 -10 2133 2293 90 113 0
5 -10 2018 2178 90 305 0
6 -30 1884 2044 90 328 0
7 -20 2895 3055 90 70 0
8 -10 925 1085 90 190 0
9 20 2195 2355 90 0 306
10 20 866 1026 90 0 312
11 10 2185 2345 90 0 56
12 40 1591 1751 90 0 259
13 10 1617 1777 90 0 280
14 30 2035 2195 90 0 182
15 20 1432 1592 90 0 229
16 10 229 389 90 0 175
17 -20 2659 2819 90 260 0
18 -40 1971 2131 90 383 0
19 20 839 999 90 0 125
20 -20 1901 2061 90 263 0
21 -20 473 633 90 37 0
22 30 69 229 90 0 285
23 10 612 772 90 0 394
24 20 769 929 90 0 205
25 10 1941 2101 90 0 78
26 30 27 187 90 0 372
27 20 1572 1732 90 0 89
28 10 509 669 90 0 364
29 -30 1052 1212 90 360 0
30 20 1341 1501 90 0 337
31 -20 2567 2727 90 311 0
32 10 36 196 90 0 293
33 -40 1742 1902 90 164 0
34 -30 2904 3064 90 200 0
35 20 359 519 90 0 213
36 20 244 404 90 0 359
37 20 270 430 90 0 21
38 10 51 211 90 0 59
39 -20 2469 2629 90 275 0
40 10 1453 1613 90 0 180
41 -20 3084 3244 90 271 0
42 -20 2085 2245 90 250 0
43 20 2097 2257 90 0 232
44 -20 2386 2546 90 136 0
45 30 1360 1520 90 0 339
46 -30 2571 2731 90 203 0
47 10 1715 1875 90 0 174
48 -30 2144 2304 90 351 0
49 -10 3375 3535 90 391 0
50 20 48 208 90 0 153
51 30 992 1152 90 0 199
52 -20 660 820 90 212 0
53 -20 2696 2856 90 148 0
54 -30 188 348 90 373 0
55 -20 1460 1620 90 279 0
56 -10 2664 2824 90 11 0
57 -30 2872 3032 90 91 0
58 -30 2663 2823 90 159 0
59 -10 1468 1628 90 38 0
60 10 1802 1962 90 0 309
61 30 875 1035 90 0 161
62 -30 2996 3156 90 356 0
63 10 58 218 90 0 349
64 30 2293 2453 90 0 86
65 20 370 530 90 0 388
66 10 2068 2228 90 0 100
67 10 2510 2670 90 0 196
68 10 501 661 90 0 225
69 -40 1712 1872 90 186 0
70 20 837 997 90 0 7
71 -20 3273 3433 90 117 0
72 10 2890 3050 90 0 362
73 -10 3032 3192 90 239 0
74 -10 488 648 90 147 0
75 -30 2703 2863 90 380 0
76 20 9 169 90 0 115
77 20 3127 3287 90 0 151
78 -10 2228 2388 90 25 0
79 -30 2085 2245 90 176 0
80 10 2597 2757 0 0 403
81 -20 1972 2132 90 88 0
82 -30 2857 3017 90 158 0
83 -20 3081 3241 90 127 0
84 -20 1147 1307 90 264 0
85 10 572 732 90 0 278
86 -30 2481 2641 90 64 0
87 20 2605 2765 0 0 404
88 20 1787 1947 90 0 81
89 -20 2754 2914 90 27 0
90 20 72 232 90 0 324
91 30 2773 2933 90 0 57
92 10 2314 2474 90 0 357
93 -20 2376 2536 90 300 0
94 20 1118 1278 90 0 242
95 10 1074 1234 90 0 160
96 -30 1689 1849 90 348 0
97 20 2685 2845 90 0 341
98 10 779 939 90 0 124
99 -20 2614 2774 90 206 0
100 -10 2987 3147 90 66 0
101 10 831 991 90 0 152
102 30 952 1112 90 0 233
103 -20 1909 2069 90 296 0
104 -10 1370 1530 90 322 0
105 20 600 760 90 0 197
106 10 316 476 90 0 114
107 -30 3001 3161 90 122 0
108 20 2202 2362 0 0 405
109 -30 1673 1833 90 192 0
110 -10 3405 3565 90 248 0
111 10 413 573 0 0 402
112 -20 2759 2919 90 129 0
113 10 1168 1328 90 0 4
114 -10 1491 1651 90 106 0
115 -20 886 1046 90 76 0
116 10 145 305 90 0 251
117 20 1894 2054 90 0 71
118 20 1263 1423 90 0 245
119 30 2410 2570 90 0 131
120 10 629 789 90 0 267
121 -10 1452 1612 90 338 0
122 30 2519 2679 90 0 107
123 20 1065 1225 90 0 290
124 -10 1935 2095 90 98 0
125 -20 1128 1288 90 19 0
126 -30 1564 1724 90 297 0
127 20 2966 3126 90 0 83
128 30 344 504 90 0 393
129 20 697 857 90 0 112
130 20 597 757 90 0 168
131 -30 2510 2670 90 119 0
132 20 3178 3338 90 0 165
133 -10 1751 1911 90 303 0
134 -10 537 697 90 178 0
135 -20 2109 2269 90 150 0
136 20 2015 2175 90 0 44
137 30 2262 2422 90 0 345
138 30 50 210 90 0 215
139 -20 3165 3325 90 258 0
140 -10 983 1143 90 204 0
141 20 739 899 90 0 256
142 -20 1450 1610 90 187 0
143 30 1387 1547 90 0 395
144 -10 1542 1702 90 214 0
145 10 311 471 90 0 370
146 -10 2744 2904 90 386 0
147 10 389 549 90 0 74
148 20 162 322 90 0 53
149 20 1791 1951 90 0 313
150 20 1064 1224 90 0 135
151 -20 3328 3488 90 77 0
152 -10 1211 1371 90 101 0
153 -20 946 1106 90 50 0
154 10 2369 2529 90 0 327
155 20 264 424 90 0 358
156 -20 2014 2174 90 352 0
157 10 895 1055 90 0 243
158 30 1188 1348 90 0 82
159 30 2463 2623 90 0 58
160 -10 1458 1618 90 95 0
161 -30 2331 2491 90 61 0
162 10 2852 3012 90 0 319
163 10 18 178 90 0 298
164 40 585 745 90 0 33
165 -20 3296 3456 90 132 0
166 -20 1354 1514 90 375 0
167 20 82 242 90 0 347
168 -20 2618 2778 90 130 0
169 30 2285 2445 90 0 335
170 -10 1332 1492 90 228 0
171 10 219 379 90 0 314
172 -20 853 1013 90 240 0
173 -20 1143 1303 90 237 0
174 -10 1809 1969 90 47 0
175 -10 415 575 90 16 0
176 30 207 367 90 0 79
177 -20 3000 3160 90 219 0
178 10 339 499 90 0 134
179 30 945 1105 90 0 266
180 -10 1732 1892 90 40 0
181 -10 957 1117 90 368 0
182 -30 2610 2770 90 14 0
183 -30 1030 1190 90 294 0
184 20 1779 1939 90 0 329
185 10 1733 1893 90 0 220
186 40 1144 1304 90 0 69
187 20 1250 1410 90 0 142
188 20 1655 1815 90 0 331
189 10 761 921 90 0 317
190 10 457 617 90 0 8
191 20 1075 1235 90 0 355
192 30 414 574 90 0 109
193 30 113 273 90 0 224
194 -10 1561 1721 90 254 0
195 20 1262 1422 90 0 268
196 -10 2801 2961 90 67 0
197 -20 1675 1835 90 105 0
198 10 1027 1187 90 0 399
199 -30 1086 1246 90 51 0
200 30 1846 2006 90 0 34
201 -20 1693 1853 90 353 0
202 -10 1648 1808 90 387 0
203 30 1280 1440 90 0 46
204 10 391 551 90 0 140
205 -20 1256 1416 90 24 0
206 20 1436 1596 90 0 99
207 -30 1593 1753 90 378 0
208 -20 2464 2624 90 307 0
209 -20 1492 1652 90 389 0
210 -30 2589 2749 90 334 0
211 20 1043 1203 90 0 323
212 20 243 403 90 0 52
213 -20 1115 1275 90 35 0
214 10 36 196 90 0 144
215 -30 1852 2012 90 138 0
216 -30 2651 2811 90 400 0
217 30 44 204 90 0 365
218 -20 2206 2366 90 246 0
219 20 321 481 90 0 177
220 -10 1920 2080 90 185 0
221 -10 2218 2378 90 288 0
222 -30 2783 2943 90 249 0
223 10 60 220 90 0 366
224 -30 1978 2138 90 193 0
225 -10 692 852 90 68 0
226 10 71 231 90 0 291
227 -30 1881 2041 90 371 0
228 10 864 1024 90 0 170
229 -20 2122 2282 90 15 0
230 10 2068 2228 90 0 274
231 30 2321 2481 90 0 234
232 -20 2290 2450 90 43 0
233 -30 1637 1797 90 102 0
234 -30 2517 2677 90 231 0
235 -20 2694 2854 90 340 0
236 -10 360 520 90 277 0
237 20 541 701 90 0 173
238 20 1495 1655 90 0 377
239 10 29 189 90 0 73
240 20 151 311 90 0 172
241 -20 168 328 90 326 0
242 -20 1399 1559 90 94 0
243 -10 3109 3269 90 157 0
244 -20 2796 2956 90 376 0
245 -20 2423 2583 90 118 0
246 20 1827 1987 90 0 218
247 -20 2706 2866 90 392 0
248 10 2989 3149 90 0 110
249 30 1045 1205 90 0 222
250 20 932 1092 90 0 42
251 -10 1234 1394 90 116 0
252 -30 1517 1677 90 398 0
253 20 62 222 90 0 272
254 10 741 901 90 0 194
255 10 841 1001 0 0 407
256 -20 2938 3098 90 141 0
257 10 188 348 90 0 361
258 20 2787 2947 90 0 139
259 -40 1990 2150 90 12 0
260 20 2279 2439 90 0 17
261 10 1404 1564 90 0 262
262 -10 2237 2397 90 261 0
263 20 241 401 90 0 20
264 20 1050 1210 90 0 84
265 20 891 1051 90 0 304
266 -30 2489 2649 90 179 0
267 -10 2845 3005 90 120 0
268 -20 1943 2103 90 195 0
269 10 1564 1724 90 0 282
270 10 462 622 90 0 336
271 20 2800 2960 90 0 41
272 -20 649 809 90 253 0
273 -10 970 1130 90 350 0
274 -10 2138 2298 90 230 0
275 20 1344 1504 90 0 39
276 20 724 884 90 0 284
277 10 57 217 90 0 236
278 -10 2579 2739 90 85 0
279 20 1362 1522 90 0 55
280 -10 1806 1966 90 13 0
281 20 1689 1849 90 0 344
282 -10 2165 2325 90 269 0
283 -10 3003 3163 90 318 0
284 -20 1306 1466 90 276 0
285 -30 1021 1181 90 22 0
286 20 1836 1996 90 0 379
287 -30 3096 3256 90 382 0
288 10 768 928 90 0 221
289 20 2977 3137 90 0 295
290 -20 2423 2583 90 123 0
291 -10 265 425 90 226 0
292 -10 1917 2077 90 301 0
293 -10 457 617 90 32 0
294 30 938 1098 90 0 183
295 -20 3267 3427 90 289 0
296 20 1239 1399 90 0 103
297 30 120 280 90 0 126
298 -10 1237 1397 90 163 0
299 -10 675 835 90 310 0
300 20 1657 1817 90 0 93
301 10 1825 1985 90 0 292
302 -30 2412 2572 90 3 0
303 10 784 944 90 0 133
304 -20 2555 2715 90 265 0
305 10 1527 1687 90 0 5
306 -20 2389 2549 90 9 0
307 20 1760 1920 90 0 208
308 -10 2186 2346 90 320 0
309 -10 2088 2248 90 60 0
310 10 460 620 90 0 299
311 20 2353 2513 90 0 31
312 -20 1641 1801 90 10 0
313 -20 2215 2375 90 149 0
314 -10 692 852 90 171 0
315 20 2712 2872 0 0 406
316 10 2692 2852 90 0 321
317 -10 1906 2066 90 189 0
318 10 2806 2966 90 0 283
319 -10 3130 3290 90 162 0
320 10 1995 2155 90 0 308
321 -10 3074 3234 90 316 0
322 10 447 607 90 0 104
323 -20 2003 2163 90 211 0
324 -20 175 335 90 90 0
325 20 28 188 90 0 363
326 20 45 205 90 0 241
327 -10 2842 3002 90 154 0
328 30 1786 1946 90 0 6
329 -20 2376 2536 90 184 0
330 -10 371 531 90 384 0
331 -20 2165 2325 90 188 0
332 20 93 253 90 0 381
333 -10 2682 2842 90 396 0
334 30 557 717 90 0 210
335 -30 2380 2540 90 169 0
336 -10 554 714 90 270 0
337 -20 2111 2271 90 30 0
338 10 444 604 90 0 121
339 -30 2038 2198 90 45 0
340 20 1236 1396 90 0 235
341 -20 2886 3046 90 97 0
342 30 267 427 90 0 374
343 -30 2504 2664 90 346 0
344 -20 2315 2475 90 281 0
345 -30 3034 3194 90 137 0
346 30 560 720 90 0 343
347 -20 604 764 90 167 0
348 30 793 953 90 0 96
349 -10 966 1126 90 63 0
350 10 682 842 90 0 273
351 30 1349 1509 90 0 48
352 20 1143 1303 90 0 156
353 20 1591 1751 90 0 201
354 -10 788 948 90 2 0
355 -20 3226 3386 90 191 0
356 30 349 509 90 0 62
357 -10 2881 3041 90 92 0
358 -20 553 713 90 155 0
359 -20 635 795 90 36 0
360 30 844 1004 90 0 29
361 -10 1159 1319 90 257 0
362 -10 3393 3553 90 72 0
363 -20 505 665 90 325 0
364 -10 2900 3060 90 28 0
365 -30 2561 2721 90 217 0
366 -10 2801 2961 90 223 0
367 -20 2589 2749 90 390 0
368 10 173 333 90 0 181
369 10 2940 3100 90 0 397
370 -10 980 1140 90 145 0
371 30 738 898 90 0 227
372 -30 146 306 90 26 0
373 30 89 249 90 0 54
374 -30 1305 1465 90 342 0
375 20 1157 1317 90 0 166
376 20 1332 1492 90 0 244
377 -20 2757 2917 90 238 0
378 30 511 671 90 0 207
379 -20 2896 3056 90 286 0
380 30 293 453 90 0 75
381 -20 2235 2395 90 332 0
382 30 2485 2645 90 0 287
383 40 1878 2038 90 0 18
384 10 39 199 90 0 330
385 40 1620 1780 90 0 401
386 10 1169 1329 90 0 146
387 10 1545 1705 90 0 202
388 -20 671 831 90 65 0
389 20 741 901 90 0 209
390 20 1258 1418 90 0 367
391 10 3193 3353 90 0 49
392 20 131 291 90 0 247
393 -30 2259 2419 90 128 0
394 -10 2302 2462 90 23 0
395 -30 2474 2634 90 143 0
396 10 1547 1707 90 0 333
397 -10 3232 3392 90 369 0
398 30 1425 1585 90 0 252
399 -10 1213 1373 90 198 0
400 30 2039 2199 90 0 216
401 -40 2411 2571 90 385 0
402 -10 413 573 90 111 0
403 -10 2597 2757 90 80 0
404 -20 2605 2765 90 87 0
405 -20 2202 2362 90 108 0
406 -20 2712 2872 90 315 0
407 -10 841 1001 90 255 0
DEPOT_SECTION
1
-1
EOF
