NAME: lr1_4_10
TYPE: PDPTW
COMMENT: Li & Lim PDPTW benchmark converted from SINTEF format
DIMENSION: 419
VEHICLES: 100
CAPACITY: 200
EDGE_WEIGHT_TYPE: EUC_2D
NODE_COORD_SECTION
1 100 100
2 20 59
3 178 61
4 39 186
5 182 110
6 186 65
7 58 19
8 60 71
9 86 150
10 40 95
11 123 90
12 55 100
13 18 35
14 88 152
15 26 41
16 24 131
17 97 192
18 63 44
19 1 54
20 134 157
21 176 132
22 155 17
23 159 187
24 174 194
25 136 90
26 1 149
27 83 180
28 63 141
29 39 112
30 184 140
31 50 31
32 28 160
33 143 179
34 74 163
35 39 151
36 171 69
37 153 19
38 111 189
39 5 122
40 159 105
41 49 99
42 53 175
43 48 106
44 101 127
45 149 78
46 78 169
47 157 142
48 75 170
49 156 93
50 5 130
51 158 81
52 85 85
53 189 83
54 66 3
55 45 95
56 162 162
57 84 188
58 38 101
59 55 51
60 176 58
61 48 94
62 173 147
63 35 9
64 112 42
65 11 118
66 155 22
67 42 174
68 154 7
69 181 39
70 60 153
71 171 36
72 158 132
73 112 174
74 97 129
75 68 191
76 124 191
77 86 110
78 158 20
79 130 55
80 180 66
81 18 59
82 139 158
83 37 146
84 17 32
85 86 69
86 67 70
87 119 113
88 136 12
89 49 71
90 121 48
91 118 117
92 104 88
93 89 176
94 46 40
95 78 72
96 69 150
97 6 120
98 154 29
99 70 130
100 172 186
101 23 168
102 65 42
103 53 180
104 90 4
105 76 102
106 30 67
107 138 72
108 68 115
109 84 81
110 104 142
111 104 5
112 31 63
113 30 183
114 141 146
115 159 196
116 20 72
117 113 100
118 184 101
119 82 48
120 57 157
121 67 138
122 181 70
123 63 149
124 41 43
125 74 67
126 138 61
127 182 9
128 104 176
129 60 184
130 63 192
131 77 119
132 137 41
133 151 180
134 63 151
135 146 3
136 186 8
137 51 162
138 57 118
139 107 96
140 154 184
141 46 5
142 80 190
143 100 144
144 121 46
145 177 134
146 155 107
147 62 152
148 148 38
149 178 127
150 41 16
151 144 92
152 122 13
153 197 7
154 9 122
155 27 97
156 149 176
157 106 41
158 19 51
159 8 89
160 151 132
161 56 148
162 122 38
163 90 174
164 114 122
165 108 148
166 41 73
167 149 103
168 42 148
169 103 97
170 107 133
171 95 50
172 114 183
173 113 105
174 142 27
175 25 165
176 168 58
177 200 162
178 135 110
179 66 98
180 55 87
181 116 52
182 125 53
183 115 50
184 97 9
185 184 110
186 110 110
187 63 116
188 152 122
189 94 119
190 46 131
191 81 183
192 3 101
193 191 124
194 135 45
195 125 49
196 173 42
197 172 179
198 23 123
199 12 15
200 118 45
201 10 20
202 161 3
203 19 38
204 62 138
205 145 71
206 32 23
207 42 72
208 193 127
209 183 170
210 36 104
211 124 165
212 198 97
213 168 146
214 121 50
215 92 178
216 68 156
217 115 75
218 59 139
219 112 78
220 7 119
221 123 59
222 5 162
223 147 193
224 186 149
225 122 58
226 113 158
227 76 93
228 40 115
229 53 79
230 172 55
231 137 10
232 37 177
233 131 136
234 100 53
235 113 14
236 159 129
237 114 72
238 157 196
239 148 196
240 24 197
241 85 193
242 68 40
243 23 74
244 85 164
245 111 129
246 69 64
247 174 185
248 165 156
249 26 45
250 127 143
251 75 134
252 141 132
253 8 8
254 12 113
255 28 187
256 41 186
257 62 38
258 16 141
259 78 118
260 113 151
261 40 130
262 142 60
263 116 4
264 94 31
265 28 15
266 152 190
267 7 108
268 42 165
269 182 89
270 125 34
271 118 139
272 148 157
273 59 24
274 75 173
275 143 103
276 188 70
277 78 136
278 146 166
279 103 25
280 152 68
281 137 59
282 98 77
283 136 111
284 198 16
285 154 59
286 176 134
287 179 151
288 125 78
289 114 112
290 172 66
291 20 113
292 67 127
293 70 37
294 109 197
295 135 171
296 181 156
297 35 160
298 193 12
299 98 89
300 23 176
301 54 37
302 151 179
303 116 118
304 127 60
305 103 77
306 17 166
307 46 22
308 42 144
309 44 10
310 108 187
311 64 156
312 83 81
313 199 123
314 120 39
315 109 45
316 114 153
317 87 30
318 131 92
319 137 158
320 65 77
321 191 138
322 161 158
323 164 37
324 47 118
325 111 98
326 144 59
327 28 127
328 34 145
329 165 181
330 50 135
331 105 26
332 70 28
333 10 60
334 172 161
335 51 112
336 73 81
337 69 133
338 71 114
339 84 180
340 112 6
341 31 79
342 99 45
343 127 39
344 62 15
345 71 131
346 197 29
347 138 31
348 138 69
349 25 48
350 59 83
351 126 199
352 32 47
353 188 194
354 109 85
355 13 139
356 74 55
357 6 193
358 130 149
359 45 55
360 126 100
361 178 88
362 129 176
363 80 167
364 179 5
365 12 131
366 15 197
367 66 196
368 110 184
369 71 145
370 45 142
371 56 19
372 26 197
373 179 95
374 196 126
375 32 190
376 101 29
377 83 112
378 125 180
379 145 19
380 150 26
381 98 193
382 28 77
383 143 116
384 175 60
385 56 90
386 88 15
387 89 153
388 38 183
389 109 48
390 89 39
391 195 132
392 108 141
393 22 61
394 110 8
395 64 123
396 139 97
397 168 119
398 151 66
399 29 121
400 32 166
401 88 143
402 171 36
403 172 186
404 17 32
405 71 145
406 17 166
407 146 166
408 113 14
409 62 38
410 151 66
411 162 162
412 37 177
413 114 183
414 118 45
415 45 95
416 113 100
417 15 197
418 131 92
419 28 127
PICKUP_AND_DELIVERY_SECTION
1 0 0 804 0 0 0
2 20 458 575 10 0 333
3 -8 339 409 10 107 0
4 5 132 249 10 0 375
5 -17 121 235 10 167 0
6 39 407 557 10 0 326
7 10 151 243 10 0 317
8 -48 220 298 10 246 0
9 -28 478 529 10 216 0
10 -15 467 568 10 61 0
11 21 25 132 10 0 286
12 22 45 170 10 0 41
13 -14 559 690 10 201 0
14 13 99 232 10 0 96
15 14 106 210 10 0 199
16 31 276 372 10 0 258
17 -27 176 243 10 381 0
18 -11 447 582 10 332 0
19 14 260 345 10 0 124
20 -17 384 482 10 358 0
21 10 297 409 10 0 236
22 32 99 174 10 0 66
23 -6 421 563 10 115 0
24 -17 435 519 10 209 0
25 18 37 191 10 0 325
26 35 376 460 10 0 32
27 15 224 339 10 0 34
28 -17 114 222 10 123 0
29 26 94 196 10 0 138
30 -6 302 441 10 334 0
31 20 85 203 10 0 94
32 -35 343 473 10 26 0
33 -27 245 328 10 295 0
34 -15 594 716 10 27 0
35 26 80 174 10 0 175
36 19 137 267 10 0 60
37 -20 277 419 10 379 0
38 -20 451 584 10 73 0
39 15 310 445 10 0 50
40 -14 520 662 10 397 0
41 -22 174 289 10 12 0
42 28 160 276 10 0 67
43 23 137 239 10 0 291
44 31 27 110 10 0 99
45 6 398 526 10 0 280
46 -10 228 379 10 363 0
47 13 70 255 10 0 224
48 17 481 584 10 0 204
49 -14 369 502 10 212 0
50 -15 565 695 10 39 0
51 -23 480 568 10 361 0
52 14 503 665 10 0 92
53 43 160 278 10 0 373
54 -13 331 441 10 184 0
55 15 184 248 0 0 415
56 20 308 407 0 0 411
57 -23 427 579 10 367 0
58 10 264 431 10 0 77
59 17 197 368 10 0 86
60 -19 168 315 10 36 0
61 15 324 451 10 0 10
62 -20 417 552 10 287 0
63 -6 206 285 10 150 0
64 33 402 524 10 0 234
65 -28 90 226 10 365 0
66 -32 95 234 10 22 0
67 -28 94 190 10 42 0
68 -13 309 421 10 343 0
69 11 318 451 10 0 78
70 -11 66 183 10 121 0
71 6 561 699 0 0 402
72 -18 355 390 10 252 0
73 20 74 188 10 0 38
74 -35 525 673 10 87 0
75 15 468 627 10 0 142
76 -1 150 272 10 378 0
77 -10 483 624 10 58 0
78 -11 516 658 10 69 0
79 -15 386 489 10 132 0
80 -11 86 216 10 288 0
81 20 375 501 10 0 341
82 -18 435 551 10 362 0
83 -8 234 417 10 330 0
84 16 412 560 0 0 404
85 14 125 257 10 0 229
86 -17 404 491 10 59 0
87 35 23 153 10 0 74
88 -13 95 182 10 263 0
89 -19 436 550 10 320 0
90 17 237 359 10 0 182
91 20 24 127 10 0 143
92 -14 669 782 10 52 0
93 -10 379 506 10 368 0
94 -20 184 350 10 31 0
95 9 35 122 10 0 359
96 -13 515 643 10 14 0
97 -17 520 629 10 154 0
98 -27 216 332 10 152 0
99 -31 438 530 10 44 0
100 35 112 228 0 0 403
101 -16 441 546 10 297 0
102 12 150 306 10 0 125
103 4 241 346 10 0 339
104 -19 96 182 10 390 0
105 15 24 96 10 0 180
106 -8 221 349 10 249 0
107 8 89 225 10 0 3
108 20 503 657 10 0 259
109 11 24 155 10 0 336
110 -13 582 700 10 392 0
111 -22 151 261 10 386 0
112 -19 242 401 10 158 0
113 9 248 356 10 0 357
114 -18 494 599 10 351 0
115 6 195 311 10 0 23
116 21 194 338 10 0 393
117 5 168 322 0 0 416
118 17 200 308 10 0 151
119 8 55 166 10 0 340
120 26 71 220 10 0 241
121 11 50 186 10 0 70
122 25 460 620 10 0 230
123 17 61 167 10 0 28
124 -14 477 566 10 19 0
125 -12 280 400 10 102 0
126 19 235 320 10 0 354
127 -3 252 362 10 196 0
128 19 171 319 10 0 294
129 7 263 419 10 0 215
130 -20 195 301 10 137 0
131 -23 323 427 10 139 0
132 15 382 478 10 0 79
133 -9 489 651 10 353 0
134 -17 525 606 10 400 0
135 -16 385 508 10 380 0
136 31 289 388 10 0 346
137 20 92 143 10 0 130
138 -26 383 489 10 29 0
139 23 8 120 10 0 131
140 36 255 411 10 0 322
141 8 314 442 10 0 265
142 -15 422 496 10 75 0
143 -20 222 305 10 91 0
144 3 126 235 10 0 231
145 -17 277 405 10 248 0
146 10 502 629 10 0 360
147 19 404 535 10 0 401
148 6 217 285 10 0 262
149 23 166 269 10 0 213
150 6 102 229 10 0 63
151 -17 448 605 10 118 0
152 27 89 225 10 0 98
153 13 240 345 10 0 364
154 17 324 460 10 0 97
155 30 249 373 10 0 210
156 16 90 214 10 0 302
157 13 218 344 10 0 270
158 19 126 235 10 0 112
159 -32 186 260 10 267 0
160 6 123 237 10 0 321
161 -22 478 606 10 268 0
162 -24 362 548 10 214 0
163 -23 183 280 10 244 0
164 -23 152 304 10 173 0
165 -27 48 157 10 245 0
166 21 233 361 10 0 382
167 17 49 195 10 0 5
168 -15 528 688 10 370 0
169 9 4 184 10 0 194
170 -26 368 511 10 217 0
171 25 202 303 10 0 227
172 35 234 301 0 0 413
173 23 160 361 10 0 164
174 11 323 446 10 0 347
175 -26 304 473 10 35 0
176 29 195 279 10 0 290
177 -25 448 571 10 188 0
178 7 36 211 10 0 296
179 -33 604 692 10 192 0
180 -15 184 253 10 105 0
181 -17 350 465 10 195 0
182 -17 349 427 10 90 0
183 14 343 427 10 0 221
184 13 272 397 10 0 54
185 23 130 263 10 0 193
186 -13 563 651 10 271 0
187 -13 443 577 10 335 0
188 25 56 239 10 0 177
189 25 19 134 10 0 311
190 21 297 415 10 0 308
191 -30 85 209 10 274 0
192 33 531 633 10 0 179
193 -23 106 225 10 185 0
194 -9 262 344 10 169 0
195 17 250 360 10 0 181
196 3 93 203 10 0 127
197 -15 508 644 10 247 0
198 -46 251 359 10 399 0
199 -14 487 593 10 15 0
200 28 319 419 0 0 414
201 14 546 662 10 0 13
202 -3 439 634 10 298 0
203 16 424 515 10 0 301
204 -17 581 698 10 48 0
205 10 140 255 10 0 285
206 -11 160 229 10 253 0
207 18 148 243 10 0 349
208 -15 478 567 10 275 0
209 17 163 253 10 0 24
210 -30 207 305 10 155 0
211 -19 387 546 10 226 0
212 14 159 319 10 0 49
213 -23 215 321 10 149 0
214 24 59 195 10 0 162
215 -7 424 547 10 129 0
216 28 263 399 10 0 9
217 26 29 210 10 0 170
218 -16 281 391 10 251 0
219 34 25 130 10 0 260
220 -2 325 428 10 254 0
221 -14 343 472 10 183 0
222 -8 113 216 10 337 0
223 29 104 221 10 0 266
224 -13 98 266 10 47 0
225 -22 47 214 10 237 0
226 19 347 499 10 0 211
227 -25 444 519 10 171 0
228 41 175 293 10 0 338
229 -14 454 520 10 85 0
230 -25 418 521 10 122 0
231 -3 387 523 10 144 0
232 21 386 488 0 0 412
233 -21 587 704 10 272 0
234 -33 639 744 10 64 0
235 20 488 649 0 0 408
236 -10 334 462 10 21 0
237 22 31 158 10 0 225
238 -22 273 398 10 329 0
239 13 331 379 10 0 250
240 -27 418 567 10 256 0
241 -26 245 406 10 120 0
242 23 68 244 10 0 243
243 -23 513 631 10 242 0
244 23 65 199 10 0 163
245 27 31 99 10 0 165
246 48 175 274 10 0 8
247 15 112 230 10 0 197
248 17 85 201 10 0 145
249 8 191 283 10 0 106
250 -13 490 622 10 239 0
251 16 42 170 10 0 218
252 18 52 206 10 0 72
253 11 130 303 10 0 206
254 2 286 409 10 0 220
255 -10 470 558 10 388 0
256 27 104 254 10 0 240
257 19 506 602 0 0 409
258 -31 445 638 10 16 0
259 -20 613 673 10 108 0
260 -34 269 441 10 219 0
261 -21 109 197 10 292 0
262 -6 351 504 10 148 0
263 13 97 273 10 0 88
264 18 69 184 10 0 394
265 -8 287 408 10 141 0
266 -29 256 377 10 223 0
267 32 93 243 10 0 159
268 22 349 448 10 0 161
269 -9 382 507 10 348 0
270 -13 237 337 10 157 0
271 13 42 140 10 0 186
272 21 285 380 10 0 233
273 -10 314 445 10 307 0
274 30 77 199 10 0 191
275 15 117 250 10 0 208
276 -18 131 308 10 384 0
277 31 201 412 10 0 345
278 24 330 432 0 0 407
279 2 75 185 10 0 314
280 -6 561 663 10 45 0
281 -23 276 378 10 304 0
282 7 23 183 10 0 350
283 -18 538 693 10 383 0
284 -19 141 280 10 323 0
285 -10 67 176 10 205 0
286 -21 83 195 10 11 0
287 20 262 407 10 0 62
288 11 33 116 10 0 80
289 -3 572 669 10 319 0
290 -29 238 365 10 176 0
291 -23 81 192 10 43 0
292 21 42 147 10 0 261
293 10 69 190 10 0 344
294 -19 350 492 10 128 0
295 27 125 231 10 0 33
296 -7 475 568 10 178 0
297 16 88 254 10 0 101
298 3 333 445 10 0 202
299 29 11 56 10 0 305
300 20 326 410 10 0 372
301 -16 624 697 10 203 0
302 -16 94 247 10 156 0
303 -23 445 645 10 316 0
304 23 65 221 10 0 281
305 -29 23 154 10 299 0
306 22 382 520 0 0 406
307 10 379 460 10 0 273
308 -21 659 712 10 190 0
309 -27 106 288 10 352 0
310 -12 87 153 10 387 0
311 -25 303 426 10 189 0
312 21 25 156 10 0 356
313 20 253 387 10 0 374
314 -2 396 507 10 279 0
315 14 55 120 10 0 342
316 23 304 431 10 0 303
317 -10 166 241 10 7 0
318 22 32 170 0 0 418
319 3 190 259 10 0 289
320 19 183 263 10 0 89
321 -6 102 273 10 160 0
322 -36 358 459 10 140 0
323 19 89 195 10 0 284
324 -34 590 739 10 355 0
325 -18 564 662 10 25 0
326 -39 383 530 10 6 0
327 24 170 261 0 0 419
328 -17 240 340 10 395 0
329 22 103 161 10 0 238
330 8 380 497 10 0 83
331 24 282 393 10 0 371
332 11 446 582 10 0 18
333 -20 498 588 10 2 0
334 6 94 215 10 0 30
335 13 177 248 10 0 187
336 -11 669 761 10 109 0
337 8 45 230 10 0 222
338 -41 602 749 10 228 0
339 -4 298 454 10 103 0
340 -8 576 690 10 119 0
341 -20 524 620 10 81 0
342 -14 56 142 10 315 0
343 13 66 212 10 0 68
344 -10 93 163 10 293 0
345 -31 476 552 10 277 0
346 -31 355 492 10 136 0
347 -11 353 451 10 174 0
348 9 49 141 10 0 269
349 -18 381 532 10 207 0
350 -7 180 304 10 282 0
351 18 110 230 10 0 114
352 27 102 228 10 0 309
353 9 264 325 10 0 133
354 -19 540 712 10 126 0
355 34 596 699 10 0 324
356 -21 293 439 10 312 0
357 -9 326 502 10 113 0
358 17 57 201 10 0 20
359 -9 118 259 10 95 0
360 -10 600 725 10 146 0
361 23 279 394 10 0 51
362 18 81 272 10 0 82
363 10 179 295 10 0 46
364 -13 486 616 10 153 0
365 28 93 271 10 0 65
366 10 560 666 0 0 417
367 23 346 519 10 0 57
368 10 377 554 10 0 93
369 7 122 253 0 0 405
370 15 434 531 10 0 168
371 -24 415 556 10 331 0
372 -20 503 670 10 300 0
373 -43 442 539 10 53 0
374 -20 386 504 10 313 0
375 -5 215 353 10 4 0
376 -3 71 258 10 389 0
377 28 20 87 10 0 385
378 1 83 228 10 0 76
379 20 271 410 10 0 37
380 16 247 330 10 0 135
381 27 169 265 10 0 17
382 -21 176 294 10 166 0
383 18 336 463 10 0 283
384 18 85 211 10 0 276
385 -28 499 589 10 377 0
386 22 85 188 10 0 111
387 12 86 187 10 0 310
388 10 255 392 10 0 255
389 3 83 216 10 0 376
390 19 61 192 10 0 104
391 6 230 326 10 0 396
392 13 240 331 10 0 110
393 -21 243 328 10 116 0
394 -18 425 562 10 264 0
395 17 150 220 10 0 328
396 -6 563 718 10 391 0
397 14 520 626 10 0 40
398 11 61 127 0 0 410
399 46 208 370 10 0 198
400 17 273 370 10 0 134
401 -19 503 569 10 147 0
402 -6 561 699 10 71 0
403 -35 112 228 10 100 0
404 -16 412 560 10 84 0
405 -7 122 253 10 369 0
406 -22 382 520 10 306 0
407 -24 330 432 10 278 0
408 -20 488 649 10 235 0
409 -19 506 602 10 257 0
410 -11 61 127 10 398 0
411 -20 308 407 10 56 0
412 -21 386 488 10 232 0
413 -35 234 301 10 172 0
414 -28 319 419 10 200 0
415 -15 184 248 10 55 0
416 -5 168 322 10 117 0
417 -10 560 666 10 366 0
418 -22 32 170 10 318 0
419 -24 170 261 10 327 0
DEPOT_SECTION
1
-1
EOF
