NAME: lr1_4_9
TYPE: PDPTW
COMMENT: Li & Lim PDPTW benchmark converted from SINTEF format
DIMENSION: 419
VEHICLES: 100
CAPACITY: 200
EDGE_WEIGHT_TYPE: EUC_2D
NODE_COORD_SECTION
1 100 100
2 20 59
3 178 61
4 39 186
5 182 110
6 186 65
7 58 19
8 60 71
9 86 150
10 40 95
11 123 90
12 55 100
13 18 35
14 88 152
15 26 41
16 24 131
17 97 192
18 63 44
19 1 54
20 134 157
21 176 132
22 155 17
23 159 187
24 174 194
25 136 90
26 1 149
27 83 180
28 63 141
29 39 112
30 184 140
31 50 31
32 28 160
33 143 179
34 74 163
35 39 151
36 171 69
37 153 19
38 111 189
39 5 122
40 159 105
41 49 99
42 53 175
43 48 106
44 101 127
45 149 78
46 78 169
47 157 142
48 75 170
49 156 93
50 5 130
51 158 81
52 85 85
53 189 83
54 66 3
55 45 95
56 162 162
57 84 188
58 38 101
59 55 51
60 176 58
61 48 94
62 173 147
63 35 9
64 112 42
65 11 118
66 155 22
67 42 174
68 154 7
69 181 39
70 60 153
71 171 36
72 158 132
73 112 174
74 97 129
75 68 191
76 124 191
77 86 110
78 158 20
79 130 55
80 180 66
81 18 59
82 139 158
83 37 146
84 17 32
85 86 69
86 67 70
87 119 113
88 136 12
89 49 71
90 121 48
91 118 117
92 104 88
93 89 176
94 46 40
95 78 72
96 69 150
97 6 120
98 154 29
99 70 130
100 172 186
101 23 168
102 65 42
103 53 180
104 90 4
105 76 102
106 30 67
107 138 72
108 68 115
109 84 81
110 104 142
111 104 5
112 31 63
113 30 183
114 141 146
115 159 196
116 20 72
117 113 100
118 184 101
119 82 48
120 57 157
121 67 138
122 181 70
123 63 149
124 41 43
125 74 67
126 138 61
127 182 9
128 104 176
129 60 184
130 63 192
131 77 119
132 137 41
133 151 180
134 63 151
135 146 3
136 186 8
137 51 162
138 57 118
139 107 96
140 154 184
141 46 5
142 80 190
143 100 144
144 121 46
145 177 134
146 155 107
147 62 152
148 148 38
149 178 127
150 41 16
151 144 92
152 122 13
153 197 7
154 9 122
155 27 97
156 149 176
157 106 41
158 19 51
159 8 89
160 151 132
161 56 148
162 122 38
163 90 174
164 114 122
165 108 148
166 41 73
167 149 103
168 42 148
169 103 97
170 107 133
171 95 50
172 114 183
173 113 105
174 142 27
175 25 165
176 168 58
177 200 162
178 135 110
179 66 98
180 55 87
181 116 52
182 125 53
183 115 50
184 97 9
185 184 110
186 110 110
187 63 116
188 152 122
189 94 119
190 46 131
191 81 183
192 3 101
193 191 124
194 135 45
195 125 49
196 173 42
197 172 179
198 23 123
199 12 15
200 118 45
201 10 20
202 161 3
203 19 38
204 62 138
205 145 71
206 32 23
207 42 72
208 193 127
209 183 170
210 36 104
211 124 165
212 198 97
213 168 146
214 121 50
215 92 178
216 68 156
217 115 75
218 59 139
219 112 78
220 7 119
221 123 59
222 5 162
223 147 193
224 186 149
225 122 58
226 113 158
227 76 93
228 40 115
229 53 79
230 172 55
231 137 10
232 37 177
233 131 136
234 100 53
235 113 14
236 159 129
237 114 72
238 157 196
239 148 196
240 24 197
241 85 193
242 68 40
243 23 74
244 85 164
245 111 129
246 69 64
247 174 185
248 165 156
249 26 45
250 127 143
251 75 134
252 141 132
253 8 8
254 12 113
255 28 187
256 41 186
257 62 38
258 16 141
259 78 118
260 113 151
261 40 130
262 142 60
263 116 4
264 94 31
265 28 15
266 152 190
267 7 108
268 42 165
269 182 89
270 125 34
271 118 139
272 148 157
273 59 24
274 75 173
275 143 103
276 188 70
277 78 136
278 146 166
279 103 25
280 152 68
281 137 59
282 98 77
283 136 111
284 198 16
285 154 59
286 176 134
287 179 151
288 125 78
289 114 112
290 172 66
291 20 113
292 67 127
293 70 37
294 109 197
295 135 171
296 181 156
297 35 160
298 193 12
299 98 89
300 23 176
301 54 37
302 151 179
303 116 118
304 127 60
305 103 77
306 17 166
307 46 22
308 42 144
309 44 10
310 108 187
311 64 156
312 83 81
313 199 123
314 120 39
315 109 45
316 114 153
317 87 30
318 131 92
319 137 158
320 65 77
321 191 138
322 161 158
323 164 37
324 47 118
325 111 98
326 144 59
327 28 127
328 34 145
329 165 181
330 50 135
331 105 26
332 70 28
333 10 60
334 172 161
335 51 112
336 73 81
337 69 133
338 71 114
339 84 180
340 112 6
341 31 79
342 99 45
343 127 39
344 62 15
345 71 131
346 197 29
347 138 31
348 138 69
349 25 48
350 59 83
351 126 199
352 32 47
353 188 194
354 109 85
355 13 139
356 74 55
357 6 193
358 130 149
359 45 55
360 126 100
361 178 88
362 129 176
363 80 167
364 179 5
365 12 131
366 15 197
367 66 196
368 110 184
369 71 145
370 45 142
371 56 19
372 26 197
373 179 95
374 196 126
375 32 190
376 101 29
377 83 112
378 125 180
379 145 19
380 150 26
381 98 193
382 28 77
383 143 116
384 175 60
385 56 90
386 88 15
387 89 153
388 38 183
389 109 48
390 89 39
391 195 132
392 108 141
393 22 61
394 110 8
395 64 123
396 139 97
397 168 119
398 151 66
399 29 121
400 32 166
401 88 143
402 152 68
403 136 111
404 174 185
405 108 141
406 63 44
407 143 103
408 113 14
409 145 19
410 62 138
411 126 100
412 74 163
413 188 70
414 137 158
415 66 98
416 22 61
417 75 170
418 78 118
419 7 119
PICKUP_AND_DELIVERY_SECTION
1 0 0 804 0 0 0
2 20 485 549 10 0 243
3 19 342 406 10 0 6
4 -27 171 209 10 256 0
5 -35 132 224 10 87 0
6 -19 446 519 10 3 0
7 10 160 234 10 0 371
8 22 236 281 10 0 125
9 -21 464 543 10 11 0
10 -22 481 554 10 12 0
11 21 25 108 10 0 9
12 22 45 128 10 0 10
13 -14 597 670 10 201 0
14 13 136 195 10 0 216
15 14 129 188 10 0 106
16 31 274 373 10 0 50
17 23 181 237 10 0 75
18 14 494 536 0 0 406
19 14 273 332 10 0 192
20 -31 389 477 10 44 0
21 -2 306 400 10 321 0
22 32 99 166 10 0 71
23 9 462 522 10 0 233
24 8 456 498 10 0 133
25 18 37 98 10 0 262
26 -17 382 454 10 154 0
27 -12 251 311 10 387 0
28 14 135 201 10 0 83
29 -23 121 170 10 43 0
30 -6 332 411 10 391 0
31 20 85 133 10 0 150
32 27 380 435 10 0 258
33 24 260 313 10 0 272
34 21 610 699 0 0 412
35 26 93 161 10 0 218
36 19 158 245 10 0 122
37 3 323 372 10 0 364
38 -18 489 546 10 351 0
39 -2 338 418 10 254 0
40 20 570 613 10 0 396
41 32 207 257 10 0 138
42 -4 173 263 10 103 0
43 23 143 232 10 0 29
44 31 27 127 10 0 20
45 6 430 495 10 0 51
46 -16 280 327 10 251 0
47 13 70 130 10 0 72
48 17 500 565 0 0 417
49 -18 397 474 10 362 0
50 -31 640 691 10 16 0
51 -6 487 561 10 45 0
52 -11 574 593 10 253 0
53 -11 200 239 10 398 0
54 -29 341 430 10 63 0
55 -30 187 246 10 180 0
56 -19 325 391 10 213 0
57 -12 473 533 10 130 0
58 10 303 391 10 0 338
59 17 248 318 10 0 385
60 21 204 279 10 0 290
61 15 373 403 10 0 108
62 -6 471 498 10 160 0
63 29 203 287 10 0 54
64 -13 442 485 10 157 0
65 33 103 151 10 0 267
66 24 122 162 10 0 346
67 -8 94 174 10 337 0
68 -19 347 383 10 323 0
69 -9 361 409 10 348 0
70 11 78 146 10 0 99
71 -32 631 665 10 22 0
72 -13 354 391 10 47 0
73 -21 74 113 10 165 0
74 -22 581 618 10 170 0
75 -23 507 588 10 17 0
76 24 169 253 10 0 368
77 -14 523 585 10 229 0
78 -13 559 615 10 153 0
79 -7 401 474 10 194 0
80 13 86 171 10 0 269
81 -18 402 474 10 207 0
82 -17 478 509 10 209 0
83 -14 295 356 10 28 0
84 -16 454 518 10 203 0
85 14 154 228 10 0 320
86 -9 415 479 10 95 0
87 35 40 67 10 0 5
88 21 116 161 10 0 284
89 -11 460 525 10 359 0
90 17 268 329 10 0 182
91 20 24 113 10 0 173
92 -22 716 768 10 234 0
93 -26 403 481 10 215 0
94 -12 227 308 10 102 0
95 9 35 88 10 0 86
96 -13 543 616 10 375 0
97 -16 528 620 10 333 0
98 19 258 289 10 0 127
99 -11 449 520 10 70 0
100 -22 112 206 10 329 0
101 13 469 519 10 0 306
102 12 187 270 10 0 94
103 4 237 349 10 0 42
104 22 96 152 10 0 263
105 15 24 81 10 0 324
106 -14 259 312 10 15 0
107 8 128 185 10 0 326
108 -15 547 613 10 61 0
109 11 24 79 10 0 312
110 -18 606 675 10 163 0
111 -21 180 232 10 342 0
112 -27 290 353 10 352 0
113 9 262 342 10 0 388
114 -7 525 569 10 178 0
115 6 228 278 10 0 238
116 -12 239 294 10 382 0
117 5 221 269 10 0 401
118 -23 235 273 10 149 0
119 8 63 147 10 0 293
120 26 71 174 10 0 345
121 11 58 114 10 0 232
122 -19 509 571 10 36 0
123 17 61 153 10 0 137
124 -18 503 540 10 265 0
125 -22 305 376 10 8 0
126 -23 250 304 10 304 0
127 -19 276 339 10 98 0
128 -29 214 276 10 223 0
129 7 325 357 10 0 142
130 12 216 279 10 0 57
131 -31 339 412 10 277 0
132 15 408 451 10 0 314
133 -8 535 606 10 24 0
134 -22 527 604 10 268 0
135 24 427 466 10 0 202
136 -16 307 371 10 380 0
137 -17 79 160 10 123 0
138 -32 398 475 10 41 0
139 23 8 59 10 0 219
140 -17 303 362 10 248 0
141 8 354 401 10 0 307
142 -7 435 483 10 129 0
143 -29 218 309 10 299 0
144 -24 157 204 10 214 0
145 -20 320 361 10 313 0
146 10 531 599 10 0 325
147 -17 440 498 10 400 0
148 -15 211 290 10 225 0
149 23 184 252 10 0 118
150 -20 105 149 10 31 0
151 -18 509 543 10 383 0
152 27 130 180 10 0 174
153 13 261 324 10 0 78
154 17 352 432 10 0 26
155 30 268 353 10 0 341
156 16 90 120 10 0 172
157 13 247 314 10 0 64
158 19 159 202 10 0 349
159 -22 184 262 10 291 0
160 6 160 199 10 0 62
161 -8 520 564 10 330 0
162 -10 414 496 10 181 0
163 18 191 273 10 0 110
164 10 198 258 10 0 186
165 21 48 105 10 0 73
166 -23 271 323 10 242 0
167 17 49 67 10 0 287
168 14 579 636 10 0 308
169 9 4 62 10 0 171
170 22 421 458 10 0 74
171 -9 219 286 10 169 0
172 -16 242 293 10 156 0
173 -20 217 303 10 91 0
174 -27 366 403 10 152 0
175 24 369 408 10 0 357
176 29 197 276 10 0 230
177 24 492 526 10 0 397
178 7 36 105 10 0 114
179 2 613 684 0 0 415
180 30 181 256 10 0 55
181 10 375 439 10 0 162
182 -17 353 424 10 90 0
183 -28 360 411 10 200 0
184 13 303 366 10 0 331
185 23 165 228 10 0 236
186 -10 583 631 10 164 0
187 -11 473 546 10 210 0
188 25 56 100 10 0 296
189 25 19 57 10 0 271
190 21 326 385 10 0 370
191 -23 85 143 10 244 0
192 -14 564 600 10 19 0
193 7 129 201 10 0 208
194 7 269 336 10 0 79
195 -14 266 344 10 270 0
196 3 93 150 10 0 298
197 -10 530 622 10 266 0
198 -1 256 355 10 261 0
199 -8 519 561 10 249 0
200 28 349 390 10 0 183
201 14 555 653 10 0 13
202 -24 511 561 10 135 0
203 16 455 484 10 0 84
204 15 606 673 0 0 410
205 10 160 235 10 0 303
206 -16 172 217 10 309 0
207 18 167 223 10 0 81
208 -7 500 545 10 193 0
209 17 179 236 10 0 82
210 11 228 283 10 0 187
211 -10 448 485 10 363 0
212 14 214 264 10 0 373
213 19 250 287 10 0 56
214 24 94 161 10 0 144
215 26 447 524 10 0 93
216 -13 303 360 10 14 0
217 26 29 114 10 0 289
218 -26 310 362 10 35 0
219 -23 33 92 10 139 0
220 30 341 412 0 0 419
221 18 380 436 10 0 354
222 26 113 172 10 0 255
223 29 104 169 10 0 128
224 25 98 137 10 0 374
225 15 47 82 10 0 148
226 -7 394 452 10 369 0
227 -3 446 517 10 356 0
228 -13 199 268 10 335 0
229 14 451 523 10 0 77
230 -29 433 507 10 176 0
231 21 415 496 10 0 394
232 -11 429 445 10 121 0
233 -9 611 681 10 23 0
234 22 643 740 10 0 92
235 20 543 595 0 0 408
236 -23 376 419 10 185 0
237 22 31 68 10 0 285
238 -6 309 362 10 115 0
239 -12 309 400 10 302 0
240 17 485 501 10 0 366
241 25 285 366 10 0 294
242 23 68 119 10 0 166
243 -20 530 614 10 2 0
244 23 65 125 10 0 191
245 27 31 80 10 0 334
246 48 189 260 10 0 350
247 15 112 161 0 0 404
248 17 92 147 10 0 140
249 8 218 255 10 0 199
250 -24 538 575 10 322 0
251 16 42 103 10 0 46
252 18 63 122 10 0 286
253 11 130 185 10 0 52
254 2 321 375 10 0 39
255 -26 485 544 10 222 0
256 27 109 190 10 0 4
257 -11 531 576 10 332 0
258 -27 506 576 10 32 0
259 28 605 681 0 0 418
260 2 331 379 10 0 316
261 1 124 182 10 0 198
262 -18 397 459 10 25 0
263 -22 97 157 10 104 0
264 18 69 148 10 0 317
265 18 315 380 10 0 124
266 10 299 333 10 0 197
267 -33 93 177 10 65 0
268 22 373 423 10 0 134
269 -13 397 492 10 80 0
270 14 245 329 10 0 195
271 -25 42 62 10 189 0
272 -24 298 368 10 33 0
273 -7 350 408 10 282 0
274 30 77 164 10 0 339
275 15 135 232 0 0 407
276 13 178 261 0 0 413
277 31 282 332 10 0 131
278 -9 357 405 10 353 0
279 2 75 117 10 0 340
280 9 566 657 0 0 402
281 -22 270 384 10 318 0
282 7 23 64 10 0 273
283 19 573 658 0 0 403
284 -21 175 247 10 88 0
285 -22 67 142 10 237 0
286 -18 112 163 10 252 0
287 -17 305 363 10 167 0
288 11 33 80 10 0 343
289 -26 601 640 10 217 0
290 -21 264 338 10 60 0
291 22 81 129 10 0 159
292 21 42 123 10 0 395
293 -8 69 139 10 119 0
294 -25 393 449 10 241 0
295 -1 154 202 10 378 0
296 -25 492 551 10 188 0
297 16 88 149 10 0 311
298 -3 359 419 10 196 0
299 29 11 86 10 0 143
300 20 330 406 10 0 372
301 21 637 685 10 0 336
302 12 94 155 10 0 239
303 -10 510 581 10 205 0
304 23 112 174 10 0 126
305 21 23 94 10 0 390
306 -13 402 501 10 101 0
307 -8 382 456 10 141 0
308 -14 660 711 10 168 0
309 16 106 167 10 0 206
310 22 87 156 10 0 367
311 -16 328 401 10 297 0
312 -11 25 48 10 109 0
313 20 304 336 10 0 145
314 -15 426 478 10 132 0
315 14 55 115 10 0 389
316 -2 352 383 10 260 0
317 -18 167 240 10 264 0
318 22 32 95 10 0 281
319 3 194 256 0 0 414
320 -14 199 248 10 85 0
321 2 165 209 10 0 21
322 24 365 452 10 0 250
323 19 89 180 10 0 68
324 -15 712 739 10 105 0
325 -10 603 623 10 146 0
326 -8 423 491 10 107 0
327 24 192 238 10 0 399
328 21 250 331 10 0 355
329 22 103 158 10 0 100
330 8 405 472 10 0 161
331 -13 308 368 10 184 0
332 11 490 538 10 0 257
333 16 516 571 10 0 97
334 -27 105 163 10 245 0
335 13 172 253 10 0 228
336 -21 684 746 10 301 0
337 8 45 95 10 0 67
338 -10 650 702 10 58 0
339 -30 330 421 10 274 0
340 -2 598 667 10 279 0
341 -30 541 604 10 155 0
342 21 73 125 10 0 111
343 -11 76 153 10 288 0
344 -22 93 141 10 386 0
345 -26 486 542 10 120 0
346 -24 381 466 10 66 0
347 -7 377 427 10 376 0
348 9 49 89 10 0 69
349 -19 426 487 10 158 0
350 -48 220 264 10 246 0
351 18 126 214 10 0 38
352 27 132 197 10 0 112
353 9 268 321 10 0 278
354 -18 597 656 10 221 0
355 -21 653 699 10 328 0
356 3 324 408 10 0 227
357 -24 403 426 10 175 0
358 17 57 125 10 0 381
359 11 149 228 10 0 89
360 36 633 693 0 0 411
361 -18 304 370 10 384 0
362 18 130 190 10 0 49
363 10 196 277 10 0 211
364 -3 511 591 10 37 0
365 -28 120 180 10 377 0
366 -17 595 638 10 240 0
367 -22 388 477 10 310 0
368 -24 435 497 10 76 0
369 7 156 218 10 0 226
370 -21 462 504 10 190 0
371 -10 460 511 10 7 0
372 -20 554 619 10 300 0
373 -14 458 523 10 212 0
374 -25 400 490 10 224 0
375 13 249 319 10 0 96
376 7 71 139 10 0 347
377 28 20 112 10 0 365
378 1 83 137 10 0 295
379 20 325 355 0 0 409
380 16 245 332 10 0 136
381 -17 201 234 10 358 0
382 12 180 291 10 0 116
383 18 378 421 10 0 151
384 18 85 131 10 0 361
385 -17 523 565 10 59 0
386 22 85 148 10 0 344
387 12 74 198 10 0 27
388 -9 307 341 10 113 0
389 -14 110 190 10 315 0
390 -21 61 96 10 305 0
391 6 239 317 10 0 30
392 13 241 329 0 0 405
393 17 262 309 0 0 416
394 -21 473 513 10 231 0
395 -21 157 213 10 292 0
396 -20 610 671 10 40 0
397 -24 544 602 10 177 0
398 11 70 107 10 0 53
399 -24 269 310 10 327 0
400 17 286 357 10 0 147
401 -5 512 560 10 117 0
402 -9 566 657 10 280 0
403 -19 573 658 10 283 0
404 -15 112 161 10 247 0
405 -13 241 329 10 392 0
406 -14 494 536 10 18 0
407 -15 135 232 10 275 0
408 -20 543 595 10 235 0
409 -20 325 355 10 379 0
410 -15 606 673 10 204 0
411 -36 633 693 10 360 0
412 -21 610 699 10 34 0
413 -13 178 261 10 276 0
414 -3 194 256 10 319 0
415 -2 613 684 10 179 0
416 -17 262 309 10 393 0
417 -17 500 565 10 48 0
418 -28 605 681 10 259 0
419 -30 341 412 10 220 0
DEPOT_SECTION
1
-1
EOF
