NAME: lr1_4_2
TYPE: PDPTW
COMMENT: Li & Lim PDPTW benchmark converted from SINTEF format
DIMENSION: 419
VEHICLES: 100
CAPACITY: 200
EDGE_WEIGHT_TYPE: EUC_2D
NODE_COORD_SECTION
1 100 100
2 20 59
3 178 61
4 39 186
5 182 110
6 186 65
7 58 19
8 60 71
9 86 150
10 40 95
11 123 90
12 55 100
13 18 35
14 88 152
15 26 41
16 24 131
17 97 192
18 63 44
19 1 54
20 134 157
21 176 132
22 155 17
23 159 187
24 174 194
25 136 90
26 1 149
27 83 180
28 63 141
29 39 112
30 184 140
31 50 31
32 28 160
33 143 179
34 74 163
35 39 151
36 171 69
37 153 19
38 111 189
39 5 122
40 159 105
41 49 99
42 53 175
43 48 106
44 101 127
45 149 78
46 78 169
47 157 142
48 75 170
49 156 93
50 5 130
51 158 81
52 85 85
53 189 83
54 66 3
55 45 95
56 162 162
57 84 188
58 38 101
59 55 51
60 176 58
61 48 94
62 173 147
63 35 9
64 112 42
65 11 118
66 155 22
67 42 174
68 154 7
69 181 39
70 60 153
71 171 36
72 158 132
73 112 174
74 97 129
75 68 191
76 124 191
77 86 110
78 158 20
79 130 55
80 180 66
81 18 59
82 139 158
83 37 146
84 17 32
85 86 69
86 67 70
87 119 113
88 136 12
89 49 71
90 121 48
91 118 117
92 104 88
93 89 176
94 46 40
95 78 72
96 69 150
97 6 120
98 154 29
99 70 130
100 172 186
101 23 168
102 65 42
103 53 180
104 90 4
105 76 102
106 30 67
107 138 72
108 68 115
109 84 81
110 104 142
111 104 5
112 31 63
113 30 183
114 141 146
115 159 196
116 20 72
117 113 100
118 184 101
119 82 48
120 57 157
121 67 138
122 181 70
123 63 149
124 41 43
125 74 67
126 138 61
127 182 9
128 104 176
129 60 184
130 63 192
131 77 119
132 137 41
133 151 180
134 63 151
135 146 3
136 186 8
137 51 162
138 57 118
139 107 96
140 154 184
141 46 5
142 80 190
143 100 144
144 121 46
145 177 134
146 155 107
147 62 152
148 148 38
149 178 127
150 41 16
151 144 92
152 122 13
153 197 7
154 9 122
155 27 97
156 149 176
157 106 41
158 19 51
159 8 89
160 151 132
161 56 148
162 122 38
163 90 174
164 114 122
165 108 148
166 41 73
167 149 103
168 42 148
169 103 97
170 107 133
171 95 50
172 114 183
173 113 105
174 142 27
175 25 165
176 168 58
177 200 162
178 135 110
179 66 98
180 55 87
181 116 52
182 125 53
183 115 50
184 97 9
185 184 110
186 110 110
187 63 116
188 152 122
189 94 119
190 46 131
191 81 183
192 3 101
193 191 124
194 135 45
195 125 49
196 173 42
197 172 179
198 23 123
199 12 15
200 118 45
201 10 20
202 161 3
203 19 38
204 62 138
205 145 71
206 32 23
207 42 72
208 193 127
209 183 170
210 36 104
211 124 165
212 198 97
213 168 146
214 121 50
215 92 178
216 68 156
217 115 75
218 59 139
219 112 78
220 7 119
221 123 59
222 5 162
223 147 193
224 186 149
225 122 58
226 113 158
227 76 93
228 40 115
229 53 79
230 172 55
231 137 10
232 37 177
233 131 136
234 100 53
235 113 14
236 159 129
237 114 72
238 157 196
239 148 196
240 24 197
241 85 193
242 68 40
243 23 74
244 85 164
245 111 129
246 69 64
247 174 185
248 165 156
249 26 45
250 127 143
251 75 134
252 141 132
253 8 8
254 12 113
255 28 187
256 41 186
257 62 38
258 16 141
259 78 118
260 113 151
261 40 130
262 142 60
263 116 4
264 94 31
265 28 15
266 152 190
267 7 108
268 42 165
269 182 89
270 125 34
271 118 139
272 148 157
273 59 24
274 75 173
275 143 103
276 188 70
277 78 136
278 146 166
279 103 25
280 152 68
281 137 59
282 98 77
283 136 111
284 198 16
285 154 59
286 176 134
287 179 151
288 125 78
289 114 112
290 172 66
291 20 113
292 67 127
293 70 37
294 109 197
295 135 171
296 181 156
297 35 160
298 193 12
299 98 89
300 23 176
301 54 37
302 151 179
303 116 118
304 127 60
305 103 77
306 17 166
307 46 22
308 42 144
309 44 10
310 108 187
311 64 156
312 83 81
313 199 123
314 120 39
315 109 45
316 114 153
317 87 30
318 131 92
319 137 158
320 65 77
321 191 138
322 161 158
323 164 37
324 47 118
325 111 98
326 144 59
327 28 127
328 34 145
329 165 181
330 50 135
331 105 26
332 70 28
333 10 60
334 172 161
335 51 112
336 73 81
337 69 133
338 71 114
339 84 180
340 112 6
341 31 79
342 99 45
343 127 39
344 62 15
345 71 131
346 197 29
347 138 31
348 138 69
349 25 48
350 59 83
351 126 199
352 32 47
353 188 194
354 109 85
355 13 139
356 74 55
357 6 193
358 130 149
359 45 55
360 126 100
361 178 88
362 129 176
363 80 167
364 179 5
365 12 131
366 15 197
367 66 196
368 110 184
369 71 145
370 45 142
371 56 19
372 26 197
373 179 95
374 196 126
375 32 190
376 101 29
377 83 112
378 125 180
379 145 19
380 150 26
381 98 193
382 28 77
383 143 116
384 175 60
385 56 90
386 88 15
387 89 153
388 38 183
389 109 48
390 89 39
391 195 132
392 108 141
393 22 61
394 110 8
395 64 123
396 139 97
397 168 119
398 151 66
399 29 121
400 32 166
401 88 143
402 31 79
403 159 196
404 120 39
405 20 59
406 71 114
407 113 105
408 178 61
409 168 119
410 125 78
411 124 165
412 56 90
413 171 36
414 95 50
415 184 101
416 40 130
417 123 59
418 97 9
419 67 70
PICKUP_AND_DELIVERY_SECTION
1 0 0 804 0 0 0
2 20 512 522 0 0 405
3 19 369 379 0 0 408
4 -25 185 195 10 189 0
5 15 173 183 10 0 361
6 39 477 487 10 0 280
7 10 192 202 10 0 63
8 22 254 264 10 0 179
9 -23 499 509 10 316 0
10 -3 512 522 10 356 0
11 21 25 35 10 0 176
12 22 45 55 10 0 65
13 24 629 639 10 0 249
14 13 160 170 10 0 147
15 14 153 163 10 0 18
16 -46 319 329 10 399 0
17 23 204 214 10 0 215
18 -14 510 520 10 15 0
19 14 297 307 10 0 393
20 -3 428 438 10 319 0
21 10 348 358 10 0 283
22 32 106 116 10 0 98
23 -16 487 497 10 156 0
24 -30 472 482 10 238 0
25 18 37 47 10 0 290
26 35 413 423 10 0 258
27 15 276 286 10 0 339
28 -16 163 173 10 251 0
29 -11 0 732 10 121 0
30 15 366 376 10 0 289
31 20 90 100 10 0 227
32 27 403 413 10 0 161
33 24 281 291 10 0 133
34 21 650 660 10 0 170
35 26 122 132 10 0 138
36 -11 197 207 10 398 0
37 3 343 353 10 0 182
38 3 0 705 10 0 368
39 15 373 383 10 0 267
40 -14 586 596 10 212 0
41 -23 227 237 10 43 0
42 28 213 223 10 0 103
43 23 183 193 10 0 41
44 31 27 37 10 0 96
45 6 0 741 10 0 60
46 -17 0 722 10 48 0
47 13 70 80 10 0 62
48 17 0 720 10 0 46
49 25 0 738 10 0 208
50 -10 660 670 10 58 0
51 -11 519 529 10 69 0
52 -11 0 773 10 109 0
53 -7 214 224 10 178 0
54 9 381 391 10 0 340
55 -12 0 739 10 382 0
56 -27 353 363 10 245 0
57 17 0 705 10 0 330
58 10 0 732 10 0 50
59 17 0 728 10 0 61
60 -6 236 246 10 45 0
61 -17 383 393 10 59 0
62 -13 479 489 10 47 0
63 -10 240 250 10 7 0
64 -20 0 735 10 235 0
65 -22 122 132 10 12 0
66 24 137 147 10 0 148
67 13 0 700 10 0 204
68 32 0 687 10 0 127
69 11 380 390 10 0 51
70 11 107 117 10 0 300
71 6 0 699 0 0 413
72 -26 0 728 10 145 0
73 20 80 90 10 0 75
74 -22 594 604 10 310 0
75 -20 542 552 10 73 0
76 24 206 216 10 0 302
77 -5 549 559 10 117 0
78 -9 582 592 10 364 0
79 -17 432 442 10 285 0
80 -11 0 708 10 230 0
81 20 0 703 10 0 243
82 9 488 498 10 0 186
83 10 320 330 10 0 328
84 16 481 491 10 0 201
85 -22 0 760 10 234 0
86 18 442 452 0 0 419
87 35 48 58 10 0 160
88 -13 134 144 10 263 0
89 36 0 736 10 0 229
90 -3 293 303 10 389 0
91 20 49 59 10 0 143
92 -17 0 782 10 195 0
93 13 437 447 10 0 142
94 15 262 272 10 0 371
95 9 0 759 10 0 199
96 -31 0 736 10 44 0
97 -2 0 698 10 254 0
98 -32 269 279 10 22 0
99 -21 0 752 10 232 0
100 35 0 682 10 0 197
101 13 489 499 10 0 218
102 -19 0 727 10 257 0
103 -28 288 298 10 42 0
104 22 113 123 10 0 386
105 15 24 34 10 0 350
106 -21 280 290 10 116 0
107 -25 0 747 10 122 0
108 -21 575 585 10 187 0
109 11 0 770 10 0 52
110 -10 0 752 10 164 0
111 -27 201 211 10 152 0
112 -21 316 326 10 312 0
113 9 297 307 10 0 375
114 -15 0 733 10 247 0
115 6 248 258 0 0 403
116 21 261 271 10 0 106
117 5 240 250 10 0 77
118 17 249 259 0 0 415
119 8 100 110 10 0 207
120 26 90 100 10 0 372
121 11 81 91 10 0 29
122 25 0 708 10 0 107
123 17 0 733 10 0 175
124 30 0 712 10 0 359
125 -48 335 345 10 246 0
126 -34 272 282 10 219 0
127 -32 302 312 10 68 0
128 -21 240 250 10 165 0
129 7 336 346 10 0 268
130 12 0 695 10 0 370
131 -31 370 380 10 277 0
132 -20 425 435 10 379 0
133 -24 565 575 10 33 0
134 22 560 570 10 0 259
135 24 0 687 10 0 231
136 -14 334 344 10 315 0
137 20 112 122 10 0 256
138 -26 431 441 10 35 0
139 -7 0 786 10 194 0
140 -10 328 338 10 266 0
141 -18 373 383 10 265 0
142 -13 454 464 10 93 0
143 -20 259 269 10 91 0
144 -21 176 186 10 305 0
145 26 336 346 10 0 72
146 -7 560 570 10 193 0
147 -13 464 474 10 14 0
148 -24 246 256 10 66 0
149 23 213 223 10 0 391
150 6 122 132 10 0 336
151 -25 0 750 10 188 0
152 27 150 160 10 0 111
153 -18 288 298 10 284 0
154 17 387 397 10 0 198
155 30 306 316 10 0 220
156 16 90 100 10 0 23
157 -19 276 286 10 390 0
158 -10 0 700 10 206 0
159 -33 0 702 10 192 0
160 -35 175 185 10 87 0
161 -27 0 729 10 32 0
162 -14 450 460 10 270 0
163 -15 0 720 10 294 0
164 10 223 233 10 0 110
165 21 48 58 10 0 128
166 21 292 302 10 0 180
167 -2 0 745 10 321 0
168 -22 603 613 10 306 0
169 9 4 14 10 0 304
170 -21 0 761 10 34 0
171 25 247 257 0 0 414
172 -27 0 710 10 381 0
173 23 255 265 0 0 407
174 -26 380 390 10 217 0
175 -17 383 393 10 123 0
176 -21 232 242 10 11 0
177 -18 504 514 10 252 0
178 7 36 46 10 0 53
179 -22 643 653 10 8 0
180 -21 0 748 10 166 0
181 -14 402 412 10 183 0
182 -3 0 741 10 37 0
183 14 380 390 10 0 181
184 13 329 339 0 0 418
185 -25 191 201 10 224 0
186 -9 602 612 10 82 0
187 21 505 515 10 0 108
188 25 73 83 10 0 151
189 25 19 29 10 0 4
190 -41 351 361 10 228 0
191 -30 97 107 10 274 0
192 33 577 587 10 0 159
193 7 0 700 10 0 146
194 7 298 308 10 0 139
195 17 300 310 10 0 92
196 3 93 103 10 0 346
197 -35 571 581 10 100 0
198 -17 0 714 10 154 0
199 -9 0 672 10 95 0
200 -24 364 374 10 214 0
201 -16 599 609 10 84 0
202 -3 531 541 10 298 0
203 -11 0 692 10 253 0
204 -13 635 645 10 67 0
205 -9 193 203 10 348 0
206 10 0 692 10 0 158
207 -8 190 200 10 119 0
208 -25 517 527 10 49 0
209 17 203 213 10 0 239
210 -13 251 261 10 335 0
211 24 0 725 0 0 411
212 14 234 244 10 0 40
213 19 263 273 10 0 286
214 24 0 740 10 0 200
215 -23 481 491 10 17 0
216 28 326 336 10 0 345
217 26 29 39 10 0 174
218 -13 0 738 10 101 0
219 34 58 68 10 0 126
220 -30 371 381 10 155 0
221 18 403 413 0 0 417
222 -30 134 144 10 308 0
223 29 130 140 10 0 351
224 25 106 116 10 0 185
225 15 53 63 10 0 394
226 19 418 428 10 0 401
227 -20 477 487 10 31 0
228 41 229 239 10 0 190
229 -36 482 492 10 89 0
230 11 465 475 10 0 80
231 -24 0 697 10 135 0
232 21 432 442 10 0 99
233 -22 641 651 10 329 0
234 22 686 696 10 0 85
235 20 564 574 10 0 64
236 10 0 729 10 0 374
237 22 31 41 10 0 343
238 30 331 341 10 0 24
239 -17 350 360 10 209 0
240 17 0 671 10 0 357
241 25 0 700 10 0 367
242 23 68 78 10 0 352
243 -20 567 577 10 81 0
244 -12 0 729 10 387 0
245 27 31 41 10 0 56
246 48 219 229 10 0 125
247 15 122 132 10 0 114
248 17 114 124 10 0 334
249 -24 0 702 10 13 0
250 -1 551 561 10 378 0
251 16 42 52 10 0 28
252 18 87 97 10 0 177
253 11 148 158 10 0 203
254 2 0 706 10 0 97
255 16 509 519 10 0 366
256 -20 0 690 10 137 0
257 19 549 559 10 0 102
258 -35 536 546 10 26 0
259 -22 638 648 10 134 0
260 -13 350 360 10 392 0
261 1 148 158 0 0 416
262 -23 423 433 10 281 0
263 13 102 112 10 0 88
264 -7 0 725 10 376 0
265 18 342 352 10 0 141
266 10 311 321 10 0 140
267 -15 0 701 10 39 0
268 -7 393 403 10 129 0
269 21 440 450 10 0 373
270 14 282 292 10 0 162
271 13 42 52 10 0 311
272 21 328 338 10 0 278
273 -10 374 384 10 293 0
274 30 77 87 10 0 191
275 15 178 188 10 0 360
276 13 214 224 10 0 384
277 31 302 312 10 0 131
278 -21 376 386 10 272 0
279 2 80 90 10 0 317
280 -39 607 617 10 6 0
281 23 322 332 10 0 262
282 7 0 771 10 0 342
283 -10 611 621 10 21 0
284 18 206 216 10 0 153
285 17 0 727 10 0 79
286 -19 0 711 10 213 0
287 -20 0 700 10 313 0
288 11 0 761 0 0 410
289 -15 616 626 10 30 0
290 -18 296 306 10 25 0
291 22 89 99 10 0 365
292 21 42 52 10 0 327
293 10 69 79 10 0 273
294 15 416 426 10 0 163
295 -18 173 183 10 362 0
296 -24 517 527 10 322 0
297 16 94 104 10 0 400
298 3 384 394 10 0 202
299 29 0 783 10 0 331
300 -11 363 373 10 70 0
301 21 0 716 10 0 320
302 -24 0 700 10 76 0
303 -9 0 770 10 353 0
304 -9 138 148 10 169 0
305 21 54 64 10 0 144
306 22 446 456 10 0 168
307 -16 414 424 10 309 0
308 30 0 722 10 0 222
309 16 128 138 10 0 307
310 22 87 97 10 0 74
311 -13 360 370 10 271 0
312 21 25 35 10 0 112
313 20 315 325 10 0 287
314 31 447 457 0 0 404
315 14 55 65 10 0 136
316 23 362 372 10 0 9
317 -2 198 208 10 279 0
318 22 32 42 10 0 377
319 3 220 230 10 0 20
320 -21 0 753 10 301 0
321 2 0 696 10 0 167
322 24 403 413 10 0 296
323 19 109 119 10 0 347
324 -17 729 739 10 395 0
325 -18 608 618 10 326 0
326 18 452 462 10 0 325
327 -21 0 718 10 292 0
328 -10 0 715 10 83 0
329 22 103 113 10 0 233
330 -17 0 733 10 57 0
331 -29 333 343 10 299 0
332 11 0 716 10 0 344
333 -11 538 548 10 349 0
334 -17 129 139 10 248 0
335 13 207 217 10 0 210
336 -6 710 720 10 150 0
337 8 45 55 10 0 388
338 25 671 681 0 0 406
339 -15 371 381 10 27 0
340 -9 628 638 10 54 0
341 19 567 577 0 0 402
342 -7 94 104 10 282 0
343 -22 110 120 10 237 0
344 -11 99 109 10 332 0
345 -28 0 752 10 216 0
346 -3 0 674 10 196 0
347 -19 0 716 10 323 0
348 9 0 745 10 0 205
349 11 452 462 10 0 333
350 -15 237 247 10 105 0
351 -29 165 175 10 223 0
352 -23 160 170 10 242 0
353 9 290 300 10 0 303
354 -16 621 631 10 380 0
355 -7 682 692 10 369 0
356 3 0 743 10 0 10
357 -17 0 662 10 240 0
358 17 68 78 10 0 363
359 -30 184 194 10 124 0
360 -15 0 768 10 275 0
361 -15 332 342 10 5 0
362 18 0 713 10 0 295
363 -17 232 242 10 358 0
364 9 0 671 10 0 78
365 -22 145 155 10 291 0
366 -16 611 621 10 255 0
367 -25 0 693 10 241 0
368 -3 461 471 10 38 0
369 7 182 192 10 0 355
370 -12 478 488 10 130 0
371 -15 481 491 10 94 0
372 -26 581 591 10 120 0
373 -21 485 495 10 269 0
374 -10 0 695 10 236 0
375 -9 0 682 10 113 0
376 7 71 81 10 0 264
377 -22 0 774 10 318 0
378 1 90 100 10 0 250
379 20 335 345 10 0 132
380 16 0 705 10 0 354
381 27 212 222 10 0 172
382 12 230 240 10 0 55
383 18 0 749 10 0 396
384 -13 0 709 10 276 0
385 15 539 549 0 0 412
386 -22 0 709 10 104 0
387 12 131 141 10 0 244
388 -8 319 329 10 337 0
389 3 145 155 10 0 90
390 19 73 83 10 0 157
391 -23 273 283 10 149 0
392 13 280 290 10 0 260
393 -14 0 707 10 19 0
394 -15 488 498 10 225 0
395 17 180 190 10 0 324
396 -18 635 645 10 383 0
397 14 568 578 0 0 409
398 11 84 94 10 0 36
399 46 0 720 10 0 16
400 -16 316 326 10 297 0
401 -19 531 541 10 226 0
402 -19 567 577 10 341 0
403 -6 248 258 10 115 0
404 -31 447 457 10 314 0
405 -20 512 522 10 2 0
406 -25 671 681 10 338 0
407 -23 255 265 10 173 0
408 -19 369 379 10 3 0
409 -14 568 578 10 397 0
410 -11 0 761 10 288 0
411 -24 0 725 10 211 0
412 -15 539 549 10 385 0
413 -6 0 699 10 71 0
414 -25 247 257 10 171 0
415 -17 249 259 10 118 0
416 -1 148 158 10 261 0
417 -18 403 413 10 221 0
418 -13 329 339 10 184 0
419 -18 442 452 10 86 0
DEPOT_SECTION
1
-1
EOF
