NAME: lr1_4_3
TYPE: PDPTW
COMMENT: Li & Lim PDPTW benchmark converted from SINTEF format
DIMENSION: 417
VEHICLES: 100
CAPACITY: 200
EDGE_WEIGHT_TYPE: EUC_2D
NODE_COORD_SECTION
1 100 100
2 20 59
3 178 61
4 39 186
5 182 110
6 186 65
7 58 19
8 60 71
9 86 150
10 40 95
11 123 90
12 55 100
13 18 35
14 88 152
15 26 41
16 24 131
17 97 192
18 63 44
19 1 54
20 134 157
21 176 132
22 155 17
23 159 187
24 174 194
25 136 90
26 1 149
27 83 180
28 63 141
29 39 112
30 184 140
31 50 31
32 28 160
33 143 179
34 74 163
35 39 151
36 171 69
37 153 19
38 111 189
39 5 122
40 159 105
41 49 99
42 53 175
43 48 106
44 101 127
45 149 78
46 78 169
47 157 142
48 75 170
49 156 93
50 5 130
51 158 81
52 85 85
53 189 83
54 66 3
55 45 95
56 162 162
57 84 188
58 38 101
59 55 51
60 176 58
61 48 94
62 173 147
63 35 9
64 112 42
65 11 118
66 155 22
67 42 174
68 154 7
69 181 39
70 60 153
71 171 36
72 158 132
73 112 174
74 97 129
75 68 191
76 124 191
77 86 110
78 158 20
79 130 55
80 180 66
81 18 59
82 139 158
83 37 146
84 17 32
85 86 69
86 67 70
87 119 113
88 136 12
89 49 71
90 121 48
91 118 117
92 104 88
93 89 176
94 46 40
95 78 72
96 69 150
97 6 120
98 154 29
99 70 130
100 172 186
101 23 168
102 65 42
103 53 180
104 90 4
105 76 102
106 30 67
107 138 72
108 68 115
109 84 81
110 104 142
111 104 5
112 31 63
113 30 183
114 141 146
115 159 196
116 20 72
117 113 100
118 184 101
119 82 48
120 57 157
121 67 138
122 181 70
123 63 149
124 41 43
125 74 67
126 138 61
127 182 9
128 104 176
129 60 184
130 63 192
131 77 119
132 137 41
133 151 180
134 63 151
135 146 3
136 186 8
137 51 162
138 57 118
139 107 96
140 154 184
141 46 5
142 80 190
143 100 144
144 121 46
145 177 134
146 155 107
147 62 152
148 148 38
149 178 127
150 41 16
151 144 92
152 122 13
153 197 7
154 9 122
155 27 97
156 149 176
157 106 41
158 19 51
159 8 89
160 151 132
161 56 148
162 122 38
163 90 174
164 114 122
165 108 148
166 41 73
167 149 103
168 42 148
169 103 97
170 107 133
171 95 50
172 114 183
173 113 105
174 142 27
175 25 165
176 168 58
177 200 162
178 135 110
179 66 98
180 55 87
181 116 52
182 125 53
183 115 50
184 97 9
185 184 110
186 110 110
187 63 116
188 152 122
189 94 119
190 46 131
191 81 183
192 3 101
193 191 124
194 135 45
195 125 49
196 173 42
197 172 179
198 23 123
199 12 15
200 118 45
201 10 20
202 161 3
203 19 38
204 62 138
205 145 71
206 32 23
207 42 72
208 193 127
209 183 170
210 36 104
211 124 165
212 198 97
213 168 146
214 121 50
215 92 178
216 68 156
217 115 75
218 59 139
219 112 78
220 7 119
221 123 59
222 5 162
223 147 193
224 186 149
225 122 58
226 113 158
227 76 93
228 40 115
229 53 79
230 172 55
231 137 10
232 37 177
233 131 136
234 100 53
235 113 14
236 159 129
237 114 72
238 157 196
239 148 196
240 24 197
241 85 193
242 68 40
243 23 74
244 85 164
245 111 129
246 69 64
247 174 185
248 165 156
249 26 45
250 127 143
251 75 134
252 141 132
253 8 8
254 12 113
255 28 187
256 41 186
257 62 38
258 16 141
259 78 118
260 113 151
261 40 130
262 142 60
263 116 4
264 94 31
265 28 15
266 152 190
267 7 108
268 42 165
269 182 89
270 125 34
271 118 139
272 148 157
273 59 24
274 75 173
275 143 103
276 188 70
277 78 136
278 146 166
279 103 25
280 152 68
281 137 59
282 98 77
283 136 111
284 198 16
285 154 59
286 176 134
287 179 151
288 125 78
289 114 112
290 172 66
291 20 113
292 67 127
293 70 37
294 109 197
295 135 171
296 181 156
297 35 160
298 193 12
299 98 89
300 23 176
301 54 37
302 151 179
303 116 118
304 127 60
305 103 77
306 17 166
307 46 22
308 42 144
309 44 10
310 108 187
311 64 156
312 83 81
313 199 123
314 120 39
315 109 45
316 114 153
317 87 30
318 131 92
319 137 158
320 65 77
321 191 138
322 161 158
323 164 37
324 47 118
325 111 98
326 144 59
327 28 127
328 34 145
329 165 181
330 50 135
331 105 26
332 70 28
333 10 60
334 172 161
335 51 112
336 73 81
337 69 133
338 71 114
339 84 180
340 112 6
341 31 79
342 99 45
343 127 39
344 62 15
345 71 131
346 197 29
347 138 31
348 138 69
349 25 48
350 59 83
351 126 199
352 32 47
353 188 194
354 109 85
355 13 139
356 74 55
357 6 193
358 130 149
359 45 55
360 126 100
361 178 88
362 129 176
363 80 167
364 179 5
365 12 131
366 15 197
367 66 196
368 110 184
369 71 145
370 45 142
371 56 19
372 26 197
373 179 95
374 196 126
375 32 190
376 101 29
377 83 112
378 125 180
379 145 19
380 150 26
381 98 193
382 28 77
383 143 116
384 175 60
385 56 90
386 88 15
387 89 153
388 38 183
389 109 48
390 89 39
391 195 132
392 108 141
393 22 61
394 110 8
395 64 123
396 139 97
397 168 119
398 151 66
399 29 121
400 32 166
401 88 143
402 7 108
403 173 147
404 168 58
405 45 55
406 127 143
407 145 71
408 65 42
409 76 102
410 1 149
411 181 39
412 6 120
413 45 95
414 37 177
415 86 150
416 59 83
417 159 105
PICKUP_AND_DELIVERY_SECTION
1 0 0 804 0 0 0
2 20 0 705 10 0 207
3 19 369 379 10 0 285
4 -28 0 689 10 42 0
5 -25 173 183 10 188 0
6 39 0 702 10 0 280
7 10 192 202 10 0 18
8 22 254 264 10 0 125
9 22 499 509 0 0 415
10 -11 512 522 10 210 0
11 21 25 35 10 0 22
12 22 0 749 10 0 166
13 24 629 639 10 0 203
14 -12 0 741 10 303 0
15 -22 0 700 10 371 0
16 31 319 329 10 0 50
17 23 204 214 10 0 294
18 -10 510 520 10 7 0
19 14 0 685 10 0 81
20 20 428 438 10 0 289
21 10 348 358 10 0 177
22 -21 106 116 10 11 0
23 9 487 497 10 0 383
24 8 472 482 10 0 248
25 -15 0 757 10 275 0
26 35 413 423 0 0 410
27 -30 276 286 10 274 0
28 14 0 739 10 0 372
29 -13 0 732 10 335 0
30 15 366 376 10 0 160
31 20 90 100 10 0 349
32 -24 403 413 10 175 0
33 -21 281 291 10 165 0
34 -25 0 726 10 189 0
35 -30 122 132 10 308 0
36 19 197 207 10 0 51
37 -9 0 698 10 364 0
38 3 0 705 10 0 170
39 15 373 383 10 0 159
40 20 586 596 0 0 417
41 32 0 743 10 0 61
42 28 213 223 10 0 4
43 23 183 193 10 0 155
44 31 27 37 10 0 310
45 6 0 741 10 0 276
46 -12 0 722 10 339 0
47 13 70 80 10 0 286
48 -23 0 720 10 367 0
49 -17 0 738 10 167 0
50 -31 0 695 10 16 0
51 -19 519 529 10 36 0
52 14 0 773 10 0 109
53 43 214 224 10 0 122
54 9 0 692 10 0 111
55 15 0 739 0 0 413
56 20 0 707 10 0 322
57 17 0 705 10 0 142
58 -21 0 732 10 138 0
59 17 0 728 10 0 158
60 -13 0 708 10 80 0
61 -32 0 742 10 41 0
62 19 0 708 0 0 403
63 29 240 250 10 0 124
64 33 0 735 10 0 181
65 33 122 132 10 0 324
66 -19 137 147 10 78 0
67 13 0 700 10 0 388
68 -14 0 687 10 315 0
69 11 0 693 0 0 411
70 11 107 117 10 0 113
71 6 0 699 10 0 98
72 -17 0 728 10 209 0
73 20 80 90 10 0 140
74 -4 594 604 10 103 0
75 -11 542 552 10 191 0
76 24 206 216 10 0 302
77 -28 549 559 10 216 0
78 19 0 696 10 0 66
79 -19 432 442 10 323 0
80 13 0 708 10 0 60
81 -14 0 703 10 19 0
82 -27 488 498 10 295 0
83 -26 320 330 10 222 0
84 -15 481 491 10 94 0
85 14 0 760 10 0 112
86 18 0 750 10 0 246
87 35 48 58 10 0 325
88 21 134 144 10 0 135
89 36 0 736 10 0 180
90 17 293 303 10 0 183
91 20 49 59 10 0 164
92 -7 0 782 10 194 0
93 -16 437 447 10 251 0
94 15 262 272 10 0 84
95 9 0 759 10 0 227
96 -10 0 736 10 363 0
97 25 0 698 0 0 412
98 -6 269 279 10 71 0
99 -7 0 752 10 369 0
100 35 0 682 10 0 213
101 13 0 692 10 0 328
102 12 0 727 0 0 408
103 4 0 702 10 0 74
104 -16 0 698 10 309 0
105 15 24 34 0 0 409
106 -29 280 290 10 299 0
107 -11 0 747 10 174 0
108 -31 575 585 10 277 0
109 -14 0 770 10 52 0
110 24 0 752 10 0 401
111 -9 0 699 10 54 0
112 -14 316 326 10 85 0
113 -11 297 307 10 70 0
114 15 0 733 10 0 252
115 -16 248 258 10 156 0
116 21 261 271 10 0 243
117 -18 0 781 10 326 0
118 -23 249 259 10 185 0
119 -21 0 739 10 342 0
120 -19 90 100 10 147 0
121 11 81 91 10 0 400
122 -43 0 708 10 53 0
123 17 0 733 10 0 375
124 -29 0 712 10 63 0
125 -22 335 345 10 8 0
126 -23 272 282 10 304 0
127 30 302 312 10 0 136
128 -10 0 718 10 368 0
129 7 336 346 10 0 163
130 -25 0 695 10 241 0
131 -13 370 380 10 271 0
132 15 425 435 10 0 288
133 -30 565 575 10 238 0
134 22 0 731 10 0 377
135 -21 0 687 10 88 0
136 -30 334 344 10 127 0
137 20 0 715 10 0 256
138 21 431 441 10 0 58
139 -24 0 786 10 214 0
140 -20 328 338 10 73 0
141 -10 0 685 10 293 0
142 -17 454 464 10 57 0
143 17 259 269 10 0 338
144 -25 0 737 10 171 0
145 26 336 346 10 0 287
146 10 0 739 10 0 397
147 19 0 730 10 0 120
148 -22 0 716 10 202 0
149 23 213 223 10 0 208
150 6 0 692 10 0 257
151 -22 0 750 10 237 0
152 27 0 705 10 0 331
153 13 0 660 10 0 298
154 -8 387 397 10 330 0
155 -23 306 316 10 43 0
156 16 90 100 10 0 115
157 -18 0 735 10 264 0
158 -17 0 700 10 59 0
159 -15 0 702 10 39 0
160 -15 0 734 10 30 0
161 -11 0 729 10 345 0
162 -21 450 460 10 305 0
163 -7 0 720 10 129 0
164 -20 223 233 10 91 0
165 21 48 58 10 0 33
166 -22 292 302 10 12 0
167 17 0 745 10 0 49
168 14 603 613 10 0 204
169 9 4 14 10 0 196
170 -3 0 761 10 38 0
171 25 0 744 10 0 144
172 35 0 710 10 0 351
173 -3 255 265 10 389 0
174 11 380 390 10 0 107
175 24 383 393 10 0 32
176 29 232 242 0 0 404
177 -10 504 514 10 21 0
178 7 36 46 10 0 373
179 -41 643 653 10 228 0
180 -36 0 748 10 89 0
181 -33 402 412 10 64 0
182 -34 0 741 10 219 0
183 -17 380 390 10 90 0
184 -29 0 703 10 344 0
185 23 191 201 10 0 118
186 -18 602 612 10 233 0
187 -13 505 515 10 392 0
188 25 73 83 10 0 5
189 25 19 29 10 0 34
190 -22 351 361 10 306 0
191 11 97 107 10 0 75
192 -15 577 587 10 198 0
193 7 0 700 10 0 374
194 7 298 308 10 0 92
195 17 0 738 10 0 343
196 -9 0 701 10 169 0
197 -15 571 581 10 247 0
198 15 0 714 10 0 192
199 -11 0 672 10 332 0
200 -10 364 374 10 317 0
201 -11 0 674 10 253 0
202 22 0 680 10 0 148
203 -24 0 692 10 13 0
204 -14 0 741 10 168 0
205 10 0 741 0 0 407
206 -18 0 692 10 265 0
207 -20 0 730 10 2 0
208 -23 0 698 10 149 0
209 17 0 686 10 0 72
210 11 251 261 10 0 10
211 24 0 725 10 0 362
212 14 234 244 10 0 313
213 -35 0 712 10 100 0
214 24 0 740 10 0 139
215 26 0 716 10 0 381
216 28 326 336 10 0 77
217 26 29 39 10 0 221
218 -20 0 738 10 300 0
219 34 58 68 10 0 182
220 30 0 700 10 0 341
221 -26 0 747 10 217 0
222 26 0 681 10 0 83
223 29 130 140 10 0 272
224 -6 0 696 10 391 0
225 15 0 747 10 0 354
226 19 418 428 10 0 244
227 -9 477 487 10 95 0
228 41 229 239 10 0 179
229 14 482 492 10 0 385
230 11 0 710 10 0 398
231 21 0 697 10 0 379
232 21 432 442 0 0 414
233 18 0 747 10 0 186
234 -31 686 696 10 314 0
235 -14 564 574 10 270 0
236 10 0 729 10 0 296
237 22 31 41 10 0 151
238 30 331 341 10 0 133
239 13 350 360 10 0 266
240 17 0 671 10 0 366
241 25 0 700 10 0 130
242 23 68 78 10 0 333
243 -21 567 577 10 116 0
244 -19 0 729 10 226 0
245 27 31 41 10 0 260
246 -18 0 747 10 86 0
247 15 122 132 10 0 197
248 -8 0 709 10 24 0
249 8 0 702 10 0 393
250 7 551 561 0 0 406
251 16 42 52 10 0 93
252 -15 0 742 10 114 0
253 11 0 664 10 0 201
254 -24 0 706 10 327 0
255 -22 509 519 10 268 0
256 -20 0 690 10 137 0
257 -6 549 559 10 150 0
258 -22 536 546 10 291 0
259 -23 638 648 10 316 0
260 -27 350 360 10 245 0
261 -21 148 158 10 292 0
262 13 423 433 10 0 360
263 13 102 112 10 0 347
264 18 0 725 10 0 157
265 18 342 352 10 0 206
266 -13 0 691 10 239 0
267 32 0 701 0 0 402
268 22 393 403 10 0 255
269 21 0 712 10 0 283
270 14 282 292 10 0 235
271 13 42 52 10 0 131
272 -29 0 720 10 223 0
273 19 374 384 10 0 307
274 30 77 87 10 0 27
275 15 0 751 10 0 25
276 -6 214 224 10 45 0
277 31 302 312 10 0 108
278 -1 0 714 10 378 0
279 2 80 90 10 0 386
280 -39 0 733 10 6 0
281 23 322 332 10 0 396
282 7 0 771 10 0 390
283 -21 611 621 10 269 0
284 -16 206 216 10 346 0
285 -19 0 727 10 3 0
286 -13 0 711 10 47 0
287 -26 0 700 10 145 0
288 -15 0 761 10 132 0
289 -20 0 776 10 20 0
290 23 296 306 10 0 361
291 22 89 99 10 0 258
292 21 42 52 10 0 261
293 10 69 79 10 0 141
294 -23 0 697 10 17 0
295 27 173 183 10 0 82
296 -10 517 527 10 236 0
297 -15 0 706 10 370 0
298 -13 384 394 10 153 0
299 29 0 783 10 0 106
300 20 363 373 10 0 218
301 -7 0 716 10 376 0
302 -24 0 700 10 76 0
303 12 0 770 10 0 14
304 23 138 148 10 0 126
305 21 54 64 10 0 162
306 22 0 688 10 0 190
307 -19 0 700 10 273 0
308 30 0 722 10 0 35
309 16 128 138 10 0 104
310 -31 0 707 10 44 0
311 -12 360 370 10 387 0
312 21 0 769 10 0 336
313 -14 0 693 10 212 0
314 31 0 730 10 0 234
315 14 55 65 10 0 68
316 23 362 372 10 0 259
317 10 198 208 10 0 200
318 22 0 762 10 0 384
319 3 220 230 10 0 358
320 -12 0 753 10 382 0
321 2 0 696 10 0 334
322 -20 0 710 10 56 0
323 19 0 705 10 0 79
324 -33 729 739 10 65 0
325 -35 608 618 10 87 0
326 18 0 734 10 0 117
327 24 0 718 10 0 254
328 -13 0 715 10 101 0
329 22 103 113 10 0 353
330 8 0 733 10 0 154
331 -27 0 720 10 152 0
332 11 0 716 10 0 199
333 -23 538 548 10 242 0
334 -2 0 700 10 321 0
335 13 0 744 10 0 29
336 -21 0 761 10 312 0
337 -13 0 749 10 357 0
338 -17 671 681 10 143 0
339 12 371 381 10 0 46
340 -26 628 638 10 394 0
341 -30 567 577 10 220 0
342 21 94 104 10 0 119
343 -17 110 120 10 195 0
344 29 99 109 10 0 184
345 11 0 752 10 0 161
346 16 0 674 10 0 284
347 -13 0 716 10 263 0
348 9 0 745 10 0 380
349 -20 452 462 10 31 0
350 24 237 247 0 0 416
351 -35 165 175 10 172 0
352 -3 160 170 10 356 0
353 -22 290 300 10 329 0
354 -15 0 777 10 225 0
355 -28 682 692 10 365 0
356 3 0 743 10 0 352
357 13 0 662 10 0 337
358 -3 0 737 10 319 0
359 11 0 723 0 0 405
360 -13 0 768 10 262 0
361 -23 332 342 10 290 0
362 -24 0 713 10 211 0
363 10 232 242 10 0 96
364 9 0 671 10 0 37
365 28 145 155 10 0 355
366 -17 0 666 10 240 0
367 23 0 693 10 0 48
368 10 461 471 10 0 128
369 7 0 741 10 0 99
370 15 0 725 10 0 297
371 22 481 491 10 0 15
372 -14 581 591 10 28 0
373 -7 485 495 10 178 0
374 -7 0 695 10 193 0
375 -17 0 682 10 123 0
376 7 71 81 10 0 301
377 -22 0 774 10 134 0
378 1 90 100 10 0 278
379 -21 335 345 10 231 0
380 -9 0 705 10 348 0
381 -26 212 222 10 215 0
382 12 0 719 10 0 320
383 -9 0 749 10 23 0
384 -22 0 709 10 318 0
385 -14 539 549 10 229 0
386 -2 0 709 10 279 0
387 12 131 141 10 0 311
388 -13 319 329 10 67 0
389 3 145 155 10 0 173
390 -7 73 83 10 282 0
391 6 273 283 10 0 224
392 13 0 753 10 0 187
393 -8 0 707 10 249 0
394 26 488 498 10 0 340
395 17 180 190 10 0 399
396 -23 635 645 10 281 0
397 -10 0 724 10 146 0
398 -11 0 733 10 230 0
399 -17 0 720 10 395 0
400 -11 0 700 10 121 0
401 -24 0 750 10 110 0
402 -32 0 701 10 267 0
403 -19 0 708 10 62 0
404 -29 232 242 10 176 0
405 -11 0 723 10 359 0
406 -7 551 561 10 250 0
407 -10 0 741 10 205 0
408 -12 0 727 10 102 0
409 -15 24 34 10 105 0
410 -35 413 423 10 26 0
411 -11 0 693 10 69 0
412 -25 0 698 10 97 0
413 -15 0 739 10 55 0
414 -21 432 442 10 232 0
415 -22 499 509 10 9 0
416 -24 237 247 10 350 0
417 -20 586 596 10 40 0
DEPOT_SECTION
1
-1
EOF
