NAME: lr1_4_1
TYPE: PDPTW
COMMENT: Li & Lim PDPTW benchmark converted from SINTEF format
DIMENSION: 417
VEHICLES: 100
CAPACITY: 200
EDGE_WEIGHT_TYPE: EUC_2D
NODE_COORD_SECTION
1 100 100
2 20 59
3 178 61
4 39 186
5 182 110
6 186 65
7 58 19
8 60 71
9 86 150
10 40 95
11 123 90
12 55 100
13 18 35
14 88 152
15 26 41
16 24 131
17 97 192
18 63 44
19 1 54
20 134 157
21 176 132
22 155 17
23 159 187
24 174 194
25 136 90
26 1 149
27 83 180
28 63 141
29 39 112
30 184 140
31 50 31
32 28 160
33 143 179
34 74 163
35 39 151
36 171 69
37 153 19
38 111 189
39 5 122
40 159 105
41 49 99
42 53 175
43 48 106
44 101 127
45 149 78
46 78 169
47 157 142
48 75 170
49 156 93
50 5 130
51 158 81
52 85 85
53 189 83
54 66 3
55 45 95
56 162 162
57 84 188
58 38 101
59 55 51
60 176 58
61 48 94
62 173 147
63 35 9
64 112 42
65 11 118
66 155 22
67 42 174
68 154 7
69 181 39
70 60 153
71 171 36
72 158 132
73 112 174
74 97 129
75 68 191
76 124 191
77 86 110
78 158 20
79 130 55
80 180 66
81 18 59
82 139 158
83 37 146
84 17 32
85 86 69
86 67 70
87 119 113
88 136 12
89 49 71
90 121 48
91 118 117
92 104 88
93 89 176
94 46 40
95 78 72
96 69 150
97 6 120
98 154 29
99 70 130
100 172 186
101 23 168
102 65 42
103 53 180
104 90 4
105 76 102
106 30 67
107 138 72
108 68 115
109 84 81
110 104 142
111 104 5
112 31 63
113 30 183
114 141 146
115 159 196
116 20 72
117 113 100
118 184 101
119 82 48
120 57 157
121 67 138
122 181 70
123 63 149
124 41 43
125 74 67
126 138 61
127 182 9
128 104 176
129 60 184
130 63 192
131 77 119
132 137 41
133 151 180
134 63 151
135 146 3
136 186 8
137 51 162
138 57 118
139 107 96
140 154 184
141 46 5
142 80 190
143 100 144
144 121 46
145 177 134
146 155 107
147 62 152
148 148 38
149 178 127
150 41 16
151 144 92
152 122 13
153 197 7
154 9 122
155 27 97
156 149 176
157 106 41
158 19 51
159 8 89
160 151 132
161 56 148
162 122 38
163 90 174
164 114 122
165 108 148
166 41 73
167 149 103
168 42 148
169 103 97
170 107 133
171 95 50
172 114 183
173 113 105
174 142 27
175 25 165
176 168 58
177 200 162
178 135 110
179 66 98
180 55 87
181 116 52
182 125 53
183 115 50
184 97 9
185 184 110
186 110 110
187 63 116
188 152 122
189 94 119
190 46 131
191 81 183
192 3 101
193 191 124
194 135 45
195 125 49
196 173 42
197 172 179
198 23 123
199 12 15
200 118 45
201 10 20
202 161 3
203 19 38
204 62 138
205 145 71
206 32 23
207 42 72
208 193 127
209 183 170
210 36 104
211 124 165
212 198 97
213 168 146
214 121 50
215 92 178
216 68 156
217 115 75
218 59 139
219 112 78
220 7 119
221 123 59
222 5 162
223 147 193
224 186 149
225 122 58
226 113 158
227 76 93
228 40 115
229 53 79
230 172 55
231 137 10
232 37 177
233 131 136
234 100 53
235 113 14
236 159 129
237 114 72
238 157 196
239 148 196
240 24 197
241 85 193
242 68 40
243 23 74
244 85 164
245 111 129
246 69 64
247 174 185
248 165 156
249 26 45
250 127 143
251 75 134
252 141 132
253 8 8
254 12 113
255 28 187
256 41 186
257 62 38
258 16 141
259 78 118
260 113 151
261 40 130
262 142 60
263 116 4
264 94 31
265 28 15
266 152 190
267 7 108
268 42 165
269 182 89
270 125 34
271 118 139
272 148 157
273 59 24
274 75 173
275 143 103
276 188 70
277 78 136
278 146 166
279 103 25
280 152 68
281 137 59
282 98 77
283 136 111
284 198 16
285 154 59
286 176 134
287 179 151
288 125 78
289 114 112
290 172 66
291 20 113
292 67 127
293 70 37
294 109 197
295 135 171
296 181 156
297 35 160
298 193 12
299 98 89
300 23 176
301 54 37
302 151 179
303 116 118
304 127 60
305 103 77
306 17 166
307 46 22
308 42 144
309 44 10
310 108 187
311 64 156
312 83 81
313 199 123
314 120 39
315 109 45
316 114 153
317 87 30
318 131 92
319 137 158
320 65 77
321 191 138
322 161 158
323 164 37
324 47 118
325 111 98
326 144 59
327 28 127
328 34 145
329 165 181
330 50 135
331 105 26
332 70 28
333 10 60
334 172 161
335 51 112
336 73 81
337 69 133
338 71 114
339 84 180
340 112 6
341 31 79
342 99 45
343 127 39
344 62 15
345 71 131
346 197 29
347 138 31
348 138 69
349 25 48
350 59 83
351 126 199
352 32 47
353 188 194
354 109 85
355 13 139
356 74 55
357 6 193
358 130 149
359 45 55
360 126 100
361 178 88
362 129 176
363 80 167
364 179 5
365 12 131
366 15 197
367 66 196
368 110 184
369 71 145
370 45 142
371 56 19
372 26 197
373 179 95
374 196 126
375 32 190
376 101 29
377 83 112
378 125 180
379 145 19
380 150 26
381 98 193
382 28 77
383 143 116
384 175 60
385 56 90
386 88 15
387 89 153
388 38 183
389 109 48
390 89 39
391 195 132
392 108 141
393 22 61
394 110 8
395 64 123
396 139 97
397 168 119
398 151 66
399 29 121
400 32 166
401 88 143
402 26 197
403 161 158
404 55 87
405 159 187
406 196 126
407 71 114
408 84 180
409 97 129
410 112 6
411 116 4
412 143 116
413 17 32
414 100 144
415 83 112
416 123 90
417 69 133
PICKUP_AND_DELIVERY_SECTION
1 0 0 804 0 0 0
2 20 512 522 10 0 243
3 -19 369 379 10 36 0
4 -27 185 195 10 256 0
5 -25 173 183 10 188 0
6 39 477 487 10 0 280
7 10 192 202 10 0 273
8 -24 254 264 10 350 0
9 22 499 509 10 0 401
10 -26 512 522 10 29 0
11 21 25 35 0 0 416
12 22 45 55 10 0 291
13 -6 629 639 10 150 0
14 13 160 170 10 0 259
15 14 153 163 10 0 19
16 31 319 329 10 0 138
17 23 204 214 10 0 216
18 -29 510 520 10 344 0
19 -14 297 307 10 15 0
20 -21 428 438 10 272 0
21 10 348 358 10 0 236
22 32 106 116 10 0 202
23 9 487 497 0 0 405
24 -22 472 482 10 329 0
25 18 37 47 10 0 80
26 -16 413 423 10 297 0
27 15 276 286 10 0 147
28 -16 163 173 10 251 0
29 26 140 150 10 0 10
30 -6 366 376 10 160 0
31 20 90 100 10 0 124
32 -17 403 413 10 400 0
33 24 281 291 10 0 266
34 -26 650 660 10 120 0
35 26 122 132 10 0 261
36 19 197 207 10 0 3
37 -19 343 353 10 98 0
38 3 513 523 10 0 110
39 15 373 383 10 0 154
40 20 586 596 10 0 396
41 32 227 237 10 0 385
42 28 213 223 10 0 129
43 23 183 193 10 0 210
44 31 27 37 10 0 73
45 6 457 467 10 0 151
46 -22 298 308 10 310 0
47 13 70 80 10 0 391
48 -25 528 538 10 241 0
49 -12 431 441 10 72 0
50 -18 660 670 10 207 0
51 -13 519 529 10 276 0
52 -17 579 589 10 59 0
53 43 214 224 10 0 361
54 -13 381 391 10 184 0
55 15 211 221 10 0 58
56 -6 353 363 10 115 0
57 -20 498 508 10 137 0
58 -15 342 352 10 55 0
59 17 278 288 10 0 52
60 -18 236 246 10 384 0
61 -15 383 393 10 105 0
62 -20 479 489 10 287 0
63 -11 240 250 10 253 0
64 33 458 468 10 0 92
65 33 122 132 10 0 365
66 24 137 147 10 0 135
67 -30 123 133 10 274 0
68 -30 360 370 10 127 0
69 11 380 390 10 0 230
70 11 107 117 10 0 268
71 -21 643 653 10 231 0
72 12 368 378 10 0 49
73 -31 80 90 10 44 0
74 11 594 604 0 0 409
75 -13 542 552 10 142 0
76 24 206 216 10 0 368
77 -11 549 559 10 345 0
78 -11 582 592 10 288 0
79 28 432 442 10 0 354
80 -18 92 102 10 25 0
81 -21 433 443 10 116 0
82 -3 488 498 10 319 0
83 -21 320 330 10 328 0
84 16 481 491 0 0 413
85 14 186 196 10 0 86
86 -14 442 452 10 85 0
87 35 48 58 10 0 170
88 21 134 144 10 0 174
89 -11 488 498 10 112 0
90 -21 293 303 10 342 0
91 20 49 59 10 0 289
92 -33 737 747 10 64 0
93 13 437 447 10 0 215
94 -12 262 272 10 102 0
95 9 35 45 10 0 206
96 -18 574 584 10 362 0
97 -11 569 579 10 109 0
98 19 269 279 10 0 37
99 -21 479 489 10 190 0
100 35 121 131 10 0 186
101 13 489 499 10 0 258
102 12 223 233 10 0 94
103 4 288 298 10 0 175
104 22 113 123 10 0 371
105 15 24 34 10 0 61
106 -29 280 290 10 299 0
107 8 152 162 10 0 126
108 -21 575 585 10 187 0
109 11 24 34 10 0 97
110 -3 636 646 10 38 0
111 26 201 211 10 0 332
112 11 316 326 10 0 89
113 9 297 307 10 0 388
114 -9 542 552 10 353 0
115 6 248 258 10 0 56
116 21 261 271 10 0 81
117 -15 240 250 10 275 0
118 17 249 259 10 0 177
119 8 100 110 10 0 352
120 26 90 100 10 0 34
121 11 81 91 10 0 192
122 -13 535 545 10 153 0
123 17 70 80 10 0 369
124 -20 517 527 10 31 0
125 -23 335 345 10 304 0
126 -8 272 282 10 107 0
127 30 302 312 10 0 68
128 -18 240 250 10 351 0
129 -28 336 346 10 42 0
130 12 243 253 10 0 370
131 -31 370 380 10 277 0
132 15 425 435 10 0 234
133 -15 565 575 10 247 0
134 -27 560 570 10 381 0
135 -24 442 452 10 66 0
136 -3 334 344 10 196 0
137 20 112 122 10 0 57
138 -31 431 441 10 16 0
139 23 8 18 10 0 173
140 36 328 338 10 0 296
141 8 373 383 10 0 307
142 13 454 464 10 0 75
143 17 259 269 0 0 414
144 -9 176 186 10 169 0
145 -7 336 346 10 193 0
146 10 560 570 10 0 360
147 -15 464 474 10 27 0
148 6 246 256 10 0 379
149 23 213 223 10 0 213
150 6 122 132 10 0 13
151 -6 521 531 10 45 0
152 -13 150 160 10 343 0
153 13 288 298 10 0 122
154 -15 387 397 10 39 0
155 30 306 316 10 0 324
156 16 90 100 10 0 223
157 13 276 286 10 0 331
158 19 175 185 10 0 199
159 -32 218 228 10 267 0
160 6 175 185 10 0 30
161 -26 537 547 10 218 0
162 -28 450 460 10 200 0
163 18 227 237 10 0 311
164 10 223 233 10 0 303
165 21 48 58 10 0 378
166 21 292 302 10 0 229
167 17 49 59 10 0 212
168 14 603 613 10 0 308
169 9 4 14 10 0 144
170 -35 435 445 10 87 0
171 -18 247 257 10 264 0
172 35 263 273 10 0 294
173 -23 255 265 10 139 0
174 -21 380 390 10 88 0
175 -4 383 393 10 103 0
176 -22 232 242 10 318 0
177 -17 504 514 10 118 0
178 7 36 46 10 0 252
179 -46 643 653 10 399 0
180 30 213 223 0 0 404
181 10 402 412 10 0 314
182 -10 383 393 10 205 0
183 -21 380 390 10 305 0
184 13 329 339 10 0 54
185 23 191 201 10 0 313
186 -35 602 612 10 100 0
187 21 505 515 10 0 108
188 25 73 83 10 0 5
189 25 19 29 10 0 367
190 21 351 361 10 0 99
191 -23 97 107 10 244 0
192 -11 577 587 10 121 0
193 7 160 170 10 0 145
194 -15 298 308 10 225 0
195 -3 300 310 10 389 0
196 3 93 103 10 0 136
197 1 571 581 10 0 233
198 -24 300 310 10 327 0
199 -19 535 545 10 158 0
200 28 364 374 10 0 162
201 14 599 609 10 0 336
202 -32 531 541 10 22 0
203 -23 464 474 10 242 0
204 -21 635 645 10 232 0
205 10 193 203 10 0 182
206 -9 190 200 10 95 0
207 18 190 200 10 0 50
208 7 517 527 10 0 397
209 -6 203 213 10 334 0
210 -23 251 261 10 43 0
211 -27 462 472 10 245 0
212 -17 234 244 10 167 0
213 -23 263 273 10 149 0
214 -26 122 132 10 217 0
215 -13 481 491 10 93 0
216 -23 326 336 10 17 0
217 26 29 39 10 0 214
218 26 331 341 10 0 161
219 34 58 68 10 0 246
220 -2 371 381 10 254 0
221 -23 403 413 10 281 0
222 -21 134 144 10 292 0
223 -16 130 140 10 156 0
224 25 106 116 10 0 325
225 15 53 63 10 0 194
226 -2 418 428 10 260 0
227 -3 477 487 10 356 0
228 -13 229 239 10 335 0
229 -21 482 492 10 166 0
230 -11 465 475 10 69 0
231 21 450 460 10 0 71
232 21 432 442 10 0 204
233 -1 641 651 10 197 0
234 -15 686 696 10 132 0
235 -10 564 574 10 317 0
236 -10 393 403 10 21 0
237 22 31 41 10 0 270
238 -13 331 341 10 271 0
239 -17 350 360 10 248 0
240 17 488 498 10 0 366
241 25 320 330 10 0 48
242 23 68 78 10 0 203
243 -20 567 577 10 2 0
244 23 65 75 10 0 191
245 27 31 41 10 0 211
246 -34 219 229 10 219 0
247 15 122 132 10 0 133
248 17 114 124 10 0 239
249 8 232 242 10 0 349
250 -24 551 561 10 278 0
251 16 42 52 10 0 28
252 -7 87 97 10 178 0
253 11 148 158 10 0 63
254 2 343 353 10 0 220
255 -13 509 519 10 375 0
256 27 145 155 10 0 4
257 19 549 559 10 0 301
258 -13 536 546 10 101 0
259 -13 638 648 10 14 0
260 2 350 360 10 0 226
261 -26 148 158 10 35 0
262 13 423 433 10 0 326
263 13 102 112 0 0 411
264 18 69 79 10 0 171
265 18 342 352 10 0 341
266 -24 311 321 10 33 0
267 32 93 103 10 0 159
268 -11 393 403 10 70 0
269 21 440 450 10 0 373
270 -22 282 292 10 237 0
271 13 42 52 10 0 238
272 21 328 338 10 0 20
273 -10 374 384 10 7 0
274 30 77 87 10 0 67
275 15 178 188 10 0 117
276 13 214 224 10 0 51
277 31 302 312 10 0 131
278 24 376 386 10 0 250
279 -7 80 90 10 376 0
280 -39 607 617 10 6 0
281 23 322 332 10 0 221
282 7 30 40 10 0 390
283 -17 611 621 10 358 0
284 18 206 216 10 0 346
285 17 78 88 10 0 290
286 14 132 142 10 0 321
287 20 329 339 10 0 62
288 11 33 43 10 0 78
289 -20 616 626 10 91 0
290 -17 296 306 10 285 0
291 -22 89 99 10 12 0
292 21 42 52 10 0 222
293 10 69 79 10 0 309
294 -35 416 426 10 172 0
295 -12 173 183 10 302 0
296 -36 517 527 10 140 0
297 16 94 104 10 0 26
298 -19 384 394 10 323 0
299 29 11 21 10 0 106
300 20 363 373 10 0 357
301 -19 656 666 10 257 0
302 12 94 104 10 0 295
303 -10 540 550 10 164 0
304 23 138 148 10 0 125
305 21 54 64 10 0 183
306 22 446 456 10 0 355
307 -8 414 424 10 141 0
308 -14 681 691 10 168 0
309 -10 128 138 10 293 0
310 22 87 97 10 0 46
311 -18 360 370 10 163 0
312 21 25 35 10 0 320
313 -23 315 325 10 185 0
314 -10 447 457 10 181 0
315 14 55 65 10 0 380
316 -13 362 372 10 392 0
317 10 198 208 10 0 235
318 22 32 42 10 0 176
319 3 220 230 10 0 82
320 -21 218 228 10 312 0
321 -14 182 192 10 286 0
322 24 403 413 0 0 403
323 19 109 119 10 0 298
324 -30 729 739 10 155 0
325 -25 608 618 10 224 0
326 -13 452 462 10 262 0
327 24 210 220 10 0 198
328 21 285 295 10 0 83
329 22 103 113 10 0 24
330 -17 434 444 10 395 0
331 -13 333 343 10 157 0
332 -26 509 519 10 111 0
333 -17 538 548 10 393 0
334 6 129 139 10 0 209
335 13 207 217 10 0 228
336 -14 710 720 10 201 0
337 8 45 55 0 0 417
338 25 671 681 0 0 407
339 12 371 381 0 0 408
340 39 628 638 0 0 410
341 -18 567 577 10 265 0
342 21 94 104 10 0 90
343 13 110 120 10 0 152
344 29 99 109 10 0 18
345 11 509 519 10 0 77
346 -18 419 429 10 284 0
347 10 397 407 10 0 364
348 9 60 70 10 0 398
349 -8 452 462 10 249 0
350 24 237 247 10 0 8
351 18 165 175 10 0 128
352 -8 160 170 10 119 0
353 9 290 300 10 0 114
354 -28 621 631 10 79 0
355 -22 682 692 10 306 0
356 3 361 371 10 0 227
357 -20 409 419 10 300 0
358 17 68 78 10 0 283
359 11 184 194 10 0 382
360 -10 658 668 10 146 0
361 -43 332 342 10 53 0
362 18 155 165 10 0 96
363 -12 232 242 10 387 0
364 -10 546 556 10 347 0
365 -33 145 155 10 65 0
366 -17 611 621 10 240 0
367 -25 427 437 10 189 0
368 -24 461 471 10 76 0
369 -17 182 192 10 123 0
370 -12 478 488 10 130 0
371 -22 481 491 10 104 0
372 17 581 591 0 0 402
373 -21 485 495 10 269 0
374 6 440 450 0 0 406
375 13 279 289 10 0 255
376 7 71 81 10 0 279
377 28 20 30 0 0 415
378 -21 90 100 10 165 0
379 -6 335 345 10 148 0
380 -14 284 294 10 315 0
381 27 212 222 10 0 134
382 -11 230 240 10 359 0
383 18 395 405 0 0 412
384 18 85 95 10 0 60
385 -32 539 549 10 41 0
386 22 103 113 10 0 394
387 12 131 141 10 0 363
388 -9 319 329 10 113 0
389 3 145 155 10 0 195
390 -7 73 83 10 282 0
391 -13 273 283 10 47 0
392 13 280 290 10 0 316
393 17 280 290 10 0 333
394 -22 488 498 10 386 0
395 17 180 190 10 0 330
396 -20 635 645 10 40 0
397 -7 568 578 10 208 0
398 -9 84 94 10 348 0
399 46 284 294 10 0 179
400 17 316 326 10 0 32
401 -22 531 541 10 9 0
402 -17 581 591 10 372 0
403 -24 403 413 10 322 0
404 -30 213 223 10 180 0
405 -9 487 497 10 23 0
406 -6 440 450 10 374 0
407 -25 671 681 10 338 0
408 -12 371 381 10 339 0
409 -11 594 604 10 74 0
410 -39 628 638 10 340 0
411 -13 102 112 10 263 0
412 -18 395 405 10 383 0
413 -16 481 491 10 84 0
414 -17 259 269 10 143 0
415 -28 20 30 10 377 0
416 -21 25 35 10 11 0
417 -8 45 55 10 337 0
DEPOT_SECTION
1
-1
EOF
