NAME: lr1_4_8
TYPE: PDPTW
COMMENT: Li & Lim PDPTW benchmark converted from SINTEF format
DIMENSION: 423
VEHICLES: 100
CAPACITY: 200
EDGE_WEIGHT_TYPE: EUC_2D
NODE_COORD_SECTION
1 100 100
2 20 59
3 178 61
4 39 186
5 182 110
6 186 65
7 58 19
8 60 71
9 86 150
10 40 95
11 123 90
12 55 100
13 18 35
14 88 152
15 26 41
16 24 131
17 97 192
18 63 44
19 1 54
20 134 157
21 176 132
22 155 17
23 159 187
24 174 194
25 136 90
26 1 149
27 83 180
28 63 141
29 39 112
30 184 140
31 50 31
32 28 160
33 143 179
34 74 163
35 39 151
36 171 69
37 153 19
38 111 189
39 5 122
40 159 105
41 49 99
42 53 175
43 48 106
44 101 127
45 149 78
46 78 169
47 157 142
48 75 170
49 156 93
50 5 130
51 158 81
52 85 85
53 189 83
54 66 3
55 45 95
56 162 162
57 84 188
58 38 101
59 55 51
60 176 58
61 48 94
62 173 147
63 35 9
64 112 42
65 11 118
66 155 22
67 42 174
68 154 7
69 181 39
70 60 153
71 171 36
72 158 132
73 112 174
74 97 129
75 68 191
76 124 191
77 86 110
78 158 20
79 130 55
80 180 66
81 18 59
82 139 158
83 37 146
84 17 32
85 86 69
86 67 70
87 119 113
88 136 12
89 49 71
90 121 48
91 118 117
92 104 88
93 89 176
94 46 40
95 78 72
96 69 150
97 6 120
98 154 29
99 70 130
100 172 186
101 23 168
102 65 42
103 53 180
104 90 4
105 76 102
106 30 67
107 138 72
108 68 115
109 84 81
110 104 142
111 104 5
112 31 63
113 30 183
114 141 146
115 159 196
116 20 72
117 113 100
118 184 101
119 82 48
120 57 157
121 67 138
122 181 70
123 63 149
124 41 43
125 74 67
126 138 61
127 182 9
128 104 176
129 60 184
130 63 192
131 77 119
132 137 41
133 151 180
134 63 151
135 146 3
136 186 8
137 51 162
138 57 118
139 107 96
140 154 184
141 46 5
142 80 190
143 100 144
144 121 46
145 177 134
146 155 107
147 62 152
148 148 38
149 178 127
150 41 16
151 144 92
152 122 13
153 197 7
154 9 122
155 27 97
156 149 176
157 106 41
158 19 51
159 8 89
160 151 132
161 56 148
162 122 38
163 90 174
164 114 122
165 108 148
166 41 73
167 149 103
168 42 148
169 103 97
170 107 133
171 95 50
172 114 183
173 113 105
174 142 27
175 25 165
176 168 58
177 200 162
178 135 110
179 66 98
180 55 87
181 116 52
182 125 53
183 115 50
184 97 9
185 184 110
186 110 110
187 63 116
188 152 122
189 94 119
190 46 131
191 81 183
192 3 101
193 191 124
194 135 45
195 125 49
196 173 42
197 172 179
198 23 123
199 12 15
200 118 45
201 10 20
202 161 3
203 19 38
204 62 138
205 145 71
206 32 23
207 42 72
208 193 127
209 183 170
210 36 104
211 124 165
212 198 97
213 168 146
214 121 50
215 92 178
216 68 156
217 115 75
218 59 139
219 112 78
220 7 119
221 123 59
222 5 162
223 147 193
224 186 149
225 122 58
226 113 158
227 76 93
228 40 115
229 53 79
230 172 55
231 137 10
232 37 177
233 131 136
234 100 53
235 113 14
236 159 129
237 114 72
238 157 196
239 148 196
240 24 197
241 85 193
242 68 40
243 23 74
244 85 164
245 111 129
246 69 64
247 174 185
248 165 156
249 26 45
250 127 143
251 75 134
252 141 132
253 8 8
254 12 113
255 28 187
256 41 186
257 62 38
258 16 141
259 78 118
260 113 151
261 40 130
262 142 60
263 116 4
264 94 31
265 28 15
266 152 190
267 7 108
268 42 165
269 182 89
270 125 34
271 118 139
272 148 157
273 59 24
274 75 173
275 143 103
276 188 70
277 78 136
278 146 166
279 103 25
280 152 68
281 137 59
282 98 77
283 136 111
284 198 16
285 154 59
286 176 134
287 179 151
288 125 78
289 114 112
290 172 66
291 20 113
292 67 127
293 70 37
294 109 197
295 135 171
296 181 156
297 35 160
298 193 12
299 98 89
300 23 176
301 54 37
302 151 179
303 116 118
304 127 60
305 103 77
306 17 166
307 46 22
308 42 144
309 44 10
310 108 187
311 64 156
312 83 81
313 199 123
314 120 39
315 109 45
316 114 153
317 87 30
318 131 92
319 137 158
320 65 77
321 191 138
322 161 158
323 164 37
324 47 118
325 111 98
326 144 59
327 28 127
328 34 145
329 165 181
330 50 135
331 105 26
332 70 28
333 10 60
334 172 161
335 51 112
336 73 81
337 69 133
338 71 114
339 84 180
340 112 6
341 31 79
342 99 45
343 127 39
344 62 15
345 71 131
346 197 29
347 138 31
348 138 69
349 25 48
350 59 83
351 126 199
352 32 47
353 188 194
354 109 85
355 13 139
356 74 55
357 6 193
358 130 149
359 45 55
360 126 100
361 178 88
362 129 176
363 80 167
364 179 5
365 12 131
366 15 197
367 66 196
368 110 184
369 71 145
370 45 142
371 56 19
372 26 197
373 179 95
374 196 126
375 32 190
376 101 29
377 83 112
378 125 180
379 145 19
380 150 26
381 98 193
382 28 77
383 143 116
384 175 60
385 56 90
386 88 15
387 89 153
388 38 183
389 109 48
390 89 39
391 195 132
392 108 141
393 22 61
394 110 8
395 64 123
396 139 97
397 168 119
398 151 66
399 29 121
400 32 166
401 88 143
402 78 136
403 32 190
404 18 35
405 67 138
406 40 95
407 26 45
408 111 189
409 177 134
410 168 58
411 83 112
412 125 53
413 130 55
414 75 173
415 62 38
416 129 176
417 94 119
418 152 190
419 98 89
420 197 7
421 7 119
422 127 60
423 55 51
PICKUP_AND_DELIVERY_SECTION
1 0 0 804 0 0 0
2 20 0 705 10 0 333
3 19 0 707 10 0 290
4 -27 0 689 10 256 0
5 -23 163 193 10 185 0
6 39 0 702 10 0 118
7 10 182 212 10 0 102
8 22 244 274 10 0 89
9 -17 489 519 10 123 0
10 25 0 734 0 0 406
11 21 0 769 10 0 117
12 22 0 749 10 0 227
13 24 0 690 0 0 404
14 -24 0 741 10 211 0
15 -6 0 700 10 150 0
16 -34 0 712 10 355 0
17 -11 0 702 10 191 0
18 -9 500 530 10 54 0
19 -20 0 685 10 81 0
20 20 0 728 10 0 252
21 -7 0 712 10 208 0
22 32 0 695 10 0 364
23 9 477 507 10 0 133
24 -15 462 492 10 247 0
25 -11 0 757 10 230 0
26 35 0 684 10 0 258
27 15 0 713 10 0 142
28 14 0 739 10 0 48
29 26 0 732 10 0 327
30 -10 0 701 10 164 0
31 20 85 115 10 0 344
32 27 0 701 10 0 400
33 24 271 301 10 0 140
34 -28 0 726 10 42 0
35 -21 112 142 10 292 0
36 -10 0 717 10 205 0
37 3 0 698 10 0 78
38 3 0 705 0 0 408
39 15 0 697 10 0 210
40 20 0 735 10 0 146
41 -15 0 743 10 61 0
42 28 0 706 10 0 34
43 23 0 742 10 0 192
44 -17 0 767 10 401 0
45 6 0 741 10 0 122
46 -19 0 722 10 128 0
47 -24 0 724 10 278 0
48 -14 0 720 10 28 0
49 -23 0 738 10 151 0
50 -28 0 695 10 365 0
51 -18 509 539 10 384 0
52 14 0 773 10 0 180
53 -13 204 234 10 80 0
54 9 0 692 10 0 18
55 -21 0 739 10 312 0
56 20 0 707 10 0 287
57 17 0 705 10 0 241
58 -32 0 732 10 267 0
59 17 0 728 0 0 423
60 -9 0 708 10 280 0
61 15 0 742 10 0 41
62 -19 0 708 10 213 0
63 29 230 260 10 0 199
64 -34 0 735 10 219 0
65 33 112 142 10 0 154
66 -16 127 157 10 380 0
67 13 0 700 10 0 366
68 32 0 687 10 0 136
69 11 0 693 10 0 148
70 -4 0 728 10 311 0
71 -15 0 699 10 132 0
72 -10 0 728 10 236 0
73 20 74 104 10 0 387
74 -16 584 614 10 251 0
75 -20 532 562 10 300 0
76 -29 0 700 10 223 0
77 -21 539 569 10 187 0
78 -3 0 696 10 37 0
79 28 422 452 0 0 413
80 13 0 708 10 0 53
81 20 0 703 10 0 19
82 -19 478 508 10 226 0
83 10 0 716 10 0 168
84 -11 0 687 10 253 0
85 -21 0 760 10 305 0
86 18 0 750 10 0 207
87 35 0 771 10 0 173
88 21 124 154 10 0 152
89 -22 0 736 10 8 0
90 -14 283 313 10 315 0
91 -12 39 69 10 303 0
92 -10 0 782 10 181 0
93 13 427 457 10 0 363
94 15 252 282 10 0 125
95 9 0 759 10 0 166
96 -8 0 736 10 99 0
97 25 0 698 10 0 179
98 19 0 705 10 0 323
99 8 0 752 10 0 96
100 35 0 682 10 0 239
101 13 0 692 10 0 103
102 -10 0 727 10 7 0
103 -13 0 702 10 101 0
104 22 0 698 10 0 340
105 15 0 770 10 0 338
106 -14 270 300 10 229 0
107 -9 0 747 10 169 0
108 -13 0 759 10 335 0
109 -48 0 770 10 246 0
110 -27 0 752 10 245 0
111 -2 0 699 10 279 0
112 11 306 336 10 0 359
113 9 287 317 10 0 240
114 -21 0 733 10 165 0
115 6 238 268 10 0 238
116 -13 251 281 10 159 0
117 -21 0 781 10 11 0
118 -39 0 710 10 6 0
119 -23 0 739 10 242 0
120 -20 0 723 10 161 0
121 11 0 744 0 0 405
122 -6 0 708 10 45 0
123 17 0 733 10 0 9
124 -10 0 712 10 293 0
125 -15 325 355 10 94 0
126 19 262 292 10 0 262
127 30 292 322 10 0 346
128 19 0 718 10 0 46
129 -21 0 701 10 232 0
130 12 0 695 10 0 367
131 17 360 390 10 0 259
132 15 0 725 10 0 71
133 -9 555 585 10 23 0
134 -7 0 731 10 369 0
135 24 0 687 10 0 284
136 -32 324 354 10 68 0
137 20 0 715 10 0 268
138 -23 421 451 10 324 0
139 -17 0 786 10 289 0
140 -24 318 348 10 33 0
141 8 0 685 10 0 201
142 -15 0 702 10 27 0
143 -22 249 279 10 170 0
144 -3 0 737 10 354 0
145 26 326 356 0 0 409
146 -20 0 739 10 40 0
147 -8 0 730 10 337 0
148 -11 0 716 10 69 0
149 -7 0 712 10 178 0
150 6 0 692 10 0 15
151 23 0 750 10 0 49
152 -21 0 705 10 88 0
153 13 0 660 0 0 420
154 -33 377 407 10 65 0
155 30 0 721 10 0 341
156 16 90 120 10 0 294
157 -22 0 735 10 386 0
158 19 0 700 10 0 352
159 13 0 702 10 0 116
160 -17 0 734 10 209 0
161 20 0 729 10 0 120
162 5 0 729 10 0 270
163 -12 0 720 10 339 0
164 10 0 768 10 0 30
165 21 48 78 10 0 114
166 -9 0 730 10 95 0
167 -14 0 745 10 397 0
168 -10 593 623 10 83 0
169 9 0 790 10 0 107
170 22 0 761 10 0 143
171 -24 0 744 10 331 0
172 -10 0 710 10 368 0
173 -35 245 275 10 87 0
174 -10 0 710 10 347 0
175 -16 373 403 10 297 0
176 29 222 252 0 0 410
177 -9 0 677 10 353 0
178 7 0 758 10 0 149
179 -25 0 760 10 97 0
180 -14 0 748 10 52 0
181 10 392 422 10 0 92
182 24 0 741 0 0 412
183 -3 0 742 10 389 0
184 13 0 703 10 0 235
185 23 181 211 10 0 5
186 14 592 622 10 0 325
187 21 0 754 10 0 77
188 -18 0 738 10 383 0
189 25 0 775 0 0 417
190 21 341 371 10 0 198
191 11 87 117 10 0 17
192 -23 0 697 10 43 0
193 7 0 700 10 0 286
194 7 0 729 10 0 195
195 -7 0 738 10 194 0
196 -22 0 701 10 202 0
197 -22 0 688 10 329 0
198 -21 0 714 10 190 0
199 -29 0 672 10 63 0
200 28 354 384 10 0 342
201 -8 0 674 10 141 0
202 22 0 680 10 0 196
203 -18 0 692 10 265 0
204 -26 0 741 10 218 0
205 10 0 741 10 0 36
206 10 0 692 10 0 309
207 -18 0 730 10 86 0
208 7 0 698 10 0 21
209 17 0 686 10 0 160
210 -15 0 730 10 39 0
211 24 0 725 10 0 14
212 -13 0 696 10 276 0
213 19 0 712 10 0 62
214 -22 0 740 10 237 0
215 26 0 716 10 0 244
216 -11 316 346 10 345 0
217 26 29 59 10 0 264
218 26 0 738 10 0 204
219 34 48 78 10 0 64
220 30 0 700 0 0 421
221 -17 0 747 10 285 0
222 26 0 681 10 0 306
223 29 0 690 10 0 76
224 -24 0 696 10 322 0
225 -11 0 747 10 398 0
226 19 0 735 10 0 82
227 -22 0 769 10 12 0
228 41 0 733 10 0 399
229 14 0 743 10 0 106
230 11 0 710 10 0 25
231 -20 0 697 10 379 0
232 21 422 452 10 0 129
233 18 0 747 10 0 250
234 22 0 747 10 0 282
235 -13 554 584 10 184 0
236 10 0 729 10 0 72
237 22 0 763 10 0 214
238 -6 0 683 10 115 0
239 -35 340 370 10 100 0
240 -9 0 671 10 113 0
241 -17 0 700 10 57 0
242 23 0 726 10 0 119
243 21 0 713 10 0 382
244 -26 0 729 10 215 0
245 27 0 763 10 0 110
246 48 0 747 10 0 109
247 15 112 142 10 0 24
248 17 0 709 10 0 391
249 8 0 702 0 0 407
250 -18 541 571 10 233 0
251 16 0 752 10 0 74
252 -20 0 742 10 20 0
253 11 0 664 10 0 84
254 -22 0 706 10 291 0
255 16 499 529 10 0 357
256 27 0 690 10 0 4
257 19 0 722 0 0 415
258 -35 0 701 10 26 0
259 -17 0 766 10 131 0
260 -13 340 370 10 392 0
261 1 138 168 10 0 395
262 -19 413 443 10 126 0
263 -26 0 697 10 394 0
264 -26 0 725 10 217 0
265 18 332 362 10 0 203
266 10 0 691 0 0 418
267 32 0 701 10 0 58
268 -20 383 413 10 137 0
269 -23 0 712 10 361 0
270 -5 272 302 10 162 0
271 -17 0 752 10 358 0
272 21 0 720 10 0 313
273 19 364 394 10 0 307
274 30 0 717 0 0 414
275 -19 0 751 10 283 0
276 13 0 702 10 0 212
277 31 292 322 0 0 402
278 24 0 714 10 0 47
279 2 75 105 10 0 111
280 9 0 733 10 0 60
281 -18 312 342 10 326 0
282 -22 0 771 10 234 0
283 19 0 757 10 0 275
284 -24 0 665 10 135 0
285 17 0 727 10 0 221
286 -7 0 711 10 193 0
287 -20 0 700 10 56 0
288 11 0 761 10 0 348
289 17 0 776 10 0 139
290 -19 0 715 10 3 0
291 22 81 111 10 0 254
292 21 42 72 10 0 35
293 10 69 99 10 0 124
294 -16 0 697 10 156 0
295 -1 163 193 10 378 0
296 -6 507 537 10 334 0
297 16 0 706 10 0 175
298 -7 374 404 10 376 0
299 29 0 783 0 0 419
300 20 353 383 10 0 75
301 -10 0 716 10 317 0
302 12 0 700 10 0 351
303 12 0 770 10 0 91
304 23 128 158 0 0 422
305 21 44 74 10 0 85
306 -26 0 688 10 222 0
307 -19 0 700 10 273 0
308 -8 0 722 10 330 0
309 -10 0 688 10 206 0
310 -27 0 707 10 381 0
311 4 350 380 10 0 70
312 21 0 769 10 0 55
313 -21 0 693 10 272 0
314 31 0 730 10 0 343
315 14 0 739 10 0 90
316 23 0 740 10 0 319
317 10 188 218 10 0 301
318 22 0 762 10 0 373
319 -23 0 726 10 316 0
320 19 0 753 10 0 336
321 2 0 696 10 0 374
322 24 0 710 10 0 224
323 -19 0 705 10 98 0
324 23 0 739 10 0 138
325 -14 598 628 10 186 0
326 18 0 734 10 0 281
327 -26 0 718 10 29 0
328 21 0 715 10 0 370
329 22 103 133 10 0 197
330 8 0 733 10 0 308
331 24 0 720 10 0 171
332 -19 0 716 10 390 0
333 -20 0 696 10 2 0
334 6 0 700 10 0 296
335 13 0 744 10 0 108
336 -19 0 761 10 320 0
337 8 0 749 10 0 147
338 -15 0 762 10 105 0
339 12 361 391 10 0 163
340 -22 0 700 10 104 0
341 -30 0 722 10 155 0
342 -28 0 739 10 200 0
343 -31 0 728 10 314 0
344 -20 93 123 10 31 0
345 11 0 752 10 0 216
346 -30 0 674 10 127 0
347 10 0 716 10 0 174
348 -11 0 745 10 288 0
349 -17 0 703 10 393 0
350 24 227 257 10 0 385
351 -12 0 692 10 302 0
352 -19 0 708 10 158 0
353 9 0 666 10 0 177
354 3 0 777 10 0 144
355 34 669 699 10 0 16
356 -22 0 743 10 371 0
357 -16 0 662 10 255 0
358 17 0 737 10 0 271
359 -11 0 723 10 112 0
360 -4 0 768 10 396 0
361 23 0 716 10 0 269
362 18 0 713 0 0 416
363 -13 0 725 10 93 0
364 -32 0 671 10 22 0
365 28 0 701 10 0 50
366 -13 0 666 10 67 0
367 -12 0 693 10 130 0
368 10 0 710 10 0 172
369 7 0 741 10 0 134
370 -21 0 725 10 328 0
371 22 471 501 10 0 356
372 -10 571 601 10 388 0
373 -22 475 505 10 318 0
374 -2 0 695 10 321 0
375 13 0 682 0 0 403
376 7 71 101 10 0 298
377 28 0 774 0 0 411
378 1 83 113 10 0 295
379 20 0 702 10 0 231
380 16 0 705 10 0 66
381 27 202 232 10 0 310
382 -21 0 719 10 243 0
383 18 0 749 10 0 188
384 18 0 709 10 0 51
385 -24 529 559 10 350 0
386 22 0 709 10 0 157
387 -20 0 740 10 73 0
388 10 0 691 10 0 372
389 3 135 165 10 0 183
390 19 63 93 10 0 332
391 -17 0 694 10 248 0
392 13 0 753 10 0 260
393 17 0 707 10 0 349
394 26 0 702 10 0 263
395 -1 170 200 10 261 0
396 4 0 755 10 0 360
397 14 0 724 10 0 167
398 11 0 733 10 0 225
399 -41 0 720 10 228 0
400 -27 0 700 10 32 0
401 17 0 750 10 0 44
402 -31 292 322 10 277 0
403 -13 0 682 10 375 0
404 -24 0 690 10 13 0
405 -11 0 744 10 121 0
406 -25 0 734 10 10 0
407 -8 0 702 10 249 0
408 -3 0 705 10 38 0
409 -26 326 356 10 145 0
410 -29 222 252 10 176 0
411 -28 0 774 10 377 0
412 -24 0 741 10 182 0
413 -28 422 452 10 79 0
414 -30 0 717 10 274 0
415 -19 0 722 10 257 0
416 -18 0 713 10 362 0
417 -25 0 775 10 189 0
418 -10 0 691 10 266 0
419 -29 0 783 10 299 0
420 -13 0 660 10 153 0
421 -30 0 700 10 220 0
422 -23 128 158 10 304 0
423 -17 0 728 10 59 0
DEPOT_SECTION
1
-1
EOF
