NAME: lr1_4_4
TYPE: PDPTW
COMMENT: Li & Lim PDPTW benchmark converted from SINTEF format
DIMENSION: 421
VEHICLES: 100
CAPACITY: 200
EDGE_WEIGHT_TYPE: EUC_2D
NODE_COORD_SECTION
1 100 100
2 20 59
3 178 61
4 39 186
5 182 110
6 186 65
7 58 19
8 60 71
9 86 150
10 40 95
11 123 90
12 55 100
13 18 35
14 88 152
15 26 41
16 24 131
17 97 192
18 63 44
19 1 54
20 134 157
21 176 132
22 155 17
23 159 187
24 174 194
25 136 90
26 1 149
27 83 180
28 63 141
29 39 112
30 184 140
31 50 31
32 28 160
33 143 179
34 74 163
35 39 151
36 171 69
37 153 19
38 111 189
39 5 122
40 159 105
41 49 99
42 53 175
43 48 106
44 101 127
45 149 78
46 78 169
47 157 142
48 75 170
49 156 93
50 5 130
51 158 81
52 85 85
53 189 83
54 66 3
55 45 95
56 162 162
57 84 188
58 38 101
59 55 51
60 176 58
61 48 94
62 173 147
63 35 9
64 112 42
65 11 118
66 155 22
67 42 174
68 154 7
69 181 39
70 60 153
71 171 36
72 158 132
73 112 174
74 97 129
75 68 191
76 124 191
77 86 110
78 158 20
79 130 55
80 180 66
81 18 59
82 139 158
83 37 146
84 17 32
85 86 69
86 67 70
87 119 113
88 136 12
89 49 71
90 121 48
91 118 117
92 104 88
93 89 176
94 46 40
95 78 72
96 69 150
97 6 120
98 154 29
99 70 130
100 172 186
101 23 168
102 65 42
103 53 180
104 90 4
105 76 102
106 30 67
107 138 72
108 68 115
109 84 81
110 104 142
111 104 5
112 31 63
113 30 183
114 141 146
115 159 196
116 20 72
117 113 100
118 184 101
119 82 48
120 57 157
121 67 138
122 181 70
123 63 149
124 41 43
125 74 67
126 138 61
127 182 9
128 104 176
129 60 184
130 63 192
131 77 119
132 137 41
133 151 180
134 63 151
135 146 3
136 186 8
137 51 162
138 57 118
139 107 96
140 154 184
141 46 5
142 80 190
143 100 144
144 121 46
145 177 134
146 155 107
147 62 152
148 148 38
149 178 127
150 41 16
151 144 92
152 122 13
153 197 7
154 9 122
155 27 97
156 149 176
157 106 41
158 19 51
159 8 89
160 151 132
161 56 148
162 122 38
163 90 174
164 114 122
165 108 148
166 41 73
167 149 103
168 42 148
169 103 97
170 107 133
171 95 50
172 114 183
173 113 105
174 142 27
175 25 165
176 168 58
177 200 162
178 135 110
179 66 98
180 55 87
181 116 52
182 125 53
183 115 50
184 97 9
185 184 110
186 110 110
187 63 116
188 152 122
189 94 119
190 46 131
191 81 183
192 3 101
193 191 124
194 135 45
195 125 49
196 173 42
197 172 179
198 23 123
199 12 15
200 118 45
201 10 20
202 161 3
203 19 38
204 62 138
205 145 71
206 32 23
207 42 72
208 193 127
209 183 170
210 36 104
211 124 165
212 198 97
213 168 146
214 121 50
215 92 178
216 68 156
217 115 75
218 59 139
219 112 78
220 7 119
221 123 59
222 5 162
223 147 193
224 186 149
225 122 58
226 113 158
227 76 93
228 40 115
229 53 79
230 172 55
231 137 10
232 37 177
233 131 136
234 100 53
235 113 14
236 159 129
237 114 72
238 157 196
239 148 196
240 24 197
241 85 193
242 68 40
243 23 74
244 85 164
245 111 129
246 69 64
247 174 185
248 165 156
249 26 45
250 127 143
251 75 134
252 141 132
253 8 8
254 12 113
255 28 187
256 41 186
257 62 38
258 16 141
259 78 118
260 113 151
261 40 130
262 142 60
263 116 4
264 94 31
265 28 15
266 152 190
267 7 108
268 42 165
269 182 89
270 125 34
271 118 139
272 148 157
273 59 24
274 75 173
275 143 103
276 188 70
277 78 136
278 146 166
279 103 25
280 152 68
281 137 59
282 98 77
283 136 111
284 198 16
285 154 59
286 176 134
287 179 151
288 125 78
289 114 112
290 172 66
291 20 113
292 67 127
293 70 37
294 109 197
295 135 171
296 181 156
297 35 160
298 193 12
299 98 89
300 23 176
301 54 37
302 151 179
303 116 118
304 127 60
305 103 77
306 17 166
307 46 22
308 42 144
309 44 10
310 108 187
311 64 156
312 83 81
313 199 123
314 120 39
315 109 45
316 114 153
317 87 30
318 131 92
319 137 158
320 65 77
321 191 138
322 161 158
323 164 37
324 47 118
325 111 98
326 144 59
327 28 127
328 34 145
329 165 181
330 50 135
331 105 26
332 70 28
333 10 60
334 172 161
335 51 112
336 73 81
337 69 133
338 71 114
339 84 180
340 112 6
341 31 79
342 99 45
343 127 39
344 62 15
345 71 131
346 197 29
347 138 31
348 138 69
349 25 48
350 59 83
351 126 199
352 32 47
353 188 194
354 109 85
355 13 139
356 74 55
357 6 193
358 130 149
359 45 55
360 126 100
361 178 88
362 129 176
363 80 167
364 179 5
365 12 131
366 15 197
367 66 196
368 110 184
369 71 145
370 45 142
371 56 19
372 26 197
373 179 95
374 196 126
375 32 190
376 101 29
377 83 112
378 125 180
379 145 19
380 150 26
381 98 193
382 28 77
383 143 116
384 175 60
385 56 90
386 88 15
387 89 153
388 38 183
389 109 48
390 89 39
391 195 132
392 108 141
393 22 61
394 110 8
395 64 123
396 139 97
397 168 119
398 151 66
399 29 121
400 32 166
401 88 143
402 173 42
403 39 186
404 172 179
405 86 69
406 38 183
407 98 89
408 25 165
409 155 22
410 88 152
411 94 31
412 127 143
413 26 41
414 111 98
415 40 115
416 151 66
417 67 138
418 125 53
419 113 14
420 107 133
421 159 129
PICKUP_AND_DELIVERY_SECTION
1 0 0 804 0 0 0
2 -11 0 705 10 349 0
3 19 0 707 10 0 80
4 5 0 689 0 0 403
5 15 173 183 10 0 212
6 -23 0 702 10 290 0
7 -9 192 202 10 54 0
8 22 254 264 10 0 336
9 -26 499 509 10 215 0
10 25 0 734 10 0 385
11 -9 0 769 10 280 0
12 -2 0 749 10 179 0
13 -20 0 690 10 31 0
14 13 0 741 0 0 410
15 14 0 700 0 0 413
16 -34 0 712 10 355 0
17 23 0 702 10 0 241
18 14 510 520 10 0 119
19 -9 0 685 10 95 0
20 -3 0 728 10 319 0
21 10 0 712 10 0 397
22 32 0 695 10 0 162
23 9 487 497 10 0 133
24 8 472 482 10 0 117
25 -13 0 757 10 276 0
26 -23 0 684 10 324 0
27 -17 0 713 10 57 0
28 14 0 739 10 0 337
29 26 0 732 10 0 55
30 -30 0 701 10 238 0
31 20 90 100 10 0 13
32 27 0 701 10 0 67
33 -13 281 291 10 392 0
34 -11 0 726 10 191 0
35 26 122 132 10 0 297
36 19 0 717 10 0 269
37 -22 0 698 10 202 0
38 -35 0 705 10 172 0
39 -33 0 697 10 65 0
40 -4 0 735 10 396 0
41 32 0 743 10 0 61
42 -13 0 706 10 357 0
43 23 0 742 10 0 155
44 31 0 767 10 0 189
45 6 0 741 10 0 230
46 10 0 722 10 0 216
47 -18 0 724 10 233 0
48 -30 0 720 10 274 0
49 -23 0 738 10 185 0
50 -25 0 695 10 97 0
51 -25 519 529 10 122 0
52 -19 0 773 10 320 0
53 43 214 224 10 0 361
54 9 0 692 10 0 7
55 -26 0 739 10 29 0
56 20 0 707 10 0 334
57 17 0 705 10 0 27
58 -15 0 732 10 105 0
59 17 0 728 10 0 94
60 -9 0 708 10 348 0
61 -32 0 742 10 41 0
62 19 0 708 10 0 275
63 29 240 250 10 0 265
64 33 0 735 10 0 132
65 33 122 132 10 0 39
66 24 137 147 0 0 409
67 -27 0 700 10 32 0
68 -19 0 687 10 98 0
69 11 0 693 10 0 298
70 11 0 728 10 0 120
71 6 0 699 10 0 326
72 -25 0 728 10 188 0
73 -21 80 90 10 165 0
74 -17 594 604 10 143 0
75 -9 542 552 10 113 0
76 -12 0 700 10 302 0
77 -28 549 559 10 377 0
78 19 0 696 10 0 135
79 28 432 442 10 0 288
80 -19 0 708 10 3 0
81 -27 0 703 10 352 0
82 9 488 498 10 0 358
83 -22 0 716 10 268 0
84 -10 0 687 10 206 0
85 14 0 760 0 0 405
86 -23 0 750 10 139 0
87 35 0 771 10 0 164
88 21 134 144 10 0 340
89 -18 0 736 10 207 0
90 17 293 303 10 0 214
91 -17 49 59 10 289 0
92 25 0 782 10 0 109
93 -24 437 447 10 110 0
94 -17 262 272 10 59 0
95 9 0 759 10 0 19
96 17 0 736 10 0 369
97 25 0 698 10 0 50
98 19 0 705 10 0 68
99 -17 0 752 10 395 0
100 -22 0 682 10 329 0
101 13 0 692 10 0 366
102 -8 0 727 10 141 0
103 4 0 702 10 0 367
104 -26 0 698 10 111 0
105 15 0 770 10 0 58
106 -21 280 290 10 116 0
107 -10 0 747 10 205 0
108 -21 0 759 10 138 0
109 -25 0 770 10 92 0
110 24 0 752 10 0 93
111 26 0 699 10 0 104
112 -19 316 326 10 158 0
113 9 297 307 10 0 75
114 15 0 733 10 0 287
115 -15 248 258 10 247 0
116 21 261 271 10 0 106
117 -8 0 781 10 24 0
118 17 0 710 10 0 318
119 -14 0 739 10 18 0
120 -11 0 723 10 70 0
121 11 0 744 0 0 417
122 25 0 708 10 0 51
123 17 0 733 10 0 370
124 -10 0 712 10 293 0
125 2 335 345 10 0 312
126 -15 272 282 10 225 0
127 30 302 312 10 0 148
128 -23 0 718 10 316 0
129 7 0 701 10 0 130
130 -7 0 695 10 129 0
131 17 370 380 10 0 259
132 -33 0 725 10 64 0
133 -9 565 575 10 23 0
134 22 0 731 10 0 137
135 -19 0 687 10 78 0
136 -18 334 344 10 284 0
137 -22 0 715 10 134 0
138 21 431 441 10 0 108
139 23 0 786 10 0 86
140 36 328 338 10 0 351
141 8 0 685 10 0 102
142 -15 0 702 10 294 0
143 17 259 269 10 0 74
144 -16 0 737 10 380 0
145 -19 336 346 10 213 0
146 -23 0 739 10 149 0
147 19 0 730 10 0 218
148 -30 0 716 10 127 0
149 23 0 712 10 0 146
150 6 0 692 10 0 309
151 -19 0 750 10 373 0
152 27 0 705 10 0 263
153 13 0 660 10 0 323
154 17 387 397 10 0 220
155 -23 0 721 10 43 0
156 16 90 100 10 0 266
157 13 0 735 10 0 315
158 19 0 700 10 0 112
159 -33 0 702 10 192 0
160 6 0 734 10 0 186
161 -4 0 729 10 311 0
162 -32 0 729 10 22 0
163 18 0 720 10 0 387
164 -35 0 768 10 87 0
165 21 48 58 10 0 73
166 -11 0 730 10 359 0
167 -14 0 745 10 286 0
168 -22 603 613 10 306 0
169 -19 0 790 10 273 0
170 22 0 761 0 0 420
171 -21 0 744 10 342 0
172 35 0 710 10 0 38
173 23 255 265 10 0 178
174 11 0 710 10 0 231
175 24 383 393 0 0 408
176 29 232 242 10 0 384
177 -13 0 677 10 239 0
178 -23 0 758 10 173 0
179 2 0 760 10 0 12
180 30 0 748 10 0 350
181 -14 402 412 10 183 0
182 24 0 741 0 0 418
183 14 0 742 10 0 181
184 13 0 703 10 0 386
185 23 191 201 10 0 49
186 -6 602 612 10 160 0
187 -8 0 754 10 330 0
188 25 0 738 10 0 72
189 -31 0 775 10 44 0
190 21 351 361 10 0 327
191 11 97 107 10 0 34
192 33 0 697 10 0 159
193 -6 0 700 10 391 0
194 -3 0 729 10 389 0
195 -34 0 738 10 219 0
196 3 0 701 0 0 402
197 1 0 688 0 0 404
198 -13 0 714 10 335 0
199 16 0 672 10 0 356
200 -10 364 374 10 347 0
201 -11 0 674 10 253 0
202 22 0 680 10 0 37
203 -21 0 692 10 301 0
204 -10 0 741 10 363 0
205 10 0 741 10 0 107
206 10 0 692 10 0 84
207 18 0 730 10 0 89
208 -25 0 698 10 224 0
209 -9 0 686 10 353 0
210 11 0 730 10 0 243
211 -29 0 725 10 223 0
212 -15 0 696 10 5 0
213 19 0 712 10 0 145
214 -17 0 740 10 90 0
215 26 0 716 10 0 9
216 -10 326 336 10 46 0
217 26 29 39 10 0 285
218 -19 0 738 10 147 0
219 34 58 68 10 0 195
220 -17 0 700 10 154 0
221 -3 0 747 10 354 0
222 -28 0 681 10 365 0
223 29 0 690 10 0 211
224 25 0 696 10 0 208
225 15 0 747 10 0 126
226 19 0 735 10 0 310
227 -12 0 769 10 382 0
228 41 0 733 0 0 415
229 -16 0 743 10 333 0
230 -6 0 710 10 45 0
231 -11 0 697 10 174 0
232 -17 432 442 10 400 0
233 18 0 747 10 0 47
234 22 0 747 10 0 390
235 20 564 574 0 0 419
236 10 0 729 0 0 421
237 22 0 763 10 0 262
238 30 0 683 10 0 30
239 13 350 360 10 0 177
240 -20 0 671 10 300 0
241 -23 0 700 10 17 0
242 23 0 726 10 0 257
243 -11 0 713 10 210 0
244 23 0 729 10 0 401
245 -12 0 763 10 303 0
246 -21 0 747 10 305 0
247 15 122 132 10 0 115
248 17 0 709 10 0 321
249 8 0 702 10 0 393
250 7 551 561 0 0 412
251 16 0 752 10 0 277
252 -18 0 742 10 383 0
253 11 0 664 10 0 201
254 2 0 706 10 0 267
255 -20 509 519 10 258 0
256 -13 0 690 10 375 0
257 -23 0 722 10 242 0
258 20 0 701 10 0 255
259 -17 0 766 10 131 0
260 2 350 360 10 0 368
261 1 148 158 10 0 372
262 -22 423 433 10 237 0
263 -27 0 697 10 152 0
264 18 0 725 0 0 411
265 -29 342 352 10 63 0
266 -16 0 691 10 156 0
267 -2 0 701 10 254 0
268 22 393 403 10 0 83
269 -19 0 712 10 36 0
270 14 282 292 10 0 343
271 -27 0 752 10 295 0
272 -24 0 720 10 278 0
273 19 374 384 10 0 169
274 30 0 717 10 0 48
275 -19 0 751 10 62 0
276 13 0 702 10 0 25
277 -16 302 312 10 251 0
278 24 0 714 10 0 272
279 -7 80 90 10 376 0
280 9 0 733 10 0 11
281 -23 322 332 10 304 0
282 -10 0 771 10 317 0
283 -36 0 757 10 360 0
284 18 0 665 10 0 136
285 -26 0 727 10 217 0
286 14 0 711 10 0 167
287 -15 0 700 10 114 0
288 -28 0 761 10 79 0
289 17 0 776 10 0 91
290 23 0 715 10 0 6
291 22 89 99 10 0 341
292 21 42 52 10 0 399
293 10 69 79 10 0 124
294 15 0 697 10 0 142
295 27 173 183 10 0 271
296 -24 517 527 10 322 0
297 -26 0 706 10 35 0
298 -11 384 394 10 69 0
299 29 0 783 0 0 407
300 20 363 373 10 0 240
301 21 0 716 10 0 203
302 12 0 700 10 0 76
303 12 0 770 10 0 245
304 23 138 148 10 0 281
305 21 54 64 10 0 246
306 22 0 688 10 0 168
307 -11 0 700 10 332 0
308 -21 0 722 10 328 0
309 -6 0 688 10 150 0
310 -19 0 707 10 226 0
311 4 360 370 10 0 161
312 -2 0 769 10 125 0
313 -6 0 693 10 374 0
314 -24 0 730 10 331 0
315 -13 0 739 10 157 0
316 23 0 740 10 0 128
317 10 198 208 10 0 282
318 -17 0 762 10 118 0
319 3 0 726 10 0 20
320 19 0 753 10 0 52
321 -17 0 696 10 248 0
322 24 0 710 10 0 296
323 -13 0 705 10 153 0
324 23 0 739 10 0 26
325 16 608 618 0 0 414
326 -6 0 734 10 71 0
327 -21 0 718 10 190 0
328 21 0 715 10 0 308
329 22 103 113 10 0 100
330 8 0 733 10 0 187
331 24 0 720 10 0 314
332 11 0 716 10 0 307
333 16 0 696 10 0 229
334 -20 0 700 10 56 0
335 13 0 744 10 0 198
336 -22 0 761 10 8 0
337 -14 0 749 10 28 0
338 25 0 762 10 0 345
339 -27 371 381 10 381 0
340 -21 0 700 10 88 0
341 -22 0 722 10 291 0
342 21 0 739 10 0 171
343 -14 0 728 10 270 0
344 29 99 109 10 0 371
345 -25 0 752 10 338 0
346 16 0 674 10 0 364
347 10 0 716 10 0 200
348 9 0 745 10 0 60
349 11 0 703 10 0 2
350 -30 237 247 10 180 0
351 -36 0 692 10 140 0
352 27 0 708 10 0 81
353 9 0 666 10 0 209
354 3 0 777 10 0 221
355 34 682 692 10 0 16
356 -16 0 743 10 199 0
357 13 0 662 10 0 42
358 -9 0 737 10 82 0
359 11 0 723 10 0 166
360 36 0 768 10 0 283
361 -43 0 716 10 53 0
362 -1 0 713 10 378 0
363 10 0 725 10 0 204
364 -16 0 671 10 346 0
365 28 0 701 10 0 222
366 -13 0 666 10 101 0
367 -4 0 693 10 103 0
368 -2 0 710 10 260 0
369 -17 0 741 10 96 0
370 -17 0 725 10 123 0
371 -29 481 491 10 344 0
372 -1 581 591 10 261 0
373 19 485 495 10 0 151
374 6 0 695 10 0 313
375 13 0 682 10 0 256
376 7 71 81 10 0 279
377 28 0 774 10 0 77
378 1 90 100 10 0 362
379 20 0 702 10 0 394
380 16 0 705 10 0 144
381 27 212 222 10 0 339
382 12 0 719 10 0 227
383 18 0 749 10 0 252
384 -29 0 709 10 176 0
385 -25 539 549 10 10 0
386 -13 0 709 10 184 0
387 -18 0 740 10 163 0
388 10 0 691 0 0 406
389 3 145 155 10 0 194
390 -22 73 83 10 234 0
391 6 0 694 10 0 193
392 13 0 753 10 0 33
393 -8 0 707 10 249 0
394 -20 0 702 10 379 0
395 17 180 190 10 0 99
396 4 0 755 10 0 40
397 -10 0 724 10 21 0
398 11 0 733 0 0 416
399 -21 0 720 10 292 0
400 17 0 700 10 0 232
401 -23 0 750 10 244 0
402 -3 0 701 10 196 0
403 -5 0 689 10 4 0
404 -1 0 688 10 197 0
405 -14 0 760 10 85 0
406 -10 0 691 10 388 0
407 -29 0 783 10 299 0
408 -24 383 393 10 175 0
409 -24 137 147 10 66 0
410 -13 0 741 10 14 0
411 -18 0 725 10 264 0
412 -7 551 561 10 250 0
413 -14 0 700 10 15 0
414 -16 608 618 10 325 0
415 -41 0 733 10 228 0
416 -11 0 733 10 398 0
417 -11 0 744 10 121 0
418 -24 0 741 10 182 0
419 -20 564 574 10 235 0
420 -22 0 761 10 170 0
421 -10 0 729 10 236 0
DEPOT_SECTION
1
-1
EOF
