NAME: lr2_4_1
TYPE: PDPTW
COMMENT: Li & Lim PDPTW benchmark converted from SINTEF format
DIMENSION: 403
VEHICLES: 100
CAPACITY: 1000
EDGE_WEIGHT_TYPE: EUC_2D
NODE_COORD_SECTION
1 100 100
2 150 26
3 84 188
4 83 112
5 191 124
6 112 174
7 146 166
8 45 95
9 81 183
10 10 60
11 142 27
12 184 110
13 28 127
14 67 127
15 16 141
16 148 157
17 154 184
18 8 89
19 74 163
20 25 48
21 58 19
22 95 50
23 130 149
24 78 118
25 86 69
26 5 122
27 155 17
28 146 3
29 76 93
30 191 138
31 28 160
32 114 153
33 70 28
34 90 4
35 53 175
36 84 81
37 118 139
38 118 45
39 103 25
40 107 133
41 129 176
42 186 149
43 73 81
44 9 122
45 168 146
46 172 161
47 15 197
48 26 41
49 78 72
50 112 6
51 135 171
52 39 151
53 46 40
54 138 72
55 53 79
56 75 134
57 66 3
58 153 19
59 17 32
60 59 139
61 100 53
62 46 131
63 111 189
64 62 15
65 100 144
66 70 130
67 97 192
68 85 193
69 197 29
70 113 100
71 71 114
72 120 39
73 125 53
74 172 186
75 138 31
76 37 146
77 12 131
78 1 54
79 101 127
80 42 165
81 149 176
82 126 100
83 148 196
84 78 136
85 145 71
86 179 95
87 124 191
88 38 101
89 104 88
90 57 118
91 182 9
92 7 119
93 85 164
94 6 193
95 154 7
96 180 66
97 83 180
98 130 55
99 149 103
100 54 37
101 178 88
102 118 117
103 82 48
104 80 190
105 74 55
106 108 141
107 77 119
108 114 112
109 156 93
110 143 103
111 104 176
112 63 141
113 159 187
114 125 78
115 136 12
116 199 123
117 154 29
118 177 134
119 121 50
120 114 122
121 161 158
122 8 8
123 144 92
124 41 43
125 113 151
126 39 186
127 60 153
128 131 92
129 53 180
130 28 77
131 186 8
132 40 130
133 71 131
134 158 20
135 121 48
136 45 55
137 50 135
138 152 122
139 46 5
140 32 47
141 111 98
142 138 69
143 171 69
144 125 34
145 94 31
146 29 121
147 20 72
148 179 151
149 18 59
150 162 162
151 152 190
152 66 196
153 45 142
154 36 104
155 63 44
156 83 81
157 172 66
158 151 180
159 109 48
160 64 156
161 85 85
162 157 196
163 135 110
164 59 24
165 175 60
166 127 39
167 103 97
168 71 145
169 40 115
170 114 72
171 62 38
172 110 110
173 51 162
174 193 12
175 19 51
176 178 61
177 161 3
178 63 116
179 151 179
180 88 143
181 32 190
182 76 102
183 139 97
184 101 29
185 176 134
186 60 71
187 137 10
188 17 166
189 75 170
190 90 174
191 122 58
192 113 14
193 98 89
194 59 83
195 44 10
196 97 9
197 116 52
198 155 22
199 193 127
200 154 59
201 122 13
202 70 37
203 172 55
204 98 193
205 46 22
206 188 70
207 157 142
208 63 192
209 88 15
210 189 83
211 110 8
212 171 36
213 65 42
214 113 158
215 51 112
216 151 132
217 50 31
218 181 70
219 12 113
220 20 113
221 125 49
222 27 97
223 116 4
224 136 111
225 104 142
226 112 42
227 145 19
228 23 168
229 168 58
230 3 101
231 137 59
232 184 140
233 48 94
234 198 16
235 26 197
236 84 180
237 31 79
238 136 90
239 123 90
240 62 152
241 10 20
242 66 98
243 19 38
244 69 150
245 181 156
246 39 112
247 104 5
248 41 16
249 172 179
250 122 38
251 89 176
252 74 67
253 197 7
254 24 197
255 131 136
256 26 45
257 47 118
258 20 59
259 151 66
260 86 110
261 55 100
262 186 65
263 63 151
264 159 196
265 179 5
266 107 96
267 139 158
268 5 162
269 173 147
270 121 46
271 144 59
272 196 126
273 134 157
274 135 45
275 88 152
276 41 186
277 183 170
278 103 77
279 97 129
280 147 193
281 158 81
282 48 106
283 78 169
284 174 194
285 152 68
286 1 149
287 18 35
288 123 59
289 137 41
290 115 75
291 124 165
292 112 78
293 24 131
294 116 118
295 80 167
296 62 138
297 195 132
298 149 78
299 38 183
300 174 185
301 35 160
302 32 23
303 111 129
304 32 166
305 13 139
306 158 132
307 188 194
308 92 178
309 55 87
310 86 150
311 114 183
312 42 72
313 56 148
314 115 50
315 200 162
316 69 64
317 108 148
318 35 9
319 99 45
320 125 180
321 142 60
322 181 39
323 165 181
324 87 30
325 176 58
326 168 119
327 198 97
328 89 153
329 67 70
330 28 187
331 42 144
332 138 61
333 11 118
334 143 179
335 182 89
336 141 146
337 12 15
338 184 101
339 127 143
340 137 158
341 25 165
342 22 61
343 41 73
344 23 74
345 159 129
346 68 115
347 98 77
348 126 199
349 28 15
350 68 156
351 94 119
352 31 63
353 23 123
354 105 26
355 60 184
356 69 133
357 141 132
358 56 19
359 110 184
360 178 127
361 75 173
362 113 105
363 165 156
364 109 197
365 55 51
366 37 177
367 30 183
368 49 99
369 143 116
370 30 67
371 89 39
372 23 176
373 127 60
374 6 120
375 65 77
376 108 187
377 159 105
378 176 132
379 7 108
380 34 145
381 42 174
382 63 149
383 57 157
384 56 90
385 148 38
386 119 113
387 164 37
388 173 42
389 106 41
390 155 107
391 49 71
392 40 95
393 5 130
394 182 110
395 68 191
396 68 40
397 64 123
398 109 45
399 109 85
400 42 148
401 67 138
402 176 58
403 104 142
PICKUP_AND_DELIVERY_SECTION
1 0 0 3213 0 0 0
2 16 1066 1245 10 0 28
3 17 1937 2085 10 0 237
4 28 41 126 10 0 60
5 -7 638 684 10 163 0
6 20 277 403 10 0 160
7 24 1466 1586 10 0 232
8 15 825 903 10 0 188
9 11 357 455 10 0 359
10 -10 2125 2220 10 302 0
11 11 1487 1593 10 0 212
12 -6 722 846 10 46 0
13 24 793 927 10 0 129
14 21 110 232 10 0 356
15 20 2084 2246 10 0 242
16 -2 1289 1373 10 30 0
17 -15 1251 1410 10 97 0
18 13 851 933 10 0 354
19 -20 2548 2692 10 273 0
20 11 1747 1908 10 0 155
21 10 736 838 10 0 194
22 25 925 1093 10 0 377
23 17 238 350 10 0 300
24 -14 2512 2635 10 400 0
25 -17 678 848 10 200 0
26 -13 1428 1593 10 181 0
27 32 362 529 10 0 69
28 -16 1738 1835 10 2 0
29 7 1871 1983 10 0 61
30 2 669 828 10 0 16
31 27 1543 1718 10 0 308
32 -12 1448 1488 10 179 0
33 -16 1979 2131 10 243 0
34 22 421 526 10 0 64
35 -26 811 935 10 52 0
36 11 31 168 10 0 48
37 -27 119 225 10 303 0
38 -31 1371 1583 10 131 0
39 -15 244 439 10 191 0
40 22 1713 1807 10 0 284
41 18 591 690 10 0 51
42 25 359 525 10 0 360
43 -7 2787 2936 10 168 0
44 -41 1464 1670 10 169 0
45 19 1024 1121 10 0 249
46 6 508 562 10 0 12
47 -17 2415 2515 10 235 0
48 -11 569 696 10 36 0
49 -29 99 185 10 193 0
50 39 2429 2633 10 0 399
51 -18 694 734 10 41 0
52 26 434 581 10 0 35
53 -33 1019 1119 10 333 0
54 8 570 685 10 0 253
55 14 1838 2057 10 0 258
56 16 110 227 10 0 244
57 -13 1475 1613 10 196 0
58 -20 1308 1475 10 227 0
59 -15 1862 2023 10 182 0
60 -28 1288 1397 10 4 0
61 -7 2715 2815 10 29 0
62 -13 1333 1511 10 215 0
63 3 1990 2153 10 0 384
64 -22 362 468 10 34 0
65 -10 999 1112 10 295 0
66 8 1892 1983 10 0 305
67 -16 779 896 10 81 0
68 25 1262 1340 10 0 80
69 -32 1597 1793 10 27 0
70 5 919 1043 10 0 298
71 -15 2669 2736 10 364 0
72 31 1712 1902 10 0 226
73 24 1533 1572 10 0 288
74 35 468 537 10 0 204
75 -10 1547 1667 10 120 0
76 -15 1245 1358 10 353 0
77 28 528 671 10 0 139
78 14 1141 1278 10 0 105
79 31 74 143 10 0 301
80 -25 1538 1648 10 68 0
81 16 294 429 10 0 67
82 -4 2560 2744 10 183 0
83 13 1375 1463 10 0 214
84 31 1168 1286 10 0 355
85 10 758 823 10 0 187
86 -3 1887 2035 10 174 0
87 24 795 896 10 0 369
88 10 1308 1470 10 0 107
89 -17 2908 3030 10 342 0
90 -8 1655 1834 10 103 0
91 -19 1153 1304 10 143 0
92 30 1435 1575 10 0 330
93 23 207 318 10 0 276
94 -11 1571 1742 10 127 0
95 -13 1415 1509 10 223 0
96 -11 355 424 10 114 0
97 15 1115 1135 10 0 17
98 -18 1669 1828 10 145 0
99 17 158 234 10 0 138
100 -11 2613 2674 10 352 0
101 -13 1271 1425 10 389 0
102 20 196 236 10 0 344
103 8 349 489 10 0 90
104 13 1810 1862 10 0 240
105 -14 1412 1517 10 78 0
106 13 1113 1168 10 0 283
107 -10 1412 1591 10 88 0
108 -15 2439 2526 10 336 0
109 25 1712 1775 10 0 123
110 -34 660 806 10 292 0
111 -26 934 1028 10 268 0
112 14 596 751 10 0 228
113 9 1901 2033 10 0 267
114 11 98 168 10 0 96
115 21 514 596 10 0 321
116 20 1258 1303 10 0 118
117 19 1037 1153 10 0 197
118 -20 1286 1440 10 116 0
119 -21 450 569 10 319 0
120 10 880 944 10 0 75
121 24 1598 1670 10 0 245
122 -21 519 708 10 156 0
123 -25 2033 2177 10 109 0
124 -18 2009 2167 10 312 0
125 -35 1354 1484 10 311 0
126 -21 678 845 10 317 0
127 11 414 483 10 0 94
128 -21 108 148 10 239 0
129 -24 1086 1260 10 13 0
130 -22 904 977 10 261 0
131 31 1278 1430 10 0 38
132 1 553 668 10 0 318
133 11 1987 2125 10 0 393
134 -15 2307 2389 10 289 0
135 -3 1111 1275 10 270 0
136 11 726 782 10 0 186
137 -19 1694 1814 10 371 0
138 -17 280 346 10 99 0
139 -28 1443 1579 10 77 0
140 27 609 708 10 0 316
141 -20 2369 2537 10 148 0
142 -9 203 321 10 167 0
143 19 762 854 10 0 91
144 -27 1082 1212 10 201 0
145 18 203 351 10 0 98
146 -20 1057 1256 10 173 0
147 -19 1019 1112 10 375 0
148 20 1305 1368 10 0 141
149 -17 1672 1830 10 365 0
150 -14 1396 1465 10 327 0
151 10 1225 1305 10 0 291
152 23 1648 1811 10 0 189
153 -12 1858 2004 10 213 0
154 11 964 1081 10 0 370
155 -11 1983 2136 10 20 0
156 21 25 262 10 0 122
157 -29 1113 1299 10 229 0
158 14 2242 2322 10 0 172
159 3 551 645 10 0 322
160 -20 1423 1495 10 6 0
161 -13 2281 2388 10 275 0
162 -6 1292 1394 10 264 0
163 7 125 166 10 0 5
164 19 1437 1596 10 0 205
165 18 285 395 10 0 324
166 13 363 555 10 0 373
167 9 4 130 10 0 142
168 7 696 803 10 0 43
169 41 890 981 10 0 44
170 22 60 191 10 0 211
171 -22 2169 2260 10 358 0
172 -14 2349 2506 10 158 0
173 20 395 542 10 0 146
174 3 1488 1623 10 0 86
175 19 674 769 10 0 287
176 -23 1478 1514 10 231 0
177 -6 2086 2203 10 385 0
178 -13 1947 2133 10 251 0
179 12 317 435 10 0 32
180 17 2067 2219 10 0 260
181 13 1095 1181 10 0 26
182 15 51 141 10 0 59
183 4 2505 2617 10 0 82
184 -21 219 349 10 278 0
185 -17 509 589 10 363 0
186 -11 991 1078 10 136 0
187 -10 1771 1872 10 85 0
188 -15 1731 1879 10 8 0
189 -23 2060 2204 10 152 0
190 18 874 982 10 0 366
191 15 187 273 10 0 39
192 -18 2197 2355 10 349 0
193 29 11 137 10 0 49
194 -10 892 1041 10 21 0
195 16 454 613 10 0 248
196 13 1316 1359 10 0 57
197 -19 1537 1721 10 117 0
198 -11 494 641 10 259 0
199 -10 2022 2157 10 345 0
200 17 286 379 10 0 25
201 27 553 683 10 0 144
202 10 208 350 10 0 209
203 -19 1850 1908 10 332 0
204 -35 830 908 10 74 0
205 -19 1621 1734 10 164 0
206 13 834 920 10 0 250
207 13 243 324 10 0 394
208 -13 913 1070 10 381 0
209 -10 376 486 10 202 0
210 -7 799 954 10 347 0
211 -22 1945 1999 10 170 0
212 -11 2501 2682 10 11 0
213 12 843 985 10 0 153
214 -13 1616 1768 10 83 0
215 13 785 915 10 0 62
216 -23 612 825 10 266 0
217 20 292 471 10 0 343
218 25 2124 2194 10 0 224
219 -17 1317 1467 10 304 0
220 22 324 427 10 0 256
221 17 1149 1289 10 0 271
222 30 1176 1309 10 0 233
223 13 403 456 10 0 95
224 -25 2433 2495 10 218 0
225 24 2504 2623 0 0 403
226 -31 1811 1897 10 72 0
227 20 1281 1442 10 0 58
228 -14 1914 2037 10 112 0
229 29 903 992 10 0 157
230 -24 2270 2385 10 334 0
231 23 1266 1346 10 0 176
232 -24 1400 1569 10 7 0
233 -30 1507 1594 10 222 0
234 18 751 937 10 0 314
235 17 2300 2389 10 0 47
236 -22 1471 1535 10 376 0
237 -17 2221 2358 10 3 0
238 18 124 174 10 0 272
239 21 25 203 10 0 128
240 -13 1807 1949 10 104 0
241 -2 2354 2476 10 252 0
242 -20 2537 2650 10 15 0
243 16 1847 1906 10 0 33
244 -16 2262 2371 10 56 0
245 -24 2031 2144 10 121 0
246 26 550 612 10 0 309
247 -3 749 897 10 388 0
248 -16 456 560 10 195 0
249 -19 2275 2336 10 45 0
250 -13 1741 1897 10 206 0
251 13 1681 1856 10 0 178
252 2 1280 1441 10 0 241
253 -8 1146 1196 10 54 0
254 -28 1921 2022 10 350 0
255 -19 2524 2643 10 387 0
256 -22 893 1000 10 220 0
257 -15 2900 2998 10 395 0
258 -14 2008 2124 10 55 0
259 11 313 397 10 0 198
260 -17 2170 2259 10 180 0
261 22 155 206 10 0 130
262 39 1869 1989 10 0 326
263 -26 2230 2293 10 383 0
264 6 951 1074 10 0 162
265 -14 2142 2269 10 398 0
266 23 8 129 10 0 216
267 -9 1913 2033 10 113 0
268 26 487 623 10 0 111
269 19 1895 1978 10 0 315
270 3 664 781 10 0 135
271 -17 1778 1877 10 221 0
272 -18 1721 1839 10 238 0
273 20 1692 1774 10 0 19
274 -26 1159 1261 10 290 0
275 13 598 726 10 0 161
276 -23 533 665 10 93 0
277 17 804 857 10 0 338
278 21 149 322 10 0 184
279 -10 2322 2473 10 378 0
280 -22 486 593 10 323 0
281 -23 2012 2184 10 362 0
282 -17 716 788 10 397 0
283 -13 1148 1279 10 106 0
284 -22 1875 1939 10 40 0
285 -10 2415 2479 10 390 0
286 35 1616 1726 10 0 313
287 -19 2473 2596 10 175 0
288 -24 1597 1666 10 73 0
289 15 1652 1784 10 0 134
290 26 51 182 10 0 274
291 -10 1830 1903 10 151 0
292 34 168 335 10 0 110
293 31 1234 1354 10 0 346
294 -12 2153 2207 10 306 0
295 10 877 1018 10 0 65
296 -25 2499 2621 10 374 0
297 6 1069 1159 10 0 307
298 -5 1782 1916 10 70 0
299 10 1246 1343 10 0 372
300 -17 463 553 10 23 0
301 -31 339 451 10 79 0
302 10 747 809 10 0 10
303 27 83 165 10 0 37
304 17 1196 1373 10 0 219
305 -8 2675 2822 10 66 0
306 12 1422 1559 10 0 294
307 -6 1125 1233 10 297 0
308 -27 1898 1989 10 31 0
309 -26 810 936 10 246 0
310 -30 1951 2078 10 361 0
311 35 1039 1101 10 0 125
312 18 723 840 10 0 124
313 -35 2118 2221 10 286 0
314 -18 1506 1576 10 234 0
315 -19 1980 2095 10 269 0
316 -27 847 947 10 140 0
317 21 113 276 10 0 126
318 -1 907 1055 10 132 0
319 21 305 490 10 0 119
320 -25 288 469 10 351 0
321 -21 1661 1762 10 115 0
322 -3 1468 1612 10 159 0
323 22 359 472 10 0 280
324 -18 772 853 10 165 0
325 21 925 1004 0 0 402
326 -39 2261 2322 10 262 0
327 14 890 1019 10 0 150
328 12 459 631 10 0 368
329 -32 1736 1841 10 379 0
330 -30 2003 2109 10 92 0
331 -24 2675 2810 10 341 0
332 19 1024 1193 10 0 203
333 33 445 571 10 0 53
334 24 1093 1198 10 0 230
335 21 1685 1875 10 0 339
336 15 2120 2253 10 0 108
337 -23 2104 2216 10 396 0
338 -17 953 1082 10 277 0
339 -21 2191 2259 10 335 0
340 -35 834 964 10 386 0
341 24 1506 1601 10 0 331
342 17 1066 1214 10 0 89
343 -20 1099 1276 10 217 0
344 -20 2213 2365 10 102 0
345 10 1532 1650 10 0 199
346 -31 2232 2410 10 293 0
347 7 94 184 10 0 210
348 -18 626 730 10 357 0
349 18 1328 1449 10 0 192
350 28 1270 1382 10 0 254
351 25 19 140 10 0 320
352 11 1242 1327 10 0 100
353 15 1156 1287 10 0 76
354 -13 1298 1406 10 18 0
355 -31 1309 1423 10 84 0
356 -21 146 216 10 14 0
357 18 316 422 10 0 348
358 22 1897 1990 10 0 171
359 -11 1817 1910 10 9 0
360 -25 818 923 10 42 0
361 30 233 385 10 0 310
362 23 954 1127 10 0 281
363 17 427 526 10 0 185
364 15 1629 1742 10 0 71
365 17 1061 1202 10 0 149
366 -18 1706 1788 10 190 0
367 -21 1123 1291 10 380 0
368 -12 834 1019 10 328 0
369 -24 1568 1630 10 87 0
370 -11 1086 1194 10 154 0
371 19 194 428 10 0 137
372 -10 1368 1580 10 299 0
373 -13 489 656 10 166 0
374 25 2225 2370 10 0 296
375 19 886 900 10 0 147
376 22 302 397 10 0 236
377 -25 2303 2425 10 22 0
378 10 1367 1457 10 0 279
379 32 329 417 10 0 329
380 21 1080 1240 10 0 367
381 13 418 603 10 0 208
382 -11 222 378 10 401 0
383 26 308 451 10 0 263
384 -3 2100 2253 10 63 0
385 6 949 1055 10 0 177
386 35 147 277 10 0 340
387 19 408 507 10 0 255
388 3 308 437 10 0 247
389 13 1063 1183 10 0 101
390 10 2208 2312 10 0 285
391 36 1938 2003 10 0 392
392 -36 2001 2138 10 391 0
393 -11 2575 2747 10 133 0
394 -13 654 772 10 207 0
395 15 2137 2242 10 0 257
396 23 208 336 10 0 337
397 17 682 801 10 0 282
398 14 129 316 10 0 265
399 -39 2446 2564 10 50 0
400 14 2414 2446 10 0 24
401 11 321 366 10 0 382
402 -21 925 1004 10 325 0
403 -24 2504 2623 10 225 0
DEPOT_SECTION
1
-1
EOF
