NAME: lr2_4_5
TYPE: PDPTW
COMMENT: Li & Lim PDPTW benchmark converted from SINTEF format
DIMENSION: 405
VEHICLES: 100
CAPACITY: 1000
EDGE_WEIGHT_TYPE: EUC_2D
NODE_COORD_SECTION
1 100 100
2 150 26
3 84 188
4 83 112
5 191 124
6 112 174
7 146 166
8 45 95
9 81 183
10 10 60
11 142 27
12 184 110
13 28 127
14 67 127
15 16 141
16 148 157
17 154 184
18 8 89
19 74 163
20 25 48
21 58 19
22 95 50
23 130 149
24 78 118
25 86 69
26 5 122
27 155 17
28 146 3
29 76 93
30 191 138
31 28 160
32 114 153
33 70 28
34 90 4
35 53 175
36 84 81
37 118 139
38 118 45
39 103 25
40 107 133
41 129 176
42 186 149
43 73 81
44 9 122
45 168 146
46 172 161
47 15 197
48 26 41
49 78 72
50 112 6
51 135 171
52 39 151
53 46 40
54 138 72
55 53 79
56 75 134
57 66 3
58 153 19
59 17 32
60 59 139
61 100 53
62 46 131
63 111 189
64 62 15
65 100 144
66 70 130
67 97 192
68 85 193
69 197 29
70 113 100
71 71 114
72 120 39
73 125 53
74 172 186
75 138 31
76 37 146
77 12 131
78 1 54
79 101 127
80 42 165
81 149 176
82 126 100
83 148 196
84 78 136
85 145 71
86 179 95
87 124 191
88 38 101
89 104 88
90 57 118
91 182 9
92 7 119
93 85 164
94 6 193
95 154 7
96 180 66
97 83 180
98 130 55
99 149 103
100 54 37
101 178 88
102 118 117
103 82 48
104 80 190
105 74 55
106 108 141
107 77 119
108 114 112
109 156 93
110 143 103
111 104 176
112 63 141
113 159 187
114 125 78
115 136 12
116 199 123
117 154 29
118 177 134
119 121 50
120 114 122
121 161 158
122 8 8
123 144 92
124 41 43
125 113 151
126 39 186
127 60 153
128 131 92
129 53 180
130 28 77
131 186 8
132 40 130
133 71 131
134 158 20
135 121 48
136 45 55
137 50 135
138 152 122
139 46 5
140 32 47
141 111 98
142 138 69
143 171 69
144 125 34
145 94 31
146 29 121
147 20 72
148 179 151
149 18 59
150 162 162
151 152 190
152 66 196
153 45 142
154 36 104
155 63 44
156 83 81
157 172 66
158 151 180
159 109 48
160 64 156
161 85 85
162 157 196
163 135 110
164 59 24
165 175 60
166 127 39
167 103 97
168 71 145
169 40 115
170 114 72
171 62 38
172 110 110
173 51 162
174 193 12
175 19 51
176 178 61
177 161 3
178 63 116
179 151 179
180 88 143
181 32 190
182 76 102
183 139 97
184 101 29
185 176 134
186 60 71
187 137 10
188 17 166
189 75 170
190 90 174
191 122 58
192 113 14
193 98 89
194 59 83
195 44 10
196 97 9
197 116 52
198 155 22
199 193 127
200 154 59
201 122 13
202 70 37
203 172 55
204 98 193
205 46 22
206 188 70
207 157 142
208 63 192
209 88 15
210 189 83
211 110 8
212 171 36
213 65 42
214 113 158
215 51 112
216 151 132
217 50 31
218 181 70
219 12 113
220 20 113
221 125 49
222 27 97
223 116 4
224 136 111
225 104 142
226 112 42
227 145 19
228 23 168
229 168 58
230 3 101
231 137 59
232 184 140
233 48 94
234 198 16
235 26 197
236 84 180
237 31 79
238 136 90
239 123 90
240 62 152
241 10 20
242 66 98
243 19 38
244 69 150
245 181 156
246 39 112
247 104 5
248 41 16
249 172 179
250 122 38
251 89 176
252 74 67
253 197 7
254 24 197
255 131 136
256 26 45
257 47 118
258 20 59
259 151 66
260 86 110
261 55 100
262 186 65
263 63 151
264 159 196
265 179 5
266 107 96
267 139 158
268 5 162
269 173 147
270 121 46
271 144 59
272 196 126
273 134 157
274 135 45
275 88 152
276 41 186
277 183 170
278 103 77
279 97 129
280 147 193
281 158 81
282 48 106
283 78 169
284 174 194
285 152 68
286 1 149
287 18 35
288 123 59
289 137 41
290 115 75
291 124 165
292 112 78
293 24 131
294 116 118
295 80 167
296 62 138
297 195 132
298 149 78
299 38 183
300 174 185
301 35 160
302 32 23
303 111 129
304 32 166
305 13 139
306 158 132
307 188 194
308 92 178
309 55 87
310 86 150
311 114 183
312 42 72
313 56 148
314 115 50
315 200 162
316 69 64
317 108 148
318 35 9
319 99 45
320 125 180
321 142 60
322 181 39
323 165 181
324 87 30
325 176 58
326 168 119
327 198 97
328 89 153
329 67 70
330 28 187
331 42 144
332 138 61
333 11 118
334 143 179
335 182 89
336 141 146
337 12 15
338 184 101
339 127 143
340 137 158
341 25 165
342 22 61
343 41 73
344 23 74
345 159 129
346 68 115
347 98 77
348 126 199
349 28 15
350 68 156
351 94 119
352 31 63
353 23 123
354 105 26
355 60 184
356 69 133
357 141 132
358 56 19
359 110 184
360 178 127
361 75 173
362 113 105
363 165 156
364 109 197
365 55 51
366 37 177
367 30 183
368 49 99
369 143 116
370 30 67
371 89 39
372 23 176
373 127 60
374 6 120
375 65 77
376 108 187
377 159 105
378 176 132
379 7 108
380 34 145
381 42 174
382 63 149
383 57 157
384 56 90
385 148 38
386 119 113
387 164 37
388 173 42
389 106 41
390 155 107
391 49 71
392 40 95
393 5 130
394 182 110
395 68 191
396 68 40
397 64 123
398 109 45
399 109 85
400 42 148
401 67 138
402 71 114
403 136 111
404 109 197
405 115 50
PICKUP_AND_DELIVERY_SECTION
1 0 0 3213 0 0 0
2 -24 1035 1275 10 119 0
3 -22 1891 2131 10 40 0
4 28 20 260 10 0 68
5 7 541 781 10 0 12
6 20 220 460 10 0 179
7 24 1406 1646 10 0 267
8 15 744 984 10 0 370
9 11 286 526 10 0 90
10 -10 2053 2293 10 302 0
11 11 1420 1660 10 0 322
12 -7 664 904 10 5 0
13 24 740 980 10 0 204
14 21 51 291 10 0 381
15 -22 2045 2285 10 310 0
16 21 1211 1451 10 0 121
17 36 1210 1450 10 0 369
18 -24 772 1012 10 194 0
19 -16 2500 2740 10 330 0
20 -7 1707 1947 10 184 0
21 10 667 907 10 0 59
22 -11 889 1129 10 114 0
23 17 174 414 10 0 51
24 -14 2454 2694 10 400 0
25 14 643 883 10 0 265
26 15 1391 1631 10 0 237
27 32 325 565 10 0 120
28 -19 1667 1907 10 176 0
29 -24 1807 2047 10 341 0
30 2 629 869 10 0 315
31 -13 1510 1750 10 37 0
32 -15 1348 1588 10 353 0
33 -29 1935 2175 10 64 0
34 -22 353 593 10 209 0
35 -20 753 993 10 173 0
36 11 24 264 10 0 396
37 13 52 292 10 0 31
38 28 1357 1597 10 0 262
39 2 222 462 10 0 136
40 22 1640 1880 10 0 3
41 18 520 760 10 0 307
42 25 322 562 10 0 394
43 -14 2742 2982 10 161 0
44 17 1447 1687 10 0 346
45 19 952 1192 10 0 334
46 -17 415 655 10 363 0
47 -13 2345 2585 10 228 0
48 -16 512 752 10 195 0
49 9 35 275 10 0 177
50 -21 2411 2651 10 100 0
51 -17 594 834 10 23 0
52 26 387 627 10 0 235
53 -7 949 1189 10 347 0
54 -23 508 748 10 373 0
55 -12 1827 2067 10 328 0
56 16 49 289 10 0 308
57 -8 1424 1664 10 256 0
58 -3 1271 1511 10 159 0
59 -10 1822 2062 10 21 0
60 26 1223 1463 10 0 263
61 -24 2645 2885 10 287 0
62 -46 1302 1542 10 146 0
63 3 1951 2191 10 0 395
64 29 295 535 10 0 33
65 17 936 1176 10 0 84
66 8 1817 2057 10 0 178
67 -41 718 958 10 169 0
68 -28 1181 1421 10 4 0
69 16 1575 1815 10 0 134
70 5 861 1101 10 0 354
71 25 2582 2822 0 0 402
72 31 1687 1927 10 0 192
73 24 1433 1673 10 0 98
74 35 382 622 10 0 269
75 -30 1487 1727 10 91 0
76 10 1182 1422 10 0 359
77 28 480 720 10 0 129
78 14 1090 1330 10 0 92
79 -25 27 267 10 351 0
80 -26 1473 1713 10 268 0
81 16 242 482 10 0 225
82 -18 2532 2772 10 271 0
83 -15 1299 1539 10 300 0
84 -17 1107 1347 10 65 0
85 10 670 910 10 0 389
86 -10 1841 2081 10 151 0
87 -7 725 965 10 163 0
88 10 1269 1509 10 0 329
89 -19 2849 3089 10 164 0
90 -11 1625 1865 10 9 0
91 30 1108 1348 10 0 75
92 -14 1385 1625 10 78 0
93 23 143 383 10 0 309
94 -11 1537 1777 10 127 0
95 -31 1342 1582 10 131 0
96 13 270 510 10 0 115
97 -22 1005 1245 10 220 0
98 -24 1628 1868 10 73 0
99 17 76 316 10 0 185
100 21 2524 2764 10 0 50
101 23 1228 1468 10 0 118
102 20 96 336 10 0 348
103 -21 299 539 10 156 0
104 13 1716 1956 10 0 254
105 -22 1344 1584 10 186 0
106 -35 1020 1260 10 311 0
107 -23 1381 1621 10 282 0
108 -10 2363 2603 10 378 0
109 -30 1623 1863 10 162 0
110 -13 613 853 10 223 0
111 19 861 1101 10 0 374
112 14 553 793 10 0 368
113 -20 1847 2087 10 116 0
114 11 33 273 10 0 22
115 -13 435 675 10 96 0
116 20 1161 1401 10 0 113
117 19 975 1215 10 0 123
118 -23 1243 1483 10 101 0
119 24 390 630 10 0 2
120 -32 792 1032 10 27 0
121 -21 1514 1754 10 16 0
122 -18 493 733 10 145 0
123 -19 1985 2225 10 117 0
124 -48 1968 2208 10 316 0
125 -15 1299 1539 10 182 0
126 5 642 882 10 0 304
127 11 329 569 10 0 94
128 -23 32 272 10 266 0
129 -28 1053 1293 10 77 0
130 -17 821 1061 10 397 0
131 31 1234 1474 10 0 95
132 1 491 731 10 0 190
133 -36 1936 2176 10 391 0
134 -16 2228 2468 10 69 0
135 -19 1073 1313 10 387 0
136 -2 634 874 10 39 0
137 -30 1634 1874 10 222 0
138 -21 193 433 10 239 0
139 8 1391 1631 10 0 258
140 27 539 779 10 0 213
141 -27 2333 2573 10 201 0
142 9 142 382 10 0 259
143 19 688 928 10 0 298
144 -9 1027 1267 10 167 0
145 18 157 397 10 0 122
146 46 1037 1277 10 0 62
147 -18 945 1185 10 312 0
148 -13 1217 1457 10 207 0
149 -19 1631 1871 10 375 0
150 20 1311 1551 10 0 335
151 10 1145 1385 10 0 86
152 23 1610 1850 10 0 251
153 -20 1811 2051 10 372 0
154 -7 902 1142 10 168 0
155 -19 1940 2180 10 175 0
156 21 25 265 10 0 103
157 23 1086 1326 10 0 232
158 14 2162 2402 10 0 172
159 3 478 718 10 0 58
160 -7 1339 1579 10 355 0
161 14 2214 2454 10 0 43
162 30 1223 1463 10 0 109
163 7 36 276 10 0 87
164 19 1396 1636 10 0 89
165 18 220 460 10 0 270
166 13 339 579 10 0 332
167 9 4 244 10 0 144
168 7 629 869 10 0 154
169 41 815 1055 10 0 67
170 22 31 271 10 0 243
171 -34 2094 2334 10 292 0
172 -14 2307 2547 10 158 0
173 20 349 589 10 0 35
174 -10 1435 1675 10 324 0
175 19 601 841 10 0 155
176 19 1376 1616 10 0 28
177 -9 2024 2264 10 49 0
178 -8 1920 2160 10 66 0
179 -20 256 496 10 6 0
180 -21 2023 2263 10 380 0
181 -12 1018 1258 10 208 0
182 15 24 264 10 0 125
183 -23 2441 2681 10 281 0
184 7 164 404 10 0 20
185 -17 429 669 10 99 0
186 22 915 1155 10 0 105
187 -13 1702 1942 10 253 0
188 -12 1685 1925 10 236 0
189 17 2012 2252 10 0 244
190 -1 808 1048 10 132 0
191 -21 110 350 10 278 0
192 -31 2156 2396 10 72 0
193 29 11 251 10 0 205
194 24 847 1087 10 0 18
195 16 414 654 10 0 48
196 13 1217 1457 10 0 218
197 -6 1509 1749 10 385 0
198 -3 448 688 10 388 0
199 -6 1969 2209 10 272 0
200 17 213 453 10 0 362
201 27 498 738 10 0 141
202 10 159 399 10 0 227
203 -7 1759 1999 10 274 0
204 -24 749 989 10 13 0
205 -29 1557 1797 10 193 0
206 13 757 997 10 0 255
207 13 163 403 10 0 148
208 12 872 1112 10 0 181
209 22 311 551 10 0 34
210 43 756 996 10 0 284
211 -18 1852 2092 10 234 0
212 6 2471 2711 10 0 285
213 -27 794 1034 10 140 0
214 -22 1572 1812 10 261 0
215 -13 730 970 10 275 0
216 6 598 838 10 0 306
217 20 262 502 10 0 241
218 -13 2039 2279 10 196 0
219 -15 1272 1512 10 233 0
220 22 255 495 10 0 97
221 17 1099 1339 10 0 321
222 30 1123 1363 10 0 137
223 13 309 549 10 0 110
224 19 2344 2584 0 0 403
225 -16 2443 2683 10 81 0
226 -5 1734 1974 10 250 0
227 -10 1242 1482 10 202 0
228 13 1855 2095 10 0 47
229 29 828 1068 10 0 377
230 -10 2207 2447 10 295 0
231 23 1186 1426 10 0 288
232 -23 1364 1604 10 157 0
233 15 1430 1670 10 0 219
234 18 724 964 10 0 211
235 -26 2224 2464 10 52 0
236 12 1383 1623 10 0 188
237 -15 2169 2409 10 26 0
238 18 37 277 10 0 325
239 21 25 265 10 0 138
240 -21 1758 1998 10 366 0
241 -20 2295 2535 10 217 0
242 -21 2474 2714 10 344 0
243 -22 1757 1997 10 170 0
244 -17 2197 2437 10 189 0
245 21 1968 2208 10 0 279
246 26 461 701 10 0 305
247 -19 703 943 10 371 0
248 6 388 628 10 0 349
249 1 2186 2426 10 0 326
250 5 1699 1939 10 0 226
251 -23 1648 1888 10 152 0
252 -29 1240 1480 10 318 0
253 13 1051 1291 10 0 187
254 -13 1852 2092 10 104 0
255 -13 2463 2703 10 206 0
256 8 827 1067 10 0 57
257 -20 2829 3069 10 273 0
258 -8 1946 2186 10 139 0
259 -9 235 475 10 142 0
260 -35 2094 2334 10 286 0
261 22 60 300 10 0 214
262 -28 1809 2049 10 38 0
263 -26 2142 2382 10 60 0
264 -3 892 1132 10 340 0
265 -14 2085 2325 10 25 0
266 23 8 248 10 0 128
267 -24 1853 2093 10 7 0
268 26 435 675 10 0 80
269 -35 1816 2056 10 74 0
270 -18 602 842 10 165 0
271 18 1707 1947 10 0 82
272 6 1660 1900 10 0 199
273 20 1613 1853 10 0 257
274 7 1090 1330 10 0 203
275 13 542 782 10 0 215
276 -8 479 719 10 356 0
277 17 711 951 10 0 390
278 21 116 356 10 0 191
279 -21 2277 2517 10 245 0
280 -22 419 659 10 323 0
281 23 1978 2218 10 0 183
282 23 632 872 10 0 107
283 -17 1093 1333 10 382 0
284 -43 1787 2027 10 210 0
285 -6 2327 2567 10 212 0
286 35 1551 1791 10 0 260
287 24 2415 2655 10 0 61
288 -23 1511 1751 10 231 0
289 15 1598 1838 10 0 399
290 26 29 269 10 0 319
291 24 1747 1987 10 0 393
292 34 132 372 10 0 171
293 31 1174 1414 10 0 313
294 -7 2060 2300 10 339 0
295 10 827 1067 10 0 230
296 -30 2440 2680 10 331 0
297 -1 994 1234 10 320 0
298 -19 1729 1969 10 143 0
299 -11 1175 1415 10 401 0
300 15 388 628 10 0 83
301 -26 275 515 10 383 0
302 10 658 898 10 0 10
303 27 31 271 10 0 342
304 -5 1165 1405 10 126 0
305 -26 2629 2869 10 246 0
306 -6 1370 1610 10 216 0
307 -18 1059 1299 10 41 0
308 -16 1823 2063 10 56 0
309 -23 753 993 10 93 0
310 22 1894 2134 10 0 15
311 35 950 1190 10 0 106
312 18 661 901 10 0 147
313 -31 2050 2290 10 293 0
314 14 1421 1661 0 0 405
315 -2 1917 2157 10 30 0
316 48 777 1017 10 0 124
317 21 75 315 10 0 361
318 29 861 1101 10 0 252
319 -26 278 518 10 290 0
320 1 258 498 10 0 297
321 -17 1592 1832 10 221 0
322 -11 1420 1660 10 11 0
323 22 295 535 10 0 280
324 10 692 932 10 0 174
325 -18 845 1085 10 238 0
326 -1 2172 2412 10 249 0
327 -17 835 1075 10 338 0
328 12 425 665 10 0 55
329 -10 1669 1909 10 88 0
330 16 1936 2176 10 0 19
331 30 2623 2863 10 0 296
332 -13 988 1228 10 166 0
333 -32 388 628 10 379 0
334 -19 1025 1265 10 45 0
335 -20 1660 1900 10 150 0
336 -10 2066 2306 10 345 0
337 -14 2040 2280 10 398 0
338 17 898 1138 10 0 327
339 7 2105 2345 10 0 294
340 3 779 1019 10 0 264
341 24 1434 1674 10 0 29
342 -27 1020 1260 10 303 0
343 21 1068 1308 10 0 384
344 21 2169 2409 10 0 242
345 10 1471 1711 10 0 336
346 -17 2201 2441 10 44 0
347 7 23 263 10 0 53
348 -20 558 798 10 102 0
349 -6 1269 1509 10 248 0
350 -9 1206 1446 10 367 0
351 25 19 259 10 0 79
352 11 1164 1404 10 0 392
353 15 1102 1342 10 0 32
354 -5 1232 1472 10 70 0
355 7 1246 1486 10 0 160
356 8 61 301 10 0 276
357 18 249 489 10 0 360
358 -17 1823 2063 10 365 0
359 -10 1743 1983 10 76 0
360 -18 751 991 10 357 0
361 -21 189 429 10 317 0
362 -17 921 1161 10 200 0
363 17 356 596 10 0 46
364 15 1565 1805 0 0 404
365 17 1012 1252 10 0 358
366 21 1627 1867 10 0 240
367 9 1087 1327 10 0 350
368 -14 807 1047 10 112 0
369 -36 1479 1719 10 17 0
370 -15 1020 1260 10 8 0
371 19 191 431 10 0 247
372 20 1354 1594 10 0 153
373 23 452 692 10 0 54
374 -19 2178 2418 10 111 0
375 19 773 1013 10 0 149
376 -35 229 469 10 386 0
377 -29 2244 2484 10 229 0
378 10 1292 1532 10 0 108
379 32 253 493 10 0 333
380 21 1040 1280 10 0 180
381 -21 391 631 10 14 0
382 17 180 420 10 0 283
383 26 260 500 10 0 301
384 -21 2057 2297 10 343 0
385 6 882 1122 10 0 197
386 35 92 332 10 0 376
387 19 338 578 10 0 135
388 3 253 493 10 0 198
389 -10 1003 1243 10 85 0
390 -17 2140 2380 10 277 0
391 36 1851 2091 10 0 133
392 -11 1950 2190 10 352 0
393 -24 2541 2781 10 291 0
394 -25 593 833 10 42 0
395 -3 2069 2309 10 63 0
396 -11 152 392 10 36 0
397 17 621 861 10 0 130
398 14 103 343 10 0 337
399 -15 2385 2625 10 289 0
400 14 2310 2550 10 0 24
401 11 224 464 10 0 299
402 -25 2582 2822 10 71 0
403 -19 2344 2584 10 224 0
404 -15 1565 1805 10 364 0
405 -14 1421 1661 10 314 0
DEPOT_SECTION
1
-1
EOF
