NAME: lr2_4_8
TYPE: PDPTW
COMMENT: Li & Lim PDPTW benchmark converted from SINTEF format
DIMENSION: 405
VEHICLES: 100
CAPACITY: 1000
EDGE_WEIGHT_TYPE: EUC_2D
NODE_COORD_SECTION
1 100 100
2 150 26
3 84 188
4 83 112
5 191 124
6 112 174
7 146 166
8 45 95
9 81 183
10 10 60
11 142 27
12 184 110
13 28 127
14 67 127
15 16 141
16 148 157
17 154 184
18 8 89
19 74 163
20 25 48
21 58 19
22 95 50
23 130 149
24 78 118
25 86 69
26 5 122
27 155 17
28 146 3
29 76 93
30 191 138
31 28 160
32 114 153
33 70 28
34 90 4
35 53 175
36 84 81
37 118 139
38 118 45
39 103 25
40 107 133
41 129 176
42 186 149
43 73 81
44 9 122
45 168 146
46 172 161
47 15 197
48 26 41
49 78 72
50 112 6
51 135 171
52 39 151
53 46 40
54 138 72
55 53 79
56 75 134
57 66 3
58 153 19
59 17 32
60 59 139
61 100 53
62 46 131
63 111 189
64 62 15
65 100 144
66 70 130
67 97 192
68 85 193
69 197 29
70 113 100
71 71 114
72 120 39
73 125 53
74 172 186
75 138 31
76 37 146
77 12 131
78 1 54
79 101 127
80 42 165
81 149 176
82 126 100
83 148 196
84 78 136
85 145 71
86 179 95
87 124 191
88 38 101
89 104 88
90 57 118
91 182 9
92 7 119
93 85 164
94 6 193
95 154 7
96 180 66
97 83 180
98 130 55
99 149 103
100 54 37
101 178 88
102 118 117
103 82 48
104 80 190
105 74 55
106 108 141
107 77 119
108 114 112
109 156 93
110 143 103
111 104 176
112 63 141
113 159 187
114 125 78
115 136 12
116 199 123
117 154 29
118 177 134
119 121 50
120 114 122
121 161 158
122 8 8
123 144 92
124 41 43
125 113 151
126 39 186
127 60 153
128 131 92
129 53 180
130 28 77
131 186 8
132 40 130
133 71 131
134 158 20
135 121 48
136 45 55
137 50 135
138 152 122
139 46 5
140 32 47
141 111 98
142 138 69
143 171 69
144 125 34
145 94 31
146 29 121
147 20 72
148 179 151
149 18 59
150 162 162
151 152 190
152 66 196
153 45 142
154 36 104
155 63 44
156 83 81
157 172 66
158 151 180
159 109 48
160 64 156
161 85 85
162 157 196
163 135 110
164 59 24
165 175 60
166 127 39
167 103 97
168 71 145
169 40 115
170 114 72
171 62 38
172 110 110
173 51 162
174 193 12
175 19 51
176 178 61
177 161 3
178 63 116
179 151 179
180 88 143
181 32 190
182 76 102
183 139 97
184 101 29
185 176 134
186 60 71
187 137 10
188 17 166
189 75 170
190 90 174
191 122 58
192 113 14
193 98 89
194 59 83
195 44 10
196 97 9
197 116 52
198 155 22
199 193 127
200 154 59
201 122 13
202 70 37
203 172 55
204 98 193
205 46 22
206 188 70
207 157 142
208 63 192
209 88 15
210 189 83
211 110 8
212 171 36
213 65 42
214 113 158
215 51 112
216 151 132
217 50 31
218 181 70
219 12 113
220 20 113
221 125 49
222 27 97
223 116 4
224 136 111
225 104 142
226 112 42
227 145 19
228 23 168
229 168 58
230 3 101
231 137 59
232 184 140
233 48 94
234 198 16
235 26 197
236 84 180
237 31 79
238 136 90
239 123 90
240 62 152
241 10 20
242 66 98
243 19 38
244 69 150
245 181 156
246 39 112
247 104 5
248 41 16
249 172 179
250 122 38
251 89 176
252 74 67
253 197 7
254 24 197
255 131 136
256 26 45
257 47 118
258 20 59
259 151 66
260 86 110
261 55 100
262 186 65
263 63 151
264 159 196
265 179 5
266 107 96
267 139 158
268 5 162
269 173 147
270 121 46
271 144 59
272 196 126
273 134 157
274 135 45
275 88 152
276 41 186
277 183 170
278 103 77
279 97 129
280 147 193
281 158 81
282 48 106
283 78 169
284 174 194
285 152 68
286 1 149
287 18 35
288 123 59
289 137 41
290 115 75
291 124 165
292 112 78
293 24 131
294 116 118
295 80 167
296 62 138
297 195 132
298 149 78
299 38 183
300 174 185
301 35 160
302 32 23
303 111 129
304 32 166
305 13 139
306 158 132
307 188 194
308 92 178
309 55 87
310 86 150
311 114 183
312 42 72
313 56 148
314 115 50
315 200 162
316 69 64
317 108 148
318 35 9
319 99 45
320 125 180
321 142 60
322 181 39
323 165 181
324 87 30
325 176 58
326 168 119
327 198 97
328 89 153
329 67 70
330 28 187
331 42 144
332 138 61
333 11 118
334 143 179
335 182 89
336 141 146
337 12 15
338 184 101
339 127 143
340 137 158
341 25 165
342 22 61
343 41 73
344 23 74
345 159 129
346 68 115
347 98 77
348 126 199
349 28 15
350 68 156
351 94 119
352 31 63
353 23 123
354 105 26
355 60 184
356 69 133
357 141 132
358 56 19
359 110 184
360 178 127
361 75 173
362 113 105
363 165 156
364 109 197
365 55 51
366 37 177
367 30 183
368 49 99
369 143 116
370 30 67
371 89 39
372 23 176
373 127 60
374 6 120
375 65 77
376 108 187
377 159 105
378 176 132
379 7 108
380 34 145
381 42 174
382 63 149
383 57 157
384 56 90
385 148 38
386 119 113
387 164 37
388 173 42
389 106 41
390 155 107
391 49 71
392 40 95
393 5 130
394 182 110
395 68 191
396 68 40
397 64 123
398 109 45
399 109 85
400 42 148
401 67 138
402 103 77
403 122 58
404 17 32
405 6 120
PICKUP_AND_DELIVERY_SECTION
1 0 0 3213 0 0 0
2 16 0 3114 10 0 271
3 17 0 3114 10 0 62
4 28 0 3183 10 0 304
5 7 0 3109 10 0 336
6 -22 220 460 10 40 0
7 -30 1406 1646 10 162 0
8 -25 0 3148 10 392 0
9 11 0 3118 10 0 137
10 16 0 3105 10 0 78
11 11 0 3119 10 0 314
12 -3 0 3119 10 399 0
13 -23 0 3127 10 282 0
14 21 51 291 10 0 66
15 -30 0 3110 10 361 0
16 21 0 3129 10 0 51
17 -6 0 3104 10 264 0
18 -7 0 3111 10 370 0
19 -7 2500 2740 10 355 0
20 11 0 3112 10 0 359
21 10 667 907 10 0 140
22 25 0 3153 10 0 263
23 -2 0 3146 10 30 0
24 28 0 3175 10 0 283
25 14 643 883 10 0 187
26 15 0 3106 10 0 139
27 32 0 3104 10 0 385
28 24 0 3096 10 0 234
29 -17 0 3178 10 342 0
30 2 0 3105 10 0 23
31 27 0 3110 10 0 367
32 -19 1348 1588 10 371 0
33 11 1935 2175 10 0 211
34 -20 0 3107 10 346 0
35 28 0 3115 10 0 225
36 -2 0 3179 10 252 0
37 -16 0 3161 10 81 0
38 -22 0 3146 10 61 0
39 2 0 3128 10 0 173
40 22 0 3170 10 0 6
41 -21 520 760 10 245 0
42 -22 322 562 10 128 0
43 19 0 3170 10 0 329
44 -4 1447 1687 10 129 0
45 19 0 3121 10 0 121
46 -18 0 3109 10 238 0
47 -27 2345 2585 10 276 0
48 14 512 752 10 0 68
49 -46 0 3168 10 146 0
50 39 0 3109 10 0 63
51 -21 594 834 10 16 0
52 -20 0 3124 10 148 0
53 -10 0 3123 10 202 0
54 -11 0 3156 10 114 0
55 -22 1827 2067 10 186 0
56 -19 0 3161 10 240 0
57 -20 0 3101 10 192 0
58 3 0 3107 10 0 197
59 16 0 3096 0 0 404
60 -4 0 3147 10 160 0
61 22 0 3156 10 0 38
62 -17 1302 1542 10 3 0
63 -39 0 3114 10 50 0
64 29 0 3110 10 0 395
65 -17 0 3159 10 180 0
66 -21 0 3161 10 14 0
67 23 0 3111 10 0 331
68 -14 0 3109 10 48 0
69 16 0 3083 10 0 332
70 -20 0 3190 10 377 0
71 25 0 3171 10 0 130
72 31 0 3139 10 0 166
73 24 0 3150 10 0 176
74 -8 0 3091 10 284 0
75 10 0 3125 10 0 177
76 -20 0 3125 10 273 0
77 28 480 720 10 0 156
78 -16 0 3094 10 10 0
79 31 0 3176 10 0 83
80 -15 1473 1713 10 364 0
81 16 0 3113 10 0 37
82 -19 0 3177 10 143 0
83 -31 0 3096 10 79 0
84 -26 0 3161 10 383 0
85 10 0 3150 10 0 183
86 -23 0 3124 10 157 0
87 24 725 965 10 0 303
88 10 1269 1509 10 0 241
89 25 0 3191 10 0 279
90 21 0 3157 10 0 195
91 -17 0 3081 10 135 0
92 30 0 3109 10 0 233
93 -17 0 3138 10 382 0
94 -26 0 3071 10 268 0
95 -19 0 3096 10 134 0
96 -9 0 3117 10 142 0
97 15 0 3122 10 0 236
98 -17 1628 1868 10 221 0
99 17 76 316 10 0 345
100 -6 2524 2764 10 248 0
101 -17 0 3125 10 200 0
102 -6 0 3179 10 297 0
103 8 0 3148 10 0 223
104 13 0 3111 10 0 260
105 -11 0 3152 10 122 0
106 13 0 3162 10 0 151
107 17 0 3174 10 0 188
108 -24 2363 2603 10 334 0
109 -17 0 3147 10 338 0
110 -19 0 3160 10 224 0
111 -17 0 3127 10 365 0
112 14 0 3148 10 0 286
113 9 0 3098 10 0 216
114 11 0 3170 10 0 54
115 21 0 3108 10 0 322
116 -12 0 3102 10 306 0
117 -14 975 1215 10 144 0
118 26 0 3119 10 0 369
119 24 0 3149 10 0 231
120 10 0 3177 10 0 172
121 -19 0 3119 10 45 0
122 11 0 3073 10 0 105
123 -21 0 3159 10 335 0
124 -26 0 3121 10 247 0
125 -3 0 3151 10 159 0
126 5 642 882 10 0 330
127 -13 0 3137 10 251 0
128 22 32 272 10 0 42
129 4 0 3111 10 0 44
130 -25 0 3128 10 71 0
131 31 0 3078 10 0 161
132 1 491 731 10 0 257
133 -3 0 3161 10 340 0
134 19 0 3105 10 0 95
135 17 1073 1313 10 0 91
136 11 634 874 10 0 168
137 -11 0 3142 10 9 0
138 25 0 3147 10 0 255
139 -15 0 3094 10 26 0
140 -10 0 3117 10 21 0
141 -15 0 3192 10 394 0
142 9 142 382 10 0 96
143 19 0 3126 10 0 82
144 14 0 3133 10 0 117
145 18 157 397 10 0 182
146 46 1037 1277 10 0 49
147 -30 0 3119 10 222 0
148 20 0 3109 10 0 52
149 -36 0 3112 10 391 0
150 20 0 3116 10 0 294
151 -13 0 3100 10 106 0
152 -23 1610 1850 10 396 0
153 -18 0 3134 10 190 0
154 11 0 3139 10 0 318
155 -20 0 3136 10 217 0
156 -28 0 3178 10 77 0
157 23 0 3124 10 0 86
158 14 0 3109 10 0 277
159 3 0 3151 10 0 125
160 4 0 3137 10 0 60
161 -31 2214 2454 10 131 0
162 30 1223 1463 10 0 7
163 7 36 276 10 0 320
164 -21 0 3117 10 344 0
165 -3 0 3118 10 388 0
166 -31 0 3137 10 72 0
167 9 0 3199 10 0 285
168 -11 0 3150 10 136 0
169 -26 815 1055 10 246 0
170 -29 0 3172 10 229 0
171 -24 0 3131 10 287 0
172 -10 0 3189 10 120 0
173 -2 0 3124 10 39 0
174 -33 0 3075 10 226 0
175 19 0 3109 10 0 302
176 -24 1376 1616 10 73 0
177 -10 0 3089 10 75 0
178 21 0 3163 10 0 397
179 12 0 3109 10 0 360
180 17 0 3159 10 0 65
181 13 1018 1258 10 0 301
182 -18 0 3179 10 145 0
183 -10 0 3164 10 85 0
184 -14 0 3132 10 398 0
185 -29 0 3120 10 280 0
186 22 0 3154 10 0 55
187 -14 0 3106 10 25 0
188 -17 0 3097 10 107 0
189 -11 0 3129 10 401 0
190 18 0 3129 10 0 153
191 15 0 3156 0 0 403
192 20 2156 2396 10 0 57
193 29 0 3192 10 0 274
194 -48 0 3159 10 316 0
195 -21 0 3097 10 90 0
196 13 0 3112 10 0 384
197 -3 0 3153 10 58 0
198 24 0 3108 10 0 321
199 -10 0 3107 10 378 0
200 17 0 3136 10 0 101
201 -21 0 3114 10 319 0
202 10 0 3134 10 0 53
203 -6 0 3119 10 212 0
204 27 0 3110 10 0 380
205 -22 0 3109 10 209 0
206 13 757 997 10 0 362
207 13 0 3133 10 0 323
208 12 872 1112 10 0 228
209 22 0 3118 10 0 205
210 -6 0 3113 10 298 0
211 -11 1852 2092 10 33 0
212 6 0 3108 10 0 203
213 -19 0 3136 10 237 0
214 19 0 3144 10 0 244
215 13 0 3153 10 0 243
216 -9 0 3143 10 113 0
217 20 0 3118 10 0 155
218 -19 0 3117 10 387 0
219 -12 1272 1512 10 328 0
220 22 0 3122 10 0 261
221 17 0 3147 10 0 98
222 30 1123 1363 10 0 147
223 -8 309 549 10 103 0
224 19 0 3166 10 0 110
225 -28 2443 2683 10 35 0
226 33 0 3144 10 0 174
227 -13 1242 1482 10 389 0
228 -12 1855 2095 10 208 0
229 29 0 3124 10 0 170
230 -21 2207 2447 10 343 0
231 -24 0 3148 10 119 0
232 -18 0 3110 10 348 0
233 -30 0 3151 10 92 0
234 -24 0 3074 10 28 0
235 -34 0 3081 10 305 0
236 -15 0 3122 10 97 0
237 19 0 3131 10 0 213
238 18 37 277 10 0 46
239 21 25 265 10 0 267
240 19 1758 1998 10 0 56
241 -10 0 3083 10 88 0
242 -20 2474 2714 10 258 0
243 -13 0 3101 10 215 0
244 -19 2197 2437 10 214 0
245 21 0 3105 10 0 41
246 26 461 701 10 0 169
247 26 0 3108 10 0 124
248 6 0 3101 10 0 100
249 -6 2186 2426 10 272 0
250 5 0 3138 10 0 289
251 13 0 3127 10 0 127
252 2 0 3161 10 0 36
253 -9 0 3069 10 265 0
254 -15 0 3080 10 393 0
255 -25 0 3156 10 138 0
256 -22 0 3111 10 358 0
257 -1 0 3148 10 132 0
258 20 1946 2186 10 0 242
259 -34 0 3142 10 292 0
260 -13 2094 2334 10 104 0
261 -22 0 3158 10 220 0
262 -21 1809 2049 10 325 0
263 -25 0 3140 10 22 0
264 6 892 1132 10 0 17
265 9 0 3080 10 0 253
266 23 0 3195 10 0 390
267 -21 0 3134 10 239 0
268 26 0 3090 10 0 94
269 19 0 3117 10 0 350
270 3 0 3146 10 0 288
271 -16 0 3143 10 2 0
272 6 1660 1900 10 0 249
273 20 0 3137 10 0 76
274 -29 0 3138 10 193 0
275 -8 542 782 10 356 0
276 27 0 3099 10 0 47
277 -14 0 3095 10 158 0
278 21 0 3180 0 0 402
279 -25 0 3174 10 89 0
280 29 0 3099 10 0 185
281 23 0 3142 10 0 327
282 23 0 3151 10 0 13
283 -28 0 3131 10 24 0
284 8 0 3084 10 0 74
285 -9 0 3142 10 167 0
286 -14 0 3093 10 112 0
287 24 2415 2655 10 0 171
288 -3 0 3156 10 270 0
289 -5 0 3134 10 250 0
290 26 0 3174 10 0 326
291 -17 0 3134 10 363 0
292 34 0 3178 10 0 259
293 -32 0 3121 10 379 0
294 -20 0 3179 10 150 0
295 10 0 3134 10 0 333
296 -26 0 3150 10 308 0
297 6 0 3103 10 0 102
298 6 1729 1969 10 0 210
299 10 0 3100 10 0 310
300 -9 0 3091 10 307 0
301 -13 0 3115 10 181 0
302 -19 0 3101 10 175 0
303 -24 0 3172 10 87 0
304 -28 0 3109 10 4 0
305 34 0 3108 10 0 235
306 12 0 3137 10 0 116
307 9 0 3075 10 0 300
308 26 0 3125 10 0 296
309 -19 0 3157 10 375 0
310 -10 0 3152 10 299 0
311 35 950 1190 10 0 376
312 -24 661 901 10 354 0
313 20 0 3138 10 0 400
314 -11 0 3151 10 11 0
315 -18 0 3086 10 357 0
316 48 0 3156 10 0 194
317 -25 75 315 10 351 0
318 -11 0 3092 10 154 0
319 21 0 3148 10 0 201
320 -7 0 3120 10 163 0
321 -24 0 3145 10 198 0
322 -21 0 3102 10 115 0
323 -13 0 3100 10 207 0
324 -15 0 3132 10 353 0
325 21 845 1085 10 0 262
326 -26 2172 2412 10 290 0
327 -23 0 3105 10 281 0
328 12 425 665 10 0 219
329 -19 1669 1909 10 43 0
330 -5 1936 2176 10 126 0
331 -23 2623 2863 10 67 0
332 -16 0 3149 10 69 0
333 -10 0 3113 10 295 0
334 24 0 3114 10 0 108
335 21 0 3121 10 0 123
336 -7 2066 2306 10 5 0
337 -18 0 3081 10 349 0
338 17 0 3119 10 0 109
339 7 2105 2345 10 0 386
340 3 0 3135 10 0 133
341 -13 1434 1674 10 381 0
342 17 0 3116 10 0 29
343 21 0 3139 10 0 230
344 21 0 3122 10 0 164
345 -17 0 3138 10 99 0
346 20 0 3168 10 0 34
347 -23 0 3180 10 373 0
348 18 558 798 10 0 232
349 18 1269 1509 10 0 337
350 -19 0 3139 10 269 0
351 25 19 259 10 0 317
352 11 0 3125 10 0 368
353 15 1102 1342 10 0 324
354 24 0 3129 10 0 312
355 7 1246 1486 10 0 19
356 8 61 301 10 0 275
357 18 0 3151 10 0 315
358 22 0 3111 10 0 256
359 -11 0 3119 10 20 0
360 -12 0 3121 10 179 0
361 30 0 3126 10 0 15
362 -13 0 3190 10 206 0
363 17 0 3118 10 0 291
364 15 1565 1805 10 0 80
365 17 0 3137 10 0 111
366 -20 0 3104 10 372 0
367 -27 0 3095 10 31 0
368 -11 0 3152 10 352 0
369 -26 1479 1719 10 118 0
370 7 0 3126 10 0 18
371 19 0 3142 10 0 32
372 20 1354 1594 10 0 366
373 23 0 3155 10 0 347
374 25 2178 2418 0 0 405
375 19 773 1013 10 0 309
376 -35 0 3116 10 311 0
377 20 2244 2484 10 0 70
378 10 1292 1532 10 0 199
379 32 253 493 10 0 293
380 -27 1040 1280 10 204 0
381 13 0 3109 10 0 341
382 17 180 420 10 0 93
383 26 0 3132 10 0 84
384 -13 0 3158 10 196 0
385 -32 882 1122 10 27 0
386 -7 0 3180 10 339 0
387 19 338 578 10 0 218
388 3 0 3110 10 0 165
389 13 0 3144 10 0 227
390 -23 0 3148 10 266 0
391 36 0 3145 10 0 149
392 25 0 3143 10 0 8
393 15 0 3104 10 0 254
394 15 0 3121 10 0 141
395 -29 0 3107 10 64 0
396 23 152 392 10 0 152
397 -21 621 861 10 178 0
398 14 103 343 10 0 184
399 3 0 3186 10 0 12
400 -20 0 3128 10 313 0
401 11 224 464 10 0 189
402 -21 0 3180 10 278 0
403 -15 0 3156 10 191 0
404 -16 0 3096 10 59 0
405 -25 2178 2418 10 374 0
DEPOT_SECTION
1
-1
EOF
