NAME: lr2_4_2
TYPE: PDPTW
COMMENT: Li & Lim PDPTW benchmark converted from SINTEF format
DIMENSION: 403
VEHICLES: 100
CAPACITY: 1000
EDGE_WEIGHT_TYPE: EUC_2D
NODE_COORD_SECTION
1 100 100
2 150 26
3 84 188
4 83 112
5 191 124
6 112 174
7 146 166
8 45 95
9 81 183
10 10 60
11 142 27
12 184 110
13 28 127
14 67 127
15 16 141
16 148 157
17 154 184
18 8 89
19 74 163
20 25 48
21 58 19
22 95 50
23 130 149
24 78 118
25 86 69
26 5 122
27 155 17
28 146 3
29 76 93
30 191 138
31 28 160
32 114 153
33 70 28
34 90 4
35 53 175
36 84 81
37 118 139
38 118 45
39 103 25
40 107 133
41 129 176
42 186 149
43 73 81
44 9 122
45 168 146
46 172 161
47 15 197
48 26 41
49 78 72
50 112 6
51 135 171
52 39 151
53 46 40
54 138 72
55 53 79
56 75 134
57 66 3
58 153 19
59 17 32
60 59 139
61 100 53
62 46 131
63 111 189
64 62 15
65 100 144
66 70 130
67 97 192
68 85 193
69 197 29
70 113 100
71 71 114
72 120 39
73 125 53
74 172 186
75 138 31
76 37 146
77 12 131
78 1 54
79 101 127
80 42 165
81 149 176
82 126 100
83 148 196
84 78 136
85 145 71
86 179 95
87 124 191
88 38 101
89 104 88
90 57 118
91 182 9
92 7 119
93 85 164
94 6 193
95 154 7
96 180 66
97 83 180
98 130 55
99 149 103
100 54 37
101 178 88
102 118 117
103 82 48
104 80 190
105 74 55
106 108 141
107 77 119
108 114 112
109 156 93
110 143 103
111 104 176
112 63 141
113 159 187
114 125 78
115 136 12
116 199 123
117 154 29
118 177 134
119 121 50
120 114 122
121 161 158
122 8 8
123 144 92
124 41 43
125 113 151
126 39 186
127 60 153
128 131 92
129 53 180
130 28 77
131 186 8
132 40 130
133 71 131
134 158 20
135 121 48
136 45 55
137 50 135
138 152 122
139 46 5
140 32 47
141 111 98
142 138 69
143 171 69
144 125 34
145 94 31
146 29 121
147 20 72
148 179 151
149 18 59
150 162 162
151 152 190
152 66 196
153 45 142
154 36 104
155 63 44
156 83 81
157 172 66
158 151 180
159 109 48
160 64 156
161 85 85
162 157 196
163 135 110
164 59 24
165 175 60
166 127 39
167 103 97
168 71 145
169 40 115
170 114 72
171 62 38
172 110 110
173 51 162
174 193 12
175 19 51
176 178 61
177 161 3
178 63 116
179 151 179
180 88 143
181 32 190
182 76 102
183 139 97
184 101 29
185 176 134
186 60 71
187 137 10
188 17 166
189 75 170
190 90 174
191 122 58
192 113 14
193 98 89
194 59 83
195 44 10
196 97 9
197 116 52
198 155 22
199 193 127
200 154 59
201 122 13
202 70 37
203 172 55
204 98 193
205 46 22
206 188 70
207 157 142
208 63 192
209 88 15
210 189 83
211 110 8
212 171 36
213 65 42
214 113 158
215 51 112
216 151 132
217 50 31
218 181 70
219 12 113
220 20 113
221 125 49
222 27 97
223 116 4
224 136 111
225 104 142
226 112 42
227 145 19
228 23 168
229 168 58
230 3 101
231 137 59
232 184 140
233 48 94
234 198 16
235 26 197
236 84 180
237 31 79
238 136 90
239 123 90
240 62 152
241 10 20
242 66 98
243 19 38
244 69 150
245 181 156
246 39 112
247 104 5
248 41 16
249 172 179
250 122 38
251 89 176
252 74 67
253 197 7
254 24 197
255 131 136
256 26 45
257 47 118
258 20 59
259 151 66
260 86 110
261 55 100
262 186 65
263 63 151
264 159 196
265 179 5
266 107 96
267 139 158
268 5 162
269 173 147
270 121 46
271 144 59
272 196 126
273 134 157
274 135 45
275 88 152
276 41 186
277 183 170
278 103 77
279 97 129
280 147 193
281 158 81
282 48 106
283 78 169
284 174 194
285 152 68
286 1 149
287 18 35
288 123 59
289 137 41
290 115 75
291 124 165
292 112 78
293 24 131
294 116 118
295 80 167
296 62 138
297 195 132
298 149 78
299 38 183
300 174 185
301 35 160
302 32 23
303 111 129
304 32 166
305 13 139
306 158 132
307 188 194
308 92 178
309 55 87
310 86 150
311 114 183
312 42 72
313 56 148
314 115 50
315 200 162
316 69 64
317 108 148
318 35 9
319 99 45
320 125 180
321 142 60
322 181 39
323 165 181
324 87 30
325 176 58
326 168 119
327 198 97
328 89 153
329 67 70
330 28 187
331 42 144
332 138 61
333 11 118
334 143 179
335 182 89
336 141 146
337 12 15
338 184 101
339 127 143
340 137 158
341 25 165
342 22 61
343 41 73
344 23 74
345 159 129
346 68 115
347 98 77
348 126 199
349 28 15
350 68 156
351 94 119
352 31 63
353 23 123
354 105 26
355 60 184
356 69 133
357 141 132
358 56 19
359 110 184
360 178 127
361 75 173
362 113 105
363 165 156
364 109 197
365 55 51
366 37 177
367 30 183
368 49 99
369 143 116
370 30 67
371 89 39
372 23 176
373 127 60
374 6 120
375 65 77
376 108 187
377 159 105
378 176 132
379 7 108
380 34 145
381 42 174
382 63 149
383 57 157
384 56 90
385 148 38
386 119 113
387 164 37
388 173 42
389 106 41
390 155 107
391 49 71
392 40 95
393 5 130
394 182 110
395 68 191
396 68 40
397 64 123
398 109 45
399 109 85
400 42 148
401 67 138
402 66 98
403 179 5
PICKUP_AND_DELIVERY_SECTION
1 0 0 3213 0 0 0
2 16 0 3114 10 0 325
3 -15 1937 2085 10 232 0
4 28 41 126 10 0 132
5 -9 0 3109 10 113 0
6 -17 277 403 10 23 0
7 -20 1466 1586 10 150 0
8 -15 825 903 10 296 0
9 11 357 455 10 0 67
10 16 2125 2220 10 0 213
11 -13 0 3119 10 196 0
12 -35 722 846 10 74 0
13 24 0 3127 10 0 400
14 21 110 232 10 0 308
15 -17 2084 2246 10 180 0
16 -20 1289 1373 10 102 0
17 -18 1251 1410 10 238 0
18 13 851 933 10 0 183
19 -24 2548 2692 10 87 0
20 -2 0 3112 10 252 0
21 10 736 838 10 0 319
22 -14 925 1093 10 155 0
23 17 238 350 10 0 6
24 -18 2512 2635 10 190 0
25 14 678 848 10 0 205
26 -11 1428 1593 10 154 0
27 -11 362 529 10 259 0
28 -13 1738 1835 10 96 0
29 -7 1871 1983 10 168 0
30 -14 0 3105 10 185 0
31 -35 1543 1718 10 311 0
32 -10 1448 1488 10 283 0
33 -22 1979 2131 10 358 0
34 22 421 526 10 0 312
35 -25 0 3115 10 68 0
36 11 31 168 10 0 309
37 13 0 3161 10 0 279
38 28 0 3146 10 0 206
39 2 244 439 10 0 326
40 -12 0 3170 10 294 0
41 18 591 690 10 0 299
42 -22 359 525 10 323 0
43 -22 0 3170 10 220 0
44 17 1464 1670 10 0 202
45 -21 0 3121 10 245 0
46 6 508 562 10 0 54
47 -17 2415 2515 10 235 0
48 14 569 696 10 0 130
49 9 99 185 10 0 57
50 -19 2429 2633 10 171 0
51 27 694 734 10 0 188
52 26 434 581 10 0 246
53 -29 1019 1119 10 318 0
54 -6 570 685 10 46 0
55 -15 1838 2057 10 353 0
56 -5 0 3161 10 126 0
57 -9 0 3101 10 49 0
58 3 1308 1475 10 0 203
59 16 0 3096 10 0 100
60 -17 1288 1397 10 382 0
61 -20 2715 2815 10 217 0
62 -27 1333 1511 10 276 0
63 -26 1990 2153 10 118 0
64 29 362 468 10 0 375
65 17 999 1112 10 0 214
66 -17 1892 1983 10 107 0
67 -11 779 896 10 9 0
68 25 1262 1340 10 0 35
69 16 1597 1793 10 0 200
70 -22 919 1043 10 128 0
71 -4 0 3171 10 129 0
72 31 1712 1902 10 0 141
73 -22 1533 1572 10 170 0
74 35 0 3091 10 0 12
75 -17 1547 1667 10 135 0
76 -4 0 3125 10 160 0
77 28 528 671 10 0 219
78 -21 0 3094 10 343 0
79 31 74 143 10 0 204
80 -29 1538 1648 10 280 0
81 16 0 3113 10 0 330
82 -10 0 3177 10 85 0
83 -17 1375 1463 10 363 0
84 -6 0 3161 10 264 0
85 10 758 823 10 0 82
86 -23 1887 2035 10 281 0
87 24 795 896 10 0 19
88 10 1308 1470 10 0 391
89 -20 2908 3030 10 149 0
90 -13 0 3157 10 381 0
91 30 0 3081 10 0 176
92 30 0 3109 10 0 384
93 23 207 318 10 0 348
94 -25 1571 1742 10 351 0
95 -31 1415 1509 10 131 0
96 13 355 424 10 0 28
97 15 0 3122 10 0 393
98 -15 1669 1828 10 191 0
99 17 158 234 10 0 216
100 -16 2613 2674 10 59 0
101 -24 0 3125 10 119 0
102 20 0 3179 10 0 16
103 -17 0 3148 10 365 0
104 -26 1810 1862 10 383 0
105 3 0 3152 10 0 140
106 13 1113 1168 10 0 225
107 17 0 3174 10 0 66
108 -18 2439 2526 10 288 0
109 25 1712 1775 10 0 244
110 -23 0 3160 10 123 0
111 19 0 3127 10 0 364
112 -15 596 751 10 182 0
113 9 0 3098 10 0 5
114 11 98 168 10 0 253
115 21 0 3108 10 0 226
116 -15 1258 1303 10 394 0
117 -3 1037 1153 10 270 0
118 26 0 3119 10 0 63
119 24 0 3149 10 0 101
120 10 880 944 10 0 291
121 -18 0 3119 10 357 0
122 11 519 708 10 0 349
123 23 2033 2177 10 0 110
124 -17 2009 2167 10 342 0
125 2 1354 1484 10 0 133
126 5 678 845 10 0 56
127 11 414 483 10 0 173
128 22 108 148 10 0 70
129 4 1086 1260 10 0 71
130 -14 904 977 10 48 0
131 31 1278 1430 10 0 95
132 -28 553 668 10 4 0
133 -2 1987 2125 10 125 0
134 -20 2307 2389 10 227 0
135 17 1111 1275 10 0 75
136 -16 726 782 10 195 0
137 8 0 3142 10 0 374
138 25 280 346 10 0 284
139 -19 1443 1579 10 237 0
140 -3 609 708 10 105 0
141 -31 2369 2537 10 72 0
142 9 203 321 10 0 166
143 19 0 3126 10 0 234
144 -3 0 3133 10 388 0
145 18 203 351 10 0 221
146 46 1057 1256 10 0 368
147 -23 1019 1112 10 396 0
148 20 1305 1368 10 0 346
149 20 0 3112 10 0 89
150 20 1396 1465 10 0 7
151 -24 0 3100 10 334 0
152 23 1648 1811 10 0 251
153 -26 0 3134 10 268 0
154 11 964 1081 10 0 26
155 14 0 3136 10 0 22
156 21 25 262 10 0 209
157 -24 1113 1299 10 198 0
158 14 0 3109 10 0 367
159 -19 551 645 10 387 0
160 4 0 3137 10 0 76
161 -18 2281 2388 10 369 0
162 30 1292 1394 10 0 336
163 7 125 166 10 0 207
164 19 1437 1596 10 0 248
165 -26 285 395 10 290 0
166 -9 363 555 10 142 0
167 9 4 130 10 0 211
168 7 696 803 10 0 29
169 41 890 981 10 0 329
170 22 0 3172 10 0 73
171 19 2169 2260 10 0 50
172 -48 2349 2506 10 316 0
173 -11 395 542 10 127 0
174 3 1488 1623 10 0 177
175 -10 0 3109 10 302 0
176 -30 1478 1514 10 91 0
177 -3 2086 2203 10 174 0
178 -30 0 3163 10 331 0
179 12 317 435 10 0 189
180 17 2067 2219 10 0 15
181 -16 1095 1181 10 301 0
182 15 51 141 10 0 112
183 -13 2505 2617 10 18 0
184 7 219 349 10 0 335
185 14 0 3120 10 0 30
186 22 991 1078 10 0 218
187 21 0 3106 10 0 285
188 -27 0 3097 10 51 0
189 -12 2060 2204 10 179 0
190 18 874 982 10 0 24
191 15 187 273 10 0 98
192 -18 2197 2355 10 260 0
193 29 11 137 10 0 223
194 24 892 1041 10 0 243
195 16 454 613 10 0 136
196 13 0 3112 10 0 11
197 -13 1537 1721 10 389 0
198 24 494 641 10 0 157
199 -21 2022 2157 10 239 0
200 -16 0 3136 10 69 0
201 27 553 683 10 0 231
202 -17 0 3134 10 44 0
203 -3 0 3119 10 58 0
204 -31 830 908 10 79 0
205 -14 1621 1734 10 25 0
206 -28 834 920 10 38 0
207 -7 243 324 10 163 0
208 12 913 1070 10 0 236
209 -21 376 486 10 156 0
210 43 0 3113 10 0 385
211 -9 1945 1999 10 167 0
212 -25 2501 2682 10 392 0
213 -16 0 3136 10 10 0
214 -17 1616 1768 10 65 0
215 13 785 915 10 0 333
216 -17 612 825 10 99 0
217 20 292 471 10 0 61
218 -22 2124 2194 10 186 0
219 -28 1317 1467 10 77 0
220 22 0 3122 10 0 43
221 -18 1149 1289 10 145 0
222 -13 1176 1309 10 275 0
223 -29 403 456 10 193 0
224 -39 2433 2495 10 262 0
225 -13 2504 2623 10 106 0
226 -21 1811 1897 10 115 0
227 20 1281 1442 10 0 134
228 -35 1914 2037 10 286 0
229 29 903 992 10 0 250
230 33 2270 2385 10 0 257
231 -27 1266 1346 10 201 0
232 15 1400 1569 10 0 3
233 -17 1507 1594 10 397 0
234 -19 751 937 10 143 0
235 17 2300 2389 10 0 47
236 -12 1471 1535 10 208 0
237 19 0 3131 10 0 139
238 18 124 174 10 0 17
239 21 25 203 10 0 199
240 19 1807 1949 10 0 305
241 -20 0 3083 10 258 0
242 2 2537 2650 0 0 402
243 -24 1847 1906 10 194 0
244 -25 2262 2371 10 109 0
245 21 0 3105 10 0 45
246 -26 550 612 10 52 0
247 -7 749 897 10 347 0
248 -19 0 3101 10 164 0
249 -24 2275 2336 10 315 0
250 -29 1741 1897 10 229 0
251 -23 1681 1856 10 152 0
252 2 1280 1441 10 0 20
253 -11 0 3069 10 114 0
254 -22 1921 2022 10 376 0
255 18 0 3156 10 0 339
256 8 0 3111 10 0 287
257 -33 0 3148 10 230 0
258 20 2008 2124 10 0 241
259 11 0 3142 10 0 27
260 18 2170 2259 10 0 192
261 22 155 206 10 0 380
262 39 1869 1989 10 0 224
263 -15 2230 2293 10 395 0
264 6 951 1074 10 0 84
265 9 2142 2269 0 0 403
266 23 0 3195 10 0 362
267 -23 1913 2033 10 360 0
268 26 487 623 10 0 153
269 -10 1895 1978 10 378 0
270 3 664 781 10 0 117
271 -13 1778 1877 10 321 0
272 -12 1721 1839 10 306 0
273 20 1692 1774 10 0 307
274 -21 1159 1261 10 278 0
275 13 598 726 10 0 222
276 27 533 665 10 0 62
277 17 804 857 10 0 345
278 21 149 322 10 0 274
279 -13 0 3174 10 37 0
280 29 486 593 10 0 80
281 23 0 3142 10 0 86
282 23 716 788 10 0 293
283 10 1148 1279 10 0 32
284 -25 1875 1939 10 138 0
285 -21 2415 2479 10 187 0
286 35 1616 1726 10 0 228
287 -8 2473 2596 10 256 0
288 18 1597 1666 10 0 108
289 15 1652 1784 10 0 390
290 26 51 182 10 0 165
291 -10 0 3134 10 120 0
292 34 168 335 10 0 371
293 -23 1234 1354 10 282 0
294 12 0 3179 10 0 40
295 -21 877 1018 10 317 0
296 15 0 3150 10 0 8
297 -15 1069 1159 10 300 0
298 -14 1782 1916 10 314 0
299 -18 1246 1343 10 41 0
300 15 463 553 10 0 297
301 16 339 451 10 0 181
302 10 0 3101 10 0 175
303 27 83 165 10 0 361
304 17 0 3109 10 0 341
305 -19 2675 2822 10 240 0
306 12 1422 1559 10 0 272
307 -20 0 3075 10 273 0
308 -21 0 3125 10 14 0
309 -11 810 936 10 36 0
310 -28 1951 2078 10 350 0
311 35 1039 1101 10 0 31
312 -22 723 840 10 34 0
313 -10 2118 2221 10 359 0
314 14 0 3151 10 0 298
315 24 1980 2095 10 0 249
316 48 847 947 10 0 172
317 21 113 276 10 0 295
318 29 0 3092 10 0 53
319 -10 0 3148 10 21 0
320 -35 288 469 10 386 0
321 13 0 3145 10 0 271
322 -14 0 3102 10 327 0
323 22 359 472 10 0 42
324 -14 772 853 10 398 0
325 -16 925 1004 10 2 0
326 -2 2261 2322 10 39 0
327 14 890 1019 10 0 322
328 -32 459 631 10 379 0
329 -41 1736 1841 10 169 0
330 -16 2003 2109 10 81 0
331 30 2675 2810 10 0 178
332 19 0 3149 10 0 338
333 -13 0 3113 10 215 0
334 24 1093 1198 10 0 151
335 -7 1685 1875 10 184 0
336 -30 2120 2253 10 162 0
337 -11 2104 2216 10 352 0
338 -19 0 3119 10 332 0
339 -18 2191 2259 10 255 0
340 3 834 964 10 0 355
341 -17 1506 1601 10 304 0
342 17 0 3116 10 0 124
343 21 0 3139 10 0 78
344 21 0 3122 10 0 370
345 -17 1532 1650 10 277 0
346 -20 2232 2410 10 148 0
347 7 94 184 10 0 247
348 -23 626 730 10 93 0
349 -11 1328 1449 10 122 0
350 28 1270 1382 10 0 310
351 25 19 140 10 0 94
352 11 0 3125 10 0 337
353 15 1156 1287 10 0 55
354 24 0 3129 10 0 399
355 -3 1309 1423 10 340 0
356 8 146 216 10 0 401
357 18 0 3151 10 0 121
358 22 1897 1990 10 0 33
359 10 1817 1910 10 0 313
360 23 818 923 10 0 267
361 -27 233 385 10 303 0
362 -23 954 1127 10 266 0
363 17 427 526 10 0 83
364 -19 1629 1742 10 111 0
365 17 1061 1202 10 0 103
366 -20 1706 1788 10 372 0
367 -14 0 3095 10 158 0
368 -46 0 3152 10 146 0
369 18 1568 1630 10 0 161
370 -21 0 3126 10 344 0
371 -34 194 428 10 292 0
372 20 1368 1580 10 0 366
373 23 0 3155 10 0 377
374 -8 2225 2370 10 137 0
375 -29 886 900 10 64 0
376 22 302 397 10 0 254
377 -23 2303 2425 10 373 0
378 10 1367 1457 10 0 269
379 32 329 417 10 0 328
380 -22 1080 1240 10 261 0
381 13 0 3109 10 0 90
382 17 222 378 10 0 60
383 26 308 451 10 0 104
384 -30 0 3158 10 92 0
385 -43 949 1055 10 210 0
386 35 147 277 10 0 320
387 19 408 507 10 0 159
388 3 308 437 10 0 144
389 13 1063 1183 10 0 197
390 -15 0 3148 10 289 0
391 -10 1938 2003 10 88 0
392 25 2001 2138 10 0 212
393 -15 2575 2747 10 97 0
394 15 654 772 10 0 116
395 15 2137 2242 10 0 263
396 23 208 336 10 0 147
397 17 682 801 10 0 233
398 14 129 316 10 0 324
399 -24 2446 2564 10 354 0
400 -24 2414 2446 10 13 0
401 -8 321 366 10 356 0
402 -2 2537 2650 10 242 0
403 -9 2142 2269 10 265 0
DEPOT_SECTION
1
-1
EOF
