NAME: lr2_4_9
TYPE: PDPTW
COMMENT: Li & Lim PDPTW benchmark converted from SINTEF format
DIMENSION: 405
VEHICLES: 100
CAPACITY: 1000
EDGE_WEIGHT_TYPE: EUC_2D
NODE_COORD_SECTION
1 100 100
2 150 26
3 84 188
4 83 112
5 191 124
6 112 174
7 146 166
8 45 95
9 81 183
10 10 60
11 142 27
12 184 110
13 28 127
14 67 127
15 16 141
16 148 157
17 154 184
18 8 89
19 74 163
20 25 48
21 58 19
22 95 50
23 130 149
24 78 118
25 86 69
26 5 122
27 155 17
28 146 3
29 76 93
30 191 138
31 28 160
32 114 153
33 70 28
34 90 4
35 53 175
36 84 81
37 118 139
38 118 45
39 103 25
40 107 133
41 129 176
42 186 149
43 73 81
44 9 122
45 168 146
46 172 161
47 15 197
48 26 41
49 78 72
50 112 6
51 135 171
52 39 151
53 46 40
54 138 72
55 53 79
56 75 134
57 66 3
58 153 19
59 17 32
60 59 139
61 100 53
62 46 131
63 111 189
64 62 15
65 100 144
66 70 130
67 97 192
68 85 193
69 197 29
70 113 100
71 71 114
72 120 39
73 125 53
74 172 186
75 138 31
76 37 146
77 12 131
78 1 54
79 101 127
80 42 165
81 149 176
82 126 100
83 148 196
84 78 136
85 145 71
86 179 95
87 124 191
88 38 101
89 104 88
90 57 118
91 182 9
92 7 119
93 85 164
94 6 193
95 154 7
96 180 66
97 83 180
98 130 55
99 149 103
100 54 37
101 178 88
102 118 117
103 82 48
104 80 190
105 74 55
106 108 141
107 77 119
108 114 112
109 156 93
110 143 103
111 104 176
112 63 141
113 159 187
114 125 78
115 136 12
116 199 123
117 154 29
118 177 134
119 121 50
120 114 122
121 161 158
122 8 8
123 144 92
124 41 43
125 113 151
126 39 186
127 60 153
128 131 92
129 53 180
130 28 77
131 186 8
132 40 130
133 71 131
134 158 20
135 121 48
136 45 55
137 50 135
138 152 122
139 46 5
140 32 47
141 111 98
142 138 69
143 171 69
144 125 34
145 94 31
146 29 121
147 20 72
148 179 151
149 18 59
150 162 162
151 152 190
152 66 196
153 45 142
154 36 104
155 63 44
156 83 81
157 172 66
158 151 180
159 109 48
160 64 156
161 85 85
162 157 196
163 135 110
164 59 24
165 175 60
166 127 39
167 103 97
168 71 145
169 40 115
170 114 72
171 62 38
172 110 110
173 51 162
174 193 12
175 19 51
176 178 61
177 161 3
178 63 116
179 151 179
180 88 143
181 32 190
182 76 102
183 139 97
184 101 29
185 176 134
186 60 71
187 137 10
188 17 166
189 75 170
190 90 174
191 122 58
192 113 14
193 98 89
194 59 83
195 44 10
196 97 9
197 116 52
198 155 22
199 193 127
200 154 59
201 122 13
202 70 37
203 172 55
204 98 193
205 46 22
206 188 70
207 157 142
208 63 192
209 88 15
210 189 83
211 110 8
212 171 36
213 65 42
214 113 158
215 51 112
216 151 132
217 50 31
218 181 70
219 12 113
220 20 113
221 125 49
222 27 97
223 116 4
224 136 111
225 104 142
226 112 42
227 145 19
228 23 168
229 168 58
230 3 101
231 137 59
232 184 140
233 48 94
234 198 16
235 26 197
236 84 180
237 31 79
238 136 90
239 123 90
240 62 152
241 10 20
242 66 98
243 19 38
244 69 150
245 181 156
246 39 112
247 104 5
248 41 16
249 172 179
250 122 38
251 89 176
252 74 67
253 197 7
254 24 197
255 131 136
256 26 45
257 47 118
258 20 59
259 151 66
260 86 110
261 55 100
262 186 65
263 63 151
264 159 196
265 179 5
266 107 96
267 139 158
268 5 162
269 173 147
270 121 46
271 144 59
272 196 126
273 134 157
274 135 45
275 88 152
276 41 186
277 183 170
278 103 77
279 97 129
280 147 193
281 158 81
282 48 106
283 78 169
284 174 194
285 152 68
286 1 149
287 18 35
288 123 59
289 137 41
290 115 75
291 124 165
292 112 78
293 24 131
294 116 118
295 80 167
296 62 138
297 195 132
298 149 78
299 38 183
300 174 185
301 35 160
302 32 23
303 111 129
304 32 166
305 13 139
306 158 132
307 188 194
308 92 178
309 55 87
310 86 150
311 114 183
312 42 72
313 56 148
314 115 50
315 200 162
316 69 64
317 108 148
318 35 9
319 99 45
320 125 180
321 142 60
322 181 39
323 165 181
324 87 30
325 176 58
326 168 119
327 198 97
328 89 153
329 67 70
330 28 187
331 42 144
332 138 61
333 11 118
334 143 179
335 182 89
336 141 146
337 12 15
338 184 101
339 127 143
340 137 158
341 25 165
342 22 61
343 41 73
344 23 74
345 159 129
346 68 115
347 98 77
348 126 199
349 28 15
350 68 156
351 94 119
352 31 63
353 23 123
354 105 26
355 60 184
356 69 133
357 141 132
358 56 19
359 110 184
360 178 127
361 75 173
362 113 105
363 165 156
364 109 197
365 55 51
366 37 177
367 30 183
368 49 99
369 143 116
370 30 67
371 89 39
372 23 176
373 127 60
374 6 120
375 65 77
376 108 187
377 159 105
378 176 132
379 7 108
380 34 145
381 42 174
382 63 149
383 57 157
384 56 90
385 148 38
386 119 113
387 164 37
388 173 42
389 106 41
390 155 107
391 49 71
392 40 95
393 5 130
394 182 110
395 68 191
396 68 40
397 64 123
398 109 45
399 109 85
400 42 148
401 67 138
402 109 85
403 42 165
404 191 124
405 136 90
PICKUP_AND_DELIVERY_SECTION
1 0 0 3213 0 0 0
2 16 1065 1245 10 0 214
3 -19 1941 2082 10 240 0
4 28 20 419 10 0 220
5 7 410 912 0 0 404
6 20 292 387 10 0 311
7 -27 1335 1716 10 51 0
8 15 681 1048 10 0 53
9 11 179 633 10 0 341
10 -13 2017 2329 10 196 0
11 11 1208 1872 10 0 289
12 23 648 921 10 0 224
13 -15 838 883 10 182 0
14 -17 42 691 10 382 0
15 -10 1954 2376 10 299 0
16 -9 1104 1559 10 307 0
17 -24 1193 1468 10 87 0
18 -17 661 1124 10 397 0
19 -17 2338 2901 10 107 0
20 -18 1704 1951 10 349 0
21 -22 632 942 10 34 0
22 -23 813 1205 10 362 0
23 -13 182 406 10 37 0
24 -21 2185 2962 10 178 0
25 -10 458 1068 10 85 0
26 15 1443 1579 10 0 329
27 -14 425 465 10 398 0
28 -21 1621 1953 10 115 0
29 -21 1592 2262 10 90 0
30 -25 725 772 10 42 0
31 27 1551 1709 10 0 254
32 -21 1112 1825 10 319 0
33 -9 1892 2218 10 57 0
34 22 439 508 10 0 21
35 28 694 1052 10 0 60
36 11 24 310 10 0 48
37 13 42 571 10 0 23
38 -11 1283 1672 10 122 0
39 2 155 528 10 0 143
40 -23 1563 1956 10 266 0
41 18 415 865 10 0 118
42 25 143 742 10 0 30
43 -25 2590 3133 10 71 0
44 -30 1282 1851 10 309 0
45 -20 998 1146 10 102 0
46 6 384 685 10 0 281
47 10 2299 2631 10 0 393
48 -11 499 766 10 36 0
49 9 35 294 10 0 318
50 -19 2251 2811 10 387 0
51 27 592 835 10 0 7
52 -13 200 815 10 381 0
53 -15 969 1169 10 8 0
54 -11 467 788 10 259 0
55 14 1820 2074 10 0 384
56 16 42 437 10 0 88
57 9 1404 1683 10 0 33
58 -15 1289 1494 10 191 0
59 -20 1874 2010 10 258 0
60 -28 1046 1640 10 35 0
61 22 2734 2796 10 0 89
62 21 1330 1514 10 0 137
63 -10 1837 2305 10 359 0
64 29 343 486 10 0 324
65 17 894 1217 10 0 374
66 -13 1756 2119 10 389 0
67 -27 703 973 10 204 0
68 -13 1171 1431 10 106 0
69 -17 1583 1808 10 99 0
70 5 860 1102 10 0 385
71 25 2551 2854 10 0 43
72 31 1642 1972 10 0 212
73 24 1288 1818 10 0 358
74 35 195 809 10 0 86
75 -13 1429 1785 10 253 0
76 -46 1075 1529 10 146 0
77 28 454 746 10 0 152
78 -13 1085 1334 10 215 0
79 31 27 741 10 0 188
80 22 1469 1717 0 0 403
81 16 186 538 10 0 179
82 -6 2408 2896 10 216 0
83 13 1253 1585 10 0 334
84 31 1005 1449 10 0 225
85 10 735 846 10 0 25
86 -35 1690 2233 10 74 0
87 24 777 914 10 0 17
88 -16 1190 1587 10 56 0
89 -22 2691 3191 10 61 0
90 21 1602 1887 10 0 29
91 -24 1093 1363 10 198 0
92 -41 1086 1924 10 169 0
93 23 128 397 10 0 295
94 -12 1387 1926 10 208 0
95 -13 1393 1531 10 223 0
96 13 86 723 10 0 234
97 -18 873 1377 10 190 0
98 -18 1580 1917 10 165 0
99 17 49 472 10 0 69
100 -23 2495 2793 10 396 0
101 23 1299 1397 10 0 157
102 20 140 292 10 0 45
103 8 348 489 10 0 270
104 -26 1594 2077 10 268 0
105 -22 1037 1892 10 209 0
106 13 970 1310 10 0 68
107 17 1311 1691 10 0 19
108 -7 2204 2761 10 199 0
109 -25 1439 2048 10 138 0
110 15 646 820 10 0 267
111 19 771 1190 10 0 355
112 14 476 871 10 0 316
113 -3 1755 2180 10 340 0
114 11 33 486 10 0 308
115 21 422 688 10 0 28
116 20 1258 1304 10 0 141
117 -17 961 1229 10 200 0
118 -18 1242 1485 10 41 0
119 24 262 757 10 0 231
120 -21 701 1122 10 239 0
121 24 1420 1848 10 0 339
122 11 493 733 10 0 38
123 -11 2019 2190 10 322 0
124 -20 1785 2390 10 217 0
125 -23 1170 1668 10 373 0
126 5 744 780 10 0 353
127 11 290 608 10 0 154
128 22 64 193 10 0 144
129 4 982 1364 10 0 305
130 12 710 1171 10 0 161
131 31 1192 1516 10 0 134
132 1 476 745 10 0 365
133 11 1936 2176 10 0 260
134 -31 2045 2651 10 131 0
135 -24 1047 1339 10 354 0
136 -18 651 858 10 312 0
137 -21 1471 2037 10 62 0
138 25 132 494 10 0 109
139 -26 1370 1651 10 247 0
140 27 337 980 10 0 205
141 -20 2107 2798 10 116 0
142 9 240 284 10 0 159
143 -2 655 960 10 39 0
144 -22 984 1311 10 128 0
145 18 174 381 10 0 388
146 46 1012 1302 10 0 76
147 21 978 1152 10 0 233
148 20 1034 1639 10 0 255
149 20 1580 1922 10 0 155
150 20 1183 1679 10 0 245
151 10 1129 1400 10 0 306
152 -28 1439 2021 10 77 0
153 -7 1588 2274 10 370 0
154 -11 717 1327 10 127 0
155 -20 2006 2113 10 149 0
156 21 25 283 10 0 213
157 -23 982 1429 10 101 0
158 -19 2239 2324 10 269 0
159 -9 487 710 10 142 0
160 4 1372 1545 10 0 283
161 -12 2084 2584 10 130 0
162 -18 1183 1502 10 348 0
163 7 36 489 10 0 357
164 19 1221 1812 10 0 237
165 18 85 738 10 0 98
166 -9 187 731 10 167 0
167 9 4 161 10 0 166
168 -25 569 929 10 351 0
169 41 664 1207 10 0 92
170 -26 31 531 10 290 0
171 19 2053 2375 10 0 344
172 -22 2232 2622 10 310 0
173 20 366 572 10 0 375
174 3 1256 1854 10 0 285
175 -6 481 962 10 248 0
176 19 1371 1621 10 0 262
177 -18 1922 2366 10 271 0
178 21 1725 2354 10 0 24
179 -16 122 631 10 81 0
180 -13 2016 2271 10 251 0
181 -1 931 1345 10 320 0
182 15 24 332 10 0 13
183 4 2209 2912 10 0 326
184 -34 159 410 10 292 0
185 14 366 732 10 0 394
186 -32 599 1471 10 368 0
187 -20 1545 2099 10 227 0
188 -31 1629 1981 10 79 0
189 17 2002 2261 10 0 279
190 18 774 1082 10 0 97
191 15 94 367 10 0 58
192 -21 2019 2532 10 325 0
193 29 11 764 10 0 371
194 24 837 1097 10 0 342
195 -10 241 827 10 202 0
196 13 1119 1555 10 0 10
197 10 1434 1825 10 0 287
198 24 389 746 10 0 91
199 7 2067 2111 10 0 108
200 17 211 455 10 0 117
201 27 325 911 10 0 250
202 10 69 813 10 0 195
203 11 1637 2122 10 0 298
204 27 554 1183 10 0 67
205 -27 1490 1864 10 140 0
206 -21 758 995 10 278 0
207 13 184 382 10 0 335
208 12 725 1259 10 0 94
209 22 352 509 10 0 105
210 43 720 1032 10 0 327
211 26 1697 2247 10 0 265
212 -31 2368 2815 10 72 0
213 -21 744 1083 10 156 0
214 -16 1493 1890 10 2 0
215 13 712 987 10 0 78
216 6 387 1050 10 0 82
217 20 242 522 10 0 124
218 25 2073 2245 10 0 390
219 -26 1105 1679 10 383 0
220 -28 153 597 10 4 0
221 17 1047 1390 10 0 252
222 -16 999 1487 10 301 0
223 13 258 600 10 0 95
224 -23 2353 2575 10 12 0
225 -31 2440 2686 10 84 0
226 -7 1832 1876 10 347 0
227 20 1189 1535 10 0 187
228 13 1891 2059 10 0 242
229 29 786 1110 10 0 321
230 33 2174 2481 10 0 400
231 -24 1206 1407 10 119 0
232 -6 1385 1583 10 264 0
233 -21 1422 1678 10 147 0
234 -13 625 1062 10 96 0
235 -20 2251 2437 10 372 0
236 -22 1351 1656 10 261 0
237 -19 2078 2501 10 164 0
238 18 37 609 0 0 405
239 21 25 289 10 0 120
240 19 1446 2310 10 0 3
241 -18 2289 2541 10 288 0
242 -13 2444 2743 10 228 0
243 -14 1859 1895 10 314 0
244 -31 2034 2599 10 293 0
245 -20 1835 2341 10 150 0
246 26 429 732 10 0 296
247 26 422 1224 10 0 139
248 6 199 816 10 0 175
249 1 2145 2466 10 0 336
250 -27 1513 2125 10 201 0
251 13 1604 1932 10 0 180
252 -17 1213 1507 10 221 0
253 13 1052 1291 10 0 75
254 -27 1893 2051 10 31 0
255 -20 2462 2704 10 148 0
256 8 765 1128 10 0 352
257 -30 2533 3148 10 331 0
258 20 1744 2388 10 0 59
259 11 317 394 10 0 54
260 -11 2050 2379 10 133 0
261 22 45 510 10 0 236
262 -19 1760 2097 10 176 0
263 -28 2136 2387 10 350 0
264 6 953 1072 10 0 232
265 -26 1927 2484 10 211 0
266 23 8 535 10 0 40
267 -15 1769 2177 10 110 0
268 26 404 706 10 0 104
269 19 1700 2173 10 0 158
270 -8 579 865 10 103 0
271 18 1634 2021 10 0 177
272 -10 1764 1795 10 345 0
273 20 1662 1804 10 0 291
274 7 1043 1378 10 0 332
275 13 562 762 10 0 343
276 27 487 710 10 0 380
277 17 636 1026 10 0 378
278 21 34 437 10 0 206
279 -17 2305 2489 10 189 0
280 -27 209 869 10 303 0
281 -6 1913 2283 10 46 0
282 -8 663 841 10 356 0
283 -4 888 1539 10 160 0
284 -24 1566 2248 10 315 0
285 -3 2201 2692 10 174 0
286 35 1587 1755 10 0 366
287 -10 2327 2743 10 197 0
288 18 1398 1864 10 0 241
289 -11 1578 1858 10 11 0
290 26 29 227 10 0 170
291 -20 1686 2048 10 273 0
292 34 164 339 10 0 184
293 31 1161 1427 10 0 244
294 -20 2075 2285 10 346 0
295 -23 851 1044 10 93 0
296 -26 2283 2837 10 246 0
297 -17 858 1369 10 363 0
298 -11 1775 1924 10 203 0
299 10 1172 1417 10 0 15
300 15 255 761 10 0 338
301 16 320 469 10 0 222
302 10 625 932 10 0 337
303 27 31 385 10 0 280
304 -21 1089 1480 10 317 0
305 -4 2574 2923 10 129 0
306 -10 1332 1648 10 151 0
307 9 1051 1306 10 0 16
308 -11 1718 2168 10 114 0
309 30 715 1030 10 0 44
310 22 1894 2135 10 0 172
311 -20 877 1263 10 6 0
312 18 552 1011 10 0 136
313 -15 1902 2437 10 395 0
314 14 1185 1897 10 0 243
315 24 1888 2187 10 0 284
316 -14 744 1050 10 112 0
317 21 88 302 10 0 304
318 -9 943 1019 10 49 0
319 21 169 627 10 0 32
320 1 349 407 10 0 181
321 -29 1474 1949 10 229 0
322 11 1287 1792 10 0 123
323 -35 219 611 10 386 0
324 -29 406 1219 10 64 0
325 21 802 1127 10 0 192
326 -4 2274 2309 10 183 0
327 -43 694 1216 10 210 0
328 12 339 752 10 0 391
329 -15 1693 1885 10 26 0
330 -9 1842 2271 10 367 0
331 30 2622 2864 10 0 257
332 -7 831 1385 10 274 0
333 -32 274 741 10 379 0
334 -13 900 1391 10 83 0
335 -13 1581 1979 10 207 0
336 -1 2032 2340 10 249 0
337 -10 1822 2497 10 302 0
338 -15 858 1177 10 300 0
339 -24 2117 2333 10 121 0
340 3 730 1069 10 0 113
341 -11 1367 1741 10 9 0
342 -24 879 1401 10 194 0
343 -13 1008 1367 10 275 0
344 -19 2170 2409 10 171 0
345 10 1378 1804 10 0 272
346 20 2130 2512 10 0 294
347 7 23 440 10 0 226
348 18 389 967 10 0 162
349 18 1136 1642 10 0 20
350 28 1150 1501 10 0 263
351 25 19 178 10 0 168
352 -8 1138 1431 10 256 0
353 -5 1063 1381 10 126 0
354 24 1221 1483 10 0 135
355 -19 1122 1609 10 111 0
356 8 154 209 10 0 282
357 -7 169 569 10 163 0
358 -24 1791 2095 10 73 0
359 10 1702 2024 10 0 63
360 23 681 1061 10 0 377
361 30 88 529 10 0 376
362 23 946 1135 10 0 22
363 17 245 707 10 0 297
364 -18 1475 1896 10 369 0
365 -1 967 1296 10 132 0
366 -35 1370 2124 10 286 0
367 9 1173 1241 10 0 330
368 32 749 1104 10 0 186
369 18 1472 1727 10 0 364
370 7 1100 1181 10 0 153
371 -29 224 398 10 193 0
372 20 1334 1614 10 0 235
373 23 326 818 10 0 125
374 -17 2098 2497 10 65 0
375 -20 756 1030 10 173 0
376 -30 87 703 10 361 0
377 -23 2098 2631 10 360 0
378 -17 1095 1729 10 277 0
379 32 236 510 10 0 333
380 -27 966 1355 10 276 0
381 13 279 743 10 0 52
382 17 61 572 10 0 14
383 26 236 523 10 0 219
384 -14 1972 2382 10 55 0
385 -5 815 1189 10 70 0
386 35 76 349 10 0 323
387 19 263 653 10 0 50
388 -18 161 584 10 145 0
389 13 966 1281 10 0 66
390 -25 2081 2439 10 218 0
391 -12 1902 2040 10 328 0
392 -11 1743 2397 10 401 0
393 -10 2520 2802 10 47 0
394 -14 521 904 10 185 0
395 15 2134 2244 10 0 313
396 23 246 298 10 0 100
397 17 533 949 10 0 18
398 14 58 388 10 0 27
399 3 2415 2596 0 0 402
400 -33 2143 2718 10 230 0
401 11 50 638 10 0 392
402 -3 2415 2596 10 399 0
403 -22 1469 1717 10 80 0
404 -7 410 912 10 5 0
405 -18 37 609 10 238 0
DEPOT_SECTION
1
-1
EOF
