NAME: lr2_4_10
TYPE: PDPTW
COMMENT: Li & Lim PDPTW benchmark converted from SINTEF format
DIMENSION: 405
VEHICLES: 100
CAPACITY: 1000
EDGE_WEIGHT_TYPE: EUC_2D
NODE_COORD_SECTION
1 100 100
2 150 26
3 84 188
4 83 112
5 191 124
6 112 174
7 146 166
8 45 95
9 81 183
10 10 60
11 142 27
12 184 110
13 28 127
14 67 127
15 16 141
16 148 157
17 154 184
18 8 89
19 74 163
20 25 48
21 58 19
22 95 50
23 130 149
24 78 118
25 86 69
26 5 122
27 155 17
28 146 3
29 76 93
30 191 138
31 28 160
32 114 153
33 70 28
34 90 4
35 53 175
36 84 81
37 118 139
38 118 45
39 103 25
40 107 133
41 129 176
42 186 149
43 73 81
44 9 122
45 168 146
46 172 161
47 15 197
48 26 41
49 78 72
50 112 6
51 135 171
52 39 151
53 46 40
54 138 72
55 53 79
56 75 134
57 66 3
58 153 19
59 17 32
60 59 139
61 100 53
62 46 131
63 111 189
64 62 15
65 100 144
66 70 130
67 97 192
68 85 193
69 197 29
70 113 100
71 71 114
72 120 39
73 125 53
74 172 186
75 138 31
76 37 146
77 12 131
78 1 54
79 101 127
80 42 165
81 149 176
82 126 100
83 148 196
84 78 136
85 145 71
86 179 95
87 124 191
88 38 101
89 104 88
90 57 118
91 182 9
92 7 119
93 85 164
94 6 193
95 154 7
96 180 66
97 83 180
98 130 55
99 149 103
100 54 37
101 178 88
102 118 117
103 82 48
104 80 190
105 74 55
106 108 141
107 77 119
108 114 112
109 156 93
110 143 103
111 104 176
112 63 141
113 159 187
114 125 78
115 136 12
116 199 123
117 154 29
118 177 134
119 121 50
120 114 122
121 161 158
122 8 8
123 144 92
124 41 43
125 113 151
126 39 186
127 60 153
128 131 92
129 53 180
130 28 77
131 186 8
132 40 130
133 71 131
134 158 20
135 121 48
136 45 55
137 50 135
138 152 122
139 46 5
140 32 47
141 111 98
142 138 69
143 171 69
144 125 34
145 94 31
146 29 121
147 20 72
148 179 151
149 18 59
150 162 162
151 152 190
152 66 196
153 45 142
154 36 104
155 63 44
156 83 81
157 172 66
158 151 180
159 109 48
160 64 156
161 85 85
162 157 196
163 135 110
164 59 24
165 175 60
166 127 39
167 103 97
168 71 145
169 40 115
170 114 72
171 62 38
172 110 110
173 51 162
174 193 12
175 19 51
176 178 61
177 161 3
178 63 116
179 151 179
180 88 143
181 32 190
182 76 102
183 139 97
184 101 29
185 176 134
186 60 71
187 137 10
188 17 166
189 75 170
190 90 174
191 122 58
192 113 14
193 98 89
194 59 83
195 44 10
196 97 9
197 116 52
198 155 22
199 193 127
200 154 59
201 122 13
202 70 37
203 172 55
204 98 193
205 46 22
206 188 70
207 157 142
208 63 192
209 88 15
210 189 83
211 110 8
212 171 36
213 65 42
214 113 158
215 51 112
216 151 132
217 50 31
218 181 70
219 12 113
220 20 113
221 125 49
222 27 97
223 116 4
224 136 111
225 104 142
226 112 42
227 145 19
228 23 168
229 168 58
230 3 101
231 137 59
232 184 140
233 48 94
234 198 16
235 26 197
236 84 180
237 31 79
238 136 90
239 123 90
240 62 152
241 10 20
242 66 98
243 19 38
244 69 150
245 181 156
246 39 112
247 104 5
248 41 16
249 172 179
250 122 38
251 89 176
252 74 67
253 197 7
254 24 197
255 131 136
256 26 45
257 47 118
258 20 59
259 151 66
260 86 110
261 55 100
262 186 65
263 63 151
264 159 196
265 179 5
266 107 96
267 139 158
268 5 162
269 173 147
270 121 46
271 144 59
272 196 126
273 134 157
274 135 45
275 88 152
276 41 186
277 183 170
278 103 77
279 97 129
280 147 193
281 158 81
282 48 106
283 78 169
284 174 194
285 152 68
286 1 149
287 18 35
288 123 59
289 137 41
290 115 75
291 124 165
292 112 78
293 24 131
294 116 118
295 80 167
296 62 138
297 195 132
298 149 78
299 38 183
300 174 185
301 35 160
302 32 23
303 111 129
304 32 166
305 13 139
306 158 132
307 188 194
308 92 178
309 55 87
310 86 150
311 114 183
312 42 72
313 56 148
314 115 50
315 200 162
316 69 64
317 108 148
318 35 9
319 99 45
320 125 180
321 142 60
322 181 39
323 165 181
324 87 30
325 176 58
326 168 119
327 198 97
328 89 153
329 67 70
330 28 187
331 42 144
332 138 61
333 11 118
334 143 179
335 182 89
336 141 146
337 12 15
338 184 101
339 127 143
340 137 158
341 25 165
342 22 61
343 41 73
344 23 74
345 159 129
346 68 115
347 98 77
348 126 199
349 28 15
350 68 156
351 94 119
352 31 63
353 23 123
354 105 26
355 60 184
356 69 133
357 141 132
358 56 19
359 110 184
360 178 127
361 75 173
362 113 105
363 165 156
364 109 197
365 55 51
366 37 177
367 30 183
368 49 99
369 143 116
370 30 67
371 89 39
372 23 176
373 127 60
374 6 120
375 65 77
376 108 187
377 159 105
378 176 132
379 7 108
380 34 145
381 42 174
382 63 149
383 57 157
384 56 90
385 148 38
386 119 113
387 164 37
388 173 42
389 106 41
390 155 107
391 49 71
392 40 95
393 5 130
394 182 110
395 68 191
396 68 40
397 64 123
398 109 45
399 109 85
400 42 148
401 67 138
402 46 22
403 136 111
404 62 138
405 114 112
PICKUP_AND_DELIVERY_SECTION
1 0 0 3213 0 0 0
2 16 833 1477 10 0 61
3 -25 1738 2284 10 68 0
4 28 20 461 10 0 182
5 7 393 929 10 0 7
6 -18 74 618 10 357 0
7 -7 1277 1775 10 5 0
8 -19 568 1161 10 375 0
9 11 200 613 10 0 126
10 -14 1908 2437 10 398 0
11 11 1287 1792 10 0 337
12 23 555 1013 10 0 141
13 24 693 1028 10 0 90
14 21 42 535 10 0 63
15 -33 1931 2398 10 230 0
16 -23 1116 1547 10 67 0
17 -29 1066 1594 10 280 0
18 13 606 1178 10 0 353
19 -14 2358 2882 10 155 0
20 -14 1521 2133 10 144 0
21 10 535 1039 10 0 28
22 -29 786 1232 10 64 0
23 -7 57 581 10 163 0
24 -19 2354 2794 10 240 0
25 14 528 998 10 0 380
26 -11 1285 1736 10 154 0
27 32 182 708 10 0 227
28 -10 1562 2011 10 21 0
29 7 1654 2200 10 0 237
30 2 502 996 10 0 83
31 -30 1380 1880 10 309 0
32 -29 1261 1676 10 229 0
33 -10 1785 2325 10 197 0
34 -22 215 731 10 209 0
35 -14 656 1089 10 112 0
36 11 24 553 10 0 60
37 13 42 465 10 0 52
38 -19 1207 1747 10 175 0
39 2 120 563 10 0 247
40 -18 1556 1963 10 238 0
41 -30 390 890 10 361 0
42 -13 167 718 10 207 0
43 -2 2662 3062 10 242 0
44 -41 1296 1838 10 169 0
45 -25 904 1241 10 351 0
46 6 340 729 10 0 363
47 -3 2195 2735 10 159 0
48 -16 384 881 10 195 0
49 9 35 548 10 0 293
50 -19 2319 2743 10 117 0
51 -16 461 966 10 301 0
52 -13 245 770 10 37 0
53 15 805 1333 10 0 226
54 8 374 882 10 0 58
55 -13 1702 2193 10 166 0
56 16 42 509 10 0 369
57 -21 1320 1768 10 278 0
58 -8 1101 1681 10 54 0
59 -15 1688 2196 10 289 0
60 -11 1098 1587 10 36 0
61 -16 2541 2989 10 2 0
62 21 1156 1689 10 0 313
63 -21 1822 2321 10 14 0
64 29 153 677 10 0 22
65 17 827 1285 10 0 377
66 -4 1667 2207 10 129 0
67 23 618 1058 10 0 16
68 25 1101 1500 10 0 3
69 -32 1421 1970 10 95 0
70 5 700 1262 10 0 345
71 -15 2415 2989 10 384 0
72 31 1555 2060 10 0 243
73 24 1283 1822 10 0 161
74 -20 289 716 10 102 0
75 -8 1395 1819 10 103 0
76 10 1012 1592 10 0 244
77 -33 351 848 10 333 0
78 -6 988 1432 10 248 0
79 31 27 407 10 0 311
80 -17 1355 1832 10 342 0
81 16 154 569 10 0 216
82 -4 2408 2896 10 183 0
83 -2 1173 1664 10 30 0
84 31 1019 1434 10 0 125
85 10 552 1028 10 0 106
86 -19 1766 2157 10 111 0
87 24 566 1124 10 0 338
88 -12 1166 1612 10 130 0
89 -20 2717 3191 10 192 0
90 -24 1561 1928 10 13 0
91 -34 941 1516 10 292 0
92 -23 1272 1737 10 282 0
93 -27 65 476 10 303 0
94 13 1409 1905 10 0 359
95 32 1243 1681 10 0 69
96 13 172 608 10 0 388
97 15 839 1410 10 0 305
98 -13 1478 2019 10 321 0
99 17 49 490 10 0 326
100 -10 2376 2911 10 202 0
101 -26 1121 1575 10 118 0
102 20 24 494 10 0 74
103 8 224 614 10 0 75
104 13 1623 2049 10 0 364
105 -48 1233 1695 10 316 0
106 -10 889 1391 10 85 0
107 -14 1299 1704 10 327 0
108 17 2271 2695 0 0 405
109 25 1512 1974 10 0 294
110 -22 560 905 10 128 0
111 19 725 1236 10 0 86
112 14 395 951 10 0 35
113 9 1745 2189 10 0 267
114 -22 33 566 10 170 0
115 21 311 800 10 0 201
116 20 1044 1517 10 0 336
117 19 864 1326 10 0 50
118 26 1159 1567 10 0 101
119 -7 270 750 10 184 0
120 -19 624 1199 10 332 0
121 -9 1393 1875 10 307 0
122 11 375 852 10 0 135
123 -19 1895 2315 10 214 0
124 -19 1806 2370 10 171 0
125 -31 1171 1668 10 84 0
126 -11 529 994 10 9 0
127 11 181 717 10 0 204
128 22 32 517 10 0 110
129 4 961 1385 10 0 66
130 12 703 1179 10 0 88
131 -26 1123 1586 10 290 0
132 1 423 799 10 0 356
133 -21 1800 2312 10 366 0
134 -13 2114 2583 10 253 0
135 -11 915 1472 10 122 0
136 11 532 976 10 0 139
137 8 1545 1963 10 0 263
138 -1 77 550 10 320 0
139 -11 1278 1743 10 136 0
140 27 402 915 10 0 187
141 -23 2197 2709 10 12 0
142 9 49 511 10 0 387
143 19 541 1074 10 0 291
144 14 935 1359 10 0 20
145 18 69 536 10 0 149
146 46 913 1400 10 0 352
147 21 837 1294 10 0 286
148 -17 1094 1579 10 277 0
149 -18 1483 2020 10 145 0
150 -35 1224 1637 10 386 0
151 10 1077 1453 10 0 158
152 23 1528 1931 10 0 344
153 -15 1721 2142 10 233 0
154 11 763 1282 10 0 26
155 14 1757 2363 10 0 19
156 21 25 427 10 0 370
157 -43 930 1482 10 210 0
158 -10 2082 2481 10 151 0
159 3 351 845 10 0 47
160 -28 1197 1720 10 350 0
161 -24 2112 2557 10 73 0
162 30 1042 1643 10 0 334
163 7 36 523 10 0 23
164 -17 1250 1782 10 365 0
165 18 85 602 10 0 234
166 13 237 681 10 0 55
167 9 4 494 10 0 200
168 7 505 993 10 0 181
169 41 695 1176 10 0 44
170 22 31 632 10 0 114
171 19 1951 2477 10 0 124
172 -26 2161 2693 10 268 0
173 -26 211 727 10 383 0
174 3 1352 1758 10 0 218
175 19 511 931 10 0 38
176 19 1280 1711 10 0 212
177 -39 1914 2374 10 262 0
178 -22 1808 2272 10 188 0
179 12 157 595 10 0 269
180 17 1974 2312 10 0 400
181 -7 885 1390 10 168 0
182 -28 24 498 10 4 0
183 4 2325 2797 10 0 82
184 7 71 611 10 0 119
185 -22 349 749 10 323 0
186 -15 765 1304 10 191 0
187 -27 1677 1967 10 140 0
188 22 1598 2012 10 0 178
189 -21 1873 2391 10 343 0
190 -13 697 1158 10 381 0
191 15 47 554 10 0 186
192 20 2024 2527 10 0 89
193 29 11 485 10 0 221
194 24 748 1186 10 0 304
195 16 284 783 10 0 48
196 -18 1029 1646 10 312 0
197 10 1418 1841 10 0 33
198 -11 350 786 10 259 0
199 7 1840 2339 10 0 245
200 -9 67 632 10 167 0
201 -21 391 846 10 115 0
202 10 69 643 10 0 100
203 -6 1663 2095 10 385 0
204 -11 601 1136 10 127 0
205 10 1513 1842 0 0 402
206 13 653 1100 10 0 306
207 13 70 525 10 0 42
208 -10 787 1197 10 283 0
209 22 276 586 10 0 34
210 43 678 1075 10 0 157
211 -18 1802 2142 10 288 0
212 -19 2387 2795 10 176 0
213 12 688 1139 10 0 250
214 19 1473 1910 10 0 123
215 -32 626 1073 10 368 0
216 -16 500 937 10 81 0
217 20 110 653 10 0 274
218 -3 1959 2360 10 174 0
219 2 1158 1626 10 0 260
220 22 140 610 10 0 299
221 -29 990 1447 10 193 0
222 -26 989 1497 10 246 0
223 13 143 716 10 0 324
224 19 2265 2662 0 0 403
225 -16 2323 2803 10 330 0
226 -15 1629 2079 10 53 0
227 -32 1091 1633 10 27 0
228 13 1748 2203 10 0 395
229 29 711 1185 10 0 32
230 33 2091 2563 10 0 15
231 -21 1055 1558 10 239 0
232 15 1233 1736 10 0 284
233 15 1256 1844 10 0 153
234 -18 578 1110 10 165 0
235 -18 2152 2536 10 329 0
236 -10 1252 1755 10 295 0
237 -7 2022 2557 10 29 0
238 18 37 521 10 0 40
239 21 25 500 10 0 231
240 19 1642 2114 10 0 24
241 -10 2139 2690 10 302 0
242 2 2359 2829 10 0 43
243 -31 1678 2075 10 72 0
244 -10 2073 2560 10 76 0
245 -7 1801 2375 10 199 0
246 26 304 858 10 0 222
247 -2 542 1104 10 39 0
248 6 268 748 10 0 78
249 -24 2075 2537 10 315 0
250 -12 1597 2042 10 213 0
251 -20 1538 1999 10 372 0
252 2 1088 1633 10 0 354
253 13 943 1399 10 0 134
254 17 1695 2249 10 0 279
255 -7 2353 2813 10 339 0
256 8 782 1112 10 0 314
257 -30 2656 3148 10 331 0
258 -22 1800 2333 10 358 0
259 11 110 601 10 0 198
260 -2 1974 2455 10 219 0
261 22 45 483 10 0 392
262 39 1698 2160 10 0 177
263 -8 1966 2557 10 137 0
264 -23 808 1217 10 360 0
265 -6 1931 2480 10 298 0
266 23 8 497 10 0 362
267 -9 1761 2184 10 113 0
268 26 261 850 10 0 172
269 -12 1749 2124 10 179 0
270 -19 511 933 10 371 0
271 -29 1571 2084 10 318 0
272 -15 1560 2000 10 300 0
273 20 1524 1942 10 0 390
274 -20 963 1458 10 217 0
275 -17 499 825 10 397 0
276 27 355 842 10 0 335
277 17 556 1105 10 0 148
278 21 23 533 10 0 57
279 -17 2155 2639 10 254 0
280 29 273 805 10 0 17
281 -11 1848 2348 10 322 0
282 23 477 1026 10 0 92
283 10 975 1451 10 0 208
284 -15 1663 2152 10 232 0
285 9 2189 2705 10 0 399
286 -21 1443 1899 10 147 0
287 -23 2282 2787 10 396 0
288 18 1394 1868 10 0 211
289 15 1508 1929 10 0 59
290 26 29 380 10 0 131
291 -19 1611 2122 10 143 0
292 34 28 475 10 0 91
293 -9 1060 1528 10 49 0
294 -25 1986 2374 10 109 0
295 10 687 1207 10 0 236
296 15 2315 2805 0 0 404
297 -22 889 1339 10 376 0
298 6 1584 2115 10 0 265
299 -22 1069 1520 10 220 0
300 15 306 711 10 0 272
301 16 116 674 10 0 51
302 10 559 997 10 0 241
303 27 31 491 10 0 93
304 -24 1007 1563 10 194 0
305 -15 2546 2952 10 97 0
306 -13 1257 1724 10 206 0
307 9 950 1407 10 0 121
308 26 1690 2197 10 0 393
309 30 651 1094 10 0 31
310 22 1779 2249 10 0 346
311 -31 832 1308 10 79 0
312 18 537 1025 10 0 196
313 -21 1952 2387 10 62 0
314 -8 1278 1804 10 256 0
315 24 1775 2299 10 0 249
316 48 648 1145 10 0 105
317 21 48 560 10 0 382
318 29 773 1188 10 0 271
319 21 146 649 10 0 391
320 1 141 616 10 0 138
321 13 1479 1944 10 0 98
322 11 1289 1790 10 0 281
323 22 169 662 10 0 185
324 -13 558 1066 10 223 0
325 -15 704 1225 10 394 0
326 -17 2002 2582 10 99 0
327 14 695 1215 10 0 107
328 12 330 761 10 0 341
329 18 1571 2006 10 0 235
330 16 1792 2320 10 0 225
331 30 2473 3013 10 0 257
332 19 911 1305 10 0 120
333 33 222 793 10 0 77
334 -30 899 1392 10 162 0
335 -27 1529 2030 10 276 0
336 -20 1889 2483 10 116 0
337 -11 1914 2405 10 11 0
338 -24 783 1252 10 87 0
339 7 1986 2464 10 0 255
340 -18 712 1087 10 348 0
341 -12 1300 1807 10 328 0
342 17 868 1413 10 0 80
343 21 1005 1371 10 0 189
344 -23 2099 2479 10 152 0
345 -5 1354 1828 10 70 0
346 -22 2092 2549 10 310 0
347 7 23 501 10 0 389
348 18 449 907 10 0 340
349 -23 1105 1673 10 373 0
350 28 1026 1625 10 0 160
351 25 19 511 10 0 45
352 -46 1042 1527 10 146 0
353 -13 1051 1392 10 18 0
354 -2 1173 1531 10 252 0
355 -32 1191 1540 10 379 0
356 -1 45 637 10 132 0
357 18 140 598 10 0 6
358 22 1698 2189 10 0 258
359 -13 1677 2049 10 94 0
360 23 593 1148 10 0 264
361 30 77 621 10 0 41
362 -23 819 1262 10 266 0
363 -6 254 698 10 46 0
364 -13 1418 1952 10 104 0
365 17 874 1389 10 0 164
366 21 1530 1965 10 0 133
367 9 944 1469 10 0 374
368 32 741 1112 10 0 215
369 -16 1360 1839 10 56 0
370 -21 909 1372 10 156 0
371 19 61 574 10 0 270
372 20 1299 1648 10 0 251
373 23 355 790 10 0 349
374 -9 2058 2538 10 367 0
375 19 693 1092 10 0 8
376 22 172 526 10 0 297
377 -17 2112 2616 10 65 0
378 -11 1163 1661 10 401 0
379 32 147 600 10 0 355
380 -14 902 1419 10 25 0
381 13 268 753 10 0 190
382 -21 61 590 10 317 0
383 26 112 648 10 0 173
384 15 1936 2417 10 0 71
385 6 816 1188 10 0 203
386 35 23 475 10 0 150
387 -9 208 708 10 142 0
388 -13 157 588 10 96 0
389 -7 839 1407 10 347 0
390 -20 2020 2500 10 273 0
391 -21 1717 2225 10 319 0
392 -22 1845 2294 10 261 0
393 -26 2420 2901 10 308 0
394 15 556 870 10 0 325
395 -13 1951 2427 10 228 0
396 23 68 536 10 0 287
397 17 538 944 10 0 275
398 14 55 530 10 0 10
399 -9 2296 2714 10 285 0
400 -17 2214 2647 10 180 0
401 11 96 592 10 0 378
402 -10 1513 1842 10 205 0
403 -19 2265 2662 10 224 0
404 -15 2315 2805 10 296 0
405 -17 2271 2695 10 108 0
DEPOT_SECTION
1
-1
EOF
