NAME: lr2_4_4
TYPE: PDPTW
COMMENT: Li & Lim PDPTW benchmark converted from SINTEF format
DIMENSION: 405
VEHICLES: 100
CAPACITY: 1000
EDGE_WEIGHT_TYPE: EUC_2D
NODE_COORD_SECTION
1 100 100
2 150 26
3 84 188
4 83 112
5 191 124
6 112 174
7 146 166
8 45 95
9 81 183
10 10 60
11 142 27
12 184 110
13 28 127
14 67 127
15 16 141
16 148 157
17 154 184
18 8 89
19 74 163
20 25 48
21 58 19
22 95 50
23 130 149
24 78 118
25 86 69
26 5 122
27 155 17
28 146 3
29 76 93
30 191 138
31 28 160
32 114 153
33 70 28
34 90 4
35 53 175
36 84 81
37 118 139
38 118 45
39 103 25
40 107 133
41 129 176
42 186 149
43 73 81
44 9 122
45 168 146
46 172 161
47 15 197
48 26 41
49 78 72
50 112 6
51 135 171
52 39 151
53 46 40
54 138 72
55 53 79
56 75 134
57 66 3
58 153 19
59 17 32
60 59 139
61 100 53
62 46 131
63 111 189
64 62 15
65 100 144
66 70 130
67 97 192
68 85 193
69 197 29
70 113 100
71 71 114
72 120 39
73 125 53
74 172 186
75 138 31
76 37 146
77 12 131
78 1 54
79 101 127
80 42 165
81 149 176
82 126 100
83 148 196
84 78 136
85 145 71
86 179 95
87 124 191
88 38 101
89 104 88
90 57 118
91 182 9
92 7 119
93 85 164
94 6 193
95 154 7
96 180 66
97 83 180
98 130 55
99 149 103
100 54 37
101 178 88
102 118 117
103 82 48
104 80 190
105 74 55
106 108 141
107 77 119
108 114 112
109 156 93
110 143 103
111 104 176
112 63 141
113 159 187
114 125 78
115 136 12
116 199 123
117 154 29
118 177 134
119 121 50
120 114 122
121 161 158
122 8 8
123 144 92
124 41 43
125 113 151
126 39 186
127 60 153
128 131 92
129 53 180
130 28 77
131 186 8
132 40 130
133 71 131
134 158 20
135 121 48
136 45 55
137 50 135
138 152 122
139 46 5
140 32 47
141 111 98
142 138 69
143 171 69
144 125 34
145 94 31
146 29 121
147 20 72
148 179 151
149 18 59
150 162 162
151 152 190
152 66 196
153 45 142
154 36 104
155 63 44
156 83 81
157 172 66
158 151 180
159 109 48
160 64 156
161 85 85
162 157 196
163 135 110
164 59 24
165 175 60
166 127 39
167 103 97
168 71 145
169 40 115
170 114 72
171 62 38
172 110 110
173 51 162
174 193 12
175 19 51
176 178 61
177 161 3
178 63 116
179 151 179
180 88 143
181 32 190
182 76 102
183 139 97
184 101 29
185 176 134
186 60 71
187 137 10
188 17 166
189 75 170
190 90 174
191 122 58
192 113 14
193 98 89
194 59 83
195 44 10
196 97 9
197 116 52
198 155 22
199 193 127
200 154 59
201 122 13
202 70 37
203 172 55
204 98 193
205 46 22
206 188 70
207 157 142
208 63 192
209 88 15
210 189 83
211 110 8
212 171 36
213 65 42
214 113 158
215 51 112
216 151 132
217 50 31
218 181 70
219 12 113
220 20 113
221 125 49
222 27 97
223 116 4
224 136 111
225 104 142
226 112 42
227 145 19
228 23 168
229 168 58
230 3 101
231 137 59
232 184 140
233 48 94
234 198 16
235 26 197
236 84 180
237 31 79
238 136 90
239 123 90
240 62 152
241 10 20
242 66 98
243 19 38
244 69 150
245 181 156
246 39 112
247 104 5
248 41 16
249 172 179
250 122 38
251 89 176
252 74 67
253 197 7
254 24 197
255 131 136
256 26 45
257 47 118
258 20 59
259 151 66
260 86 110
261 55 100
262 186 65
263 63 151
264 159 196
265 179 5
266 107 96
267 139 158
268 5 162
269 173 147
270 121 46
271 144 59
272 196 126
273 134 157
274 135 45
275 88 152
276 41 186
277 183 170
278 103 77
279 97 129
280 147 193
281 158 81
282 48 106
283 78 169
284 174 194
285 152 68
286 1 149
287 18 35
288 123 59
289 137 41
290 115 75
291 124 165
292 112 78
293 24 131
294 116 118
295 80 167
296 62 138
297 195 132
298 149 78
299 38 183
300 174 185
301 35 160
302 32 23
303 111 129
304 32 166
305 13 139
306 158 132
307 188 194
308 92 178
309 55 87
310 86 150
311 114 183
312 42 72
313 56 148
314 115 50
315 200 162
316 69 64
317 108 148
318 35 9
319 99 45
320 125 180
321 142 60
322 181 39
323 165 181
324 87 30
325 176 58
326 168 119
327 198 97
328 89 153
329 67 70
330 28 187
331 42 144
332 138 61
333 11 118
334 143 179
335 182 89
336 141 146
337 12 15
338 184 101
339 127 143
340 137 158
341 25 165
342 22 61
343 41 73
344 23 74
345 159 129
346 68 115
347 98 77
348 126 199
349 28 15
350 68 156
351 94 119
352 31 63
353 23 123
354 105 26
355 60 184
356 69 133
357 141 132
358 56 19
359 110 184
360 178 127
361 75 173
362 113 105
363 165 156
364 109 197
365 55 51
366 37 177
367 30 183
368 49 99
369 143 116
370 30 67
371 89 39
372 23 176
373 127 60
374 6 120
375 65 77
376 108 187
377 159 105
378 176 132
379 7 108
380 34 145
381 42 174
382 63 149
383 57 157
384 56 90
385 148 38
386 119 113
387 164 37
388 173 42
389 106 41
390 155 107
391 49 71
392 40 95
393 5 130
394 182 110
395 68 191
396 68 40
397 64 123
398 109 45
399 109 85
400 42 148
401 67 138
402 125 78
403 67 127
404 74 163
405 172 161
PICKUP_AND_DELIVERY_SECTION
1 0 0 3213 0 0 0
2 16 0 3114 10 0 209
3 17 0 3114 10 0 242
4 28 0 3183 10 0 60
5 -6 0 3109 10 297 0
6 -31 277 403 10 79 0
7 -2 1466 1586 10 125 0
8 15 0 3148 10 0 391
9 -26 0 3118 10 308 0
10 -14 0 3105 10 78 0
11 11 0 3119 10 0 211
12 -33 0 3119 10 226 0
13 -20 0 3127 10 15 0
14 21 110 232 0 0 403
15 20 0 3110 10 0 13
16 21 0 3129 10 0 303
17 -19 0 3104 10 214 0
18 -30 0 3111 10 92 0
19 21 2548 2692 0 0 404
20 11 0 3112 10 0 318
21 -14 736 838 10 48 0
22 -20 0 3153 10 192 0
23 17 0 3146 10 0 40
24 28 0 3175 10 0 347
25 14 678 848 10 0 136
26 15 0 3106 10 0 77
27 32 0 3104 10 0 165
28 24 0 3096 10 0 166
29 -11 0 3178 10 352 0
30 -19 0 3105 10 332 0
31 -24 0 3110 10 341 0
32 23 1448 1488 10 0 340
33 -21 1979 2131 10 115 0
34 22 0 3107 10 0 339
35 -15 0 3115 10 395 0
36 11 0 3179 10 0 64
37 -24 0 3161 10 121 0
38 -16 0 3146 10 195 0
39 2 0 3128 10 0 270
40 -17 0 3170 10 23 0
41 -21 591 690 10 317 0
42 25 359 525 10 0 204
43 -7 0 3170 10 370 0
44 -13 1464 1670 10 181 0
45 19 0 3121 10 0 245
46 6 0 3109 0 0 405
47 10 2415 2515 10 0 286
48 14 569 696 10 0 21
49 9 0 3168 10 0 377
50 -18 0 3109 10 145 0
51 27 694 734 10 0 109
52 -16 0 3124 10 301 0
53 15 0 3123 10 0 139
54 8 0 3156 10 0 96
55 14 1838 2057 10 0 258
56 16 0 3161 10 0 366
57 9 0 3101 10 0 324
58 3 0 3107 10 0 69
59 -1 0 3096 10 132 0
60 -28 0 3147 10 4 0
61 -14 0 3156 10 144 0
62 -17 1333 1511 10 397 0
63 -15 0 3114 10 300 0
64 -11 0 3110 10 36 0
65 17 0 3159 10 0 334
66 8 0 3161 10 0 173
67 -24 0 3111 10 87 0
68 -7 0 3109 10 163 0
69 -3 0 3083 10 58 0
70 -6 0 3190 10 264 0
71 -15 0 3171 10 153 0
72 -6 0 3139 10 385 0
73 -3 0 3150 10 159 0
74 -8 0 3091 10 284 0
75 10 0 3125 10 0 196
76 10 0 3125 10 0 193
77 -15 528 671 10 26 0
78 14 0 3094 10 0 10
79 31 0 3176 10 0 6
80 -4 1538 1648 10 129 0
81 16 0 3113 10 0 267
82 -14 0 3177 10 158 0
83 13 0 3096 10 0 152
84 -25 0 3161 10 351 0
85 -22 0 3150 10 128 0
86 19 0 3124 10 0 390
87 24 795 896 10 0 67
88 10 1308 1470 10 0 287
89 -22 0 3191 10 170 0
90 -17 0 3157 10 189 0
91 -23 0 3081 10 266 0
92 30 0 3109 10 0 18
93 23 0 3138 10 0 361
94 -17 0 3071 10 277 0
95 32 0 3096 10 0 265
96 -8 0 3117 10 54 0
97 -18 0 3122 10 190 0
98 28 1669 1828 10 0 278
99 17 158 234 10 0 306
100 -33 2613 2674 10 230 0
101 23 0 3125 10 0 386
102 -18 0 3179 10 255 0
103 8 0 3148 10 0 336
104 -29 0 3111 10 280 0
105 -16 0 3152 10 243 0
106 13 0 3162 10 0 172
107 17 0 3174 10 0 155
108 -19 2439 2526 10 224 0
109 -27 0 3147 10 51 0
110 -20 0 3160 10 273 0
111 19 0 3127 10 0 141
112 -11 0 3148 10 401 0
113 9 0 3098 10 0 348
114 11 0 3170 0 0 402
115 21 0 3108 10 0 33
116 -17 0 3102 10 338 0
117 19 1037 1153 10 0 221
118 -10 0 3119 10 378 0
119 -22 0 3149 10 358 0
120 10 0 3177 10 0 294
121 24 0 3119 10 0 37
122 -18 0 3073 10 312 0
123 -24 0 3159 10 291 0
124 30 0 3121 10 0 231
125 2 0 3151 10 0 7
126 5 678 845 10 0 304
127 -13 0 3137 10 275 0
128 22 108 148 10 0 85
129 4 0 3111 10 0 80
130 12 0 3128 10 0 147
131 -11 0 3078 10 203 0
132 1 553 668 10 0 59
133 11 0 3161 10 0 331
134 -6 0 3105 10 212 0
135 17 1111 1275 10 0 272
136 -14 726 782 10 25 0
137 -12 0 3142 10 328 0
138 25 0 3147 10 0 315
139 -15 0 3094 10 53 0
140 -10 0 3117 10 202 0
141 -19 0 3192 10 111 0
142 9 203 321 10 0 206
143 -22 0 3126 10 177 0
144 14 0 3133 10 0 61
145 18 203 351 10 0 50
146 46 1057 1256 10 0 219
147 -12 0 3119 10 130 0
148 20 0 3109 10 0 151
149 -20 0 3112 10 313 0
150 -34 0 3116 10 292 0
151 -20 0 3100 10 148 0
152 -13 1648 1811 10 83 0
153 15 0 3134 10 0 71
154 11 0 3139 10 0 333
155 -17 0 3136 10 107 0
156 21 0 3178 10 0 327
157 -11 0 3124 10 322 0
158 14 0 3109 10 0 82
159 3 0 3151 10 0 73
160 -12 0 3137 10 236 0
161 -25 2281 2388 10 218 0
162 30 1292 1394 10 0 298
163 7 125 166 10 0 68
164 -10 0 3117 10 302 0
165 -32 0 3118 10 27 0
166 -24 0 3137 10 28 0
167 9 0 3199 10 0 184
168 7 0 3150 10 0 283
169 -32 890 981 10 379 0
170 22 0 3172 10 0 89
171 19 0 3131 10 0 335
172 -13 0 3189 10 106 0
173 -8 0 3124 10 66 0
174 -24 0 3075 10 198 0
175 -25 0 3109 10 374 0
176 -29 1478 1514 10 229 0
177 22 0 3089 10 0 143
178 -17 0 3163 10 244 0
179 12 0 3109 10 0 357
180 17 0 3159 10 0 263
181 13 1095 1181 10 0 44
182 -23 0 3179 10 257 0
183 -1 0 3164 10 320 0
184 -9 0 3132 10 167 0
185 -23 0 3120 10 360 0
186 22 0 3154 10 0 343
187 21 0 3106 10 0 363
188 -7 0 3097 10 355 0
189 17 0 3129 10 0 90
190 18 0 3129 10 0 97
191 15 0 3156 10 0 232
192 20 2197 2355 10 0 22
193 -10 0 3192 10 76 0
194 24 0 3159 10 0 222
195 16 0 3097 10 0 38
196 -10 0 3112 10 75 0
197 10 0 3153 10 0 398
198 24 0 3108 10 0 174
199 -15 0 3107 10 394 0
200 -43 0 3136 10 210 0
201 -14 0 3114 10 314 0
202 10 0 3134 10 0 140
203 11 0 3119 10 0 131
204 -25 0 3110 10 42 0
205 10 0 3109 10 0 344
206 -9 834 920 10 142 0
207 13 0 3133 10 0 364
208 -13 913 1070 10 251 0
209 -16 0 3118 10 2 0
210 43 0 3113 10 0 200
211 -11 1945 1999 10 11 0
212 6 0 3108 10 0 134
213 12 0 3136 10 0 396
214 19 0 3144 10 0 17
215 -22 0 3153 10 323 0
216 6 0 3143 10 0 228
217 -32 0 3118 10 368 0
218 25 0 3117 10 0 161
219 -46 1317 1467 10 146 0
220 -15 0 3122 10 296 0
221 -19 0 3147 10 117 0
222 -24 1176 1309 10 194 0
223 -26 403 456 10 290 0
224 19 0 3166 10 0 108
225 -3 2504 2623 10 399 0
226 33 0 3144 10 0 12
227 20 1281 1442 10 0 250
228 -6 1914 2037 10 216 0
229 29 0 3124 10 0 176
230 33 2270 2385 10 0 100
231 -30 0 3148 10 124 0
232 -15 0 3110 10 191 0
233 15 0 3151 10 0 282
234 18 0 3074 10 0 325
235 17 0 3081 10 0 268
236 12 0 3122 10 0 160
237 -30 0 3131 10 309 0
238 -21 124 174 10 239 0
239 21 25 203 10 0 238
240 -26 1807 1949 10 383 0
241 14 0 3083 10 0 349
242 -17 2537 2650 10 3 0
243 16 0 3101 10 0 105
244 17 2262 2371 10 0 178
245 -19 0 3105 10 45 0
246 26 550 612 10 0 248
247 -15 0 3108 10 289 0
248 -26 0 3101 10 246 0
249 -7 2275 2336 10 274 0
250 -20 0 3138 10 227 0
251 13 0 3127 10 0 208
252 2 0 3161 10 0 256
253 13 0 3069 10 0 271
254 -10 0 3080 10 299 0
255 18 0 3156 10 0 102
256 -2 0 3111 10 252 0
257 23 0 3148 10 0 182
258 -14 2008 2124 10 55 0
259 11 0 3142 10 0 262
260 -17 2170 2259 10 342 0
261 22 0 3158 10 0 375
262 -11 1869 1989 10 259 0
263 -17 0 3140 10 180 0
264 6 951 1074 10 0 70
265 -32 0 3080 10 95 0
266 23 0 3195 10 0 91
267 -16 0 3134 10 81 0
268 -17 0 3090 10 235 0
269 19 0 3117 10 0 307
270 -2 0 3146 10 39 0
271 -13 0 3143 10 253 0
272 -17 1721 1839 10 135 0
273 20 0 3137 10 0 110
274 7 0 3138 10 0 249
275 13 598 726 10 0 127
276 27 0 3099 10 0 305
277 17 0 3095 10 0 94
278 -28 0 3180 10 98 0
279 11 0 3174 10 0 369
280 29 0 3099 10 0 104
281 -13 0 3142 10 389 0
282 -15 0 3151 10 233 0
283 -7 0 3131 10 168 0
284 8 0 3084 10 0 74
285 -18 0 3142 10 288 0
286 -10 0 3093 10 47 0
287 -10 2473 2596 10 88 0
288 18 0 3156 10 0 285
289 15 0 3134 10 0 247
290 26 0 3174 10 0 223
291 24 0 3134 10 0 123
292 34 0 3178 10 0 150
293 -25 0 3121 10 392 0
294 -10 0 3179 10 120 0
295 -8 0 3134 10 356 0
296 15 0 3150 10 0 220
297 6 0 3103 10 0 5
298 -30 1782 1916 10 162 0
299 10 0 3100 10 0 254
300 15 0 3091 10 0 63
301 16 0 3115 10 0 52
302 10 0 3101 10 0 164
303 -21 0 3172 10 16 0
304 -5 0 3109 10 126 0
305 -27 0 3108 10 276 0
306 -17 0 3137 10 99 0
307 -19 0 3075 10 269 0
308 26 0 3125 10 0 9
309 30 0 3157 10 0 237
310 22 0 3152 10 0 350
311 35 1039 1101 10 0 330
312 18 723 840 10 0 122
313 20 0 3138 10 0 149
314 14 0 3151 10 0 201
315 -25 0 3086 10 138 0
316 -15 0 3156 10 393 0
317 21 113 276 10 0 41
318 -11 0 3092 10 20 0
319 -19 0 3148 10 387 0
320 1 0 3120 10 0 183
321 -19 0 3145 10 371 0
322 11 0 3102 10 0 157
323 22 0 3100 10 0 215
324 -9 0 3132 10 57 0
325 -18 925 1004 10 234 0
326 -23 2261 2322 10 373 0
327 -21 0 3105 10 156 0
328 12 459 631 10 0 137
329 -17 1736 1841 10 365 0
330 -35 2003 2109 10 311 0
331 -11 2675 2810 10 133 0
332 19 0 3149 10 0 30
333 -11 0 3113 10 154 0
334 -17 0 3114 10 65 0
335 -19 0 3121 10 171 0
336 -8 2120 2253 10 103 0
337 -15 0 3081 10 384 0
338 17 0 3119 10 0 116
339 -22 2191 2259 10 34 0
340 -23 0 3135 10 32 0
341 24 1506 1601 10 0 31
342 17 0 3116 10 0 260
343 -22 0 3139 10 186 0
344 -10 0 3122 10 205 0
345 -23 0 3138 10 362 0
346 -17 0 3168 10 382 0
347 -28 0 3180 10 24 0
348 -9 626 730 10 113 0
349 -14 1328 1449 10 241 0
350 -22 0 3139 10 310 0
351 25 19 140 10 0 84
352 11 0 3125 10 0 29
353 -9 1156 1287 10 367 0
354 -3 0 3129 10 388 0
355 7 1309 1423 10 0 188
356 8 146 216 10 0 295
357 -12 0 3151 10 179 0
358 22 0 3111 10 0 119
359 10 0 3119 10 0 376
360 23 0 3121 10 0 185
361 -23 0 3126 10 93 0
362 23 0 3190 10 0 345
363 -21 0 3118 10 187 0
364 -13 1629 1742 10 207 0
365 17 0 3137 10 0 329
366 -16 0 3104 10 56 0
367 9 0 3095 10 0 353
368 32 0 3152 10 0 217
369 -11 1568 1630 10 279 0
370 7 0 3126 10 0 43
371 19 0 3142 10 0 321
372 20 1368 1580 10 0 400
373 23 0 3155 10 0 326
374 25 2225 2370 10 0 175
375 -22 886 900 10 261 0
376 -10 0 3116 10 359 0
377 -9 2303 2425 10 49 0
378 10 1367 1457 10 0 118
379 32 329 417 10 0 169
380 -13 1080 1240 10 381 0
381 13 0 3109 10 0 380
382 17 222 378 10 0 346
383 26 0 3132 10 0 240
384 15 0 3158 10 0 337
385 6 949 1055 10 0 72
386 -23 0 3180 10 101 0
387 19 408 507 10 0 319
388 3 0 3110 10 0 354
389 13 0 3144 10 0 281
390 -19 0 3148 10 86 0
391 -15 0 3145 10 8 0
392 25 0 3143 10 0 293
393 15 0 3104 10 0 316
394 15 0 3121 10 0 199
395 15 0 3107 10 0 35
396 -12 208 336 10 213 0
397 17 682 801 10 0 62
398 -10 129 316 10 197 0
399 3 0 3186 10 0 225
400 -20 0 3128 10 372 0
401 11 321 366 10 0 112
402 -11 0 3170 10 114 0
403 -21 110 232 10 14 0
404 -21 2548 2692 10 19 0
405 -6 0 3109 10 46 0
DEPOT_SECTION
1
-1
EOF
