NAME: lrc1_4_8
TYPE: PDPTW
COMMENT: Li & Lim PDPTW benchmark converted from SINTEF format
DIMENSION: 417
VEHICLES: 100
CAPACITY: 200
EDGE_WEIGHT_TYPE: EUC_2D
NODE_COORD_SECTION
1 100 100
2 134 6
3 63 58
4 64 52
5 139 7
6 110 8
7 79 193
8 80 190
9 158 81
10 60 153
11 141 8
12 13 81
13 68 115
14 151 132
15 88 143
16 16 84
17 155 17
18 69 150
19 55 87
20 22 133
21 10 20
22 187 142
23 114 122
24 78 119
25 199 115
26 185 124
27 46 22
28 7 152
29 144 92
30 5 162
31 197 113
32 189 95
33 84 118
34 28 77
35 105 26
36 113 100
37 139 97
38 143 179
39 111 189
40 119 37
41 87 191
42 80 167
43 23 137
44 181 70
45 178 123
46 45 142
47 151 66
48 68 50
49 159 196
50 87 30
51 187 92
52 10 153
53 54 30
54 54 37
55 180 147
56 154 59
57 93 13
58 38 190
59 104 88
60 78 169
61 127 143
62 24 131
63 82 194
64 165 117
65 23 176
66 55 24
67 148 157
68 186 91
69 26 138
70 78 184
71 165 181
72 11 151
73 103 66
74 188 125
75 197 140
76 100 70
77 83 118
78 66 58
79 83 188
80 12 154
81 158 20
82 161 158
83 41 186
84 162 162
85 89 176
86 86 69
87 20 72
88 41 182
89 178 147
90 140 11
91 60 51
92 100 6
93 18 89
94 85 110
95 37 146
96 181 89
97 26 147
98 52 38
99 131 136
100 46 131
101 35 160
102 187 97
103 172 179
104 156 93
105 85 164
106 17 32
107 175 60
108 82 48
109 62 50
110 137 1
111 140 4
112 143 0
113 198 132
114 25 146
115 137 10
116 15 88
117 38 183
118 121 48
119 62 15
120 19 38
121 144 59
122 125 78
123 12 156
124 53 29
125 22 61
126 159 121
127 59 83
128 59 57
129 168 58
130 12 85
131 85 193
132 155 107
133 195 132
134 55 51
135 189 120
136 59 139
137 121 50
138 10 67
139 52 28
140 17 150
141 101 67
142 69 47
143 164 113
144 79 115
145 80 108
146 184 116
147 27 135
148 29 139
149 84 194
150 186 94
151 114 72
152 90 4
153 41 187
154 92 178
155 46 40
156 174 128
157 30 142
158 28 193
159 185 96
160 74 55
161 23 123
162 103 70
163 42 174
164 8 8
165 83 81
166 57 54
167 26 45
168 83 180
169 70 37
170 97 65
171 53 31
172 179 141
173 100 53
174 55 64
175 8 71
176 174 185
177 176 144
178 123 36
179 142 60
180 53 61
181 62 38
182 123 33
183 136 111
184 28 160
185 85 85
186 12 66
187 107 96
188 168 119
189 171 36
190 188 88
191 135 45
192 26 41
193 195 129
194 108 141
195 75 134
196 141 4
197 60 58
198 196 137
199 7 142
200 190 112
201 63 192
202 97 129
203 71 131
204 159 105
205 109 48
206 189 83
207 142 27
208 68 40
209 56 90
210 98 193
211 121 36
212 101 70
213 134 157
214 103 77
215 87 117
216 183 170
217 193 12
218 127 60
219 178 140
220 95 50
221 25 165
222 124 191
223 138 69
224 177 145
225 50 31
226 37 177
227 48 30
228 197 29
229 40 130
230 23 168
231 24 140
232 20 59
233 81 183
234 190 109
235 28 187
236 145 19
237 164 37
238 186 96
239 105 70
240 140 6
241 146 166
242 56 148
243 66 52
244 53 59
245 179 5
246 122 58
247 37 190
248 155 22
249 175 143
250 199 132
251 131 92
252 83 197
253 180 66
254 87 195
255 129 176
256 185 123
257 77 115
258 7 119
259 195 97
260 162 118
261 196 111
262 32 47
263 100 144
264 13 152
265 192 113
266 25 143
267 51 31
268 14 84
269 12 69
270 165 113
271 138 72
272 135 0
273 8 89
274 110 110
275 177 146
276 87 196
277 89 39
278 65 77
279 63 149
280 143 5
281 32 178
282 193 111
283 162 123
284 67 127
285 73 81
286 50 67
287 38 188
288 183 120
289 129 38
290 35 186
291 180 93
292 146 3
293 8 154
294 200 162
295 8 69
296 131 38
297 78 115
298 123 31
299 39 151
300 53 175
301 1 54
302 40 95
303 5 73
304 7 151
305 166 117
306 39 186
307 165 116
308 99 12
309 48 106
310 154 7
311 18 35
312 135 171
313 11 118
314 78 72
315 19 51
316 69 133
317 56 59
318 99 45
319 103 67
320 53 79
321 194 112
322 42 165
323 68 156
324 172 114
325 98 4
326 104 176
327 200 136
328 21 85
329 67 138
330 111 129
331 97 7
332 114 112
333 125 49
334 75 173
335 42 72
336 53 180
337 174 194
338 39 112
339 6 193
340 6 67
341 14 92
342 3 75
343 23 142
344 57 118
345 65 53
346 140 3
347 187 112
348 112 6
349 63 55
350 104 68
351 30 187
352 194 129
353 53 67
354 186 65
355 12 131
356 122 37
357 36 193
358 113 105
359 84 180
360 136 90
361 61 50
362 97 67
363 190 110
364 87 118
365 137 4
366 179 151
367 189 97
368 15 87
369 157 142
370 138 61
371 65 42
372 60 184
373 85 192
374 93 7
375 95 16
376 125 38
377 149 78
378 185 115
379 158 132
380 29 121
381 122 13
382 57 157
383 8 73
384 115 75
385 41 43
386 104 5
387 172 55
388 184 140
389 12 113
390 40 183
391 193 131
392 129 40
393 84 192
394 95 74
395 8 74
396 181 147
397 17 93
398 66 196
399 123 90
400 110 184
401 121 46
402 73 81
403 140 3
404 63 58
405 23 176
406 104 5
407 20 59
408 66 196
409 45 142
410 155 107
411 37 190
412 177 145
413 25 146
414 110 110
415 50 31
416 53 180
417 104 88
PICKUP_AND_DELIVERY_SECTION
1 0 0 765 0 0 0
2 -20 214 290 10 5 0
3 20 55 187 0 0 404
4 20 122 229 10 0 243
5 20 100 231 10 0 2
6 26 440 546 10 0 348
7 -30 154 255 10 334 0
8 -27 418 500 10 210 0
9 -39 464 585 10 354 0
10 11 66 160 10 0 382
11 20 100 197 10 0 189
12 -10 126 200 10 93 0
13 -20 510 650 10 266 0
14 6 144 216 10 0 67
15 -19 490 582 10 326 0
16 -23 131 245 10 309 0
17 32 99 301 10 0 237
18 -20 528 630 10 304 0
19 -10 145 291 10 130 0
20 -30 140 233 10 123 0
21 -10 512 635 10 94 0
22 -10 96 203 10 89 0
23 -23 180 275 10 187 0
24 30 57 116 10 0 279
25 -20 110 150 10 282 0
26 10 88 240 10 0 250
27 -10 364 475 10 66 0
28 -20 134 240 10 140 0
29 -11 469 584 10 47 0
30 -20 113 207 10 293 0
31 20 97 193 10 0 321
32 -20 102 196 10 367 0
33 20 45 180 10 0 105
34 -20 175 295 10 186 0
35 -30 254 421 10 308 0
36 -20 213 277 10 394 0
37 -43 577 704 10 206 0
38 24 217 356 10 0 213
39 -10 442 593 10 63 0
40 20 114 251 10 0 118
41 -10 91 188 10 393 0
42 10 197 276 10 0 263
43 20 111 235 10 0 355
44 -8 468 611 10 271 0
45 30 81 178 10 0 198
46 15 401 564 0 0 409
47 11 61 176 10 0 29
48 10 118 185 10 0 142
49 6 197 309 10 0 82
50 10 136 271 10 0 325
51 20 87 202 10 0 238
52 -20 104 276 10 264 0
53 10 95 235 10 0 124
54 -16 555 677 10 120 0
55 -20 95 225 10 177 0
56 -9 67 216 10 223 0
57 30 91 229 10 0 152
58 -27 109 241 10 83 0
59 25 590 743 0 0 417
60 10 260 346 10 0 323
61 7 507 606 10 0 99
62 -26 257 391 10 299 0
63 10 125 258 10 0 39
64 -20 67 207 10 260 0
65 20 310 426 0 0 405
66 10 88 230 10 0 27
67 -6 265 400 10 14 0
68 10 86 169 10 0 259
69 -10 153 254 10 147 0
70 20 172 275 10 0 149
71 22 103 221 10 0 216
72 -16 102 176 10 101 0
73 20 38 162 10 0 215
74 -20 91 198 10 143 0
75 -30 104 219 10 256 0
76 -21 30 163 10 214 0
77 20 45 158 10 0 364
78 20 108 321 10 0 127
79 30 89 253 10 0 131
80 10 103 224 10 0 100
81 -9 543 632 10 245 0
82 -6 339 478 10 49 0
83 27 104 233 10 0 58
84 -20 305 411 10 366 0
85 -11 357 528 10 233 0
86 14 113 268 10 0 353
87 -30 201 331 10 341 0
88 30 101 195 10 0 390
89 10 143 202 10 0 22
90 10 97 206 10 0 217
91 20 63 185 10 0 171
92 -8 94 216 10 108 0
93 10 82 286 10 0 12
94 10 18 122 10 0 21
95 -10 279 372 10 148 0
96 10 81 197 10 0 150
97 -10 87 226 10 297 0
98 -20 78 211 10 267 0
99 -7 555 708 10 61 0
100 -10 267 445 10 80 0
101 16 88 165 10 0 72
102 10 121 266 10 0 159
103 -24 521 631 10 294 0
104 -21 380 491 10 399 0
105 -20 65 138 10 33 0
106 -11 407 564 10 164 0
107 -22 85 182 10 251 0
108 8 55 154 10 0 92
109 -20 62 181 10 197 0
110 10 161 264 10 0 272
111 -3 105 188 10 205 0
112 10 141 251 10 0 115
113 10 103 234 10 0 327
114 30 87 253 0 0 413
115 -10 393 517 10 112 0
116 10 85 219 10 0 138
117 10 264 384 10 0 281
118 -20 233 363 10 40 0
119 29 93 233 10 0 385
120 16 428 510 10 0 54
121 18 397 516 10 0 179
122 11 33 142 10 0 178
123 30 104 230 10 0 20
124 -10 85 236 10 53 0
125 -20 237 333 10 145 0
126 20 107 242 10 0 283
127 -20 161 322 10 78 0
128 10 59 106 10 0 361
129 29 182 292 10 0 387
130 10 94 203 10 0 19
131 -30 280 370 10 79 0
132 10 518 612 0 0 410
133 6 190 367 10 0 188
134 17 204 361 10 0 160
135 -20 98 202 10 324 0
136 -7 279 393 10 372 0
137 -26 54 222 10 384 0
138 -10 95 217 10 116 0
139 -20 86 230 10 166 0
140 20 96 186 10 0 28
141 20 52 171 10 0 362
142 -10 61 237 10 48 0
143 20 65 165 10 0 74
144 -20 25 121 10 257 0
145 20 21 119 10 0 125
146 -10 110 246 10 288 0
147 10 140 293 10 0 69
148 10 81 219 10 0 95
149 -20 95 274 10 70 0
150 -10 86 219 10 96 0
151 22 31 59 10 0 370
152 -30 96 197 10 57 0
153 -8 105 187 10 316 0
154 -12 416 555 10 359 0
155 -12 223 312 10 371 0
156 20 79 225 10 0 275
157 10 81 215 10 0 242
158 -10 131 256 10 351 0
159 -10 163 268 10 102 0
160 -17 322 410 10 134 0
161 -20 246 365 10 199 0
162 10 30 125 10 0 319
163 -11 94 167 10 329 0
164 11 130 208 10 0 106
165 21 25 85 10 0 286
166 20 62 179 10 0 139
167 -27 161 313 10 262 0
168 15 231 331 10 0 202
169 -10 69 221 10 345 0
170 -20 83 169 10 212 0
171 -20 125 228 10 91 0
172 20 89 245 10 0 388
173 -19 594 708 10 277 0
174 30 57 200 10 0 185
175 -20 142 233 10 395 0
176 15 112 146 10 0 337
177 20 125 287 10 0 55
178 -11 73 188 10 122 0
179 -18 382 473 10 121 0
180 20 61 178 10 0 192
181 -23 506 601 10 208 0
182 20 83 204 10 0 381
183 19 565 666 10 0 332
184 -21 345 470 10 226 0
185 -30 538 630 10 174 0
186 20 94 185 10 0 34
187 23 8 100 10 0 23
188 -6 520 625 10 133 0
189 -20 592 660 10 11 0
190 20 88 215 10 0 291
191 -20 251 355 10 296 0
192 -20 94 281 10 180 0
193 40 145 220 10 0 391
194 13 237 334 10 0 358
195 16 42 170 10 0 300
196 20 108 230 10 0 292
197 20 58 185 10 0 109
198 -30 102 195 10 45 0
199 20 125 309 10 0 161
200 20 90 247 10 0 363
201 12 178 317 10 0 400
202 -15 532 667 10 168 0
203 -22 439 590 10 322 0
204 -20 533 649 10 305 0
205 3 81 218 10 0 111
206 43 183 255 10 0 37
207 -23 343 427 10 218 0
208 23 68 257 10 0 181
209 -25 447 642 10 302 0
210 27 144 291 10 0 8
211 20 67 285 10 0 298
212 20 30 178 10 0 170
213 -24 371 495 10 38 0
214 21 23 144 10 0 76
215 -20 81 192 10 73 0
216 -22 174 242 10 71 0
217 -10 352 426 10 90 0
218 23 67 219 10 0 207
219 10 87 237 10 0 241
220 -20 200 305 10 375 0
221 -13 330 446 10 230 0
222 -27 197 225 10 330 0
223 9 49 121 10 0 56
224 10 119 270 0 0 412
225 20 85 202 0 0 415
226 21 375 499 10 0 184
227 50 87 242 10 0 349
228 -10 368 479 10 280 0
229 1 91 214 10 0 343
230 13 416 572 10 0 221
231 20 105 213 10 0 258
232 20 453 581 0 0 407
233 11 85 208 10 0 85
234 -30 166 240 10 347 0
235 -13 454 575 10 339 0
236 20 284 396 10 0 377
237 -32 89 229 10 17 0
238 -20 133 277 10 51 0
239 10 30 161 10 0 350
240 30 102 226 10 0 248
241 -10 328 434 10 219 0
242 -10 490 594 10 157 0
243 -20 84 243 10 4 0
244 -30 62 177 10 317 0
245 9 484 619 10 0 81
246 15 47 199 10 0 392
247 10 109 228 0 0 411
248 -30 95 227 10 240 0
249 20 139 295 10 0 379
250 -10 104 229 10 26 0
251 22 32 155 10 0 107
252 -30 98 260 10 276 0
253 -18 86 228 10 360 0
254 -10 95 235 10 373 0
255 -27 87 234 10 312 0
256 30 88 196 10 0 75
257 20 27 160 10 0 144
258 -20 300 452 10 231 0
259 -10 100 232 10 68 0
260 20 86 206 10 0 64
261 30 121 189 10 0 265
262 27 97 232 10 0 167
263 -10 197 331 10 42 0
264 20 101 220 10 0 52
265 -30 92 225 10 261 0
266 20 102 167 10 0 13
267 20 84 217 10 0 98
268 20 112 240 10 0 340
269 10 146 282 10 0 301
270 10 66 177 10 0 307
271 8 76 238 10 0 44
272 -10 169 280 10 110 0
273 -20 172 275 10 397 0
274 14 546 667 0 0 414
275 -20 127 239 10 156 0
276 30 98 231 10 0 252
277 19 61 132 10 0 173
278 -9 149 297 10 314 0
279 -30 61 200 10 24 0
280 10 125 237 10 0 228
281 -10 195 292 10 117 0
282 20 106 252 10 0 25
283 -20 85 236 10 126 0
284 21 42 169 10 0 338
285 19 599 722 0 0 402
286 -21 59 204 10 165 0
287 -5 109 171 10 306 0
288 10 85 190 10 0 146
289 -30 68 177 10 376 0
290 -20 174 277 10 357 0
291 -20 161 302 10 190 0
292 -20 387 507 10 196 0
293 20 127 222 10 0 30
294 24 430 589 10 0 103
295 -20 150 249 10 368 0
296 20 69 176 10 0 191
297 10 32 91 10 0 97
298 -20 86 225 10 211 0
299 26 95 158 10 0 62
300 -16 138 299 10 195 0
301 -10 246 358 10 269 0
302 25 450 585 10 0 209
303 10 98 214 10 0 342
304 20 126 269 10 0 18
305 20 68 221 10 0 204
306 5 126 254 10 0 287
307 -10 67 176 10 270 0
308 30 88 228 10 0 35
309 23 129 247 10 0 16
310 -10 321 410 10 365 0
311 -19 539 651 10 315 0
312 27 122 235 10 0 255
313 33 90 239 10 0 389
314 9 35 156 10 0 278
315 19 127 233 10 0 311
316 8 45 167 10 0 153
317 30 60 185 10 0 244
318 21 55 166 10 0 401
319 -10 52 126 10 162 0
320 -20 446 528 10 328 0
321 -20 125 211 10 31 0
322 22 319 478 10 0 203
323 -10 278 385 10 60 0
324 20 73 123 10 0 135
325 -10 96 211 10 50 0
326 19 176 314 10 0 15
327 -10 106 229 10 113 0
328 20 157 250 10 0 320
329 11 50 174 10 0 163
330 27 31 139 10 0 222
331 -20 93 196 10 374 0
332 -19 552 689 10 183 0
333 -30 247 363 10 356 0
334 30 77 180 10 0 7
335 -20 143 248 10 383 0
336 4 220 367 0 0 416
337 -15 392 561 10 176 0
338 -21 113 177 10 284 0
339 13 362 467 10 0 235
340 -20 99 178 10 268 0
341 30 86 200 10 0 87
342 -10 100 198 10 303 0
343 -1 87 207 10 229 0
344 -46 369 503 10 380 0
345 10 140 234 10 0 169
346 10 127 187 0 0 403
347 30 87 158 10 0 234
348 -26 536 661 10 6 0
349 -50 158 242 10 227 0
350 -10 32 174 10 239 0
351 10 173 248 10 0 158
352 20 119 268 10 0 378
353 -14 97 183 10 86 0
354 39 407 557 10 0 9
355 -20 93 233 10 43 0
356 30 66 195 10 0 333
357 20 122 229 10 0 290
358 -13 190 331 10 194 0
359 12 307 445 10 0 154
360 18 37 162 10 0 253
361 -10 63 187 10 128 0
362 -20 100 177 10 141 0
363 -20 154 230 10 200 0
364 -20 55 196 10 77 0
365 10 179 298 10 0 310
366 20 270 398 10 0 84
367 20 123 241 10 0 32
368 20 85 203 10 0 295
369 13 70 196 10 0 396
370 -22 236 318 10 151 0
371 12 145 311 10 0 155
372 7 270 412 10 0 136
373 10 93 219 10 0 254
374 20 93 214 10 0 331
375 20 113 235 10 0 220
376 30 66 200 10 0 289
377 -20 400 525 10 236 0
378 -20 86 287 10 352 0
379 -20 298 447 10 249 0
380 46 244 334 10 0 344
381 -20 89 268 10 182 0
382 -11 71 157 10 10 0
383 20 98 253 10 0 335
384 26 29 121 10 0 137
385 -29 466 577 10 119 0
386 26 142 270 0 0 406
387 -29 403 536 10 129 0
388 -20 334 409 10 172 0
389 -33 278 417 10 313 0
390 -30 102 253 10 88 0
391 -40 98 209 10 193 0
392 -15 66 221 10 246 0
393 10 93 178 10 0 41
394 20 104 208 10 0 36
395 20 110 220 10 0 175
396 -13 93 212 10 369 0
397 20 83 217 10 0 273
398 23 356 508 0 0 408
399 21 25 187 10 0 104
400 -12 415 516 10 201 0
401 -21 99 263 10 318 0
402 -19 599 722 10 285 0
403 -10 127 187 10 346 0
404 -20 55 187 10 3 0
405 -20 310 426 10 65 0
406 -26 142 270 10 386 0
407 -20 453 581 10 232 0
408 -23 356 508 10 398 0
409 -15 401 564 10 46 0
410 -10 518 612 10 132 0
411 -10 109 228 10 247 0
412 -10 119 270 10 224 0
413 -30 87 253 10 114 0
414 -14 546 667 10 274 0
415 -20 85 202 10 225 0
416 -4 220 367 10 336 0
417 -25 590 743 10 59 0
DEPOT_SECTION
1
-1
EOF
