NAME: lrc1_4_3
TYPE: PDPTW
COMMENT: Li & Lim PDPTW benchmark converted from SINTEF format
DIMENSION: 413
VEHICLES: 100
CAPACITY: 200
EDGE_WEIGHT_TYPE: EUC_2D
NODE_COORD_SECTION
1 100 100
2 134 6
3 63 58
4 64 52
5 139 7
6 110 8
7 79 193
8 80 190
9 158 81
10 60 153
11 141 8
12 13 81
13 68 115
14 151 132
15 88 143
16 16 84
17 155 17
18 69 150
19 55 87
20 22 133
21 10 20
22 187 142
23 114 122
24 78 119
25 199 115
26 185 124
27 46 22
28 7 152
29 144 92
30 5 162
31 197 113
32 189 95
33 84 118
34 28 77
35 105 26
36 113 100
37 139 97
38 143 179
39 111 189
40 119 37
41 87 191
42 80 167
43 23 137
44 181 70
45 178 123
46 45 142
47 151 66
48 68 50
49 159 196
50 87 30
51 187 92
52 10 153
53 54 30
54 54 37
55 180 147
56 154 59
57 93 13
58 38 190
59 104 88
60 78 169
61 127 143
62 24 131
63 82 194
64 165 117
65 23 176
66 55 24
67 148 157
68 186 91
69 26 138
70 78 184
71 165 181
72 11 151
73 103 66
74 188 125
75 197 140
76 100 70
77 83 118
78 66 58
79 83 188
80 12 154
81 158 20
82 161 158
83 41 186
84 162 162
85 89 176
86 86 69
87 20 72
88 41 182
89 178 147
90 140 11
91 60 51
92 100 6
93 18 89
94 85 110
95 37 146
96 181 89
97 26 147
98 52 38
99 131 136
100 46 131
101 35 160
102 187 97
103 172 179
104 156 93
105 85 164
106 17 32
107 175 60
108 82 48
109 62 50
110 137 1
111 140 4
112 143 0
113 198 132
114 25 146
115 137 10
116 15 88
117 38 183
118 121 48
119 62 15
120 19 38
121 144 59
122 125 78
123 12 156
124 53 29
125 22 61
126 159 121
127 59 83
128 59 57
129 168 58
130 12 85
131 85 193
132 155 107
133 195 132
134 55 51
135 189 120
136 59 139
137 121 50
138 10 67
139 52 28
140 17 150
141 101 67
142 69 47
143 164 113
144 79 115
145 80 108
146 184 116
147 27 135
148 29 139
149 84 194
150 186 94
151 114 72
152 90 4
153 41 187
154 92 178
155 46 40
156 174 128
157 30 142
158 28 193
159 185 96
160 74 55
161 23 123
162 103 70
163 42 174
164 8 8
165 83 81
166 57 54
167 26 45
168 83 180
169 70 37
170 97 65
171 53 31
172 179 141
173 100 53
174 55 64
175 8 71
176 174 185
177 176 144
178 123 36
179 142 60
180 53 61
181 62 38
182 123 33
183 136 111
184 28 160
185 85 85
186 12 66
187 107 96
188 168 119
189 171 36
190 188 88
191 135 45
192 26 41
193 195 129
194 108 141
195 75 134
196 141 4
197 60 58
198 196 137
199 7 142
200 190 112
201 63 192
202 97 129
203 71 131
204 159 105
205 109 48
206 189 83
207 142 27
208 68 40
209 56 90
210 98 193
211 121 36
212 101 70
213 134 157
214 103 77
215 87 117
216 183 170
217 193 12
218 127 60
219 178 140
220 95 50
221 25 165
222 124 191
223 138 69
224 177 145
225 50 31
226 37 177
227 48 30
228 197 29
229 40 130
230 23 168
231 24 140
232 20 59
233 81 183
234 190 109
235 28 187
236 145 19
237 164 37
238 186 96
239 105 70
240 140 6
241 146 166
242 56 148
243 66 52
244 53 59
245 179 5
246 122 58
247 37 190
248 155 22
249 175 143
250 199 132
251 131 92
252 83 197
253 180 66
254 87 195
255 129 176
256 185 123
257 77 115
258 7 119
259 195 97
260 162 118
261 196 111
262 32 47
263 100 144
264 13 152
265 192 113
266 25 143
267 51 31
268 14 84
269 12 69
270 165 113
271 138 72
272 135 0
273 8 89
274 110 110
275 177 146
276 87 196
277 89 39
278 65 77
279 63 149
280 143 5
281 32 178
282 193 111
283 162 123
284 67 127
285 73 81
286 50 67
287 38 188
288 183 120
289 129 38
290 35 186
291 180 93
292 146 3
293 8 154
294 200 162
295 8 69
296 131 38
297 78 115
298 123 31
299 39 151
300 53 175
301 1 54
302 40 95
303 5 73
304 7 151
305 166 117
306 39 186
307 165 116
308 99 12
309 48 106
310 154 7
311 18 35
312 135 171
313 11 118
314 78 72
315 19 51
316 69 133
317 56 59
318 99 45
319 103 67
320 53 79
321 194 112
322 42 165
323 68 156
324 172 114
325 98 4
326 104 176
327 200 136
328 21 85
329 67 138
330 111 129
331 97 7
332 114 112
333 125 49
334 75 173
335 42 72
336 53 180
337 174 194
338 39 112
339 6 193
340 6 67
341 14 92
342 3 75
343 23 142
344 57 118
345 65 53
346 140 3
347 187 112
348 112 6
349 63 55
350 104 68
351 30 187
352 194 129
353 53 67
354 186 65
355 12 131
356 122 37
357 36 193
358 113 105
359 84 180
360 136 90
361 61 50
362 97 67
363 190 110
364 87 118
365 137 4
366 179 151
367 189 97
368 15 87
369 157 142
370 138 61
371 65 42
372 60 184
373 85 192
374 93 7
375 95 16
376 125 38
377 149 78
378 185 115
379 158 132
380 29 121
381 122 13
382 57 157
383 8 73
384 115 75
385 41 43
386 104 5
387 172 55
388 184 140
389 12 113
390 40 183
391 193 131
392 129 40
393 84 192
394 95 74
395 8 74
396 181 147
397 17 93
398 66 196
399 123 90
400 110 184
401 121 46
402 8 74
403 99 12
404 36 193
405 53 59
406 25 143
407 140 3
408 62 15
409 185 115
410 97 129
411 178 147
412 27 135
413 103 67
PICKUP_AND_DELIVERY_SECTION
1 0 0 765 0 0 0
2 -20 237 267 10 11 0
3 -16 0 700 10 120 0
4 -20 161 191 10 109 0
5 20 0 655 10 0 375
6 -30 478 508 10 57 0
7 -10 0 660 10 63 0
8 -25 444 474 10 131 0
9 -39 0 694 10 354 0
10 11 97 127 10 0 299
11 20 100 130 10 0 2
12 -14 0 666 10 21 0
13 -26 565 595 10 338 0
14 -20 0 695 10 84 0
15 -12 0 711 10 359 0
16 -20 0 670 10 368 0
17 -16 0 656 10 228 0
18 17 564 594 10 0 215
19 -30 203 233 10 174 0
20 -20 0 671 10 43 0
21 14 0 635 10 0 12
22 10 116 146 10 0 82
23 -6 0 729 10 133 0
24 30 0 726 10 0 358
25 -30 0 655 10 347 0
26 10 0 667 10 0 307
27 10 404 434 10 0 134
28 10 172 202 10 0 293
29 -23 511 541 10 218 0
30 26 0 642 10 0 372
31 -20 128 158 10 282 0
32 -10 134 164 10 68 0
33 -20 98 128 10 145 0
34 12 220 250 10 0 278
35 -10 323 353 10 50 0
36 -10 230 260 10 297 0
37 -18 0 716 10 121 0
38 24 0 666 10 0 176
39 3 0 666 10 0 400
40 20 0 690 10 0 298
41 10 91 121 10 0 276
42 -11 0 686 10 233 0
43 20 158 188 10 0 20
44 25 525 555 10 0 206
45 -20 0 674 10 249 0
46 -26 468 498 10 382 0
47 11 0 694 10 0 377
48 10 136 166 10 0 127
49 -13 238 268 10 194 0
50 10 188 218 10 0 35
51 -10 0 668 10 96 0
52 -20 0 651 10 97 0
53 10 150 180 10 0 208
54 -10 0 677 10 139 0
55 10 145 175 10 0 379
56 17 68 98 10 0 280
57 30 145 175 10 0 6
58 10 137 167 10 0 158
59 25 0 743 10 0 118
60 -19 288 318 10 326 0
61 -22 541 571 10 71 0
62 -11 309 339 10 329 0
63 10 176 206 10 0 7
64 -30 0 688 10 256 0
65 -20 0 647 10 231 0
66 -14 123 153 10 86 0
67 21 0 681 10 0 274
68 10 97 127 10 0 32
69 10 188 218 10 0 95
70 -30 0 669 10 334 0
71 22 0 652 10 0 61
72 20 109 139 10 0 123
73 20 0 721 10 0 350
74 -20 120 150 10 156 0
75 10 0 651 10 0 213
76 30 30 60 10 0 179
77 -20 87 117 10 257 0
78 -8 0 701 10 167 0
79 -17 0 666 10 279 0
80 10 133 163 10 0 300
81 -3 0 657 10 217 0
82 -10 393 423 10 22 0
83 27 0 651 10 0 221
84 20 343 373 10 0 14
85 13 0 679 10 0 195
86 14 0 721 10 0 66
87 21 251 281 10 0 335
88 30 101 131 10 0 390
89 10 157 187 0 0 411
90 10 0 658 10 0 110
91 -14 83 113 10 185 0
92 -27 0 661 10 381 0
93 -14 0 673 10 301 0
94 10 0 737 10 0 336
95 -10 0 677 10 69 0
96 10 81 111 10 0 51
97 20 0 668 10 0 52
98 30 78 108 10 0 314
99 -8 0 708 10 337 0
100 21 0 693 10 0 284
101 -16 0 667 10 235 0
102 10 179 209 10 0 159
103 -27 0 649 10 312 0
104 25 421 451 10 0 183
105 -10 0 690 10 393 0
106 16 0 648 10 0 340
107 18 0 670 10 0 253
108 8 0 700 10 0 169
109 20 105 135 10 0 4
110 -10 0 650 10 90 0
111 -20 131 161 10 296 0
112 10 0 647 10 0 137
113 10 153 183 10 0 193
114 30 0 668 10 0 157
115 -10 0 658 10 289 0
116 10 109 139 10 0 130
117 10 0 652 10 0 339
118 -25 0 699 10 59 0
119 29 0 662 0 0 408
120 16 454 484 10 0 3
121 18 442 472 10 0 37
122 -24 0 722 10 248 0
123 -20 0 651 10 72 0
124 -10 0 670 10 171 0
125 17 270 300 10 0 232
126 20 0 693 10 0 283
127 -10 227 257 10 48 0
128 -30 0 696 10 385 0
129 -19 0 676 10 237 0
130 -10 0 666 10 116 0
131 25 0 661 10 0 8
132 -20 550 580 10 200 0
133 6 0 655 10 0 23
134 -10 0 689 10 27 0
135 -10 135 165 10 270 0
136 -15 321 351 10 161 0
137 -10 0 701 10 112 0
138 30 0 660 10 0 175
139 10 0 669 10 0 54
140 20 0 659 10 0 304
141 -12 0 722 10 371 0
142 -3 0 694 10 160 0
143 20 0 690 10 0 324
144 30 0 730 10 0 364
145 20 21 51 10 0 33
146 -22 163 193 10 251 0
147 10 0 675 0 0 412
148 -1 81 111 10 229 0
149 10 0 660 10 0 254
150 20 0 669 10 0 291
151 22 0 724 10 0 370
152 22 0 659 10 0 374
153 20 112 142 10 0 290
154 -15 471 501 10 168 0
155 15 0 675 10 0 262
156 20 79 109 10 0 74
157 -30 0 674 10 114 0
158 -10 179 209 10 58 0
159 -10 201 231 10 102 0
160 3 0 704 10 0 142
161 15 290 320 10 0 136
162 -10 0 725 10 362 0
163 13 0 661 10 0 247
164 11 138 168 10 0 311
165 21 25 55 10 0 197
166 20 69 99 10 0 243
167 8 222 252 10 0 78
168 15 266 296 10 0 154
169 -8 69 99 10 108 0
170 20 111 141 10 0 173
171 10 161 191 10 0 124
172 20 98 128 10 0 396
173 -20 0 708 10 170 0
174 30 96 126 10 0 19
175 -30 173 203 10 138 0
176 -24 0 643 10 38 0
177 20 0 668 10 0 388
178 -19 0 687 10 277 0
179 -30 0 697 10 76 0
180 20 82 112 10 0 353
181 19 0 683 10 0 220
182 20 0 685 10 0 384
183 -25 0 718 10 104 0
184 -22 0 662 10 322 0
185 14 0 734 10 0 91
186 20 94 124 10 0 295
187 23 8 38 10 0 214
188 14 558 588 10 0 260
189 -9 630 660 10 245 0
190 20 0 667 10 0 367
191 -30 288 318 10 376 0
192 -19 0 661 10 315 0
193 -10 0 656 10 113 0
194 13 0 714 10 0 49
195 -13 0 713 10 85 0
196 20 0 651 10 0 272
197 -21 58 88 10 165 0
198 20 0 653 10 0 216
199 -10 202 232 10 343 0
200 20 0 665 10 0 132
201 12 0 656 10 0 242
202 11 0 726 0 0 410
203 -8 499 529 10 316 0
204 20 0 696 10 0 265
205 -20 0 703 10 331 0
206 -25 0 665 10 44 0
207 -15 370 400 10 246 0
208 -10 0 687 10 53 0
209 -30 0 710 10 317 0
210 27 0 662 10 0 222
211 20 155 185 10 0 333
212 20 30 60 10 0 239
213 -10 0 689 10 75 0
214 -23 44 74 10 187 0
215 -17 0 734 10 18 0
216 -20 193 223 10 198 0
217 3 374 404 10 0 81
218 23 128 158 10 0 29
219 10 87 117 10 0 332
220 -19 237 267 10 181 0
221 -27 0 656 10 83 0
222 -27 0 661 10 210 0
223 -20 0 706 10 236 0
224 10 0 666 10 0 275
225 20 0 670 10 0 267
226 21 0 656 10 0 287
227 50 94 124 10 0 349
228 16 409 439 10 0 17
229 1 0 688 10 0 148
230 -5 479 509 10 306 0
231 20 0 670 10 0 65
232 -17 0 666 10 125 0
233 11 87 117 10 0 42
234 -20 188 218 10 363 0
235 16 0 643 10 0 101
236 20 0 663 10 0 223
237 19 99 129 10 0 129
238 -20 190 220 10 259 0
239 -20 50 80 10 212 0
240 30 0 653 10 0 348
241 -24 366 396 10 294 0
242 -12 527 557 10 201 0
243 -20 149 179 10 166 0
244 20 70 100 0 0 405
245 9 0 632 10 0 189
246 15 0 708 10 0 207
247 -13 148 178 10 163 0
248 24 0 660 10 0 122
249 20 202 232 10 0 45
250 10 142 172 10 0 288
251 22 32 62 10 0 146
252 -10 163 193 10 373 0
253 -18 86 116 10 107 0
254 -10 138 168 10 149 0
255 -27 0 674 10 330 0
256 30 96 126 10 0 64
257 20 57 87 10 0 77
258 30 0 661 10 0 302
259 20 151 181 10 0 238
260 -14 0 691 10 188 0
261 30 140 170 10 0 321
262 -15 150 180 10 155 0
263 17 0 711 10 0 323
264 20 101 131 10 0 398
265 -20 0 663 10 204 0
266 20 120 150 0 0 406
267 -20 84 114 10 225 0
268 20 161 191 10 0 273
269 -10 0 662 10 342 0
270 10 66 96 10 0 135
271 8 0 708 10 0 310
272 -20 0 650 10 196 0
273 -20 208 238 10 268 0
274 -21 592 622 10 67 0
275 -10 0 666 10 224 0
276 -10 149 179 10 41 0
277 19 0 694 10 0 178
278 -12 0 714 10 34 0
279 17 61 91 10 0 79
280 -17 0 651 10 56 0
281 -10 0 652 10 351 0
282 20 0 662 10 0 31
283 -20 146 176 10 126 0
284 -21 0 713 10 100 0
285 19 0 722 10 0 286
286 -19 112 142 10 285 0
287 -21 125 155 10 226 0
288 -10 0 670 10 250 0
289 10 0 687 10 0 115
290 -20 210 240 10 153 0
291 -20 217 247 10 150 0
292 -10 432 462 10 365 0
293 -10 0 649 10 28 0
294 24 0 638 10 0 241
295 -20 185 215 10 186 0
296 20 69 99 10 0 111
297 10 46 76 10 0 36
298 -20 140 170 10 40 0
299 -11 0 676 10 10 0
300 -10 203 233 10 80 0
301 14 287 317 10 0 93
302 -30 502 532 10 258 0
303 10 0 657 10 0 383
304 -20 0 649 10 140 0
305 -20 0 687 10 352 0
306 5 175 205 10 0 230
307 -10 0 689 10 26 0
308 30 88 118 0 0 403
309 23 0 703 10 0 380
310 -8 0 648 10 271 0
311 -11 0 651 10 164 0
312 27 163 193 10 0 103
313 -21 0 665 10 344 0
314 -30 0 720 10 98 0
315 19 0 661 10 0 192
316 8 0 710 10 0 203
317 30 60 90 10 0 209
318 -20 0 700 10 394 0
319 20 0 722 0 0 413
320 -20 0 704 10 328 0
321 -30 153 183 10 261 0
322 22 383 413 10 0 184
323 -17 316 346 10 263 0
324 -20 0 682 10 143 0
325 20 102 132 10 0 386
326 19 230 260 10 0 60
327 -20 128 158 10 391 0
328 20 188 218 10 0 320
329 11 71 101 10 0 62
330 27 31 61 10 0 255
331 20 0 662 10 0 205
332 -10 606 636 10 219 0
333 -20 290 320 10 211 0
334 30 0 678 10 0 70
335 -21 0 691 10 87 0
336 -10 278 308 10 94 0
337 8 462 492 10 0 99
338 26 130 160 10 0 13
339 -10 399 429 10 117 0
340 -16 0 656 10 106 0
341 30 0 669 10 0 397
342 10 134 164 10 0 269
343 10 132 162 10 0 199
344 21 0 709 10 0 313
345 -10 172 202 10 361 0
346 10 142 172 0 0 407
347 30 87 117 10 0 25
348 -30 618 648 10 240 0
349 -50 0 697 10 227 0
350 -20 0 723 10 73 0
351 10 0 644 10 0 281
352 20 0 657 10 0 305
353 -20 125 155 10 180 0
354 39 467 497 10 0 9
355 28 0 662 10 0 389
356 30 0 689 10 0 401
357 20 161 191 0 0 404
358 -30 245 275 10 24 0
359 12 361 391 10 0 15
360 -21 0 718 10 399 0
361 10 0 692 10 0 345
362 10 0 722 10 0 162
363 20 0 665 10 0 234
364 -30 111 141 10 144 0
365 10 0 653 10 0 292
366 -13 319 349 10 369 0
367 -20 167 197 10 190 0
368 20 0 670 10 0 16
369 13 70 100 10 0 366
370 -22 262 292 10 151 0
371 12 213 243 10 0 141
372 -26 0 662 10 30 0
373 10 102 132 10 0 252
374 -22 129 159 10 152 0
375 -20 0 671 10 5 0
376 30 90 120 10 0 191
377 -11 447 477 10 47 0
378 20 0 669 0 0 409
379 -10 0 689 10 55 0
380 -23 274 304 10 309 0
381 27 140 170 10 0 92
382 26 80 110 10 0 46
383 -10 161 191 10 303 0
384 -20 0 726 10 182 0
385 30 0 673 10 0 128
386 -20 191 221 10 325 0
387 -20 455 485 10 392 0
388 -20 356 386 10 177 0
389 -28 333 363 10 355 0
390 -30 0 653 10 88 0
391 20 0 657 10 0 327
392 20 0 689 10 0 387
393 10 113 143 10 0 105
394 20 0 729 10 0 318
395 20 0 660 0 0 402
396 -20 134 164 10 172 0
397 -30 0 672 10 341 0
398 -20 417 447 10 264 0
399 21 0 730 10 0 360
400 -3 0 671 10 39 0
401 -30 166 196 10 356 0
402 -20 0 660 10 395 0
403 -30 88 118 10 308 0
404 -20 161 191 10 357 0
405 -20 70 100 10 244 0
406 -20 120 150 10 266 0
407 -10 142 172 10 346 0
408 -29 0 662 10 119 0
409 -20 0 669 10 378 0
410 -11 0 726 10 202 0
411 -10 157 187 10 89 0
412 -10 0 675 10 147 0
413 -20 0 722 10 319 0
DEPOT_SECTION
1
-1
EOF
