NAME: lrc1_4_1
TYPE: PDPTW
COMMENT: Li & Lim PDPTW benchmark converted from SINTEF format
DIMENSION: 417
VEHICLES: 100
CAPACITY: 200
EDGE_WEIGHT_TYPE: EUC_2D
NODE_COORD_SECTION
1 100 100
2 134 6
3 63 58
4 64 52
5 139 7
6 110 8
7 79 193
8 80 190
9 158 81
10 60 153
11 141 8
12 13 81
13 68 115
14 151 132
15 88 143
16 16 84
17 155 17
18 69 150
19 55 87
20 22 133
21 10 20
22 187 142
23 114 122
24 78 119
25 199 115
26 185 124
27 46 22
28 7 152
29 144 92
30 5 162
31 197 113
32 189 95
33 84 118
34 28 77
35 105 26
36 113 100
37 139 97
38 143 179
39 111 189
40 119 37
41 87 191
42 80 167
43 23 137
44 181 70
45 178 123
46 45 142
47 151 66
48 68 50
49 159 196
50 87 30
51 187 92
52 10 153
53 54 30
54 54 37
55 180 147
56 154 59
57 93 13
58 38 190
59 104 88
60 78 169
61 127 143
62 24 131
63 82 194
64 165 117
65 23 176
66 55 24
67 148 157
68 186 91
69 26 138
70 78 184
71 165 181
72 11 151
73 103 66
74 188 125
75 197 140
76 100 70
77 83 118
78 66 58
79 83 188
80 12 154
81 158 20
82 161 158
83 41 186
84 162 162
85 89 176
86 86 69
87 20 72
88 41 182
89 178 147
90 140 11
91 60 51
92 100 6
93 18 89
94 85 110
95 37 146
96 181 89
97 26 147
98 52 38
99 131 136
100 46 131
101 35 160
102 187 97
103 172 179
104 156 93
105 85 164
106 17 32
107 175 60
108 82 48
109 62 50
110 137 1
111 140 4
112 143 0
113 198 132
114 25 146
115 137 10
116 15 88
117 38 183
118 121 48
119 62 15
120 19 38
121 144 59
122 125 78
123 12 156
124 53 29
125 22 61
126 159 121
127 59 83
128 59 57
129 168 58
130 12 85
131 85 193
132 155 107
133 195 132
134 55 51
135 189 120
136 59 139
137 121 50
138 10 67
139 52 28
140 17 150
141 101 67
142 69 47
143 164 113
144 79 115
145 80 108
146 184 116
147 27 135
148 29 139
149 84 194
150 186 94
151 114 72
152 90 4
153 41 187
154 92 178
155 46 40
156 174 128
157 30 142
158 28 193
159 185 96
160 74 55
161 23 123
162 103 70
163 42 174
164 8 8
165 83 81
166 57 54
167 26 45
168 83 180
169 70 37
170 97 65
171 53 31
172 179 141
173 100 53
174 55 64
175 8 71
176 174 185
177 176 144
178 123 36
179 142 60
180 53 61
181 62 38
182 123 33
183 136 111
184 28 160
185 85 85
186 12 66
187 107 96
188 168 119
189 171 36
190 188 88
191 135 45
192 26 41
193 195 129
194 108 141
195 75 134
196 141 4
197 60 58
198 196 137
199 7 142
200 190 112
201 63 192
202 97 129
203 71 131
204 159 105
205 109 48
206 189 83
207 142 27
208 68 40
209 56 90
210 98 193
211 121 36
212 101 70
213 134 157
214 103 77
215 87 117
216 183 170
217 193 12
218 127 60
219 178 140
220 95 50
221 25 165
222 124 191
223 138 69
224 177 145
225 50 31
226 37 177
227 48 30
228 197 29
229 40 130
230 23 168
231 24 140
232 20 59
233 81 183
234 190 109
235 28 187
236 145 19
237 164 37
238 186 96
239 105 70
240 140 6
241 146 166
242 56 148
243 66 52
244 53 59
245 179 5
246 122 58
247 37 190
248 155 22
249 175 143
250 199 132
251 131 92
252 83 197
253 180 66
254 87 195
255 129 176
256 185 123
257 77 115
258 7 119
259 195 97
260 162 118
261 196 111
262 32 47
263 100 144
264 13 152
265 192 113
266 25 143
267 51 31
268 14 84
269 12 69
270 165 113
271 138 72
272 135 0
273 8 89
274 110 110
275 177 146
276 87 196
277 89 39
278 65 77
279 63 149
280 143 5
281 32 178
282 193 111
283 162 123
284 67 127
285 73 81
286 50 67
287 38 188
288 183 120
289 129 38
290 35 186
291 180 93
292 146 3
293 8 154
294 200 162
295 8 69
296 131 38
297 78 115
298 123 31
299 39 151
300 53 175
301 1 54
302 40 95
303 5 73
304 7 151
305 166 117
306 39 186
307 165 116
308 99 12
309 48 106
310 154 7
311 18 35
312 135 171
313 11 118
314 78 72
315 19 51
316 69 133
317 56 59
318 99 45
319 103 67
320 53 79
321 194 112
322 42 165
323 68 156
324 172 114
325 98 4
326 104 176
327 200 136
328 21 85
329 67 138
330 111 129
331 97 7
332 114 112
333 125 49
334 75 173
335 42 72
336 53 180
337 174 194
338 39 112
339 6 193
340 6 67
341 14 92
342 3 75
343 23 142
344 57 118
345 65 53
346 140 3
347 187 112
348 112 6
349 63 55
350 104 68
351 30 187
352 194 129
353 53 67
354 186 65
355 12 131
356 122 37
357 36 193
358 113 105
359 84 180
360 136 90
361 61 50
362 97 67
363 190 110
364 87 118
365 137 4
366 179 151
367 189 97
368 15 87
369 157 142
370 138 61
371 65 42
372 60 184
373 85 192
374 93 7
375 95 16
376 125 38
377 149 78
378 185 115
379 158 132
380 29 121
381 122 13
382 57 157
383 8 73
384 115 75
385 41 43
386 104 5
387 172 55
388 184 140
389 12 113
390 40 183
391 193 131
392 129 40
393 84 192
394 95 74
395 8 74
396 181 147
397 17 93
398 66 196
399 123 90
400 110 184
401 121 46
402 114 112
403 178 123
404 37 190
405 20 59
406 122 58
407 179 151
408 93 13
409 87 118
410 28 77
411 57 118
412 190 109
413 85 193
414 71 131
415 54 37
416 114 122
417 100 70
PICKUP_AND_DELIVERY_SECTION
1 0 0 765 0 0 0
2 -32 237 267 10 17 0
3 20 55 85 10 0 171
4 -10 161 191 10 128 0
5 20 108 138 10 0 6
6 -20 478 508 10 5 0
7 -20 189 219 10 252 0
8 -30 444 474 10 334 0
9 -3 509 539 10 205 0
10 11 97 127 10 0 127
11 -10 100 130 10 90 0
12 -10 148 178 10 93 0
13 -2 565 595 10 389 0
14 -20 165 195 10 260 0
15 -21 521 551 10 100 0
16 -21 173 203 10 165 0
17 32 99 129 10 0 2
18 -10 564 594 10 373 0
19 -16 203 233 10 195 0
20 -20 172 202 10 43 0
21 -10 589 619 10 27 0
22 10 116 146 10 0 84
23 10 213 243 0 0 416
24 -30 72 102 10 144 0
25 20 115 145 10 0 261
26 -10 107 137 10 270 0
27 10 404 434 10 0 21
28 -20 172 202 10 264 0
29 -6 511 541 10 377 0
30 26 124 154 10 0 293
31 20 128 158 10 0 132
32 10 134 164 10 0 367
33 -20 98 128 10 77 0
34 12 220 250 0 0 410
35 -10 323 353 10 112 0
36 -23 230 260 10 218 0
37 -10 625 655 10 135 0
38 24 271 301 10 0 39
39 -24 503 533 10 38 0
40 20 168 198 10 0 333
41 10 91 121 10 0 323
42 -27 222 252 10 210 0
43 20 158 188 10 0 20
44 -18 525 555 10 107 0
45 30 81 111 0 0 403
46 -27 468 498 10 184 0
47 11 74 104 10 0 189
48 10 136 166 10 0 160
49 -13 238 268 10 369 0
50 -30 188 218 10 92 0
51 20 109 139 10 0 150
52 20 121 151 10 0 62
53 -29 150 180 10 119 0
54 21 646 676 0 0 415
55 -20 145 175 10 156 0
56 -9 68 98 10 223 0
57 30 145 175 0 0 408
58 -20 137 167 10 287 0
59 -22 713 743 10 173 0
60 10 288 318 10 0 154
61 -15 541 571 10 176 0
62 -20 309 339 10 52 0
63 -10 176 206 10 393 0
64 10 118 148 10 0 274
65 -10 353 383 10 290 0
66 -10 123 153 10 169 0
67 -17 318 348 10 216 0
68 10 97 127 10 0 259
69 10 188 218 10 0 161
70 20 209 239 10 0 201
71 22 103 133 10 0 213
72 20 109 139 10 0 80
73 -10 85 115 10 350 0
74 10 120 150 10 0 363
75 -20 113 143 10 391 0
76 30 30 60 0 0 417
77 20 87 117 10 0 33
78 -10 199 229 10 345 0
79 30 89 119 10 0 276
80 -20 133 163 10 72 0
81 -3 572 602 10 217 0
82 24 393 423 10 0 99
83 27 135 165 10 0 306
84 -10 343 373 10 22 0
85 -7 427 457 10 372 0
86 -20 176 206 10 394 0
87 21 251 281 10 0 320
88 30 101 131 10 0 390
89 -20 157 187 10 172 0
90 10 97 127 10 0 11
91 -20 83 113 10 166 0
92 30 94 124 10 0 50
93 10 82 112 10 0 12
94 10 18 48 10 0 299
95 -11 310 340 10 329 0
96 10 81 111 10 0 190
97 -10 96 126 10 157 0
98 30 78 108 10 0 311
99 -24 631 661 10 82 0
100 21 341 371 10 0 15
101 16 88 118 10 0 158
102 10 179 209 10 0 291
103 -8 561 591 10 337 0
104 -20 421 451 10 324 0
105 23 65 95 10 0 254
106 -8 471 501 10 167 0
107 18 85 115 10 0 44
108 -21 90 120 10 318 0
109 20 105 135 10 0 243
110 -10 197 227 10 111 0
111 10 131 161 10 0 110
112 10 181 211 10 0 35
113 10 153 183 10 0 133
114 30 107 137 10 0 136
115 -20 440 470 10 182 0
116 -20 109 139 10 397 0
117 -20 309 339 10 153 0
118 -20 283 313 10 211 0
119 29 93 123 10 0 53
120 -14 454 484 10 301 0
121 -20 442 472 10 212 0
122 11 33 63 10 0 206
123 -20 145 175 10 140 0
124 30 138 168 10 0 371
125 17 270 300 10 0 181
126 -20 159 189 10 143 0
127 -11 227 257 10 10 0
128 10 59 89 10 0 4
129 29 222 252 10 0 354
130 -20 134 164 10 368 0
131 25 310 340 0 0 413
132 -20 550 580 10 31 0
133 -10 263 293 10 113 0
134 17 268 298 10 0 385
135 10 135 165 10 0 37
136 -30 321 351 10 114 0
137 -22 112 142 10 151 0
138 30 95 125 10 0 303
139 10 108 138 10 0 262
140 20 96 126 10 0 123
141 20 97 127 10 0 170
142 -10 123 153 10 361 0
143 20 65 95 10 0 126
144 30 35 65 10 0 24
145 20 21 51 10 0 215
146 -30 163 193 10 256 0
147 -20 201 231 10 266 0
148 10 81 111 10 0 380
149 -11 125 155 10 233 0
150 -20 121 151 10 51 0
151 22 31 61 10 0 137
152 22 103 133 10 0 374
153 20 112 142 10 0 117
154 -10 471 501 10 60 0
155 -11 252 282 10 164 0
156 20 79 109 10 0 55
157 10 81 111 10 0 97
158 -16 179 209 10 101 0
159 -20 201 231 10 238 0
160 -10 351 381 10 48 0
161 -10 290 320 10 69 0
162 10 38 68 10 0 185
163 13 113 143 10 0 351
164 11 138 168 10 0 155
165 21 25 55 10 0 16
166 20 69 99 10 0 91
167 8 222 252 10 0 106
168 -19 266 296 10 326 0
169 10 69 99 10 0 66
170 -20 111 141 10 141 0
171 -20 161 191 10 3 0
172 20 98 128 10 0 89
173 22 676 706 10 0 59
174 30 96 126 10 0 353
175 10 173 203 10 0 269
176 15 112 142 10 0 61
177 -21 191 221 10 399 0
178 -20 115 145 10 392 0
179 -19 413 443 10 370 0
180 20 82 112 10 0 285
181 -17 539 569 10 125 0
182 20 128 158 10 0 115
183 -20 601 631 10 282 0
184 27 393 423 10 0 46
185 -10 569 599 10 162 0
186 20 94 124 10 0 395
187 23 8 38 10 0 384
188 -15 558 588 10 388 0
189 -11 630 660 10 47 0
190 -10 88 118 10 96 0
191 7 288 318 10 0 207
192 14 143 173 10 0 315
193 40 167 197 10 0 352
194 -17 270 300 10 263 0
195 16 42 72 10 0 19
196 20 154 184 10 0 280
197 20 58 88 10 0 349
198 20 102 132 10 0 379
199 -20 202 232 10 304 0
200 20 90 120 10 0 265
201 -20 233 263 10 70 0
202 -23 584 614 10 398 0
203 11 499 529 0 0 414
204 -24 576 606 10 294 0
205 3 135 165 10 0 9
206 -11 204 234 10 122 0
207 -7 370 400 10 191 0
208 23 68 98 10 0 267
209 -30 529 559 10 341 0
210 27 202 232 10 0 42
211 20 155 185 10 0 118
212 20 30 60 10 0 121
213 -22 418 448 10 71 0
214 21 44 74 10 0 239
215 -20 122 152 10 145 0
216 17 193 223 10 0 67
217 3 374 404 10 0 81
218 23 128 158 10 0 36
219 10 87 117 10 0 396
220 -20 237 267 10 331 0
221 -1 373 403 10 229 0
222 -27 196 226 10 312 0
223 9 50 80 10 0 56
224 10 179 209 10 0 249
225 20 85 115 10 0 227
226 -26 422 452 10 382 0
227 -20 94 124 10 225 0
228 16 409 439 10 0 245
229 1 138 168 10 0 221
230 -8 479 509 10 316 0
231 -10 144 174 10 343 0
232 20 502 532 0 0 405
233 11 87 117 10 0 149
234 10 188 218 0 0 412
235 -20 499 529 10 357 0
236 -24 325 355 10 248 0
237 19 99 129 10 0 310
238 20 190 220 10 0 159
239 -21 50 80 10 214 0
240 30 119 149 10 0 272
241 24 366 396 10 0 400
242 -22 527 557 10 322 0
243 -20 149 179 10 109 0
244 -30 70 100 10 317 0
245 -16 536 566 10 228 0
246 15 47 77 0 0 406
247 10 148 178 0 0 404
248 24 127 157 10 0 236
249 -10 202 232 10 224 0
250 -20 142 172 10 327 0
251 22 32 62 10 0 307
252 20 163 193 10 0 7
253 13 86 116 10 0 387
254 -23 138 168 10 105 0
255 -27 145 175 10 330 0
256 30 96 126 10 0 146
257 -10 57 87 10 297 0
258 -28 361 391 10 355 0
259 -10 151 181 10 68 0
260 20 131 161 10 0 14
261 -20 140 170 10 25 0
262 -10 150 180 10 139 0
263 17 249 279 10 0 194
264 20 101 131 10 0 28
265 -20 98 128 10 200 0
266 20 120 150 10 0 147
267 -23 84 114 10 208 0
268 20 161 191 10 0 328
269 -10 199 229 10 175 0
270 10 66 96 10 0 26
271 8 142 172 10 0 358
272 -30 209 239 10 240 0
273 -33 208 238 10 313 0
274 -10 592 622 10 64 0
275 -40 168 198 10 283 0
276 -30 149 179 10 79 0
277 19 63 93 10 0 298
278 -9 208 238 10 314 0
279 17 61 91 10 0 302
280 -20 166 196 10 196 0
281 10 229 259 10 0 339
282 20 164 194 10 0 183
283 40 146 176 10 0 275
284 21 42 72 10 0 300
285 -20 692 722 10 180 0
286 10 112 142 10 0 335
287 20 125 155 10 0 58
288 10 85 115 10 0 378
289 10 76 106 10 0 401
290 10 210 240 10 0 65
291 -10 217 247 10 102 0
292 -30 432 462 10 308 0
293 -26 160 190 10 30 0
294 24 494 524 10 0 204
295 -20 185 215 10 383 0
296 20 69 99 10 0 386
297 10 46 76 10 0 257
298 -19 140 170 10 277 0
299 -10 112 142 10 94 0
300 -21 203 233 10 284 0
301 14 287 317 10 0 120
302 -17 502 532 10 279 0
303 -30 122 152 10 138 0
304 20 183 213 10 0 199
305 -18 95 125 10 360 0
306 -27 175 205 10 83 0
307 -22 107 137 10 251 0
308 30 88 118 10 0 292
309 -26 173 203 10 338 0
310 -19 350 380 10 237 0
311 -30 619 649 10 98 0
312 27 163 193 10 0 222
313 33 112 142 10 0 273
314 9 35 65 10 0 278
315 -14 165 195 10 192 0
316 8 45 75 10 0 230
317 30 60 90 10 0 244
318 21 84 114 10 0 108
319 20 74 104 10 0 362
320 -21 472 502 10 87 0
321 -30 153 183 10 347 0
322 22 383 413 10 0 242
323 -10 316 346 10 41 0
324 20 78 108 10 0 104
325 20 102 132 10 0 375
326 19 230 260 10 0 168
327 20 128 158 10 0 250
328 -20 188 218 10 268 0
329 11 71 101 10 0 95
330 27 31 61 10 0 255
331 20 115 145 10 0 220
332 17 606 636 0 0 402
333 -20 290 320 10 40 0
334 30 77 107 10 0 8
335 -10 180 210 10 286 0
336 4 278 308 10 0 359
337 8 462 492 10 0 103
338 26 130 160 10 0 309
339 -10 399 429 10 281 0
340 10 106 136 10 0 342
341 30 95 125 10 0 209
342 -10 134 164 10 340 0
343 10 132 162 10 0 231
344 21 421 451 0 0 411
345 10 172 202 10 0 78
346 10 142 172 10 0 365
347 30 87 117 10 0 321
348 -27 618 648 10 381 0
349 -20 185 215 10 197 0
350 10 62 92 10 0 73
351 -13 195 225 10 163 0
352 -40 178 208 10 193 0
353 -30 125 155 10 174 0
354 -29 467 497 10 129 0
355 28 135 165 10 0 258
356 -30 104 134 10 376 0
357 20 161 191 10 0 235
358 -8 245 275 10 271 0
359 -4 361 391 10 336 0
360 18 37 67 10 0 305
361 10 94 124 10 0 142
362 -20 123 153 10 319 0
363 -10 177 207 10 74 0
364 10 111 141 0 0 409
365 -10 224 254 10 346 0
366 20 319 349 0 0 407
367 -10 167 197 10 32 0
368 20 120 150 10 0 130
369 13 70 100 10 0 49
370 19 262 292 10 0 179
371 -30 213 243 10 124 0
372 7 326 356 10 0 85
373 10 102 132 10 0 18
374 -22 129 159 10 152 0
375 -20 159 189 10 325 0
376 30 90 120 10 0 356
377 6 447 477 10 0 29
378 -10 151 181 10 288 0
379 -20 358 388 10 198 0
380 -10 274 304 10 148 0
381 27 140 170 10 0 348
382 26 80 110 10 0 226
383 20 161 191 10 0 295
384 -23 29 59 10 187 0
385 -17 507 537 10 134 0
386 -20 191 221 10 296 0
387 -13 455 485 10 253 0
388 15 356 386 10 0 188
389 2 333 363 10 0 13
390 -30 102 132 10 88 0
391 20 98 128 10 0 75
392 20 66 96 10 0 178
393 10 113 143 10 0 63
394 20 141 171 10 0 86
395 -20 150 180 10 186 0
396 -10 134 164 10 219 0
397 20 83 113 10 0 116
398 23 417 447 10 0 202
399 21 25 55 10 0 177
400 -24 451 481 10 241 0
401 -10 166 196 10 289 0
402 -17 606 636 10 332 0
403 -30 81 111 10 45 0
404 -10 148 178 10 247 0
405 -20 502 532 10 232 0
406 -15 47 77 10 246 0
407 -20 319 349 10 366 0
408 -30 145 175 10 57 0
409 -10 111 141 10 364 0
410 -12 220 250 10 34 0
411 -21 421 451 10 344 0
412 -10 188 218 10 234 0
413 -25 310 340 10 131 0
414 -11 499 529 10 203 0
415 -21 646 676 10 54 0
416 -10 213 243 10 23 0
417 -30 30 60 10 76 0
DEPOT_SECTION
1
-1
EOF
