NAME: lrc1_4_10
TYPE: PDPTW
COMMENT: Li & Lim PDPTW benchmark converted from SINTEF format
DIMENSION: 419
VEHICLES: 100
CAPACITY: 200
EDGE_WEIGHT_TYPE: EUC_2D
NODE_COORD_SECTION
1 100 100
2 134 6
3 63 58
4 64 52
5 139 7
6 110 8
7 79 193
8 80 190
9 158 81
10 60 153
11 141 8
12 13 81
13 68 115
14 151 132
15 88 143
16 16 84
17 155 17
18 69 150
19 55 87
20 22 133
21 10 20
22 187 142
23 114 122
24 78 119
25 199 115
26 185 124
27 46 22
28 7 152
29 144 92
30 5 162
31 197 113
32 189 95
33 84 118
34 28 77
35 105 26
36 113 100
37 139 97
38 143 179
39 111 189
40 119 37
41 87 191
42 80 167
43 23 137
44 181 70
45 178 123
46 45 142
47 151 66
48 68 50
49 159 196
50 87 30
51 187 92
52 10 153
53 54 30
54 54 37
55 180 147
56 154 59
57 93 13
58 38 190
59 104 88
60 78 169
61 127 143
62 24 131
63 82 194
64 165 117
65 23 176
66 55 24
67 148 157
68 186 91
69 26 138
70 78 184
71 165 181
72 11 151
73 103 66
74 188 125
75 197 140
76 100 70
77 83 118
78 66 58
79 83 188
80 12 154
81 158 20
82 161 158
83 41 186
84 162 162
85 89 176
86 86 69
87 20 72
88 41 182
89 178 147
90 140 11
91 60 51
92 100 6
93 18 89
94 85 110
95 37 146
96 181 89
97 26 147
98 52 38
99 131 136
100 46 131
101 35 160
102 187 97
103 172 179
104 156 93
105 85 164
106 17 32
107 175 60
108 82 48
109 62 50
110 137 1
111 140 4
112 143 0
113 198 132
114 25 146
115 137 10
116 15 88
117 38 183
118 121 48
119 62 15
120 19 38
121 144 59
122 125 78
123 12 156
124 53 29
125 22 61
126 159 121
127 59 83
128 59 57
129 168 58
130 12 85
131 85 193
132 155 107
133 195 132
134 55 51
135 189 120
136 59 139
137 121 50
138 10 67
139 52 28
140 17 150
141 101 67
142 69 47
143 164 113
144 79 115
145 80 108
146 184 116
147 27 135
148 29 139
149 84 194
150 186 94
151 114 72
152 90 4
153 41 187
154 92 178
155 46 40
156 174 128
157 30 142
158 28 193
159 185 96
160 74 55
161 23 123
162 103 70
163 42 174
164 8 8
165 83 81
166 57 54
167 26 45
168 83 180
169 70 37
170 97 65
171 53 31
172 179 141
173 100 53
174 55 64
175 8 71
176 174 185
177 176 144
178 123 36
179 142 60
180 53 61
181 62 38
182 123 33
183 136 111
184 28 160
185 85 85
186 12 66
187 107 96
188 168 119
189 171 36
190 188 88
191 135 45
192 26 41
193 195 129
194 108 141
195 75 134
196 141 4
197 60 58
198 196 137
199 7 142
200 190 112
201 63 192
202 97 129
203 71 131
204 159 105
205 109 48
206 189 83
207 142 27
208 68 40
209 56 90
210 98 193
211 121 36
212 101 70
213 134 157
214 103 77
215 87 117
216 183 170
217 193 12
218 127 60
219 178 140
220 95 50
221 25 165
222 124 191
223 138 69
224 177 145
225 50 31
226 37 177
227 48 30
228 197 29
229 40 130
230 23 168
231 24 140
232 20 59
233 81 183
234 190 109
235 28 187
236 145 19
237 164 37
238 186 96
239 105 70
240 140 6
241 146 166
242 56 148
243 66 52
244 53 59
245 179 5
246 122 58
247 37 190
248 155 22
249 175 143
250 199 132
251 131 92
252 83 197
253 180 66
254 87 195
255 129 176
256 185 123
257 77 115
258 7 119
259 195 97
260 162 118
261 196 111
262 32 47
263 100 144
264 13 152
265 192 113
266 25 143
267 51 31
268 14 84
269 12 69
270 165 113
271 138 72
272 135 0
273 8 89
274 110 110
275 177 146
276 87 196
277 89 39
278 65 77
279 63 149
280 143 5
281 32 178
282 193 111
283 162 123
284 67 127
285 73 81
286 50 67
287 38 188
288 183 120
289 129 38
290 35 186
291 180 93
292 146 3
293 8 154
294 200 162
295 8 69
296 131 38
297 78 115
298 123 31
299 39 151
300 53 175
301 1 54
302 40 95
303 5 73
304 7 151
305 166 117
306 39 186
307 165 116
308 99 12
309 48 106
310 154 7
311 18 35
312 135 171
313 11 118
314 78 72
315 19 51
316 69 133
317 56 59
318 99 45
319 103 67
320 53 79
321 194 112
322 42 165
323 68 156
324 172 114
325 98 4
326 104 176
327 200 136
328 21 85
329 67 138
330 111 129
331 97 7
332 114 112
333 125 49
334 75 173
335 42 72
336 53 180
337 174 194
338 39 112
339 6 193
340 6 67
341 14 92
342 3 75
343 23 142
344 57 118
345 65 53
346 140 3
347 187 112
348 112 6
349 63 55
350 104 68
351 30 187
352 194 129
353 53 67
354 186 65
355 12 131
356 122 37
357 36 193
358 113 105
359 84 180
360 136 90
361 61 50
362 97 67
363 190 110
364 87 118
365 137 4
366 179 151
367 189 97
368 15 87
369 157 142
370 138 61
371 65 42
372 60 184
373 85 192
374 93 7
375 95 16
376 125 38
377 149 78
378 185 115
379 158 132
380 29 121
381 122 13
382 57 157
383 8 73
384 115 75
385 41 43
386 104 5
387 172 55
388 184 140
389 12 113
390 40 183
391 193 131
392 129 40
393 84 192
394 95 74
395 8 74
396 181 147
397 17 93
398 66 196
399 123 90
400 110 184
401 121 46
402 40 95
403 41 186
404 178 147
405 54 37
406 123 31
407 178 140
408 26 45
409 10 153
410 138 69
411 113 105
412 142 60
413 42 72
414 189 120
415 28 160
416 42 174
417 11 118
418 48 106
419 110 110
PICKUP_AND_DELIVERY_SECTION
1 0 0 765 0 0 0
2 20 177 327 10 0 207
3 20 55 205 10 0 91
4 20 101 251 10 0 181
5 20 100 250 10 0 272
6 -20 418 568 10 325 0
7 30 129 279 10 0 398
8 -10 384 534 10 63 0
9 -30 449 599 10 159 0
10 11 66 216 10 0 149
11 20 100 250 10 0 228
12 30 89 239 10 0 383
13 -20 505 655 10 242 0
14 6 105 255 10 0 67
15 -26 461 611 10 154 0
16 -10 113 263 10 130 0
17 32 99 249 10 0 237
18 -30 504 654 10 334 0
19 -20 143 293 10 180 0
20 -20 112 262 10 43 0
21 14 485 635 10 0 106
22 10 96 246 10 0 379
23 -10 153 303 10 26 0
24 30 29 179 10 0 263
25 -20 100 250 10 363 0
26 10 88 238 10 0 23
27 -50 344 494 10 227 0
28 10 112 262 10 0 72
29 -10 451 601 10 32 0
30 -30 113 263 10 123 0
31 20 97 247 10 0 200
32 10 89 239 10 0 29
33 -10 38 188 10 364 0
34 12 160 310 10 0 138
35 -20 263 413 10 211 0
36 -20 170 320 10 212 0
37 -10 565 715 10 74 0
38 -23 211 361 10 105 0
39 3 443 593 10 0 400
40 -3 108 258 10 401 0
41 10 91 241 10 0 254
42 10 162 312 10 0 131
43 20 98 248 10 0 20
44 25 465 615 10 0 121
45 30 81 231 10 0 256
46 -20 408 558 10 65 0
47 11 61 211 10 0 107
48 10 76 226 10 0 225
49 6 178 328 10 0 71
50 10 128 278 10 0 377
51 20 87 237 10 0 206
52 20 104 254 0 0 409
53 -23 90 240 10 208 0
54 21 527 677 0 0 405
55 -20 92 242 10 126 0
56 17 67 217 10 0 354
57 30 87 237 10 0 152
58 10 109 259 10 0 247
59 -10 593 743 10 239 0
60 -20 228 378 10 70 0
61 -17 481 631 10 216 0
62 31 249 399 10 0 380
63 10 116 266 10 0 8
64 -20 67 217 10 146 0
65 20 293 443 10 0 46
66 -10 88 238 10 169 0
67 -6 258 408 10 14 0
68 10 86 236 10 0 96
69 10 128 278 10 0 100
70 20 149 299 10 0 60
71 -6 103 253 10 49 0
72 -10 102 252 10 28 0
73 20 34 184 10 0 122
74 10 91 241 10 0 37
75 -10 104 254 10 288 0
76 30 30 180 10 0 170
77 20 27 177 10 0 284
78 -20 139 289 10 197 0
79 30 89 239 10 0 359
80 -20 103 253 10 264 0
81 -30 507 657 10 240 0
82 24 333 483 10 0 202
83 27 104 254 0 0 403
84 -10 283 433 10 224 0
85 -28 367 517 10 300 0
86 14 116 266 10 0 185
87 21 191 341 10 0 269
88 -26 101 251 10 382 0
89 10 97 247 0 0 404
90 10 97 247 10 0 245
91 -20 63 213 10 3 0
92 -30 94 244 10 308 0
93 -10 82 232 10 116 0
94 10 18 168 10 0 297
95 -20 250 400 10 97 0
96 -10 81 231 10 68 0
97 20 87 237 10 0 95
98 30 78 228 10 0 155
99 18 558 708 10 0 332
100 -10 281 431 10 69 0
101 16 88 238 10 0 221
102 10 119 269 10 0 367
103 -18 499 649 10 255 0
104 25 361 511 10 0 204
105 23 65 215 10 0 38
106 -14 411 561 10 21 0
107 -11 85 235 10 47 0
108 8 55 205 10 0 139
109 20 62 212 10 0 278
110 -10 137 287 10 365 0
111 10 104 254 10 0 310
112 10 121 271 10 0 115
113 -20 103 253 10 327 0
114 30 87 237 10 0 140
115 -10 380 530 10 112 0
116 10 85 235 10 0 93
117 10 249 399 10 0 372
118 -20 223 373 10 392 0
119 29 93 243 10 0 124
120 -30 394 544 10 317 0
121 -25 382 532 10 44 0
122 -20 33 183 10 73 0
123 30 104 254 10 0 30
124 -29 85 235 10 119 0
125 17 210 360 10 0 320
126 20 99 249 10 0 55
127 24 167 317 10 0 344
128 10 59 209 10 0 345
129 -8 162 312 10 271 0
130 10 89 239 10 0 16
131 -10 250 400 10 42 0
132 -20 490 640 10 391 0
133 -40 203 353 10 193 0
134 17 208 358 10 0 160
135 10 91 241 0 0 414
136 -16 261 411 10 195 0
137 24 54 204 10 0 178
138 -12 95 245 10 34 0
139 -8 86 236 10 108 0
140 -30 96 246 10 114 0
141 20 37 187 10 0 319
142 10 63 213 10 0 371
143 20 65 215 10 0 270
144 30 25 175 10 0 257
145 20 21 171 10 0 199
146 20 103 253 10 0 64
147 -26 141 291 10 338 0
148 10 81 231 10 0 161
149 -11 95 245 10 10 0
150 -18 86 236 10 360 0
151 -10 31 181 10 350 0
152 -30 96 246 10 57 0
153 20 105 255 10 0 336
154 26 411 561 10 0 15
155 -30 192 342 10 98 0
156 20 79 229 10 0 324
157 -1 81 231 10 229 0
158 -10 119 269 10 351 0
159 30 141 291 10 0 9
160 -17 291 441 10 134 0
161 -10 230 380 10 148 0
162 10 30 180 10 0 333
163 13 94 244 0 0 416
164 -14 130 280 10 192 0
165 21 25 175 10 0 353
166 -20 62 212 10 394 0
167 8 162 312 0 0 408
168 15 206 356 10 0 323
169 10 69 219 10 0 66
170 -30 51 201 10 76 0
171 10 101 251 10 0 267
172 20 89 239 10 0 396
173 -20 558 708 10 331 0
174 30 57 207 10 0 286
175 10 113 263 10 0 295
176 15 112 262 10 0 241
177 20 131 281 10 0 213
178 -24 68 218 10 137 0
179 13 353 503 0 0 412
180 20 61 211 10 0 19
181 -20 479 629 10 4 0
182 -30 70 220 10 356 0
183 -13 541 691 10 194 0
184 27 333 483 0 0 415
185 -14 509 659 10 86 0
186 20 94 244 10 0 209
187 23 8 158 10 0 220
188 -8 498 648 10 337 0
189 -10 510 660 10 280 0
190 -10 88 238 10 291 0
191 -30 228 378 10 376 0
192 14 94 244 10 0 164
193 40 107 257 10 0 133
194 13 210 360 10 0 183
195 16 42 192 10 0 136
196 20 104 254 10 0 292
197 20 58 208 10 0 78
198 -20 102 252 10 352 0
199 -20 142 292 10 145 0
200 -20 90 240 10 31 0
201 -20 173 323 10 252 0
202 -24 524 674 10 82 0
203 -8 439 589 10 316 0
204 -25 516 666 10 104 0
205 3 75 225 10 0 346
206 -20 144 294 10 51 0
207 -20 310 460 10 2 0
208 23 68 218 10 0 53
209 -20 469 619 10 186 0
210 -30 142 292 10 276 0
211 20 95 245 10 0 35
212 20 30 180 10 0 36
213 -20 358 508 10 177 0
214 21 23 173 10 0 362
215 10 62 212 10 0 329
216 17 133 283 10 0 61
217 -24 314 464 10 248 0
218 -26 68 218 10 384 0
219 10 87 237 0 0 407
220 -23 177 327 10 187 0
221 -16 313 463 10 101 0
222 -10 136 286 10 373 0
223 9 49 199 0 0 410
224 10 119 269 10 0 84
225 -10 85 235 10 48 0
226 -20 362 512 10 357 0
227 50 87 237 10 0 27
228 -20 349 499 10 11 0
229 1 78 228 10 0 157
230 -26 419 569 10 299 0
231 20 85 235 10 0 258
232 -14 442 592 10 301 0
233 -17 85 235 10 279 0
234 10 128 278 10 0 261
235 -13 439 589 10 339 0
236 -26 265 415 10 386 0
237 -32 89 239 10 17 0
238 20 130 280 10 0 259
239 10 30 180 10 0 59
240 30 102 252 10 0 81
241 -15 306 456 10 176 0
242 20 467 617 10 0 13
243 -9 89 239 10 314 0
244 20 62 212 10 0 262
245 -10 476 626 10 90 0
246 15 47 197 10 0 370
247 -10 109 259 10 58 0
248 24 95 245 10 0 217
249 20 142 292 10 0 275
250 -10 104 254 10 307 0
251 22 32 182 10 0 399
252 20 103 253 10 0 201
253 13 86 236 10 0 387
254 -10 95 245 10 41 0
255 18 85 235 10 0 103
256 -30 88 238 10 45 0
257 -30 27 177 10 144 0
258 -20 301 451 10 231 0
259 -20 95 245 10 238 0
260 20 71 221 10 0 283
261 -10 96 246 10 234 0
262 -20 90 240 10 244 0
263 -30 189 339 10 24 0
264 20 101 251 10 0 80
265 20 92 242 10 0 347
266 20 86 236 10 0 355
267 -10 84 234 10 171 0
268 20 101 251 10 0 328
269 -21 139 289 10 87 0
270 -20 66 216 10 143 0
271 8 82 232 10 0 129
272 -20 149 299 10 5 0
273 -30 148 298 10 341 0
274 14 532 682 0 0 419
275 -20 108 258 10 249 0
276 30 96 246 10 0 210
277 -21 61 211 10 318 0
278 -20 148 298 10 109 0
279 17 61 211 10 0 233
280 10 106 256 10 0 189
281 10 169 319 10 0 322
282 20 104 254 10 0 321
283 -20 86 236 10 260 0
284 -20 42 192 10 77 0
285 -24 572 722 10 311 0
286 -30 59 209 10 174 0
287 20 107 257 10 0 290
288 10 85 235 10 0 75
289 -20 68 218 10 296 0
290 -20 150 300 10 287 0
291 10 157 307 10 0 190
292 -20 372 522 10 196 0
293 20 106 256 10 0 304
294 -27 434 584 10 330 0
295 -10 125 275 10 175 0
296 20 69 219 10 0 289
297 -10 26 176 10 94 0
298 20 80 230 0 0 406
299 26 79 229 10 0 230
300 28 143 293 10 0 85
301 14 227 377 10 0 232
302 25 442 592 0 0 402
303 10 98 248 10 0 395
304 -20 123 273 10 293 0
305 -20 68 218 10 378 0
306 -20 115 265 10 390 0
307 10 66 216 10 0 250
308 30 88 238 10 0 92
309 23 113 263 0 0 418
310 -10 290 440 10 111 0
311 24 501 651 10 0 285
312 -13 103 253 10 369 0
313 33 90 240 0 0 417
314 9 35 185 10 0 243
315 -10 105 255 10 340 0
316 8 45 195 10 0 203
317 30 60 210 10 0 120
318 21 55 205 10 0 277
319 -20 33 183 10 141 0
320 -17 412 562 10 125 0
321 -20 94 244 10 282 0
322 -10 323 473 10 281 0
323 -15 256 406 10 168 0
324 -20 73 223 10 156 0
325 20 96 246 10 0 6
326 -10 170 320 10 393 0
327 20 106 256 10 0 113
328 -20 128 278 10 268 0
329 -10 50 200 10 215 0
330 27 31 181 10 0 294
331 20 93 243 10 0 173
332 -18 546 696 10 99 0
333 -10 230 380 10 162 0
334 30 77 227 10 0 18
335 18 120 270 0 0 413
336 -20 218 368 10 153 0
337 8 402 552 10 0 188
338 26 70 220 10 0 147
339 13 339 489 10 0 235
340 10 99 249 10 0 315
341 30 86 236 10 0 273
342 10 100 250 10 0 385
343 10 87 237 10 0 389
344 -24 361 511 10 127 0
345 -10 112 262 10 128 0
346 -3 104 254 10 205 0
347 -20 87 237 10 265 0
348 -20 511 661 10 374 0
349 -10 125 275 10 361 0
350 10 32 182 10 0 151
351 10 135 285 10 0 158
352 20 118 268 10 0 198
353 -21 65 215 10 165 0
354 -17 407 557 10 56 0
355 -20 93 243 10 266 0
356 30 66 216 10 0 182
357 20 112 262 10 0 226
358 23 185 335 0 0 411
359 -30 301 451 10 79 0
360 18 37 187 10 0 150
361 10 63 213 10 0 349
362 -21 63 213 10 214 0
363 20 117 267 10 0 25
364 10 51 201 10 0 33
365 10 164 314 10 0 110
366 -15 259 409 10 388 0
367 -10 107 257 10 102 0
368 -20 85 235 10 397 0
369 13 70 220 10 0 312
370 -15 202 352 10 246 0
371 -10 153 303 10 142 0
372 -10 266 416 10 117 0
373 10 93 243 10 0 222
374 20 93 243 10 0 348
375 20 99 249 10 0 381
376 30 66 216 10 0 191
377 -10 387 537 10 50 0
378 20 91 241 10 0 305
379 -10 298 448 10 22 0
380 -31 214 364 10 62 0
381 -20 89 239 10 375 0
382 26 71 221 10 0 88
383 -30 101 251 10 12 0
384 26 29 179 10 0 218
385 -10 447 597 10 342 0
386 26 131 281 10 0 236
387 -13 395 545 10 253 0
388 15 296 446 10 0 366
389 -10 273 423 10 343 0
390 20 102 252 10 0 306
391 20 98 248 10 0 132
392 20 66 216 10 0 118
393 10 93 243 10 0 326
394 20 81 231 10 0 166
395 -10 95 245 10 303 0
396 -20 93 243 10 172 0
397 20 83 233 10 0 368
398 -30 357 507 10 7 0
399 -22 25 175 10 251 0
400 -3 391 541 10 39 0
401 3 106 256 10 0 40
402 -25 442 592 10 302 0
403 -27 104 254 10 83 0
404 -10 97 247 10 89 0
405 -21 527 677 10 54 0
406 -20 80 230 10 298 0
407 -10 87 237 10 219 0
408 -8 162 312 10 167 0
409 -20 104 254 10 52 0
410 -9 49 199 10 223 0
411 -23 185 335 10 358 0
412 -13 353 503 10 179 0
413 -18 120 270 10 335 0
414 -10 91 241 10 135 0
415 -27 333 483 10 184 0
416 -13 94 244 10 163 0
417 -33 90 240 10 313 0
418 -23 113 263 10 309 0
419 -14 532 682 10 274 0
DEPOT_SECTION
1
-1
EOF
