NAME: lrc1_4_2
TYPE: PDPTW
COMMENT: Li & Lim PDPTW benchmark converted from SINTEF format
DIMENSION: 419
VEHICLES: 100
CAPACITY: 200
EDGE_WEIGHT_TYPE: EUC_2D
NODE_COORD_SECTION
1 100 100
2 134 6
3 63 58
4 64 52
5 139 7
6 110 8
7 79 193
8 80 190
9 158 81
10 60 153
11 141 8
12 13 81
13 68 115
14 151 132
15 88 143
16 16 84
17 155 17
18 69 150
19 55 87
20 22 133
21 10 20
22 187 142
23 114 122
24 78 119
25 199 115
26 185 124
27 46 22
28 7 152
29 144 92
30 5 162
31 197 113
32 189 95
33 84 118
34 28 77
35 105 26
36 113 100
37 139 97
38 143 179
39 111 189
40 119 37
41 87 191
42 80 167
43 23 137
44 181 70
45 178 123
46 45 142
47 151 66
48 68 50
49 159 196
50 87 30
51 187 92
52 10 153
53 54 30
54 54 37
55 180 147
56 154 59
57 93 13
58 38 190
59 104 88
60 78 169
61 127 143
62 24 131
63 82 194
64 165 117
65 23 176
66 55 24
67 148 157
68 186 91
69 26 138
70 78 184
71 165 181
72 11 151
73 103 66
74 188 125
75 197 140
76 100 70
77 83 118
78 66 58
79 83 188
80 12 154
81 158 20
82 161 158
83 41 186
84 162 162
85 89 176
86 86 69
87 20 72
88 41 182
89 178 147
90 140 11
91 60 51
92 100 6
93 18 89
94 85 110
95 37 146
96 181 89
97 26 147
98 52 38
99 131 136
100 46 131
101 35 160
102 187 97
103 172 179
104 156 93
105 85 164
106 17 32
107 175 60
108 82 48
109 62 50
110 137 1
111 140 4
112 143 0
113 198 132
114 25 146
115 137 10
116 15 88
117 38 183
118 121 48
119 62 15
120 19 38
121 144 59
122 125 78
123 12 156
124 53 29
125 22 61
126 159 121
127 59 83
128 59 57
129 168 58
130 12 85
131 85 193
132 155 107
133 195 132
134 55 51
135 189 120
136 59 139
137 121 50
138 10 67
139 52 28
140 17 150
141 101 67
142 69 47
143 164 113
144 79 115
145 80 108
146 184 116
147 27 135
148 29 139
149 84 194
150 186 94
151 114 72
152 90 4
153 41 187
154 92 178
155 46 40
156 174 128
157 30 142
158 28 193
159 185 96
160 74 55
161 23 123
162 103 70
163 42 174
164 8 8
165 83 81
166 57 54
167 26 45
168 83 180
169 70 37
170 97 65
171 53 31
172 179 141
173 100 53
174 55 64
175 8 71
176 174 185
177 176 144
178 123 36
179 142 60
180 53 61
181 62 38
182 123 33
183 136 111
184 28 160
185 85 85
186 12 66
187 107 96
188 168 119
189 171 36
190 188 88
191 135 45
192 26 41
193 195 129
194 108 141
195 75 134
196 141 4
197 60 58
198 196 137
199 7 142
200 190 112
201 63 192
202 97 129
203 71 131
204 159 105
205 109 48
206 189 83
207 142 27
208 68 40
209 56 90
210 98 193
211 121 36
212 101 70
213 134 157
214 103 77
215 87 117
216 183 170
217 193 12
218 127 60
219 178 140
220 95 50
221 25 165
222 124 191
223 138 69
224 177 145
225 50 31
226 37 177
227 48 30
228 197 29
229 40 130
230 23 168
231 24 140
232 20 59
233 81 183
234 190 109
235 28 187
236 145 19
237 164 37
238 186 96
239 105 70
240 140 6
241 146 166
242 56 148
243 66 52
244 53 59
245 179 5
246 122 58
247 37 190
248 155 22
249 175 143
250 199 132
251 131 92
252 83 197
253 180 66
254 87 195
255 129 176
256 185 123
257 77 115
258 7 119
259 195 97
260 162 118
261 196 111
262 32 47
263 100 144
264 13 152
265 192 113
266 25 143
267 51 31
268 14 84
269 12 69
270 165 113
271 138 72
272 135 0
273 8 89
274 110 110
275 177 146
276 87 196
277 89 39
278 65 77
279 63 149
280 143 5
281 32 178
282 193 111
283 162 123
284 67 127
285 73 81
286 50 67
287 38 188
288 183 120
289 129 38
290 35 186
291 180 93
292 146 3
293 8 154
294 200 162
295 8 69
296 131 38
297 78 115
298 123 31
299 39 151
300 53 175
301 1 54
302 40 95
303 5 73
304 7 151
305 166 117
306 39 186
307 165 116
308 99 12
309 48 106
310 154 7
311 18 35
312 135 171
313 11 118
314 78 72
315 19 51
316 69 133
317 56 59
318 99 45
319 103 67
320 53 79
321 194 112
322 42 165
323 68 156
324 172 114
325 98 4
326 104 176
327 200 136
328 21 85
329 67 138
330 111 129
331 97 7
332 114 112
333 125 49
334 75 173
335 42 72
336 53 180
337 174 194
338 39 112
339 6 193
340 6 67
341 14 92
342 3 75
343 23 142
344 57 118
345 65 53
346 140 3
347 187 112
348 112 6
349 63 55
350 104 68
351 30 187
352 194 129
353 53 67
354 186 65
355 12 131
356 122 37
357 36 193
358 113 105
359 84 180
360 136 90
361 61 50
362 97 67
363 190 110
364 87 118
365 137 4
366 179 151
367 189 97
368 15 87
369 157 142
370 138 61
371 65 42
372 60 184
373 85 192
374 93 7
375 95 16
376 125 38
377 149 78
378 185 115
379 158 132
380 29 121
381 122 13
382 57 157
383 8 73
384 115 75
385 41 43
386 104 5
387 172 55
388 184 140
389 12 113
390 40 183
391 193 131
392 129 40
393 84 192
394 95 74
395 8 74
396 181 147
397 17 93
398 66 196
399 123 90
400 110 184
401 121 46
402 37 177
403 55 51
404 95 50
405 142 27
406 80 167
407 83 188
408 59 83
409 139 97
410 181 70
411 113 100
412 155 17
413 51 31
414 86 69
415 69 47
416 67 127
417 115 75
418 104 88
419 98 4
PICKUP_AND_DELIVERY_SECTION
1 0 0 765 0 0 0
2 20 237 267 10 0 81
3 20 55 85 10 0 91
4 -10 161 191 10 243 0
5 20 108 138 10 0 196
6 -10 478 508 10 178 0
7 30 0 660 10 0 70
8 -11 444 474 10 10 0
9 -11 509 539 10 387 0
10 11 97 127 10 0 8
11 20 100 130 10 0 310
12 -30 148 178 10 341 0
13 -2 565 595 10 389 0
14 6 0 695 10 0 216
15 -27 0 711 10 210 0
16 20 173 203 10 0 328
17 32 99 129 0 0 412
18 -16 564 594 10 101 0
19 -20 203 233 10 180 0
20 -20 172 202 10 43 0
21 -30 0 635 10 98 0
22 -20 116 146 10 172 0
23 10 213 243 10 0 194
24 30 72 102 10 0 274
25 -6 0 655 10 133 0
26 10 0 667 10 0 193
27 -29 404 434 10 119 0
28 -10 172 202 10 148 0
29 -29 511 541 10 129 0
30 26 124 154 10 0 355
31 -20 128 158 10 265 0
32 10 134 164 10 0 367
33 20 98 128 10 0 215
34 -20 220 250 10 368 0
35 -26 323 353 10 386 0
36 5 230 260 0 0 411
37 4 0 716 0 0 409
38 24 0 666 10 0 241
39 -30 0 666 10 334 0
40 20 0 690 10 0 118
41 10 91 121 10 0 359
42 10 0 686 0 0 406
43 20 158 188 10 0 20
44 25 525 555 0 0 410
45 30 81 111 10 0 146
46 -10 468 498 10 69 0
47 -9 74 104 10 223 0
48 -10 136 166 10 361 0
49 -27 238 268 10 312 0
50 -21 188 218 10 318 0
51 20 0 668 10 0 259
52 -20 0 651 10 72 0
53 10 150 180 10 0 225
54 -27 646 676 10 262 0
55 -20 145 175 10 396 0
56 17 68 98 10 0 217
57 30 145 175 10 0 277
58 10 137 167 10 0 290
59 25 713 743 0 0 418
60 -20 288 318 10 153 0
61 7 541 571 10 0 99
62 31 309 339 10 0 100
63 10 176 206 10 0 149
64 -10 0 688 10 307 0
65 -13 0 647 10 339 0
66 -10 123 153 10 169 0
67 -1 0 681 10 103 0
68 10 97 127 10 0 104
69 10 188 218 10 0 46
70 -30 0 669 10 7 0
71 22 103 133 10 0 82
72 20 109 139 10 0 52
73 -20 0 721 10 319 0
74 -20 120 150 10 156 0
75 10 113 143 10 0 113
76 30 30 60 10 0 108
77 20 87 117 10 0 364
78 20 199 229 10 0 371
79 30 89 119 0 0 407
80 10 133 163 10 0 123
81 -20 572 602 10 2 0
82 -22 393 423 10 71 0
83 -30 0 651 10 88 0
84 20 343 373 10 0 176
85 13 0 679 10 0 154
86 14 0 721 0 0 414
87 21 251 281 10 0 320
88 30 101 131 10 0 83
89 10 157 187 10 0 183
90 10 97 127 10 0 236
91 -20 83 113 10 3 0
92 30 94 124 10 0 205
93 -19 0 673 10 315 0
94 10 18 48 10 0 202
95 10 310 340 10 0 203
96 10 81 111 10 0 190
97 20 0 668 10 0 266
98 30 78 108 10 0 21
99 -7 631 661 10 61 0
100 -31 341 371 10 62 0
101 16 0 667 10 0 18
102 10 179 209 10 0 291
103 1 561 591 10 0 67
104 -10 421 451 10 68 0
105 23 65 95 10 0 276
106 16 0 648 10 0 311
107 -21 85 115 10 399 0
108 -30 90 120 10 76 0
109 20 105 135 10 0 349
110 10 0 650 10 0 272
111 -30 131 161 10 240 0
112 -20 181 211 10 296 0
113 -10 153 183 10 75 0
114 30 107 137 10 0 231
115 -10 440 470 10 365 0
116 10 109 139 10 0 268
117 10 309 339 10 0 281
118 -20 283 313 10 40 0
119 29 93 123 10 0 27
120 16 454 484 10 0 285
121 -23 442 472 10 187 0
122 -13 0 722 10 179 0
123 -10 0 651 10 80 0
124 -23 0 670 10 208 0
125 17 270 300 10 0 302
126 20 159 189 10 0 358
127 24 227 257 0 0 408
128 -21 0 696 10 165 0
129 29 222 252 10 0 29
130 -10 0 666 10 286 0
131 25 310 340 10 0 263
132 -30 550 580 10 256 0
133 6 263 293 10 0 25
134 17 268 298 0 0 403
135 10 135 165 10 0 159
136 -20 321 351 10 390 0
137 24 112 142 10 0 370
138 30 95 125 10 0 273
139 10 0 669 10 0 181
140 20 0 659 10 0 221
141 20 0 722 10 0 170
142 10 0 694 0 0 415
143 20 65 95 10 0 270
144 30 0 730 10 0 332
145 20 21 51 10 0 157
146 -30 163 193 10 45 0
147 -26 0 675 10 299 0
148 10 81 111 10 0 28
149 -10 0 660 10 63 0
150 -20 0 669 10 238 0
151 22 0 724 10 0 246
152 -30 0 659 10 308 0
153 20 112 142 10 0 60
154 -13 471 501 10 85 0
155 -30 0 675 10 385 0
156 20 79 109 10 0 74
157 -20 81 111 10 145 0
158 -20 179 209 10 357 0
159 -10 201 231 10 135 0
160 -10 0 704 10 171 0
161 -46 290 320 10 380 0
162 -21 38 68 10 214 0
163 13 113 143 10 0 351
164 -50 138 168 10 227 0
165 21 25 55 10 0 128
166 20 69 99 10 0 167
167 -20 222 252 10 166 0
168 -19 266 296 10 326 0
169 10 69 99 10 0 66
170 -20 111 141 10 141 0
171 10 161 191 10 0 160
172 20 98 128 10 0 22
173 -20 676 706 10 298 0
174 -14 96 126 10 185 0
175 -10 173 203 10 303 0
176 -20 0 643 10 84 0
177 20 0 668 10 0 388
178 10 115 145 10 0 6
179 13 413 443 10 0 122
180 20 82 112 10 0 19
181 -10 539 569 10 139 0
182 20 0 685 10 0 348
183 -10 601 631 10 89 0
184 27 393 423 10 0 242
185 14 0 734 10 0 174
186 20 94 124 10 0 295
187 23 8 38 10 0 121
188 -20 558 588 10 249 0
189 -10 630 660 10 346 0
190 -10 88 118 10 96 0
191 -17 288 318 10 333 0
192 -20 143 173 10 197 0
193 -10 167 197 10 26 0
194 -10 270 300 10 23 0
195 16 42 72 10 0 229
196 -20 154 184 10 5 0
197 20 58 88 10 0 192
198 -20 102 132 10 391 0
199 20 202 232 10 0 344
200 -20 90 120 10 324 0
201 -10 0 656 10 297 0
202 -10 0 726 10 94 0
203 -10 499 529 10 95 0
204 -20 0 696 10 378 0
205 -30 0 703 10 92 0
206 -13 204 234 10 253 0
207 11 370 400 0 0 405
208 23 68 98 10 0 124
209 -20 529 559 10 397 0
210 27 0 662 10 0 15
211 20 155 185 10 0 401
212 20 30 60 10 0 375
213 -27 0 689 10 330 0
214 21 44 74 10 0 162
215 -20 122 152 10 33 0
216 -6 193 223 10 14 0
217 -17 374 404 10 56 0
218 23 128 158 10 0 377
219 10 87 117 10 0 275
220 25 237 267 0 0 404
221 -20 0 656 10 140 0
222 24 0 661 10 0 255
223 9 50 80 10 0 47
224 -12 0 666 10 379 0
225 -10 0 670 10 53 0
226 21 0 656 0 0 402
227 50 94 124 10 0 164
228 16 409 439 10 0 360
229 -16 138 168 10 195 0
230 -20 479 509 10 264 0
231 -30 144 174 10 114 0
232 20 0 666 10 0 395
233 11 87 117 10 0 252
234 -10 188 218 10 321 0
235 -10 0 643 10 247 0
236 -10 0 663 10 90 0
237 19 99 129 10 0 354
238 20 190 220 10 0 150
239 10 50 80 10 0 362
240 30 119 149 10 0 111
241 -24 366 396 10 38 0
242 -27 527 557 10 184 0
243 10 149 179 10 0 4
244 -30 70 100 10 317 0
245 -24 0 632 10 248 0
246 -22 0 708 10 151 0
247 10 148 178 10 0 235
248 24 127 157 10 0 245
249 20 202 232 10 0 188
250 10 142 172 10 0 352
251 22 32 62 10 0 260
252 -11 163 193 10 233 0
253 13 86 116 10 0 206
254 -10 138 168 10 393 0
255 -24 145 175 10 222 0
256 30 96 126 10 0 132
257 20 57 87 10 0 329
258 -26 0 661 10 338 0
259 -20 151 181 10 51 0
260 -22 131 161 10 251 0
261 -30 140 170 10 347 0
262 27 150 180 10 0 54
263 -25 0 711 10 131 0
264 20 101 131 10 0 230
265 20 98 128 10 0 31
266 -20 120 150 10 97 0
267 20 84 114 0 0 413
268 -10 161 191 10 116 0
269 -10 199 229 10 342 0
270 -20 66 96 10 143 0
271 -24 0 708 10 292 0
272 -10 0 650 10 110 0
273 -30 208 238 10 138 0
274 -30 592 622 10 24 0
275 -10 0 666 10 219 0
276 -23 149 179 10 105 0
277 -30 0 694 10 57 0
278 19 0 714 10 0 353
279 17 61 91 10 0 382
280 -10 0 651 10 289 0
281 -10 0 652 10 117 0
282 20 0 662 10 0 363
283 -20 146 176 10 305 0
284 21 0 713 0 0 416
285 -16 692 722 10 120 0
286 10 112 142 10 0 130
287 20 125 155 10 0 306
288 -20 0 670 10 327 0
289 10 0 687 10 0 280
290 -10 210 240 10 58 0
291 -10 217 247 10 102 0
292 24 432 462 10 0 271
293 20 0 649 10 0 304
294 24 0 638 10 0 366
295 -20 185 215 10 186 0
296 20 69 99 10 0 112
297 10 46 76 10 0 201
298 20 140 170 10 0 173
299 26 112 142 10 0 147
300 28 203 233 10 0 398
301 14 287 317 10 0 340
302 -17 502 532 10 125 0
303 10 0 657 10 0 175
304 -20 183 213 10 293 0
305 20 95 125 10 0 283
306 -20 175 205 10 287 0
307 10 107 137 10 0 64
308 30 88 118 10 0 152
309 23 0 703 10 0 313
310 -20 350 380 10 11 0
311 -16 0 651 10 106 0
312 27 163 193 10 0 49
313 -23 0 665 10 309 0
314 9 35 65 10 0 345
315 19 165 195 10 0 93
316 -28 0 710 10 323 0
317 30 60 90 10 0 244
318 21 84 114 10 0 50
319 20 0 722 10 0 73
320 -21 472 502 10 87 0
321 10 153 183 10 0 234
322 -10 383 413 10 343 0
323 28 316 346 10 0 316
324 20 0 682 10 0 200
325 20 102 132 0 0 419
326 19 230 260 10 0 168
327 20 128 158 10 0 288
328 -20 188 218 10 16 0
329 -20 71 101 10 257 0
330 27 31 61 10 0 213
331 -20 0 662 10 374 0
332 -30 606 636 10 144 0
333 17 290 320 10 0 191
334 30 77 107 10 0 39
335 18 0 691 10 0 383
336 4 278 308 10 0 372
337 -13 462 492 10 369 0
338 26 130 160 10 0 258
339 13 399 429 10 0 65
340 -14 0 656 10 301 0
341 30 95 125 10 0 12
342 10 134 164 10 0 269
343 10 132 162 10 0 322
344 -20 0 709 10 199 0
345 -9 172 202 10 314 0
346 10 142 172 10 0 189
347 30 87 117 10 0 261
348 -20 618 648 10 182 0
349 -20 185 215 10 109 0
350 10 62 92 10 0 394
351 -13 195 225 10 163 0
352 -10 0 657 10 250 0
353 -19 125 155 10 278 0
354 -19 467 497 10 237 0
355 -26 0 662 10 30 0
356 30 0 689 10 0 381
357 20 161 191 10 0 158
358 -20 245 275 10 126 0
359 -10 361 391 10 41 0
360 -16 0 718 10 228 0
361 10 94 124 10 0 48
362 -10 123 153 10 239 0
363 -20 0 665 10 282 0
364 -20 111 141 10 77 0
365 10 224 254 10 0 115
366 -24 319 349 10 294 0
367 -10 167 197 10 32 0
368 20 120 150 10 0 34
369 13 70 100 10 0 337
370 -24 262 292 10 137 0
371 -20 213 243 10 78 0
372 -4 0 662 10 336 0
373 10 102 132 10 0 400
374 20 129 159 10 0 331
375 -20 0 671 10 212 0
376 -20 90 120 10 392 0
377 -23 447 477 10 218 0
378 20 151 181 10 0 204
379 12 0 689 10 0 224
380 46 274 304 10 0 161
381 -30 140 170 10 356 0
382 -17 80 110 10 279 0
383 -18 161 191 10 335 0
384 26 29 59 0 0 417
385 30 507 537 10 0 155
386 26 191 221 10 0 35
387 11 455 485 10 0 9
388 -20 356 386 10 177 0
389 2 333 363 10 0 13
390 20 102 132 10 0 136
391 20 0 657 10 0 198
392 20 66 96 10 0 376
393 10 113 143 10 0 254
394 -10 141 171 10 350 0
395 -20 0 660 10 232 0
396 20 134 164 10 0 55
397 20 0 672 10 0 209
398 -28 417 447 10 300 0
399 21 25 55 10 0 107
400 -10 451 481 10 373 0
401 -20 166 196 10 211 0
402 -21 0 656 10 226 0
403 -17 268 298 10 134 0
404 -25 237 267 10 220 0
405 -11 370 400 10 207 0
406 -10 0 686 10 42 0
407 -30 89 119 10 79 0
408 -24 227 257 10 127 0
409 -4 0 716 10 37 0
410 -25 525 555 10 44 0
411 -5 230 260 10 36 0
412 -32 99 129 10 17 0
413 -20 84 114 10 267 0
414 -14 0 721 10 86 0
415 -10 0 694 10 142 0
416 -21 0 713 10 284 0
417 -26 29 59 10 384 0
418 -25 713 743 10 59 0
419 -20 102 132 10 325 0
DEPOT_SECTION
1
-1
EOF
