NAME: lrc1_4_9
TYPE: PDPTW
COMMENT: Li & Lim PDPTW benchmark converted from SINTEF format
DIMENSION: 419
VEHICLES: 100
CAPACITY: 200
EDGE_WEIGHT_TYPE: EUC_2D
NODE_COORD_SECTION
1 100 100
2 134 6
3 63 58
4 64 52
5 139 7
6 110 8
7 79 193
8 80 190
9 158 81
10 60 153
11 141 8
12 13 81
13 68 115
14 151 132
15 88 143
16 16 84
17 155 17
18 69 150
19 55 87
20 22 133
21 10 20
22 187 142
23 114 122
24 78 119
25 199 115
26 185 124
27 46 22
28 7 152
29 144 92
30 5 162
31 197 113
32 189 95
33 84 118
34 28 77
35 105 26
36 113 100
37 139 97
38 143 179
39 111 189
40 119 37
41 87 191
42 80 167
43 23 137
44 181 70
45 178 123
46 45 142
47 151 66
48 68 50
49 159 196
50 87 30
51 187 92
52 10 153
53 54 30
54 54 37
55 180 147
56 154 59
57 93 13
58 38 190
59 104 88
60 78 169
61 127 143
62 24 131
63 82 194
64 165 117
65 23 176
66 55 24
67 148 157
68 186 91
69 26 138
70 78 184
71 165 181
72 11 151
73 103 66
74 188 125
75 197 140
76 100 70
77 83 118
78 66 58
79 83 188
80 12 154
81 158 20
82 161 158
83 41 186
84 162 162
85 89 176
86 86 69
87 20 72
88 41 182
89 178 147
90 140 11
91 60 51
92 100 6
93 18 89
94 85 110
95 37 146
96 181 89
97 26 147
98 52 38
99 131 136
100 46 131
101 35 160
102 187 97
103 172 179
104 156 93
105 85 164
106 17 32
107 175 60
108 82 48
109 62 50
110 137 1
111 140 4
112 143 0
113 198 132
114 25 146
115 137 10
116 15 88
117 38 183
118 121 48
119 62 15
120 19 38
121 144 59
122 125 78
123 12 156
124 53 29
125 22 61
126 159 121
127 59 83
128 59 57
129 168 58
130 12 85
131 85 193
132 155 107
133 195 132
134 55 51
135 189 120
136 59 139
137 121 50
138 10 67
139 52 28
140 17 150
141 101 67
142 69 47
143 164 113
144 79 115
145 80 108
146 184 116
147 27 135
148 29 139
149 84 194
150 186 94
151 114 72
152 90 4
153 41 187
154 92 178
155 46 40
156 174 128
157 30 142
158 28 193
159 185 96
160 74 55
161 23 123
162 103 70
163 42 174
164 8 8
165 83 81
166 57 54
167 26 45
168 83 180
169 70 37
170 97 65
171 53 31
172 179 141
173 100 53
174 55 64
175 8 71
176 174 185
177 176 144
178 123 36
179 142 60
180 53 61
181 62 38
182 123 33
183 136 111
184 28 160
185 85 85
186 12 66
187 107 96
188 168 119
189 171 36
190 188 88
191 135 45
192 26 41
193 195 129
194 108 141
195 75 134
196 141 4
197 60 58
198 196 137
199 7 142
200 190 112
201 63 192
202 97 129
203 71 131
204 159 105
205 109 48
206 189 83
207 142 27
208 68 40
209 56 90
210 98 193
211 121 36
212 101 70
213 134 157
214 103 77
215 87 117
216 183 170
217 193 12
218 127 60
219 178 140
220 95 50
221 25 165
222 124 191
223 138 69
224 177 145
225 50 31
226 37 177
227 48 30
228 197 29
229 40 130
230 23 168
231 24 140
232 20 59
233 81 183
234 190 109
235 28 187
236 145 19
237 164 37
238 186 96
239 105 70
240 140 6
241 146 166
242 56 148
243 66 52
244 53 59
245 179 5
246 122 58
247 37 190
248 155 22
249 175 143
250 199 132
251 131 92
252 83 197
253 180 66
254 87 195
255 129 176
256 185 123
257 77 115
258 7 119
259 195 97
260 162 118
261 196 111
262 32 47
263 100 144
264 13 152
265 192 113
266 25 143
267 51 31
268 14 84
269 12 69
270 165 113
271 138 72
272 135 0
273 8 89
274 110 110
275 177 146
276 87 196
277 89 39
278 65 77
279 63 149
280 143 5
281 32 178
282 193 111
283 162 123
284 67 127
285 73 81
286 50 67
287 38 188
288 183 120
289 129 38
290 35 186
291 180 93
292 146 3
293 8 154
294 200 162
295 8 69
296 131 38
297 78 115
298 123 31
299 39 151
300 53 175
301 1 54
302 40 95
303 5 73
304 7 151
305 166 117
306 39 186
307 165 116
308 99 12
309 48 106
310 154 7
311 18 35
312 135 171
313 11 118
314 78 72
315 19 51
316 69 133
317 56 59
318 99 45
319 103 67
320 53 79
321 194 112
322 42 165
323 68 156
324 172 114
325 98 4
326 104 176
327 200 136
328 21 85
329 67 138
330 111 129
331 97 7
332 114 112
333 125 49
334 75 173
335 42 72
336 53 180
337 174 194
338 39 112
339 6 193
340 6 67
341 14 92
342 3 75
343 23 142
344 57 118
345 65 53
346 140 3
347 187 112
348 112 6
349 63 55
350 104 68
351 30 187
352 194 129
353 53 67
354 186 65
355 12 131
356 122 37
357 36 193
358 113 105
359 84 180
360 136 90
361 61 50
362 97 67
363 190 110
364 87 118
365 137 4
366 179 151
367 189 97
368 15 87
369 157 142
370 138 61
371 65 42
372 60 184
373 85 192
374 93 7
375 95 16
376 125 38
377 149 78
378 185 115
379 158 132
380 29 121
381 122 13
382 57 157
383 8 73
384 115 75
385 41 43
386 104 5
387 172 55
388 184 140
389 12 113
390 40 183
391 193 131
392 129 40
393 84 192
394 95 74
395 8 74
396 181 147
397 17 93
398 66 196
399 123 90
400 110 184
401 121 46
402 158 132
403 142 60
404 8 89
405 12 66
406 57 157
407 175 60
408 146 3
409 101 67
410 60 184
411 145 19
412 69 150
413 79 193
414 12 131
415 73 81
416 176 144
417 62 38
418 114 112
419 186 91
PICKUP_AND_DELIVERY_SECTION
1 0 0 765 0 0 0
2 -20 192 312 10 11 0
3 20 55 175 10 0 349
4 20 116 236 10 0 160
5 -10 100 220 10 90 0
6 -3 433 553 10 401 0
7 30 144 264 0 0 413
8 13 399 519 10 0 359
9 -18 464 584 10 121 0
10 -11 66 186 10 329 0
11 20 100 220 10 0 2
12 30 103 223 10 0 138
13 -21 520 640 10 284 0
14 6 120 240 10 0 103
15 -13 476 596 10 85 0
16 20 128 248 10 0 34
17 -24 99 219 10 248 0
18 17 519 639 0 0 412
19 30 158 278 10 0 209
20 10 127 247 10 0 199
21 -10 515 635 10 27 0
22 -10 96 216 10 26 0
23 -10 168 288 10 364 0
24 30 29 149 10 0 316
25 -30 100 220 10 347 0
26 10 88 208 10 0 22
27 10 359 479 10 0 21
28 -20 127 247 10 140 0
29 -23 466 586 10 218 0
30 -20 113 233 10 293 0
31 20 97 217 10 0 234
32 10 89 209 10 0 190
33 20 53 173 10 0 215
34 -20 175 295 10 16 0
35 -10 278 398 10 142 0
36 -10 185 305 10 239 0
37 -19 580 700 10 370 0
38 -27 226 346 10 312 0
39 3 458 578 10 0 400
40 -10 123 243 10 178 0
41 10 91 211 10 0 373
42 10 177 297 10 0 326
43 -20 113 233 10 231 0
44 -20 480 600 10 238 0
45 30 81 201 10 0 82
46 -10 423 543 10 343 0
47 11 61 181 10 0 387
48 10 91 211 10 0 208
49 -22 193 313 10 71 0
50 -20 143 263 10 91 0
51 -10 87 207 10 96 0
52 -20 104 224 10 264 0
53 10 105 225 10 0 171
54 -30 557 677 10 98 0
55 10 100 220 10 0 89
56 17 67 187 10 0 129
57 30 100 220 10 0 325
58 -20 109 229 10 390 0
59 -30 623 743 10 114 0
60 -30 243 363 10 334 0
61 -22 496 616 10 151 0
62 31 264 384 10 0 380
63 -10 131 251 10 149 0
64 -40 73 193 10 283 0
65 -20 308 428 10 153 0
66 -50 88 208 10 227 0
67 -10 273 393 10 275 0
68 10 86 206 0 0 419
69 -20 143 263 10 97 0
70 20 164 284 10 0 168
71 22 103 223 10 0 49
72 20 102 222 10 0 123
73 -10 40 160 10 162 0
74 -10 91 211 10 307 0
75 -20 104 224 10 352 0
76 30 30 150 10 0 86
77 -20 42 162 10 145 0
78 20 154 274 10 0 345
79 30 89 209 10 0 131
80 -20 103 223 10 304 0
81 19 527 647 10 0 189
82 -30 348 468 10 45 0
83 -30 104 224 10 88 0
84 -13 298 418 10 369 0
85 13 382 502 10 0 15
86 -30 131 251 10 76 0
87 -30 206 326 10 341 0
88 30 101 221 10 0 83
89 -10 112 232 10 55 0
90 10 97 217 10 0 5
91 20 63 183 10 0 50
92 30 94 214 10 0 386
93 10 82 202 10 0 116
94 10 18 138 10 0 297
95 -33 265 385 10 313 0
96 10 81 201 10 0 51
97 20 87 207 10 0 69
98 30 78 198 10 0 54
99 -23 586 706 10 358 0
100 21 296 416 10 0 323
101 -17 88 208 10 279 0
102 10 134 254 10 0 206
103 -6 516 636 10 14 0
104 -18 376 496 10 360 0
105 23 65 185 10 0 255
106 -14 426 546 10 301 0
107 18 85 205 0 0 407
108 8 55 175 10 0 381
109 -20 62 182 10 166 0
110 -30 152 272 10 240 0
111 10 104 224 10 0 365
112 10 136 256 10 0 228
113 -20 108 228 10 327 0
114 30 87 207 10 0 59
115 -10 395 515 10 272 0
116 -10 85 205 10 93 0
117 -30 264 384 10 158 0
118 -10 238 358 10 361 0
119 -10 93 213 10 169 0
120 16 409 529 10 0 311
121 18 397 517 10 0 9
122 -22 33 153 10 251 0
123 -20 104 224 10 72 0
124 30 93 213 10 0 225
125 17 225 345 10 0 134
126 20 114 234 10 0 159
127 -19 182 302 10 278 0
128 -30 59 179 10 174 0
129 -17 177 297 10 56 0
130 10 89 209 10 0 328
131 -30 265 385 10 79 0
132 -20 505 625 10 260 0
133 -20 218 338 10 391 0
134 -17 223 343 10 125 0
135 10 91 211 10 0 224
136 -18 276 396 10 335 0
137 -15 67 187 10 246 0
138 -30 95 215 10 12 0
139 -20 86 206 10 267 0
140 20 96 216 10 0 28
141 20 52 172 0 0 409
142 10 78 198 10 0 35
143 20 65 185 10 0 294
144 30 25 145 10 0 194
145 20 21 141 10 0 77
146 20 118 238 10 0 249
147 -28 156 276 10 300 0
148 10 81 201 10 0 203
149 10 95 215 10 0 63
150 20 86 206 10 0 259
151 22 31 151 10 0 61
152 22 96 216 10 0 308
153 20 105 225 10 0 65
154 -27 426 546 10 210 0
155 15 207 327 10 0 385
156 20 79 199 10 0 337
157 10 81 201 10 0 258
158 30 134 254 10 0 117
159 -20 156 276 10 126 0
160 -20 306 426 10 4 0
161 -2 245 365 10 389 0
162 10 30 150 10 0 73
163 13 94 214 10 0 290
164 -10 130 250 10 303 0
165 21 25 145 10 0 212
166 20 62 182 10 0 109
167 -19 177 297 10 315 0
168 -20 221 341 10 70 0
169 10 69 189 10 0 119
170 20 66 186 10 0 173
171 -10 116 236 10 53 0
172 20 89 209 10 0 216
173 -20 588 708 10 170 0
174 30 57 177 10 0 128
175 -20 128 248 10 368 0
176 -10 112 232 10 219 0
177 20 146 266 0 0 416
178 10 70 190 10 0 40
179 13 368 488 0 0 403
180 20 61 181 10 0 262
181 19 494 614 0 0 417
182 -20 83 203 10 298 0
183 -14 556 676 10 188 0
184 -24 348 468 10 221 0
185 -21 524 644 10 344 0
186 20 94 214 0 0 405
187 23 8 128 10 0 257
188 14 513 633 10 0 183
189 -19 540 660 10 81 0
190 -10 88 208 10 32 0
191 -20 243 363 10 331 0
192 -10 98 218 10 342 0
193 40 122 242 10 0 198
194 -30 225 345 10 144 0
195 16 42 162 10 0 222
196 -10 109 229 10 280 0
197 -30 58 178 10 317 0
198 -40 102 222 10 193 0
199 -10 157 277 10 20 0
200 20 90 210 10 0 265
201 12 188 308 10 0 230
202 -14 539 659 10 274 0
203 -10 454 574 10 148 0
204 -10 531 651 10 291 0
205 3 90 210 10 0 346
206 -10 159 279 10 102 0
207 -20 325 445 10 374 0
208 -10 68 188 10 48 0
209 -30 484 604 10 19 0
210 27 157 277 10 0 154
211 -20 110 230 10 296 0
212 -21 30 150 10 165 0
213 -24 373 493 10 241 0
214 21 23 143 10 0 318
215 -20 77 197 10 33 0
216 -20 148 268 10 172 0
217 -19 329 449 10 237 0
218 23 83 203 10 0 29
219 10 87 207 10 0 176
220 -10 192 312 10 350 0
221 24 328 448 10 0 184
222 -16 151 271 10 195 0
223 9 49 169 10 0 271
224 -10 134 254 10 135 0
225 -30 85 205 10 124 0
226 -4 377 497 10 336 0
227 50 87 207 10 0 66
228 -10 364 484 10 112 0
229 1 93 213 10 0 322
230 -12 434 554 10 201 0
231 20 99 219 10 0 43
232 -10 457 577 10 340 0
233 11 85 205 10 0 398
234 -20 143 263 10 31 0
235 -13 454 574 10 339 0
236 20 280 400 0 0 411
237 19 89 209 10 0 217
238 20 145 265 10 0 44
239 10 30 150 10 0 36
240 30 102 222 10 0 110
241 24 321 441 10 0 213
242 -23 482 602 10 309 0
243 10 104 224 10 0 371
244 -10 62 182 10 286 0
245 -32 491 611 10 310 0
246 15 47 167 10 0 137
247 -5 109 229 10 306 0
248 24 95 215 10 0 17
249 -20 157 277 10 146 0
250 -10 104 224 10 288 0
251 22 32 152 10 0 122
252 -10 118 238 10 393 0
253 13 86 206 10 0 354
254 10 95 215 10 0 276
255 -23 100 220 10 105 0
256 -10 88 208 10 270 0
257 -23 27 147 10 187 0
258 -10 316 436 10 157 0
259 -20 106 226 10 150 0
260 20 86 206 10 0 132
261 30 96 216 10 0 363
262 -20 105 225 10 180 0
263 -27 204 324 10 330 0
264 20 101 221 10 0 52
265 -20 92 212 10 200 0
266 -26 86 206 10 299 0
267 20 84 204 10 0 139
268 -20 116 236 10 397 0
269 -20 154 274 10 395 0
270 10 66 186 10 0 256
271 -9 97 217 10 223 0
272 10 164 284 10 0 115
273 13 163 283 0 0 404
274 14 547 667 10 0 202
275 10 123 243 10 0 67
276 -10 104 224 10 254 0
277 19 61 181 10 0 333
278 19 163 283 10 0 127
279 17 61 181 10 0 101
280 10 121 241 10 0 196
281 -20 184 304 10 287 0
282 20 119 239 10 0 321
283 40 101 221 10 0 64
284 21 42 162 10 0 13
285 19 602 722 0 0 415
286 10 67 187 10 0 244
287 20 107 227 10 0 281
288 10 85 205 10 0 250
289 10 68 188 10 0 356
290 -13 165 285 10 163 0
291 10 172 292 10 0 204
292 24 387 507 0 0 408
293 20 115 235 10 0 30
294 -20 449 569 10 143 0
295 -20 140 260 10 383 0
296 20 69 189 10 0 211
297 -10 26 146 10 94 0
298 20 95 215 10 0 182
299 26 79 199 10 0 266
300 28 158 278 10 0 147
301 14 242 362 10 0 106
302 -14 457 577 10 320 0
303 10 98 218 10 0 164
304 20 138 258 10 0 80
305 20 68 188 10 0 324
306 5 130 250 10 0 247
307 10 66 186 10 0 74
308 -22 88 208 10 152 0
309 23 128 248 10 0 242
310 32 305 425 10 0 245
311 -16 531 651 10 120 0
312 27 118 238 10 0 38
313 33 90 210 10 0 95
314 -20 35 155 10 394 0
315 19 120 240 10 0 167
316 -30 45 165 10 24 0
317 30 60 180 10 0 197
318 -21 55 175 10 214 0
319 20 33 153 10 0 362
320 14 427 547 10 0 302
321 -20 108 228 10 282 0
322 -1 338 458 10 229 0
323 -21 271 391 10 100 0
324 -20 73 193 10 305 0
325 -30 96 216 10 57 0
326 -10 185 305 10 42 0
327 20 106 226 10 0 113
328 -10 143 263 10 130 0
329 11 50 170 10 0 10
330 27 31 151 10 0 263
331 20 93 213 10 0 191
332 17 561 681 0 0 418
333 -19 245 365 10 277 0
334 30 77 197 10 0 60
335 18 135 255 10 0 136
336 4 233 353 10 0 226
337 -20 417 537 10 156 0
338 -20 85 205 10 353 0
339 13 354 474 10 0 235
340 10 99 219 10 0 232
341 30 86 206 10 0 87
342 10 100 220 10 0 192
343 10 87 207 10 0 46
344 21 376 496 10 0 185
345 -20 127 247 10 78 0
346 -3 104 224 10 205 0
347 30 87 207 10 0 25
348 -20 541 661 10 375 0
349 -20 140 260 10 3 0
350 10 32 152 10 0 220
351 -20 150 270 10 357 0
352 20 133 253 10 0 75
353 20 80 200 10 0 338
354 -13 422 542 10 253 0
355 28 93 213 0 0 414
356 -10 66 186 10 289 0
357 20 116 236 10 0 351
358 23 200 320 10 0 99
359 -13 316 436 10 8 0
360 18 37 157 10 0 104
361 10 63 183 10 0 118
362 -20 78 198 10 319 0
363 -30 132 252 10 261 0
364 10 66 186 10 0 23
365 -10 179 299 10 111 0
366 20 274 394 10 0 388
367 20 122 242 10 0 377
368 20 85 205 10 0 175
369 13 70 190 10 0 84
370 19 217 337 10 0 37
371 -10 168 288 10 243 0
372 7 281 401 0 0 410
373 -10 93 213 10 41 0
374 20 93 213 10 0 207
375 20 114 234 10 0 348
376 -20 66 186 10 392 0
377 -20 402 522 10 367 0
378 20 106 226 10 0 396
379 12 313 433 0 0 402
380 -31 229 349 10 62 0
381 -8 95 215 10 108 0
382 26 71 191 0 0 406
383 20 116 236 10 0 295
384 26 29 149 10 0 399
385 -15 462 582 10 155 0
386 -30 146 266 10 92 0
387 -11 410 530 10 47 0
388 -20 311 431 10 366 0
389 2 288 408 10 0 161
390 20 102 222 10 0 58
391 20 98 218 10 0 133
392 20 66 186 10 0 376
393 10 93 213 10 0 252
394 20 96 216 10 0 314
395 20 105 225 10 0 269
396 -20 93 213 10 378 0
397 20 83 203 10 0 268
398 -11 372 492 10 233 0
399 -26 25 145 10 384 0
400 -3 406 526 10 39 0
401 3 121 241 10 0 6
402 -12 313 433 10 379 0
403 -13 368 488 10 179 0
404 -13 163 283 10 273 0
405 -20 94 214 10 186 0
406 -26 71 191 10 382 0
407 -18 85 205 10 107 0
408 -24 387 507 10 292 0
409 -20 52 172 10 141 0
410 -7 281 401 10 372 0
411 -20 280 400 10 236 0
412 -17 519 639 10 18 0
413 -30 144 264 10 7 0
414 -28 93 213 10 355 0
415 -19 602 722 10 285 0
416 -20 146 266 10 177 0
417 -19 494 614 10 181 0
418 -17 561 681 10 332 0
419 -10 86 206 10 68 0
DEPOT_SECTION
1
-1
EOF
