NAME: lrc1_4_6
TYPE: PDPTW
COMMENT: Li & Lim PDPTW benchmark converted from SINTEF format
DIMENSION: 417
VEHICLES: 100
CAPACITY: 200
EDGE_WEIGHT_TYPE: EUC_2D
NODE_COORD_SECTION
1 100 100
2 134 6
3 63 58
4 64 52
5 139 7
6 110 8
7 79 193
8 80 190
9 158 81
10 60 153
11 141 8
12 13 81
13 68 115
14 151 132
15 88 143
16 16 84
17 155 17
18 69 150
19 55 87
20 22 133
21 10 20
22 187 142
23 114 122
24 78 119
25 199 115
26 185 124
27 46 22
28 7 152
29 144 92
30 5 162
31 197 113
32 189 95
33 84 118
34 28 77
35 105 26
36 113 100
37 139 97
38 143 179
39 111 189
40 119 37
41 87 191
42 80 167
43 23 137
44 181 70
45 178 123
46 45 142
47 151 66
48 68 50
49 159 196
50 87 30
51 187 92
52 10 153
53 54 30
54 54 37
55 180 147
56 154 59
57 93 13
58 38 190
59 104 88
60 78 169
61 127 143
62 24 131
63 82 194
64 165 117
65 23 176
66 55 24
67 148 157
68 186 91
69 26 138
70 78 184
71 165 181
72 11 151
73 103 66
74 188 125
75 197 140
76 100 70
77 83 118
78 66 58
79 83 188
80 12 154
81 158 20
82 161 158
83 41 186
84 162 162
85 89 176
86 86 69
87 20 72
88 41 182
89 178 147
90 140 11
91 60 51
92 100 6
93 18 89
94 85 110
95 37 146
96 181 89
97 26 147
98 52 38
99 131 136
100 46 131
101 35 160
102 187 97
103 172 179
104 156 93
105 85 164
106 17 32
107 175 60
108 82 48
109 62 50
110 137 1
111 140 4
112 143 0
113 198 132
114 25 146
115 137 10
116 15 88
117 38 183
118 121 48
119 62 15
120 19 38
121 144 59
122 125 78
123 12 156
124 53 29
125 22 61
126 159 121
127 59 83
128 59 57
129 168 58
130 12 85
131 85 193
132 155 107
133 195 132
134 55 51
135 189 120
136 59 139
137 121 50
138 10 67
139 52 28
140 17 150
141 101 67
142 69 47
143 164 113
144 79 115
145 80 108
146 184 116
147 27 135
148 29 139
149 84 194
150 186 94
151 114 72
152 90 4
153 41 187
154 92 178
155 46 40
156 174 128
157 30 142
158 28 193
159 185 96
160 74 55
161 23 123
162 103 70
163 42 174
164 8 8
165 83 81
166 57 54
167 26 45
168 83 180
169 70 37
170 97 65
171 53 31
172 179 141
173 100 53
174 55 64
175 8 71
176 174 185
177 176 144
178 123 36
179 142 60
180 53 61
181 62 38
182 123 33
183 136 111
184 28 160
185 85 85
186 12 66
187 107 96
188 168 119
189 171 36
190 188 88
191 135 45
192 26 41
193 195 129
194 108 141
195 75 134
196 141 4
197 60 58
198 196 137
199 7 142
200 190 112
201 63 192
202 97 129
203 71 131
204 159 105
205 109 48
206 189 83
207 142 27
208 68 40
209 56 90
210 98 193
211 121 36
212 101 70
213 134 157
214 103 77
215 87 117
216 183 170
217 193 12
218 127 60
219 178 140
220 95 50
221 25 165
222 124 191
223 138 69
224 177 145
225 50 31
226 37 177
227 48 30
228 197 29
229 40 130
230 23 168
231 24 140
232 20 59
233 81 183
234 190 109
235 28 187
236 145 19
237 164 37
238 186 96
239 105 70
240 140 6
241 146 166
242 56 148
243 66 52
244 53 59
245 179 5
246 122 58
247 37 190
248 155 22
249 175 143
250 199 132
251 131 92
252 83 197
253 180 66
254 87 195
255 129 176
256 185 123
257 77 115
258 7 119
259 195 97
260 162 118
261 196 111
262 32 47
263 100 144
264 13 152
265 192 113
266 25 143
267 51 31
268 14 84
269 12 69
270 165 113
271 138 72
272 135 0
273 8 89
274 110 110
275 177 146
276 87 196
277 89 39
278 65 77
279 63 149
280 143 5
281 32 178
282 193 111
283 162 123
284 67 127
285 73 81
286 50 67
287 38 188
288 183 120
289 129 38
290 35 186
291 180 93
292 146 3
293 8 154
294 200 162
295 8 69
296 131 38
297 78 115
298 123 31
299 39 151
300 53 175
301 1 54
302 40 95
303 5 73
304 7 151
305 166 117
306 39 186
307 165 116
308 99 12
309 48 106
310 154 7
311 18 35
312 135 171
313 11 118
314 78 72
315 19 51
316 69 133
317 56 59
318 99 45
319 103 67
320 53 79
321 194 112
322 42 165
323 68 156
324 172 114
325 98 4
326 104 176
327 200 136
328 21 85
329 67 138
330 111 129
331 97 7
332 114 112
333 125 49
334 75 173
335 42 72
336 53 180
337 174 194
338 39 112
339 6 193
340 6 67
341 14 92
342 3 75
343 23 142
344 57 118
345 65 53
346 140 3
347 187 112
348 112 6
349 63 55
350 104 68
351 30 187
352 194 129
353 53 67
354 186 65
355 12 131
356 122 37
357 36 193
358 113 105
359 84 180
360 136 90
361 61 50
362 97 67
363 190 110
364 87 118
365 137 4
366 179 151
367 189 97
368 15 87
369 157 142
370 138 61
371 65 42
372 60 184
373 85 192
374 93 7
375 95 16
376 125 38
377 149 78
378 185 115
379 158 132
380 29 121
381 122 13
382 57 157
383 8 73
384 115 75
385 41 43
386 104 5
387 172 55
388 184 140
389 12 113
390 40 183
391 193 131
392 129 40
393 84 192
394 95 74
395 8 74
396 181 147
397 17 93
398 66 196
399 123 90
400 110 184
401 121 46
402 186 65
403 5 162
404 162 123
405 110 184
406 26 138
407 12 85
408 123 90
409 84 118
410 97 129
411 46 40
412 136 111
413 23 123
414 84 180
415 85 85
416 104 5
417 171 36
PICKUP_AND_DELIVERY_SECTION
1 0 0 765 0 0 0
2 -20 222 282 10 374 0
3 20 55 115 10 0 315
4 -21 146 206 10 318 0
5 20 100 160 10 0 112
6 -10 463 523 10 365 0
7 30 174 234 10 0 39
8 -18 429 489 10 255 0
9 -19 494 554 10 370 0
10 11 82 142 10 0 382
11 20 100 160 10 0 272
12 30 133 193 10 0 273
13 -16 550 610 10 235 0
14 -10 150 210 10 64 0
15 -30 506 566 10 334 0
16 20 158 218 10 0 328
17 -24 99 159 10 248 0
18 -28 549 609 10 323 0
19 30 188 248 10 0 127
20 -20 157 217 10 397 0
21 -14 574 634 10 192 0
22 -30 101 161 10 256 0
23 10 198 258 10 0 358
24 -20 57 117 10 257 0
25 20 100 160 10 0 282
26 10 92 152 10 0 327
27 10 389 449 10 0 181
28 -20 157 217 10 140 0
29 -6 496 556 10 377 0
30 26 113 173 0 0 403
31 -10 113 173 10 288 0
32 -10 119 179 10 68 0
33 20 83 143 0 0 409
34 -20 205 265 10 383 0
35 24 308 368 10 0 173
36 -20 215 275 10 126 0
37 -25 610 670 10 104 0
38 -22 256 316 10 71 0
39 -30 488 548 10 7 0
40 -20 153 213 10 211 0
41 10 91 151 10 0 254
42 10 207 267 10 0 85
43 20 143 203 10 0 147
44 -18 510 570 10 107 0
45 -20 81 141 10 305 0
46 -10 453 513 10 247 0
47 -11 61 121 10 122 0
48 10 121 181 10 0 243
49 6 223 283 10 0 67
50 10 173 233 10 0 371
51 20 94 154 10 0 150
52 20 106 166 10 0 293
53 -10 135 195 10 139 0
54 -30 617 677 10 385 0
55 -20 130 190 10 396 0
56 17 67 127 10 0 236
57 30 130 190 10 0 160
58 10 122 182 10 0 158
59 -3 683 743 10 401 0
60 10 273 333 10 0 168
61 -20 526 586 10 213 0
62 -33 294 354 10 313 0
63 -30 161 221 10 276 0
64 10 103 163 10 0 14
65 -28 338 398 10 300 0
66 -29 108 168 10 119 0
67 -6 303 363 10 49 0
68 10 86 146 10 0 32
69 10 173 233 0 0 406
70 -30 194 254 10 79 0
71 22 103 163 10 0 38
72 20 102 162 10 0 304
73 -10 70 130 10 162 0
74 10 105 165 10 0 75
75 -10 104 164 10 74 0
76 30 30 90 10 0 349
77 -10 72 132 10 94 0
78 20 184 244 10 0 278
79 30 89 149 10 0 70
80 10 118 178 10 0 322
81 -10 557 617 10 346 0
82 -10 378 438 10 224 0
83 27 120 180 10 0 306
84 20 328 388 10 0 103
85 -10 412 472 10 42 0
86 -20 161 221 10 141 0
87 -10 236 296 10 340 0
88 30 101 161 10 0 153
89 10 142 202 10 0 379
90 10 97 157 10 0 115
91 20 68 128 10 0 285
92 -20 94 154 10 331 0
93 10 82 142 10 0 116
94 10 18 78 10 0 77
95 10 295 355 10 0 344
96 10 81 141 10 0 190
97 20 87 147 10 0 123
98 30 78 138 10 0 262
99 -20 616 676 10 366 0
100 -21 326 386 10 284 0
101 16 88 148 10 0 357
102 10 164 224 10 0 238
103 -20 546 606 10 84 0
104 25 406 466 10 0 37
105 23 65 125 10 0 233
106 16 456 516 10 0 311
107 18 85 145 10 0 44
108 8 75 135 10 0 345
109 -21 90 150 10 165 0
110 -30 182 242 10 240 0
111 10 116 176 10 0 292
112 -20 166 226 10 5 0
113 -20 138 198 10 198 0
114 30 92 152 10 0 199
115 -10 425 485 10 90 0
116 -10 94 154 10 93 0
117 10 294 354 10 0 336
118 -23 268 328 10 218 0
119 29 93 153 10 0 66
120 -8 439 499 10 167 0
121 -18 427 487 10 360 0
122 11 33 93 10 0 47
123 -20 130 190 10 97 0
124 -23 123 183 10 208 0
125 17 255 315 10 0 302
126 20 144 204 10 0 36
127 -30 212 272 10 19 0
128 10 59 119 10 0 317
129 -13 207 267 10 253 0
130 10 119 179 0 0 407
131 25 295 355 10 0 398
132 -20 535 595 10 265 0
133 6 248 308 10 0 294
134 -20 253 313 10 166 0
135 -20 120 180 10 143 0
136 -20 306 366 10 266 0
137 -26 97 157 10 384 0
138 30 95 155 10 0 342
139 10 93 153 10 0 53
140 20 96 156 10 0 28
141 20 82 142 10 0 86
142 -19 108 168 10 277 0
143 20 65 125 10 0 135
144 30 25 85 10 0 364
145 20 21 81 10 0 338
146 -20 148 208 10 378 0
147 -20 186 246 10 43 0
148 10 81 141 10 0 157
149 10 110 170 10 0 252
150 -20 106 166 10 51 0
151 22 31 91 10 0 207
152 22 96 156 10 0 375
153 -30 105 165 10 88 0
154 -27 456 516 10 210 0
155 15 237 297 0 0 411
156 20 79 139 10 0 219
157 -10 81 141 10 148 0
158 -10 164 224 10 58 0
159 30 186 246 10 0 291
160 -30 336 396 10 57 0
161 15 275 335 0 0 413
162 10 30 90 10 0 73
163 13 98 158 10 0 390
164 -9 130 190 10 314 0
165 21 25 85 10 0 109
166 20 62 122 10 0 134
167 8 207 267 10 0 120
168 -10 251 311 10 60 0
169 10 69 129 10 0 171
170 -21 96 156 10 214 0
171 -10 146 206 10 169 0
172 20 89 149 10 0 177
173 -24 648 708 10 35 0
174 30 81 141 10 0 353
175 10 158 218 10 0 295
176 15 112 172 10 0 274
177 -20 176 236 10 172 0
178 10 100 160 10 0 182
179 -22 398 458 10 251 0
180 -20 67 127 10 244 0
181 -10 524 584 10 27 0
182 -10 113 173 10 178 0
183 19 586 646 0 0 412
184 -24 378 438 10 221 0
185 14 554 614 0 0 415
186 20 94 154 10 0 395
187 23 8 68 10 0 271
188 14 543 603 10 0 204
189 6 600 660 0 0 417
190 -10 88 148 10 96 0
191 -15 273 333 10 246 0
192 14 128 188 10 0 21
193 40 152 212 10 0 352
194 -10 255 315 10 215 0
195 16 42 102 10 0 279
196 20 139 199 10 0 280
197 20 58 118 10 0 286
198 20 102 162 10 0 113
199 -30 187 247 10 114 0
200 -30 90 150 10 347 0
201 12 218 278 10 0 230
202 11 569 629 0 0 410
203 -21 484 544 10 226 0
204 -14 561 621 10 188 0
205 3 120 180 10 0 333
206 43 189 249 10 0 387
207 -22 355 415 10 151 0
208 23 68 128 10 0 124
209 -30 514 574 10 341 0
210 27 187 247 10 0 154
211 20 140 200 10 0 40
212 20 30 90 10 0 394
213 20 403 463 10 0 61
214 21 29 89 10 0 170
215 10 107 167 10 0 194
216 -13 178 238 10 369 0
217 -32 359 419 10 310 0
218 23 113 173 10 0 118
219 -20 87 147 10 156 0
220 -23 222 282 10 309 0
221 24 358 418 10 0 184
222 -27 181 241 10 312 0
223 9 49 109 10 0 237
224 10 164 224 10 0 82
225 20 85 145 10 0 227
226 21 407 467 10 0 203
227 -20 87 147 10 225 0
228 16 394 454 10 0 245
229 1 123 183 10 0 343
230 -12 464 524 10 201 0
231 -8 129 189 10 316 0
232 -14 487 547 10 301 0
233 -23 85 145 10 105 0
234 -10 173 233 10 321 0
235 16 484 544 10 0 13
236 -17 310 370 10 56 0
237 -9 89 149 10 223 0
238 -10 175 235 10 102 0
239 10 35 95 10 0 319
240 30 104 164 10 0 110
241 24 351 411 10 0 332
242 -20 512 572 10 264 0
243 -10 134 194 10 48 0
244 20 62 122 10 0 180
245 -16 521 581 10 228 0
246 15 47 107 10 0 191
247 10 133 193 10 0 46
248 24 112 172 10 0 17
249 20 187 247 10 0 337
250 -20 127 187 10 391 0
251 22 32 92 10 0 179
252 -10 148 208 10 149 0
253 13 86 146 10 0 129
254 -10 123 183 10 41 0
255 18 130 190 10 0 8
256 30 88 148 10 0 22
257 20 42 102 10 0 24
258 -28 346 406 10 355 0
259 20 136 196 10 0 367
260 -10 116 176 10 307 0
261 30 125 185 10 0 363
262 -30 135 195 10 98 0
263 -10 234 294 10 297 0
264 20 101 161 10 0 242
265 20 92 152 10 0 132
266 20 105 165 10 0 136
267 -10 84 144 10 361 0
268 -20 146 206 10 368 0
269 -10 184 244 10 303 0
270 10 66 126 10 0 324
271 -23 127 187 10 187 0
272 -20 194 254 10 11 0
273 -30 193 253 10 12 0
274 -15 577 637 10 176 0
275 10 153 213 10 0 388
276 30 134 194 10 0 63
277 19 61 121 10 0 142
278 -20 193 253 10 78 0
279 -16 61 121 10 195 0
280 -20 151 211 10 196 0
281 -10 214 274 10 351 0
282 -20 149 209 10 25 0
283 40 131 191 0 0 404
284 21 42 102 10 0 100
285 -20 662 722 10 91 0
286 -20 97 157 10 197 0
287 -26 110 170 10 299 0
288 10 85 145 10 0 31
289 -20 68 128 10 296 0
290 -11 195 255 10 329 0
291 -30 202 262 10 159 0
292 -10 417 477 10 111 0
293 -20 145 205 10 52 0
294 -6 479 539 10 133 0
295 -10 170 230 10 175 0
296 20 69 129 10 0 289
297 10 31 91 10 0 263
298 -30 125 185 10 356 0
299 26 97 157 10 0 287
300 28 188 248 10 0 65
301 14 272 332 10 0 232
302 -17 487 547 10 125 0
303 10 107 167 10 0 269
304 -20 168 228 10 72 0
305 20 80 140 10 0 45
306 -27 160 220 10 83 0
307 10 92 152 10 0 260
308 30 88 148 10 0 325
309 23 158 218 10 0 220
310 32 335 395 10 0 217
311 -16 591 651 10 106 0
312 27 148 208 10 0 222
313 33 97 157 10 0 62
314 9 35 95 10 0 164
315 -20 150 210 10 3 0
316 8 45 105 10 0 231
317 -10 60 120 10 128 0
318 21 69 129 10 0 4
319 -10 59 119 10 239 0
320 -18 457 517 10 335 0
321 10 138 198 10 0 234
322 -10 368 428 10 80 0
323 28 301 361 10 0 18
324 -10 73 133 10 270 0
325 -30 96 156 10 308 0
326 -27 215 275 10 330 0
327 -10 113 173 10 26 0
328 -20 173 233 10 16 0
329 11 56 116 10 0 290
330 27 31 91 10 0 326
331 20 100 160 10 0 92
332 -24 591 651 10 241 0
333 -3 275 335 10 205 0
334 30 77 137 10 0 15
335 18 165 225 10 0 320
336 -10 263 323 10 117 0
337 -20 447 507 10 249 0
338 -20 115 175 10 145 0
339 -7 384 444 10 372 0
340 10 99 159 10 0 87
341 30 86 146 10 0 209
342 -30 119 179 10 138 0
343 -1 117 177 10 229 0
344 -10 406 466 10 95 0
345 -8 157 217 10 108 0
346 10 127 187 10 0 81
347 30 87 147 10 0 200
348 -27 601 661 10 381 0
349 -30 170 230 10 76 0
350 10 47 107 10 0 362
351 10 180 240 10 0 281
352 -40 163 223 10 193 0
353 -30 110 170 10 174 0
354 39 452 512 0 0 402
355 28 120 180 10 0 258
356 30 89 149 10 0 298
357 -16 146 206 10 101 0
358 -10 230 290 10 23 0
359 12 346 406 0 0 414
360 18 37 97 10 0 121
361 10 79 139 10 0 267
362 -10 108 168 10 350 0
363 -30 162 222 10 261 0
364 -30 96 156 10 144 0
365 10 209 269 10 0 6
366 20 304 364 10 0 99
367 -20 152 212 10 259 0
368 20 105 165 10 0 268
369 13 70 130 10 0 216
370 19 247 307 10 0 9
371 -10 198 258 10 50 0
372 7 311 371 10 0 339
373 10 93 153 10 0 393
374 20 114 174 10 0 2
375 -22 144 204 10 152 0
376 -20 75 135 10 392 0
377 6 432 492 10 0 29
378 20 136 196 10 0 146
379 -10 343 403 10 89 0
380 46 259 319 10 0 389
381 27 125 185 10 0 348
382 -11 71 131 10 10 0
383 20 146 206 10 0 34
384 26 29 89 10 0 137
385 30 492 552 10 0 54
386 26 176 236 0 0 416
387 -43 440 500 10 206 0
388 -10 341 401 10 275 0
389 -46 318 378 10 380 0
390 -13 102 162 10 163 0
391 20 98 158 10 0 250
392 20 66 126 10 0 376
393 -10 98 158 10 373 0
394 -20 126 186 10 212 0
395 -20 135 195 10 186 0
396 20 119 179 10 0 55
397 20 83 143 10 0 20
398 -25 402 462 10 131 0
399 21 25 85 0 0 408
400 10 436 496 0 0 405
401 3 151 211 10 0 59
402 -39 452 512 10 354 0
403 -26 113 173 10 30 0
404 -40 131 191 10 283 0
405 -10 436 496 10 400 0
406 -10 173 233 10 69 0
407 -10 119 179 10 130 0
408 -21 25 85 10 399 0
409 -20 83 143 10 33 0
410 -11 569 629 10 202 0
411 -15 237 297 10 155 0
412 -19 586 646 10 183 0
413 -15 275 335 10 161 0
414 -12 346 406 10 359 0
415 -14 554 614 10 185 0
416 -26 176 236 10 386 0
417 -6 600 660 10 189 0
DEPOT_SECTION
1
-1
EOF
