NAME: lrc1_4_5
TYPE: PDPTW
COMMENT: Li & Lim PDPTW benchmark converted from SINTEF format
DIMENSION: 415
VEHICLES: 100
CAPACITY: 200
EDGE_WEIGHT_TYPE: EUC_2D
NODE_COORD_SECTION
1 100 100
2 134 6
3 63 58
4 64 52
5 139 7
6 110 8
7 79 193
8 80 190
9 158 81
10 60 153
11 141 8
12 13 81
13 68 115
14 151 132
15 88 143
16 16 84
17 155 17
18 69 150
19 55 87
20 22 133
21 10 20
22 187 142
23 114 122
24 78 119
25 199 115
26 185 124
27 46 22
28 7 152
29 144 92
30 5 162
31 197 113
32 189 95
33 84 118
34 28 77
35 105 26
36 113 100
37 139 97
38 143 179
39 111 189
40 119 37
41 87 191
42 80 167
43 23 137
44 181 70
45 178 123
46 45 142
47 151 66
48 68 50
49 159 196
50 87 30
51 187 92
52 10 153
53 54 30
54 54 37
55 180 147
56 154 59
57 93 13
58 38 190
59 104 88
60 78 169
61 127 143
62 24 131
63 82 194
64 165 117
65 23 176
66 55 24
67 148 157
68 186 91
69 26 138
70 78 184
71 165 181
72 11 151
73 103 66
74 188 125
75 197 140
76 100 70
77 83 118
78 66 58
79 83 188
80 12 154
81 158 20
82 161 158
83 41 186
84 162 162
85 89 176
86 86 69
87 20 72
88 41 182
89 178 147
90 140 11
91 60 51
92 100 6
93 18 89
94 85 110
95 37 146
96 181 89
97 26 147
98 52 38
99 131 136
100 46 131
101 35 160
102 187 97
103 172 179
104 156 93
105 85 164
106 17 32
107 175 60
108 82 48
109 62 50
110 137 1
111 140 4
112 143 0
113 198 132
114 25 146
115 137 10
116 15 88
117 38 183
118 121 48
119 62 15
120 19 38
121 144 59
122 125 78
123 12 156
124 53 29
125 22 61
126 159 121
127 59 83
128 59 57
129 168 58
130 12 85
131 85 193
132 155 107
133 195 132
134 55 51
135 189 120
136 59 139
137 121 50
138 10 67
139 52 28
140 17 150
141 101 67
142 69 47
143 164 113
144 79 115
145 80 108
146 184 116
147 27 135
148 29 139
149 84 194
150 186 94
151 114 72
152 90 4
153 41 187
154 92 178
155 46 40
156 174 128
157 30 142
158 28 193
159 185 96
160 74 55
161 23 123
162 103 70
163 42 174
164 8 8
165 83 81
166 57 54
167 26 45
168 83 180
169 70 37
170 97 65
171 53 31
172 179 141
173 100 53
174 55 64
175 8 71
176 174 185
177 176 144
178 123 36
179 142 60
180 53 61
181 62 38
182 123 33
183 136 111
184 28 160
185 85 85
186 12 66
187 107 96
188 168 119
189 171 36
190 188 88
191 135 45
192 26 41
193 195 129
194 108 141
195 75 134
196 141 4
197 60 58
198 196 137
199 7 142
200 190 112
201 63 192
202 97 129
203 71 131
204 159 105
205 109 48
206 189 83
207 142 27
208 68 40
209 56 90
210 98 193
211 121 36
212 101 70
213 134 157
214 103 77
215 87 117
216 183 170
217 193 12
218 127 60
219 178 140
220 95 50
221 25 165
222 124 191
223 138 69
224 177 145
225 50 31
226 37 177
227 48 30
228 197 29
229 40 130
230 23 168
231 24 140
232 20 59
233 81 183
234 190 109
235 28 187
236 145 19
237 164 37
238 186 96
239 105 70
240 140 6
241 146 166
242 56 148
243 66 52
244 53 59
245 179 5
246 122 58
247 37 190
248 155 22
249 175 143
250 199 132
251 131 92
252 83 197
253 180 66
254 87 195
255 129 176
256 185 123
257 77 115
258 7 119
259 195 97
260 162 118
261 196 111
262 32 47
263 100 144
264 13 152
265 192 113
266 25 143
267 51 31
268 14 84
269 12 69
270 165 113
271 138 72
272 135 0
273 8 89
274 110 110
275 177 146
276 87 196
277 89 39
278 65 77
279 63 149
280 143 5
281 32 178
282 193 111
283 162 123
284 67 127
285 73 81
286 50 67
287 38 188
288 183 120
289 129 38
290 35 186
291 180 93
292 146 3
293 8 154
294 200 162
295 8 69
296 131 38
297 78 115
298 123 31
299 39 151
300 53 175
301 1 54
302 40 95
303 5 73
304 7 151
305 166 117
306 39 186
307 165 116
308 99 12
309 48 106
310 154 7
311 18 35
312 135 171
313 11 118
314 78 72
315 19 51
316 69 133
317 56 59
318 99 45
319 103 67
320 53 79
321 194 112
322 42 165
323 68 156
324 172 114
325 98 4
326 104 176
327 200 136
328 21 85
329 67 138
330 111 129
331 97 7
332 114 112
333 125 49
334 75 173
335 42 72
336 53 180
337 174 194
338 39 112
339 6 193
340 6 67
341 14 92
342 3 75
343 23 142
344 57 118
345 65 53
346 140 3
347 187 112
348 112 6
349 63 55
350 104 68
351 30 187
352 194 129
353 53 67
354 186 65
355 12 131
356 122 37
357 36 193
358 113 105
359 84 180
360 136 90
361 61 50
362 97 67
363 190 110
364 87 118
365 137 4
366 179 151
367 189 97
368 15 87
369 157 142
370 138 61
371 65 42
372 60 184
373 85 192
374 93 7
375 95 16
376 125 38
377 149 78
378 185 115
379 158 132
380 29 121
381 122 13
382 57 157
383 8 73
384 115 75
385 41 43
386 104 5
387 172 55
388 184 140
389 12 113
390 40 183
391 193 131
392 129 40
393 84 192
394 95 74
395 8 74
396 181 147
397 17 93
398 66 196
399 123 90
400 110 184
401 121 46
402 18 35
403 135 0
404 32 47
405 148 157
406 87 195
407 197 113
408 184 140
409 46 22
410 187 112
411 15 87
412 165 116
413 103 70
414 109 48
415 46 131
PICKUP_AND_DELIVERY_SECTION
1 0 0 765 0 0 0
2 -10 229 275 10 346 0
3 20 55 115 10 0 361
4 -10 124 228 10 142 0
5 -10 100 176 10 90 0
6 -24 465 522 10 35 0
7 30 157 252 10 0 85
8 -23 453 465 10 398 0
9 -25 472 576 10 44 0
10 11 91 133 10 0 221
11 20 101 121 10 0 240
12 30 118 208 10 0 19
13 -46 541 620 10 380 0
14 -20 176 184 10 260 0
15 -10 483 589 10 147 0
16 20 162 215 10 0 328
17 32 99 152 10 0 245
18 -13 540 619 10 230 0
19 -30 195 241 10 12 0
20 -21 154 219 10 284 0
21 -8 554 635 10 167 0
22 -30 96 172 10 45 0
23 -20 203 253 10 126 0
24 -20 48 125 10 77 0
25 20 111 149 10 0 234
26 10 88 177 10 0 198
27 10 386 452 0 0 409
28 -20 162 212 10 293 0
29 23 500 553 10 0 37
30 26 122 155 10 0 304
31 20 114 172 0 0 407
32 -20 129 170 10 190 0
33 20 68 157 10 0 309
34 -10 185 285 10 130 0
35 24 305 370 10 0 6
36 -10 218 273 10 64 0
37 -23 616 664 10 29 0
38 24 241 331 10 0 213
39 -23 498 538 10 105 0
40 20 167 198 10 0 220
41 -10 91 212 10 63 0
42 10 208 266 10 0 400
43 -20 137 209 10 97 0
44 25 501 578 10 0 9
45 30 81 142 10 0 22
46 15 455 511 10 0 203
47 -26 61 142 10 384 0
48 10 105 197 10 0 134
49 -17 241 266 10 216 0
50 10 176 231 10 0 285
51 -10 96 152 10 96 0
52 -20 104 173 10 264 0
53 10 128 202 10 0 155
54 -12 571 677 10 371 0
55 10 126 195 10 0 224
56 17 67 179 10 0 112
57 30 113 208 10 0 375
58 -16 133 170 10 101 0
59 -3 720 743 10 401 0
60 -10 301 306 10 69 0
61 -10 538 574 10 288 0
62 31 308 340 10 0 242
63 10 152 231 10 0 41
64 10 110 155 10 0 36
65 -10 322 414 10 351 0
66 -29 123 153 10 119 0
67 21 284 381 0 0 405
68 10 86 177 10 0 159
69 10 169 238 10 0 60
70 -8 187 260 10 316 0
71 22 103 128 10 0 294
72 -30 102 171 10 114 0
73 -10 64 135 10 239 0
74 10 91 189 10 0 332
75 10 117 139 10 0 250
76 30 30 47 10 0 318
77 20 50 154 10 0 24
78 20 176 253 10 0 349
79 30 89 160 10 0 276
80 10 111 186 10 0 199
81 -11 582 592 10 207 0
82 24 370 447 10 0 84
83 -20 109 190 10 390 0
84 -24 320 396 10 82 0
85 -30 388 497 10 7 0
86 -20 159 223 10 319 0
87 -20 234 298 10 295 0
88 30 101 135 10 0 235
89 -20 135 209 10 172 0
90 10 97 173 10 0 5
91 20 69 126 10 0 169
92 30 94 166 10 0 386
93 10 82 106 10 0 127
94 10 18 78 10 0 338
95 -20 289 361 10 140 0
96 10 81 93 10 0 51
97 20 87 135 10 0 43
98 -20 78 191 10 225 0
99 -30 643 648 10 256 0
100 21 321 391 0 0 415
101 16 88 144 10 0 58
102 -20 185 203 10 367 0
103 -8 532 621 10 337 0
104 -20 421 450 10 324 0
105 23 65 159 10 0 39
106 -16 455 517 10 120 0
107 18 85 174 10 0 129
108 -20 85 124 10 212 0
109 -9 77 164 10 314 0
110 -10 176 249 10 111 0
111 10 126 167 10 0 110
112 -17 177 216 10 56 0
113 10 137 199 10 0 352
114 30 99 145 10 0 72
115 -30 425 485 10 308 0
116 10 122 127 10 0 302
117 -4 302 345 10 336 0
118 -24 267 329 10 137 0
119 29 93 142 10 0 66
120 16 445 494 10 0 106
121 18 440 474 10 0 354
122 -23 33 122 10 187 0
123 -20 119 201 10 266 0
124 30 126 181 10 0 232
125 17 270 300 10 0 301
126 20 123 226 10 0 23
127 -10 218 266 10 93 0
128 -20 60 80 10 197 0
129 -18 187 286 10 107 0
130 10 124 174 10 0 34
131 -30 295 356 10 334 0
132 -20 539 591 10 146 0
133 -20 228 328 10 327 0
134 -10 261 305 10 48 0
135 -10 135 165 10 270 0
136 -1 327 344 10 229 0
137 24 84 170 10 0 118
138 -20 95 160 10 186 0
139 -20 86 186 10 267 0
140 20 96 233 10 0 95
141 -10 80 143 10 350 0
142 10 83 193 10 0 4
143 20 65 145 10 0 378
144 30 25 103 10 0 297
145 20 21 88 10 0 268
146 20 122 234 10 0 132
147 10 193 240 10 0 15
148 10 81 131 10 0 157
149 -11 129 150 10 233 0
150 20 97 175 10 0 238
151 22 31 64 10 0 289
152 22 105 132 10 0 374
153 20 105 173 10 0 290
154 -12 451 521 10 359 0
155 -10 218 317 10 53 0
156 20 79 106 10 0 249
157 -10 81 114 10 148 0
158 -20 144 243 10 357 0
159 -10 164 268 10 68 0
160 -10 311 422 10 243 0
161 -20 296 315 10 257 0
162 10 30 81 0 0 413
163 13 94 201 10 0 247
164 -50 137 170 10 227 0
165 21 25 71 10 0 286
166 20 76 92 10 0 345
167 8 202 271 10 0 21
168 -11 256 306 10 329 0
169 -20 69 168 10 91 0
170 20 84 169 10 0 394
171 10 172 181 10 0 385
172 20 89 146 10 0 89
173 -39 679 704 10 348 0
174 30 69 152 10 0 278
175 -10 156 220 10 303 0
176 -13 112 160 10 369 0
177 -20 191 220 10 396 0
178 -20 88 172 10 392 0
179 -19 391 465 10 370 0
180 -30 85 110 10 317 0
181 -19 537 571 10 277 0
182 -20 128 159 10 296 0
183 -40 578 654 10 283 0
184 -21 368 447 10 226 0
185 -20 542 625 10 353 0
186 20 94 177 10 0 138
187 23 8 23 10 0 122
188 -10 561 585 10 219 0
189 -19 607 660 10 237 0
190 20 88 161 10 0 32
191 -23 282 323 10 218 0
192 -23 141 176 10 208 0
193 -20 113 252 10 391 0
194 -10 260 311 10 393 0
195 16 42 135 10 0 323
196 -10 140 198 10 280 0
197 20 58 120 10 0 128
198 -10 102 141 10 26 0
199 -10 191 243 10 80 0
200 20 90 149 10 0 261
201 12 203 293 10 0 202
202 -12 570 629 10 201 0
203 -15 471 558 10 46 0
204 -10 550 632 10 275 0
205 3 144 156 0 0 414
206 -13 190 249 10 253 0
207 11 338 431 10 0 81
208 23 68 104 10 0 192
209 -18 506 583 10 335 0
210 -24 160 275 10 222 0
211 -15 147 193 10 246 0
212 20 30 83 10 0 108
213 -24 403 464 10 38 0
214 21 23 98 10 0 362
215 -10 98 175 10 364 0
216 17 199 216 10 0 49
217 -32 378 399 10 310 0
218 23 99 188 10 0 191
219 10 87 167 10 0 188
220 -20 202 303 10 40 0
221 -11 321 456 10 10 0
222 24 162 261 10 0 210
223 9 49 147 10 0 377
224 -10 158 231 10 55 0
225 20 91 100 10 0 98
226 21 415 458 10 0 184
227 50 87 159 10 0 164
228 -24 385 463 10 248 0
229 1 108 197 10 0 136
230 13 440 548 10 0 18
231 -33 139 179 10 313 0
232 -30 474 560 10 124 0
233 11 85 172 10 0 149
234 -20 162 244 10 25 0
235 -30 489 540 10 88 0
236 -10 309 372 10 365 0
237 19 89 179 10 0 189
238 -20 165 244 10 150 0
239 10 30 111 10 0 73
240 -20 107 162 10 11 0
241 -27 316 447 10 312 0
242 -31 482 602 10 62 0
243 10 143 184 10 0 160
244 20 62 135 10 0 340
245 -32 518 584 10 17 0
246 15 47 127 10 0 211
247 -13 145 181 10 163 0
248 24 107 176 10 0 228
249 -20 211 223 10 156 0
250 -10 138 176 10 75 0
251 22 32 89 10 0 360
252 -10 148 208 10 373 0
253 13 86 169 10 0 206
254 10 101 205 0 0 406
255 -27 117 203 10 330 0
256 30 88 143 10 0 99
257 20 50 94 10 0 161
258 -2 338 415 10 389 0
259 20 149 182 10 0 291
260 20 129 163 10 0 14
261 -20 125 185 10 200 0
262 27 117 213 0 0 404
263 -19 246 282 10 326 0
264 20 101 169 10 0 52
265 20 92 235 10 0 321
266 20 86 206 10 0 123
267 20 84 157 10 0 139
268 -20 148 204 10 145 0
269 -20 181 247 10 397 0
270 10 66 112 10 0 135
271 8 148 166 10 0 387
272 10 193 256 0 0 403
273 -20 182 264 10 383 0
274 -23 576 638 10 358 0
275 10 142 225 10 0 204
276 -30 104 224 10 79 0
277 19 61 139 10 0 181
278 -30 195 251 10 174 0
279 17 61 112 10 0 299
280 10 132 231 10 0 196
281 10 230 258 10 0 339
282 20 144 214 10 0 363
283 40 132 189 10 0 183
284 21 42 100 10 0 20
285 -10 633 722 10 50 0
286 -21 106 148 10 165 0
287 20 133 146 10 0 300
288 10 85 109 10 0 61
289 -22 68 133 10 151 0
290 -20 177 273 10 153 0
291 -20 205 258 10 259 0
292 -20 422 472 10 325 0
293 20 124 225 10 0 28
294 -22 449 570 10 71 0
295 20 167 232 10 0 87
296 20 69 108 10 0 182
297 -30 26 98 10 144 0
298 -30 105 206 10 376 0
299 -17 88 166 10 279 0
300 -20 165 272 10 287 0
301 -17 283 322 10 125 0
302 -10 503 531 10 116 0
303 10 100 173 10 0 175
304 -26 176 220 10 30 0
305 -21 70 150 10 399 0
306 5 157 223 10 0 372
307 10 71 172 0 0 412
308 30 88 143 10 0 115
309 -20 152 223 10 33 0
310 32 341 390 10 0 217
311 24 581 651 0 0 402
312 27 134 223 10 0 241
313 33 115 139 10 0 231
314 9 35 72 10 0 109
315 19 151 209 10 0 320
316 8 45 115 10 0 70
317 30 60 103 10 0 180
318 -30 60 139 10 76 0
319 20 77 100 10 0 86
320 -19 458 516 10 315 0
321 -20 120 216 10 265 0
322 -26 384 413 10 382 0
323 -16 291 372 10 195 0
324 20 73 124 10 0 104
325 20 96 181 10 0 292
326 19 206 285 10 0 263
327 20 127 158 10 0 133
328 -20 155 251 10 16 0
329 11 50 138 10 0 168
330 27 31 147 10 0 255
331 20 97 163 10 0 381
332 -10 548 693 10 74 0
333 -30 278 332 10 356 0
334 30 77 173 10 0 131
335 18 155 236 10 0 209
336 4 271 316 10 0 117
337 8 426 527 10 0 103
338 -10 122 168 10 94 0
339 -10 399 429 10 281 0
340 -20 99 189 10 244 0
341 30 86 134 10 0 342
342 -30 113 185 10 341 0
343 -28 111 184 10 355 0
344 -20 407 466 10 395 0
345 -20 172 203 10 166 0
346 10 129 185 10 0 2
347 30 87 166 0 0 410
348 39 608 657 10 0 173
349 -20 187 213 10 78 0
350 10 38 117 10 0 141
351 10 185 235 10 0 65
352 -10 162 225 10 113 0
353 20 104 175 10 0 185
354 -18 448 516 10 121 0
355 28 112 188 10 0 343
356 30 67 170 10 0 333
357 20 157 195 10 0 158
358 23 234 287 10 0 274
359 12 346 405 10 0 154
360 -22 37 107 10 251 0
361 -20 87 132 10 3 0
362 -21 106 170 10 214 0
363 -20 183 202 10 282 0
364 10 85 166 10 0 215
365 10 228 249 10 0 236
366 20 307 361 10 0 379
367 20 160 204 10 0 102
368 20 132 138 0 0 411
369 13 70 118 10 0 176
370 19 233 321 10 0 179
371 12 217 240 10 0 54
372 -5 307 376 10 306 0
373 10 93 159 10 0 252
374 -22 93 213 10 152 0
375 -30 148 200 10 57 0
376 30 93 117 10 0 298
377 -9 443 481 10 223 0
378 -20 133 199 10 143 0
379 -20 352 394 10 366 0
380 46 247 331 10 0 13
381 -20 110 200 10 331 0
382 26 71 153 10 0 322
383 20 148 204 10 0 273
384 26 29 79 10 0 47
385 -10 489 555 10 171 0
386 -30 167 244 10 92 0
387 -8 428 511 10 271 0
388 15 348 394 0 0 408
389 2 305 391 10 0 258
390 20 102 186 10 0 83
391 20 98 141 10 0 193
392 20 66 149 10 0 178
393 10 96 159 10 0 194
394 -20 125 186 10 170 0
395 20 157 172 10 0 344
396 20 140 159 10 0 177
397 20 83 162 10 0 269
398 23 405 460 10 0 8
399 21 25 64 10 0 305
400 -10 445 487 10 42 0
401 3 143 219 10 0 59
402 -24 581 651 10 311 0
403 -10 193 256 10 272 0
404 -27 117 213 10 262 0
405 -21 284 381 10 67 0
406 -10 101 205 10 254 0
407 -20 114 172 10 31 0
408 -15 348 394 10 388 0
409 -10 386 452 10 27 0
410 -30 87 166 10 347 0
411 -20 132 138 10 368 0
412 -10 71 172 10 307 0
413 -10 30 81 10 162 0
414 -3 144 156 10 205 0
415 -21 321 391 10 100 0
DEPOT_SECTION
1
-1
EOF
