NAME: lrc2_4_2
TYPE: PDPTW
COMMENT: Li & Lim PDPTW benchmark converted from SINTEF format
DIMENSION: 407
VEHICLES: 100
CAPACITY: 1000
EDGE_WEIGHT_TYPE: EUC_2D
NODE_COORD_SECTION
1 100 100
2 134 6
3 63 58
4 64 52
5 139 7
6 110 8
7 79 193
8 80 190
9 158 81
10 60 153
11 141 8
12 13 81
13 68 115
14 151 132
15 88 143
16 16 84
17 155 17
18 69 150
19 55 87
20 22 133
21 10 20
22 187 142
23 114 122
24 78 119
25 199 115
26 185 124
27 46 22
28 7 152
29 144 92
30 5 162
31 197 113
32 189 95
33 84 118
34 28 77
35 105 26
36 113 100
37 139 97
38 143 179
39 111 189
40 119 37
41 87 191
42 80 167
43 23 137
44 181 70
45 178 123
46 45 142
47 151 66
48 68 50
49 159 196
50 87 30
51 187 92
52 10 153
53 54 30
54 54 37
55 180 147
56 154 59
57 93 13
58 38 190
59 104 88
60 78 169
61 127 143
62 24 131
63 82 194
64 165 117
65 23 176
66 55 24
67 148 157
68 186 91
69 26 138
70 78 184
71 165 181
72 11 151
73 103 66
74 188 125
75 197 140
76 100 70
77 83 118
78 66 58
79 83 188
80 12 154
81 158 20
82 161 158
83 41 186
84 162 162
85 89 176
86 86 69
87 20 72
88 41 182
89 178 147
90 140 11
91 60 51
92 100 6
93 18 89
94 85 110
95 37 146
96 181 89
97 26 147
98 52 38
99 131 136
100 46 131
101 35 160
102 187 97
103 172 179
104 156 93
105 85 164
106 17 32
107 175 60
108 82 48
109 62 50
110 137 1
111 140 4
112 143 0
113 198 132
114 25 146
115 137 10
116 15 88
117 38 183
118 121 48
119 62 15
120 19 38
121 144 59
122 125 78
123 12 156
124 53 29
125 22 61
126 159 121
127 59 83
128 59 57
129 168 58
130 12 85
131 85 193
132 155 107
133 195 132
134 55 51
135 189 120
136 59 139
137 121 50
138 10 67
139 52 28
140 17 150
141 101 67
142 69 47
143 164 113
144 79 115
145 80 108
146 184 116
147 27 135
148 29 139
149 84 194
150 186 94
151 114 72
152 90 4
153 41 187
154 92 178
155 46 40
156 174 128
157 30 142
158 28 193
159 185 96
160 74 55
161 23 123
162 103 70
163 42 174
164 8 8
165 83 81
166 57 54
167 26 45
168 83 180
169 70 37
170 97 65
171 53 31
172 179 141
173 100 53
174 55 64
175 8 71
176 174 185
177 176 144
178 123 36
179 142 60
180 53 61
181 62 38
182 123 33
183 136 111
184 28 160
185 85 85
186 12 66
187 107 96
188 168 119
189 171 36
190 188 88
191 135 45
192 26 41
193 195 129
194 108 141
195 75 134
196 141 4
197 60 58
198 196 137
199 7 142
200 190 112
201 63 192
202 97 129
203 71 131
204 159 105
205 109 48
206 189 83
207 142 27
208 68 40
209 56 90
210 98 193
211 121 36
212 101 70
213 134 157
214 103 77
215 87 117
216 183 170
217 193 12
218 127 60
219 178 140
220 95 50
221 25 165
222 124 191
223 138 69
224 177 145
225 50 31
226 37 177
227 48 30
228 197 29
229 40 130
230 23 168
231 24 140
232 20 59
233 81 183
234 190 109
235 28 187
236 145 19
237 164 37
238 186 96
239 105 70
240 140 6
241 146 166
242 56 148
243 66 52
244 53 59
245 179 5
246 122 58
247 37 190
248 155 22
249 175 143
250 199 132
251 131 92
252 83 197
253 180 66
254 87 195
255 129 176
256 185 123
257 77 115
258 7 119
259 195 97
260 162 118
261 196 111
262 32 47
263 100 144
264 13 152
265 192 113
266 25 143
267 51 31
268 14 84
269 12 69
270 165 113
271 138 72
272 135 0
273 8 89
274 110 110
275 177 146
276 87 196
277 89 39
278 65 77
279 63 149
280 143 5
281 32 178
282 193 111
283 162 123
284 67 127
285 73 81
286 50 67
287 38 188
288 183 120
289 129 38
290 35 186
291 180 93
292 146 3
293 8 154
294 200 162
295 8 69
296 131 38
297 78 115
298 123 31
299 39 151
300 53 175
301 1 54
302 40 95
303 5 73
304 7 151
305 166 117
306 39 186
307 165 116
308 99 12
309 48 106
310 154 7
311 18 35
312 135 171
313 11 118
314 78 72
315 19 51
316 69 133
317 56 59
318 99 45
319 103 67
320 53 79
321 194 112
322 42 165
323 68 156
324 172 114
325 98 4
326 104 176
327 200 136
328 21 85
329 67 138
330 111 129
331 97 7
332 114 112
333 125 49
334 75 173
335 42 72
336 53 180
337 174 194
338 39 112
339 6 193
340 6 67
341 14 92
342 3 75
343 23 142
344 57 118
345 65 53
346 140 3
347 187 112
348 112 6
349 63 55
350 104 68
351 30 187
352 194 129
353 53 67
354 186 65
355 12 131
356 122 37
357 36 193
358 113 105
359 84 180
360 136 90
361 61 50
362 97 67
363 190 110
364 87 118
365 137 4
366 179 151
367 189 97
368 15 87
369 157 142
370 138 61
371 65 42
372 60 184
373 85 192
374 93 7
375 95 16
376 125 38
377 149 78
378 185 115
379 158 132
380 29 121
381 122 13
382 57 157
383 8 73
384 115 75
385 41 43
386 104 5
387 172 55
388 184 140
389 12 113
390 40 183
391 193 131
392 129 40
393 84 192
394 95 74
395 8 74
396 181 147
397 17 93
398 66 196
399 123 90
400 110 184
401 121 46
402 146 3
403 159 196
404 25 143
405 69 150
406 86 69
407 142 60
PICKUP_AND_DELIVERY_SECTION
1 0 0 3060 0 0 0
2 -20 0 2951 10 5 0
3 20 164 284 10 0 4
4 -20 0 2990 10 3 0
5 20 0 2950 10 0 2
6 -3 1912 2032 10 217 0
7 30 758 878 10 0 10
8 -10 1776 1896 10 364 0
9 -10 2038 2158 10 50 0
10 -30 0 2984 10 7 0
11 -16 0 2950 10 228 0
12 -23 591 711 10 208 0
13 20 0 3015 10 0 116
14 -20 658 778 10 126 0
15 -2 0 3006 10 389 0
16 -33 692 812 10 313 0
17 32 0 2951 10 0 248
18 17 2257 2377 0 0 405
19 -20 0 3004 10 73 0
20 10 0 2966 10 0 157
21 -27 0 2930 10 262 0
22 -15 465 585 10 176 0
23 -40 852 972 10 283 0
24 30 286 406 10 0 79
25 20 461 581 10 0 234
26 10 427 547 10 0 219
27 -20 0 2956 10 232 0
28 -20 687 807 10 72 0
29 -18 2045 2165 10 121 0
30 26 495 615 10 0 52
31 -30 513 633 10 261 0
32 10 537 657 10 0 259
33 20 0 3026 10 0 377
34 -20 881 1001 10 43 0
35 24 1292 1412 10 0 376
36 -20 0 3037 10 143 0
37 -20 0 3011 10 156 0
38 24 0 2961 10 0 337
39 -30 2011 2131 10 114 0
40 20 0 2985 10 0 118
41 -10 0 2959 10 393 0
42 -16 0 2981 10 195 0
43 20 630 750 10 0 34
44 -11 2099 2219 10 387 0
45 30 0 2969 10 0 391
46 -15 1871 1991 10 168 0
47 11 295 415 10 0 282
48 10 545 665 10 0 401
49 6 0 2938 0 0 403
50 10 752 872 10 0 9
51 -13 435 555 10 253 0
52 -26 483 603 10 30 0
53 10 0 2967 10 0 160
54 21 2584 2704 10 0 285
55 -20 580 700 10 327 0
56 17 273 393 10 0 367
57 -24 580 700 10 137 0
58 -11 547 667 10 329 0
59 -21 0 3038 10 115 0
60 10 1153 1273 10 0 131
61 -26 2165 2285 10 154 0
62 31 1234 1354 10 0 230
63 -30 705 825 10 276 0
64 10 470 590 10 0 113
65 20 1414 1534 10 0 339
66 10 492 612 10 0 124
67 -10 0 2976 10 250 0
68 -20 390 510 10 190 0
69 -1 753 873 10 229 0
70 20 834 954 10 0 284
71 -13 355 475 10 369 0
72 20 434 554 10 0 28
73 20 339 459 10 0 19
74 -10 480 600 10 270 0
75 -20 452 572 10 198 0
76 30 60 180 10 0 225
77 20 347 467 10 0 215
78 -20 798 918 10 109 0
79 -30 299 419 10 24 0
80 10 532 652 10 0 311
81 -20 0 2952 10 196 0
82 -30 1574 1694 10 256 0
83 27 539 659 10 0 123
84 -17 1371 1491 10 216 0
85 -10 1708 1828 10 247 0
86 14 0 3016 0 0 406
87 -20 1005 1125 10 145 0
88 30 344 464 10 0 306
89 10 628 748 10 0 177
90 10 0 2953 10 0 348
91 20 332 452 10 0 138
92 30 356 476 10 0 346
93 10 0 2968 10 0 328
94 10 0 3032 10 0 373
95 10 1242 1362 10 0 136
96 10 0 2969 10 0 129
97 20 0 2963 10 0 158
98 30 254 374 10 0 186
99 -12 2523 2643 10 201 0
100 -20 1362 1482 10 257 0
101 16 335 455 10 0 357
102 10 714 834 10 0 107
103 -10 2246 2366 10 224 0
104 25 0 2994 10 0 396
105 -27 0 2985 10 312 0
106 -28 1882 2002 10 355 0
107 -10 0 2965 10 102 0
108 -15 0 2995 10 155 0
109 20 0 2988 10 0 78
110 10 0 2945 10 0 365
111 -30 526 646 10 308 0
112 -10 724 844 10 280 0
113 -10 0 2947 10 64 0
114 30 428 548 10 0 39
115 21 1762 1882 10 0 59
116 -20 437 557 10 13 0
117 -20 1235 1355 10 287 0
118 -20 1133 1253 10 40 0
119 29 355 475 10 0 130
120 -20 1817 1937 10 397 0
121 18 1767 1887 10 0 29
122 11 0 3017 10 0 245
123 -27 580 700 10 83 0
124 -10 554 674 10 66 0
125 -20 1080 1200 10 268 0
126 20 637 757 10 0 14
127 -12 907 1027 10 371 0
128 -13 0 2991 10 273 0
129 -10 888 1008 10 96 0
130 -29 535 655 10 119 0
131 -10 1241 1361 10 60 0
132 -22 2200 2320 10 152 0
133 -20 0 2950 10 146 0
134 17 1072 1192 10 0 169
135 10 540 660 10 0 193
136 -10 1283 1403 10 95 0
137 24 450 570 10 0 57
138 -20 0 2955 10 91 0
139 -30 432 552 10 174 0
140 20 328 448 10 0 299
141 -20 388 508 10 170 0
142 10 492 612 10 0 218
143 20 0 2985 10 0 36
144 30 142 262 10 0 263
145 20 74 194 10 0 87
146 20 0 2965 10 0 133
147 -10 805 925 10 340 0
148 -21 264 384 10 344 0
149 10 499 619 10 0 252
150 20 484 604 10 0 206
151 -26 65 185 10 384 0
152 22 0 2954 10 0 132
153 -13 446 566 10 163 0
154 26 0 2972 10 0 61
155 15 1009 1129 10 0 108
156 20 256 376 10 0 37
157 -10 0 2969 10 20 0
158 -20 716 836 10 97 0
159 -19 804 924 10 237 0
160 -10 1404 1524 10 53 0
161 15 1162 1282 10 0 235
162 10 152 272 10 0 349
163 13 451 571 10 0 153
164 11 0 2920 10 0 267
165 21 42 162 10 0 286
166 -30 275 395 10 317 0
167 -10 887 1007 10 269 0
168 15 0 2969 10 0 46
169 -17 0 2981 10 134 0
170 20 445 565 10 0 141
171 10 645 765 10 0 345
172 20 0 2961 10 0 307
173 22 0 3003 10 0 318
174 30 383 503 10 0 139
175 -20 690 810 10 353 0
176 15 448 568 10 0 22
177 -10 764 884 10 89 0
178 10 460 580 10 0 374
179 13 1652 1772 0 0 407
180 -20 328 448 10 244 0
181 -20 2154 2274 10 383 0
182 20 512 632 10 0 205
183 -20 2404 2524 10 394 0
184 -30 0 2957 10 258 0
185 -14 2274 2394 10 192 0
186 -30 317 437 10 98 0
187 23 8 128 10 0 360
188 -20 2232 2352 10 213 0
189 -10 2531 2651 10 291 0
190 20 335 455 10 0 68
191 -25 0 2985 10 220 0
192 14 572 692 10 0 185
193 -10 669 789 10 135 0
194 -27 1080 1200 10 210 0
195 16 0 3008 10 0 42
196 20 615 735 10 0 81
197 -30 0 2992 10 341 0
198 20 399 519 10 0 75
199 20 807 927 10 0 380
200 20 343 463 10 0 249
201 12 932 1052 10 0 99
202 -26 0 3021 10 338 0
203 11 0 3008 10 0 316
204 -10 2304 2424 10 275 0
205 -20 538 658 10 182 0
206 -20 816 936 10 150 0
207 -20 1480 1600 10 236 0
208 23 212 332 10 0 12
209 -14 2117 2237 10 320 0
210 27 809 929 10 0 194
211 20 0 2983 10 0 274
212 20 104 224 10 0 342
213 20 1673 1793 10 0 188
214 21 176 296 10 0 239
215 -20 487 607 10 77 0
216 17 771 891 10 0 84
217 3 1495 1615 10 0 6
218 -10 0 3002 10 142 0
219 -10 0 2963 10 26 0
220 25 949 1069 10 0 191
221 -10 1494 1614 10 362 0
222 24 785 905 10 0 323
223 9 0 3001 10 0 238
224 10 718 838 10 0 103
225 -30 322 442 10 76 0
226 -7 1687 1807 10 372 0
227 50 0 2963 10 0 295
228 16 1635 1755 10 0 11
229 1 551 671 10 0 69
230 -31 1915 2035 10 62 0
231 -20 578 698 10 368 0
232 20 2006 2126 10 0 27
233 11 346 466 10 0 254
234 -20 753 873 10 25 0
235 -15 1996 2116 10 161 0
236 20 1302 1422 10 0 207
237 19 398 518 10 0 159
238 -9 760 880 10 223 0
239 -21 200 320 10 214 0
240 -20 478 598 10 296 0
241 -20 1466 1586 10 265 0
242 -22 2110 2230 10 322 0
243 -20 596 716 10 375 0
244 20 0 2988 10 0 180
245 -11 2145 2265 10 122 0
246 15 170 290 10 0 325
247 10 591 711 10 0 85
248 -32 508 628 10 17 0
249 -20 809 929 10 200 0
250 10 568 688 10 0 67
251 22 68 188 10 0 366
252 -10 653 773 10 149 0
253 13 330 450 10 0 51
254 -11 552 672 10 233 0
255 18 580 700 10 0 326
256 30 383 503 10 0 82
257 20 230 350 10 0 100
258 30 1445 1565 10 0 184
259 -10 602 722 10 32 0
260 -27 523 643 10 330 0
261 30 0 2954 10 0 31
262 27 0 2964 10 0 21
263 -30 996 1116 10 144 0
264 20 0 2949 10 0 336
265 20 392 512 10 0 241
266 20 480 600 0 0 404
267 -11 0 2966 10 164 0
268 20 644 764 10 0 125
269 10 794 914 10 0 167
270 10 245 365 10 0 74
271 8 568 688 10 0 386
272 -20 837 957 10 298 0
273 13 0 2958 10 0 128
274 -20 2367 2487 10 211 0
275 10 674 794 10 0 204
276 30 0 2954 10 0 63
277 19 251 371 10 0 303
278 -30 833 953 10 356 0
279 -18 0 2989 10 335 0
280 10 664 784 10 0 112
281 -10 0 2947 10 343 0
282 -11 656 776 10 47 0
283 40 583 703 10 0 23
284 -20 0 3008 10 70 0
285 -21 2802 2922 10 54 0
286 -21 446 566 10 165 0
287 20 499 619 10 0 117
288 10 0 2965 10 0 378
289 -17 306 426 10 333 0
290 -26 841 961 10 382 0
291 10 867 987 10 0 189
292 24 1727 1847 0 0 402
293 20 0 2944 10 0 351
294 -20 1977 2097 10 324 0
295 -50 0 2953 10 227 0
296 20 258 378 10 0 240
297 10 186 306 10 0 334
298 20 0 2978 10 0 272
299 -20 447 567 10 140 0
300 -20 813 933 10 390 0
301 14 1150 1270 10 0 385
302 25 0 2990 10 0 309
303 -19 487 607 10 277 0
304 20 731 851 10 0 400
305 -21 380 500 10 399 0
306 -30 0 2945 10 88 0
307 -20 0 2984 10 172 0
308 30 292 412 10 0 111
309 -25 692 812 10 302 0
310 -27 0 2943 10 381 0
311 -10 2475 2595 10 80 0
312 27 654 774 10 0 105
313 33 448 568 10 0 16
314 9 82 202 10 0 395
315 -10 661 781 10 361 0
316 -11 121 241 10 203 0
317 30 228 348 10 0 166
318 -22 338 458 10 173 0
319 -10 295 415 10 350 0
320 14 0 2999 10 0 209
321 10 611 731 10 0 363
322 22 0 2963 10 0 242
323 -24 1266 1386 10 222 0
324 20 314 434 10 0 294
325 -15 408 528 10 246 0
326 -18 921 1041 10 255 0
327 20 512 632 10 0 55
328 -10 753 873 10 93 0
329 11 284 404 10 0 58
330 27 64 184 10 0 260
331 -20 460 580 10 392 0
332 17 0 3032 10 0 358
333 17 0 2994 10 0 289
334 -10 249 369 10 297 0
335 18 721 841 10 0 279
336 -20 1113 1233 10 264 0
337 -24 1847 1967 10 38 0
338 26 521 641 10 0 202
339 -20 1597 1717 10 65 0
340 10 422 542 10 0 147
341 30 380 500 10 0 197
342 -20 538 658 10 212 0
343 10 0 2963 10 0 281
344 21 0 3004 10 0 148
345 -10 690 810 10 171 0
346 -30 570 690 10 92 0
347 30 291 411 10 0 379
348 -10 2471 2591 10 90 0
349 -10 741 861 10 162 0
350 10 249 369 10 0 319
351 -20 781 901 10 293 0
352 20 0 2952 10 0 388
353 20 0 2993 10 0 175
354 39 1869 1989 10 0 370
355 28 540 660 10 0 106
356 30 415 535 10 0 278
357 -16 644 764 10 101 0
358 -17 981 1101 10 332 0
359 -23 0 2969 10 398 0
360 -23 89 209 10 187 0
361 10 377 497 10 0 315
362 10 0 3017 10 0 221
363 -10 709 829 10 321 0
364 10 0 3028 10 0 8
365 -10 895 1015 10 110 0
366 -22 1277 1397 10 251 0
367 -17 666 786 10 56 0
368 20 0 2965 10 0 231
369 13 223 343 10 0 71
370 -39 0 2996 10 354 0
371 12 854 974 10 0 127
372 7 1306 1426 10 0 226
373 -10 407 527 10 94 0
374 -10 516 636 10 178 0
375 20 635 755 10 0 243
376 -24 0 2984 10 35 0
377 -20 1789 1909 10 33 0
378 -10 0 2964 10 288 0
379 -30 1430 1550 10 347 0
380 -20 1097 1217 10 199 0
381 27 558 678 10 0 310
382 26 320 440 10 0 290
383 20 642 762 10 0 181
384 26 57 177 10 0 151
385 -14 2028 2148 10 301 0
386 -8 763 883 10 271 0
387 11 1819 1939 10 0 44
388 -20 1424 1544 10 352 0
389 2 1332 1452 10 0 15
390 20 0 2948 10 0 300
391 -30 332 452 10 45 0
392 20 207 327 10 0 331
393 10 451 571 10 0 41
394 20 563 683 10 0 183
395 -9 598 718 10 314 0
396 -25 0 2957 10 104 0
397 20 327 447 10 0 120
398 23 0 2949 10 0 359
399 21 40 160 10 0 305
400 -20 1803 1923 10 304 0
401 -10 0 2993 10 48 0
402 -24 1727 1847 10 292 0
403 -6 0 2938 10 49 0
404 -20 480 600 10 266 0
405 -17 2257 2377 10 18 0
406 -14 0 3016 10 86 0
407 -13 1652 1772 10 179 0
DEPOT_SECTION
1
-1
EOF
