NAME: lrc2_4_9
TYPE: PDPTW
COMMENT: Li & Lim PDPTW benchmark converted from SINTEF format
DIMENSION: 407
VEHICLES: 100
CAPACITY: 1000
EDGE_WEIGHT_TYPE: EUC_2D
NODE_COORD_SECTION
1 100 100
2 134 6
3 63 58
4 64 52
5 139 7
6 110 8
7 79 193
8 80 190
9 158 81
10 60 153
11 141 8
12 13 81
13 68 115
14 151 132
15 88 143
16 16 84
17 155 17
18 69 150
19 55 87
20 22 133
21 10 20
22 187 142
23 114 122
24 78 119
25 199 115
26 185 124
27 46 22
28 7 152
29 144 92
30 5 162
31 197 113
32 189 95
33 84 118
34 28 77
35 105 26
36 113 100
37 139 97
38 143 179
39 111 189
40 119 37
41 87 191
42 80 167
43 23 137
44 181 70
45 178 123
46 45 142
47 151 66
48 68 50
49 159 196
50 87 30
51 187 92
52 10 153
53 54 30
54 54 37
55 180 147
56 154 59
57 93 13
58 38 190
59 104 88
60 78 169
61 127 143
62 24 131
63 82 194
64 165 117
65 23 176
66 55 24
67 148 157
68 186 91
69 26 138
70 78 184
71 165 181
72 11 151
73 103 66
74 188 125
75 197 140
76 100 70
77 83 118
78 66 58
79 83 188
80 12 154
81 158 20
82 161 158
83 41 186
84 162 162
85 89 176
86 86 69
87 20 72
88 41 182
89 178 147
90 140 11
91 60 51
92 100 6
93 18 89
94 85 110
95 37 146
96 181 89
97 26 147
98 52 38
99 131 136
100 46 131
101 35 160
102 187 97
103 172 179
104 156 93
105 85 164
106 17 32
107 175 60
108 82 48
109 62 50
110 137 1
111 140 4
112 143 0
113 198 132
114 25 146
115 137 10
116 15 88
117 38 183
118 121 48
119 62 15
120 19 38
121 144 59
122 125 78
123 12 156
124 53 29
125 22 61
126 159 121
127 59 83
128 59 57
129 168 58
130 12 85
131 85 193
132 155 107
133 195 132
134 55 51
135 189 120
136 59 139
137 121 50
138 10 67
139 52 28
140 17 150
141 101 67
142 69 47
143 164 113
144 79 115
145 80 108
146 184 116
147 27 135
148 29 139
149 84 194
150 186 94
151 114 72
152 90 4
153 41 187
154 92 178
155 46 40
156 174 128
157 30 142
158 28 193
159 185 96
160 74 55
161 23 123
162 103 70
163 42 174
164 8 8
165 83 81
166 57 54
167 26 45
168 83 180
169 70 37
170 97 65
171 53 31
172 179 141
173 100 53
174 55 64
175 8 71
176 174 185
177 176 144
178 123 36
179 142 60
180 53 61
181 62 38
182 123 33
183 136 111
184 28 160
185 85 85
186 12 66
187 107 96
188 168 119
189 171 36
190 188 88
191 135 45
192 26 41
193 195 129
194 108 141
195 75 134
196 141 4
197 60 58
198 196 137
199 7 142
200 190 112
201 63 192
202 97 129
203 71 131
204 159 105
205 109 48
206 189 83
207 142 27
208 68 40
209 56 90
210 98 193
211 121 36
212 101 70
213 134 157
214 103 77
215 87 117
216 183 170
217 193 12
218 127 60
219 178 140
220 95 50
221 25 165
222 124 191
223 138 69
224 177 145
225 50 31
226 37 177
227 48 30
228 197 29
229 40 130
230 23 168
231 24 140
232 20 59
233 81 183
234 190 109
235 28 187
236 145 19
237 164 37
238 186 96
239 105 70
240 140 6
241 146 166
242 56 148
243 66 52
244 53 59
245 179 5
246 122 58
247 37 190
248 155 22
249 175 143
250 199 132
251 131 92
252 83 197
253 180 66
254 87 195
255 129 176
256 185 123
257 77 115
258 7 119
259 195 97
260 162 118
261 196 111
262 32 47
263 100 144
264 13 152
265 192 113
266 25 143
267 51 31
268 14 84
269 12 69
270 165 113
271 138 72
272 135 0
273 8 89
274 110 110
275 177 146
276 87 196
277 89 39
278 65 77
279 63 149
280 143 5
281 32 178
282 193 111
283 162 123
284 67 127
285 73 81
286 50 67
287 38 188
288 183 120
289 129 38
290 35 186
291 180 93
292 146 3
293 8 154
294 200 162
295 8 69
296 131 38
297 78 115
298 123 31
299 39 151
300 53 175
301 1 54
302 40 95
303 5 73
304 7 151
305 166 117
306 39 186
307 165 116
308 99 12
309 48 106
310 154 7
311 18 35
312 135 171
313 11 118
314 78 72
315 19 51
316 69 133
317 56 59
318 99 45
319 103 67
320 53 79
321 194 112
322 42 165
323 68 156
324 172 114
325 98 4
326 104 176
327 200 136
328 21 85
329 67 138
330 111 129
331 97 7
332 114 112
333 125 49
334 75 173
335 42 72
336 53 180
337 174 194
338 39 112
339 6 193
340 6 67
341 14 92
342 3 75
343 23 142
344 57 118
345 65 53
346 140 3
347 187 112
348 112 6
349 63 55
350 104 68
351 30 187
352 194 129
353 53 67
354 186 65
355 12 131
356 122 37
357 36 193
358 113 105
359 84 180
360 136 90
361 61 50
362 97 67
363 190 110
364 87 118
365 137 4
366 179 151
367 189 97
368 15 87
369 157 142
370 138 61
371 65 42
372 60 184
373 85 192
374 93 7
375 95 16
376 125 38
377 149 78
378 185 115
379 158 132
380 29 121
381 122 13
382 57 157
383 8 73
384 115 75
385 41 43
386 104 5
387 172 55
388 184 140
389 12 113
390 40 183
391 193 131
392 129 40
393 84 192
394 95 74
395 8 74
396 181 147
397 17 93
398 66 196
399 123 90
400 110 184
401 121 46
402 73 81
403 154 7
404 110 110
405 59 83
406 40 130
407 104 88
PICKUP_AND_DELIVERY_SECTION
1 0 0 3060 0 0 0
2 20 770 1250 10 0 381
3 20 55 535 10 0 397
4 20 464 944 10 0 142
5 20 252 732 10 0 112
6 -20 1732 2212 10 236 0
7 -8 578 1058 10 316 0
8 -30 1596 2076 10 79 0
9 -16 1858 2338 10 228 0
10 11 209 689 10 0 153
11 -23 203 683 10 218 0
12 -20 411 891 10 244 0
13 -22 2081 2561 10 151 0
14 -10 478 958 10 68 0
15 -20 1903 2383 10 242 0
16 20 512 992 10 0 235
17 -20 205 685 10 296 0
18 -28 2077 2557 10 323 0
19 30 633 1113 10 0 380
20 -30 507 987 10 98 0
21 14 2175 2655 10 0 54
22 10 285 765 10 0 82
23 -28 672 1152 10 355 0
24 30 106 586 10 0 263
25 20 281 761 10 0 179
26 10 247 727 10 0 234
27 -10 1437 1917 10 362 0
28 -20 507 987 10 77 0
29 -20 1865 2345 10 352 0
30 26 315 795 10 0 202
31 20 333 813 10 0 129
32 -30 357 837 10 256 0
33 20 211 691 10 0 95
34 12 701 1181 10 0 86
35 -30 1112 1592 10 92 0
36 5 741 1221 10 0 65
37 -20 2321 2801 10 238 0
38 -10 905 1385 10 135 0
39 -27 1831 2311 10 83 0
40 -20 491 971 10 141 0
41 10 179 659 10 0 58
42 -18 707 1187 10 335 0
43 -10 450 930 10 162 0
44 -43 1919 2399 10 206 0
45 -20 85 565 10 305 0
46 -20 1691 2171 10 328 0
47 11 115 595 10 0 74
48 10 365 845 10 0 349
49 -18 772 1252 10 255 0
50 -30 572 1052 10 308 0
51 -20 255 735 10 190 0
52 -20 303 783 10 264 0
53 10 420 900 10 0 69
54 -14 2404 2884 10 21 0
55 10 400 880 10 0 312
56 17 93 573 10 0 321
57 30 400 880 10 0 181
58 -10 367 847 10 41 0
59 25 2558 3038 0 0 407
60 10 973 1453 10 0 230
61 -15 1985 2465 10 388 0
62 -23 1054 1534 10 309 0
63 10 525 1005 10 0 398
64 10 290 770 10 0 396
65 -5 1234 1714 10 36 0
66 -10 312 792 10 239 0
67 -27 1091 1571 10 210 0
68 10 210 690 10 0 14
69 -10 573 1053 10 53 0
70 -20 654 1134 10 327 0
71 -10 175 655 10 113 0
72 20 254 734 10 0 194
73 20 159 639 10 0 277
74 -11 300 780 10 47 0
75 -27 272 752 10 330 0
76 30 30 510 10 0 178
77 20 167 647 10 0 28
78 -20 618 1098 10 91 0
79 30 119 599 10 0 8
80 -30 352 832 10 123 0
81 19 2108 2588 10 0 189
82 -10 1394 1874 10 22 0
83 27 359 839 10 0 39
84 -20 1191 1671 10 200 0
85 -30 1528 2008 10 334 0
86 -12 523 1003 10 34 0
87 -10 825 1305 10 175 0
88 -16 164 644 10 101 0
89 -20 448 928 10 198 0
90 -18 150 630 10 360 0
91 20 152 632 10 0 78
92 30 176 656 10 0 35
93 10 91 571 10 0 303
94 10 18 498 10 0 144
95 -20 1062 1542 10 33 0
96 10 87 567 10 0 282
97 20 202 682 10 0 293
98 30 78 558 10 0 20
99 -24 2343 2823 10 241 0
100 -20 1182 1662 10 267 0
101 16 155 635 10 0 88
102 10 534 1014 10 0 217
103 1 2066 2546 10 0 188
104 -11 1503 1983 10 387 0
105 23 65 545 10 0 233
106 -16 1702 2182 10 120 0
107 18 100 580 10 0 270
108 8 179 659 10 0 389
109 -30 241 721 10 124 0
110 -21 608 1088 10 399 0
111 -23 346 826 10 187 0
112 -20 544 1024 10 5 0
113 10 432 912 10 0 71
114 30 248 728 10 0 140
115 -17 1582 2062 10 118 0
116 -30 257 737 10 174 0
117 -20 1055 1535 10 287 0
118 17 953 1433 10 0 115
119 -26 175 655 10 384 0
120 16 1637 2117 10 0 106
121 -20 1587 2067 10 146 0
122 11 33 513 10 0 150
123 30 400 880 10 0 80
124 30 374 854 10 0 109
125 -30 900 1380 10 341 0
126 20 457 937 10 0 159
127 24 727 1207 0 0 405
128 10 59 539 10 0 302
129 -20 708 1188 10 31 0
130 -10 355 835 10 343 0
131 -30 1061 1541 10 158 0
132 -12 2020 2500 10 201 0
133 -24 874 1354 10 222 0
134 -20 892 1372 10 374 0
135 10 360 840 10 0 38
136 -10 1103 1583 10 345 0
137 24 270 750 10 0 292
138 30 186 666 10 0 192
139 10 252 732 10 0 225
140 -30 148 628 10 114 0
141 20 208 688 10 0 40
142 -20 312 792 10 4 0
143 20 65 545 10 0 213
144 -10 25 505 10 94 0
145 20 21 501 10 0 357
146 20 471 951 10 0 121
147 -10 625 1105 10 361 0
148 10 84 564 10 0 266
149 10 319 799 10 0 276
150 -11 304 784 10 122 0
151 22 31 511 10 0 13
152 -21 233 713 10 214 0
153 -11 266 746 10 10 0
154 -4 1703 2183 10 336 0
155 -20 829 1309 10 325 0
156 -10 79 559 10 307 0
157 10 137 617 10 0 313
158 30 536 1016 10 0 131
159 -20 624 1104 10 126 0
160 -30 1224 1704 10 356 0
161 -10 982 1462 10 169 0
162 10 30 510 10 0 43
163 13 271 751 10 0 290
164 11 373 853 10 0 269
165 21 25 505 10 0 317
166 20 95 575 10 0 209
167 -10 707 1187 10 342 0
168 15 885 1365 10 0 332
169 10 69 549 10 0 161
170 20 265 745 10 0 220
171 10 465 945 10 0 371
172 20 213 693 10 0 366
173 -24 2523 3003 10 311 0
174 30 203 683 10 0 116
175 10 510 990 10 0 87
176 15 268 748 10 0 275
177 -17 584 1064 10 216 0
178 -30 280 760 10 76 0
179 -20 1472 1952 10 25 0
180 20 148 628 10 0 315
181 -30 1974 2454 10 57 0
182 20 332 812 10 0 375
183 -20 2224 2704 10 204 0
184 -20 1390 1870 10 199 0
185 -10 2094 2574 10 340 0
186 -20 137 617 10 268 0
187 23 8 488 10 0 111
188 -1 2052 2532 10 103 0
189 -19 2351 2831 10 81 0
190 20 155 635 10 0 51
191 -20 970 1450 10 298 0
192 -30 392 872 10 138 0
193 -13 489 969 10 253 0
194 -20 900 1380 10 72 0
195 16 42 522 10 0 393
196 -10 435 915 10 280 0
197 -9 58 538 10 314 0
198 20 219 699 10 0 89
199 20 627 1107 10 0 184
200 20 163 643 10 0 84
201 12 752 1232 10 0 132
202 -26 2157 2637 10 30 0
203 -26 1816 2296 10 338 0
204 20 2124 2604 10 0 183
205 -20 358 838 10 212 0
206 43 636 1116 10 0 44
207 -10 1300 1780 10 365 0
208 23 68 548 10 0 258
209 -20 1937 2417 10 166 0
210 27 629 1109 10 0 67
211 -24 442 922 10 248 0
212 20 30 510 10 0 205
213 -20 1493 1973 10 143 0
214 21 23 503 10 0 152
215 10 307 787 10 0 284
216 17 591 1071 10 0 177
217 -10 1315 1795 10 102 0
218 23 332 812 10 0 11
219 -10 167 647 10 288 0
220 -20 769 1249 10 170 0
221 24 1314 1794 10 0 226
222 24 605 1085 10 0 133
223 9 49 529 10 0 291
224 -10 538 1018 10 250 0
225 -10 142 622 10 139 0
226 -24 1507 1987 10 221 0
227 50 195 675 10 0 243
228 16 1455 1935 10 0 9
229 1 371 851 0 0 406
230 -10 1735 2215 10 60 0
231 20 398 878 10 0 358
232 -20 1826 2306 10 295 0
233 -23 166 646 10 105 0
234 -10 573 1053 10 26 0
235 -20 1816 2296 10 16 0
236 20 1122 1602 10 0 6
237 -8 218 698 10 271 0
238 20 580 1060 10 0 37
239 10 30 510 10 0 66
240 30 298 778 10 0 245
241 24 1286 1766 10 0 99
242 20 1930 2410 10 0 15
243 -50 416 896 10 227 0
244 20 100 580 10 0 12
245 -30 1965 2445 10 240 0
246 -22 47 527 10 251 0
247 -17 411 891 10 279 0
248 24 328 808 10 0 211
249 -20 629 1109 10 391 0
250 10 388 868 10 0 224
251 22 32 512 10 0 246
252 -10 473 953 10 297 0
253 13 150 630 10 0 193
254 10 372 852 10 0 281
255 18 400 880 10 0 49
256 30 203 683 10 0 32
257 20 50 530 10 0 382
258 -23 1265 1745 10 208 0
259 -20 422 902 10 324 0
260 20 343 823 10 0 367
261 -40 382 862 10 283 0
262 27 419 899 10 0 320
263 -30 816 1296 10 24 0
264 20 205 685 10 0 52
265 -30 212 692 10 347 0
266 -10 300 780 10 148 0
267 20 142 622 10 0 100
268 20 464 944 10 0 186
269 -11 614 1094 10 164 0
270 -18 66 546 10 107 0
271 8 388 868 10 0 237
272 -20 657 1137 10 392 0
273 -20 652 1132 10 304 0
274 14 2187 2667 0 0 404
275 -15 494 974 10 176 0
276 -10 416 896 10 149 0
277 -20 71 551 10 73 0
278 19 653 1133 10 0 339
279 17 61 541 10 0 247
280 10 484 964 10 0 196
281 -10 735 1215 10 254 0
282 -10 476 956 10 96 0
283 40 403 883 10 0 261
284 -10 42 522 10 215 0
285 19 2537 3017 0 0 402
286 -20 266 746 10 353 0
287 20 319 799 10 0 117
288 10 149 629 10 0 219
289 10 126 606 10 0 333
290 -13 661 1141 10 163 0
291 -9 687 1167 10 223 0
292 -24 1547 2027 10 137 0
293 -20 458 938 10 97 0
294 -12 1797 2277 10 359 0
295 20 558 1038 10 0 232
296 20 78 558 10 0 17
297 10 26 506 10 0 252
298 20 380 860 10 0 191
299 26 267 747 10 0 373
300 28 633 1113 10 0 400
301 -20 970 1450 10 395 0
302 -10 1830 2310 10 128 0
303 -10 307 787 10 93 0
304 20 551 1031 10 0 273
305 20 200 680 10 0 45
306 5 522 1002 10 0 351
307 10 246 726 10 0 156
308 30 112 592 10 0 50
309 23 512 992 10 0 62
310 32 1222 1702 0 0 403
311 24 2295 2775 10 0 173
312 -10 474 954 10 55 0
313 -10 268 748 10 157 0
314 9 35 515 10 0 197
315 -20 481 961 10 180 0
316 8 45 525 10 0 7
317 -21 60 540 10 165 0
318 -10 158 638 10 350 0
319 20 115 595 10 0 344
320 -27 1707 2187 10 262 0
321 -17 431 911 10 56 0
322 -10 1353 1833 10 364 0
323 28 1086 1566 10 0 18
324 20 134 614 10 0 259
325 20 228 708 10 0 155
326 19 741 1221 10 0 379
327 20 332 812 10 0 70
328 20 573 1053 10 0 46
329 11 104 584 10 0 390
330 27 31 511 10 0 75
331 -20 280 760 10 394 0
332 -15 2243 2723 10 168 0
333 -10 979 1459 10 289 0
334 30 77 557 10 0 85
335 18 541 1021 10 0 42
336 4 933 1413 10 0 154
337 -7 1667 2147 10 372 0
338 26 341 821 10 0 203
339 -19 1417 1897 10 278 0
340 10 242 722 10 0 185
341 30 200 680 10 0 125
342 10 358 838 10 0 167
343 10 349 829 10 0 130
344 -20 1505 1985 10 319 0
345 10 510 990 10 0 136
346 -30 390 870 10 376 0
347 30 111 591 10 0 265
348 -3 2291 2771 10 401 0
349 -10 561 1041 10 48 0
350 10 69 549 10 0 318
351 -5 601 1081 10 306 0
352 20 533 1013 10 0 29
353 20 318 798 10 0 286
354 -20 1689 2169 10 363 0
355 28 360 840 10 0 23
356 30 235 715 10 0 160
357 -20 464 944 10 145 0
358 -20 801 1281 10 231 0
359 12 1263 1743 10 0 294
360 18 37 517 10 0 90
361 10 197 677 10 0 147
362 10 313 793 10 0 27
363 20 529 1009 10 0 354
364 10 263 743 10 0 322
365 10 715 1195 10 0 207
366 -20 1097 1577 10 172 0
367 -20 486 966 10 260 0
368 20 301 781 10 0 383
369 13 70 550 10 0 377
370 -20 868 1348 10 378 0
371 -10 674 1154 10 171 0
372 7 1126 1606 10 0 337
373 -26 227 707 10 299 0
374 20 336 816 10 0 134
375 -20 455 935 10 182 0
376 30 182 662 10 0 346
377 -13 1609 2089 10 369 0
378 20 426 906 10 0 370
379 -19 1250 1730 10 326 0
380 -30 917 1397 10 19 0
381 -20 378 858 10 2 0
382 -20 140 620 10 257 0
383 -20 462 942 10 368 0
384 26 29 509 10 0 119
385 -26 1848 2328 10 386 0
386 26 583 1063 10 0 385
387 11 1639 2119 10 0 104
388 15 1244 1724 10 0 61
389 -8 1152 1632 10 108 0
390 -11 210 690 10 329 0
391 20 152 632 10 0 249
392 20 66 546 10 0 272
393 -16 271 751 10 195 0
394 20 383 863 10 0 331
395 20 418 898 10 0 301
396 -10 356 836 10 64 0
397 -20 147 627 10 3 0
398 -10 1490 1970 10 63 0
399 21 25 505 10 0 110
400 -28 1623 2103 10 300 0
401 3 482 962 10 0 348
402 -19 2537 3017 10 285 0
403 -32 1222 1702 10 310 0
404 -14 2187 2667 10 274 0
405 -24 727 1207 10 127 0
406 -1 371 851 10 229 0
407 -25 2558 3038 10 59 0
DEPOT_SECTION
1
-1
EOF
