NAME: lrc2_4_7
TYPE: PDPTW
COMMENT: Li & Lim PDPTW benchmark converted from SINTEF format
DIMENSION: 405
VEHICLES: 100
CAPACITY: 1000
EDGE_WEIGHT_TYPE: EUC_2D
NODE_COORD_SECTION
1 100 100
2 134 6
3 63 58
4 64 52
5 139 7
6 110 8
7 79 193
8 80 190
9 158 81
10 60 153
11 141 8
12 13 81
13 68 115
14 151 132
15 88 143
16 16 84
17 155 17
18 69 150
19 55 87
20 22 133
21 10 20
22 187 142
23 114 122
24 78 119
25 199 115
26 185 124
27 46 22
28 7 152
29 144 92
30 5 162
31 197 113
32 189 95
33 84 118
34 28 77
35 105 26
36 113 100
37 139 97
38 143 179
39 111 189
40 119 37
41 87 191
42 80 167
43 23 137
44 181 70
45 178 123
46 45 142
47 151 66
48 68 50
49 159 196
50 87 30
51 187 92
52 10 153
53 54 30
54 54 37
55 180 147
56 154 59
57 93 13
58 38 190
59 104 88
60 78 169
61 127 143
62 24 131
63 82 194
64 165 117
65 23 176
66 55 24
67 148 157
68 186 91
69 26 138
70 78 184
71 165 181
72 11 151
73 103 66
74 188 125
75 197 140
76 100 70
77 83 118
78 66 58
79 83 188
80 12 154
81 158 20
82 161 158
83 41 186
84 162 162
85 89 176
86 86 69
87 20 72
88 41 182
89 178 147
90 140 11
91 60 51
92 100 6
93 18 89
94 85 110
95 37 146
96 181 89
97 26 147
98 52 38
99 131 136
100 46 131
101 35 160
102 187 97
103 172 179
104 156 93
105 85 164
106 17 32
107 175 60
108 82 48
109 62 50
110 137 1
111 140 4
112 143 0
113 198 132
114 25 146
115 137 10
116 15 88
117 38 183
118 121 48
119 62 15
120 19 38
121 144 59
122 125 78
123 12 156
124 53 29
125 22 61
126 159 121
127 59 83
128 59 57
129 168 58
130 12 85
131 85 193
132 155 107
133 195 132
134 55 51
135 189 120
136 59 139
137 121 50
138 10 67
139 52 28
140 17 150
141 101 67
142 69 47
143 164 113
144 79 115
145 80 108
146 184 116
147 27 135
148 29 139
149 84 194
150 186 94
151 114 72
152 90 4
153 41 187
154 92 178
155 46 40
156 174 128
157 30 142
158 28 193
159 185 96
160 74 55
161 23 123
162 103 70
163 42 174
164 8 8
165 83 81
166 57 54
167 26 45
168 83 180
169 70 37
170 97 65
171 53 31
172 179 141
173 100 53
174 55 64
175 8 71
176 174 185
177 176 144
178 123 36
179 142 60
180 53 61
181 62 38
182 123 33
183 136 111
184 28 160
185 85 85
186 12 66
187 107 96
188 168 119
189 171 36
190 188 88
191 135 45
192 26 41
193 195 129
194 108 141
195 75 134
196 141 4
197 60 58
198 196 137
199 7 142
200 190 112
201 63 192
202 97 129
203 71 131
204 159 105
205 109 48
206 189 83
207 142 27
208 68 40
209 56 90
210 98 193
211 121 36
212 101 70
213 134 157
214 103 77
215 87 117
216 183 170
217 193 12
218 127 60
219 178 140
220 95 50
221 25 165
222 124 191
223 138 69
224 177 145
225 50 31
226 37 177
227 48 30
228 197 29
229 40 130
230 23 168
231 24 140
232 20 59
233 81 183
234 190 109
235 28 187
236 145 19
237 164 37
238 186 96
239 105 70
240 140 6
241 146 166
242 56 148
243 66 52
244 53 59
245 179 5
246 122 58
247 37 190
248 155 22
249 175 143
250 199 132
251 131 92
252 83 197
253 180 66
254 87 195
255 129 176
256 185 123
257 77 115
258 7 119
259 195 97
260 162 118
261 196 111
262 32 47
263 100 144
264 13 152
265 192 113
266 25 143
267 51 31
268 14 84
269 12 69
270 165 113
271 138 72
272 135 0
273 8 89
274 110 110
275 177 146
276 87 196
277 89 39
278 65 77
279 63 149
280 143 5
281 32 178
282 193 111
283 162 123
284 67 127
285 73 81
286 50 67
287 38 188
288 183 120
289 129 38
290 35 186
291 180 93
292 146 3
293 8 154
294 200 162
295 8 69
296 131 38
297 78 115
298 123 31
299 39 151
300 53 175
301 1 54
302 40 95
303 5 73
304 7 151
305 166 117
306 39 186
307 165 116
308 99 12
309 48 106
310 154 7
311 18 35
312 135 171
313 11 118
314 78 72
315 19 51
316 69 133
317 56 59
318 99 45
319 103 67
320 53 79
321 194 112
322 42 165
323 68 156
324 172 114
325 98 4
326 104 176
327 200 136
328 21 85
329 67 138
330 111 129
331 97 7
332 114 112
333 125 49
334 75 173
335 42 72
336 53 180
337 174 194
338 39 112
339 6 193
340 6 67
341 14 92
342 3 75
343 23 142
344 57 118
345 65 53
346 140 3
347 187 112
348 112 6
349 63 55
350 104 68
351 30 187
352 194 129
353 53 67
354 186 65
355 12 131
356 122 37
357 36 193
358 113 105
359 84 180
360 136 90
361 61 50
362 97 67
363 190 110
364 87 118
365 137 4
366 179 151
367 189 97
368 15 87
369 157 142
370 138 61
371 65 42
372 60 184
373 85 192
374 93 7
375 95 16
376 125 38
377 149 78
378 185 115
379 158 132
380 29 121
381 122 13
382 57 157
383 8 73
384 115 75
385 41 43
386 104 5
387 172 55
388 184 140
389 12 113
390 40 183
391 193 131
392 129 40
393 84 192
394 95 74
395 8 74
396 181 147
397 17 93
398 66 196
399 123 90
400 110 184
401 121 46
402 18 35
403 145 19
404 42 165
405 32 178
PICKUP_AND_DELIVERY_SECTION
1 0 0 3060 0 0 0
2 -18 912 1107 10 107 0
3 20 55 409 10 0 180
4 20 442 966 10 0 205
5 20 389 594 10 0 182
6 26 1697 2247 10 0 59
7 30 562 1073 10 0 388
8 13 1515 2156 10 0 39
9 -20 1943 2253 10 282 0
10 11 369 528 10 0 337
11 20 240 645 10 0 245
12 -20 412 891 10 43 0
13 -20 2234 2407 10 65 0
14 6 532 904 10 0 339
15 -10 1928 2358 10 142 0
16 20 507 998 10 0 278
17 32 419 472 10 0 387
18 -10 2100 2534 10 135 0
19 -10 829 917 10 343 0
20 -10 605 888 10 351 0
21 -19 2222 2608 10 181 0
22 10 238 811 10 0 326
23 -14 661 1163 10 86 0
24 30 105 587 10 0 313
25 -20 303 739 10 265 0
26 10 238 736 10 0 168
27 -9 1499 1855 10 314 0
28 -30 525 969 10 123 0
29 -20 1923 2287 10 146 0
30 -10 370 740 10 157 0
31 20 332 814 10 0 193
32 10 449 745 10 0 75
33 20 95 807 10 0 266
34 12 793 1088 10 0 185
35 24 1150 1553 10 0 348
36 5 748 1214 10 0 202
37 -27 2490 2632 10 381 0
38 -26 776 1514 10 382 0
39 -13 1785 2357 10 8 0
40 -24 493 969 10 248 0
41 10 389 448 10 0 222
42 -10 863 1032 10 307 0
43 20 447 934 10 0 12
44 -10 1906 2412 10 90 0
45 30 219 432 10 0 70
46 15 1823 2039 10 0 203
47 -11 130 581 10 122 0
48 10 443 767 10 0 137
49 -20 919 1105 10 249 0
50 -26 704 920 10 386 0
51 -30 421 570 10 347 0
52 20 258 829 10 0 231
53 10 493 827 10 0 125
54 21 2364 2924 10 0 285
55 -10 598 683 10 288 0
56 17 119 546 10 0 183
57 -20 467 813 10 319 0
58 -10 448 766 10 80 0
59 -26 2421 3038 10 6 0
60 10 1122 1304 10 0 400
61 -20 1905 2545 10 213 0
62 -20 1140 1449 10 72 0
63 -11 657 873 10 329 0
64 10 313 747 10 0 131
65 20 1191 1757 10 0 13
66 -19 423 681 10 277 0
67 -12 1047 1615 10 379 0
68 -22 259 640 10 251 0
69 -20 401 1225 10 287 0
70 -30 623 1165 10 45 0
71 22 170 660 10 0 156
72 20 223 765 10 0 62
73 20 160 638 10 0 98
74 -20 294 785 10 391 0
75 -10 298 726 10 32 0
76 30 30 236 10 0 136
77 20 195 619 10 0 233
78 -13 677 1039 10 273 0
79 -10 243 474 10 94 0
80 10 436 749 10 0 58
81 -10 2172 2525 10 365 0
82 -10 1521 1746 10 393 0
83 27 220 977 10 0 258
84 -24 1143 1718 10 241 0
85 -23 1556 1980 10 398 0
86 14 568 957 10 0 23
87 -20 926 1205 10 295 0
88 30 314 494 10 0 95
89 10 592 784 10 0 242
90 10 237 543 10 0 44
91 -20 326 458 10 109 0
92 -20 251 581 10 325 0
93 -20 173 488 10 244 0
94 10 18 353 10 0 79
95 -30 1002 1601 10 88 0
96 -10 151 503 10 270 0
97 -20 87 965 10 264 0
98 -20 118 510 10 73 0
99 18 2336 2830 10 0 332
100 -10 1220 1625 10 297 0
101 -10 148 641 10 373 0
102 10 755 794 10 0 132
103 -25 2131 2481 10 104 0
104 25 1497 1989 10 0 103
105 23 111 414 10 0 133
106 -20 1645 2240 10 328 0
107 18 173 507 10 0 2
108 8 301 537 10 0 323
109 20 302 660 10 0 91
110 10 526 1170 10 0 118
111 -30 402 769 10 356 0
112 -10 529 1039 10 280 0
113 10 502 842 10 0 327
114 30 362 614 10 0 140
115 -11 1464 2179 10 207 0
116 -20 269 724 10 166 0
117 -15 1079 1510 10 176 0
118 -10 1113 1274 10 110 0
119 29 240 590 10 0 152
120 16 1735 2019 10 0 385
121 18 1768 1886 10 0 274
122 11 33 576 10 0 47
123 30 348 933 10 0 28
124 30 192 1036 10 0 232
125 -10 987 1293 10 53 0
126 20 429 966 10 0 230
127 -18 860 1073 10 335 0
128 10 67 493 10 0 361
129 -30 927 969 10 159 0
130 -10 368 822 10 215 0
131 -10 1172 1430 10 64 0
132 -10 2013 2508 10 102 0
133 -23 904 1324 10 105 0
134 -28 926 1337 10 355 0
135 10 567 634 10 0 18
136 -30 1240 1445 10 76 0
137 -10 304 715 10 48 0
138 -20 171 682 10 353 0
139 -23 192 793 10 208 0
140 -30 96 863 10 114 0
141 -20 426 470 10 212 0
142 10 497 607 10 0 15
143 -18 65 530 10 360 0
144 30 25 469 10 0 290
145 20 26 242 10 0 306
146 20 599 824 10 0 29
147 -20 805 925 10 304 0
148 10 230 418 10 0 357
149 10 367 752 10 0 254
150 20 319 770 10 0 238
151 22 31 299 10 0 211
152 -29 175 771 10 119 0
153 20 369 643 10 0 209
154 -10 1724 2162 10 345 0
155 -20 923 1216 10 268 0
156 -22 98 534 10 71 0
157 10 224 529 10 0 30
158 30 533 1018 10 0 344
159 30 666 1061 10 0 129
160 -12 1359 1570 10 371 0
161 15 1155 1288 10 0 302
162 -21 133 292 10 214 0
163 13 407 614 10 0 255
164 -14 413 813 10 192 0
165 21 25 439 10 0 317
166 20 221 449 10 0 116
167 -30 932 962 10 341 0
168 -10 1074 1176 10 26 0
169 10 69 563 10 0 267
170 20 410 600 10 0 358
171 -10 455 955 10 340 0
172 -13 252 653 10 369 0
173 -30 2563 2968 10 308 0
174 30 360 525 10 0 395
175 -20 618 883 10 383 0
176 15 276 741 10 0 117
177 -20 718 930 10 260 0
178 10 419 621 10 0 346
179 -10 1548 1875 10 291 0
180 -20 211 566 10 3 0
181 19 2107 2321 10 0 21
182 -20 357 788 10 5 0
183 -17 2387 2540 10 56 0
184 27 1460 1801 10 0 226
185 -12 2189 2480 10 34 0
186 20 222 532 10 0 262
187 23 8 536 10 0 189
188 14 2120 2463 10 0 294
189 -23 2409 2773 10 187 0
190 20 88 743 10 0 261
191 7 1033 1388 10 0 310
192 14 472 792 10 0 164
193 -20 588 871 10 31 0
194 -23 1086 1194 10 218 0
195 16 42 761 10 0 366
196 20 516 834 10 0 272
197 20 184 281 10 0 397
198 20 329 588 10 0 377
199 -10 729 1005 10 247 0
200 20 136 671 10 0 321
201 12 757 1226 10 0 372
202 -5 2267 2527 10 36 0
203 -15 1880 2233 10 46 0
204 -20 2193 2535 10 378 0
205 -20 295 902 10 4 0
206 -21 847 906 10 399 0
207 11 1394 1685 10 0 115
208 23 119 426 10 0 139
209 -20 2013 2340 10 153 0
210 -20 600 1137 10 252 0
211 -22 532 832 10 151 0
212 20 30 331 10 0 141
213 20 1634 1831 10 0 61
214 21 23 455 10 0 162
215 10 287 806 10 0 130
216 -27 825 837 10 330 0
217 -30 1424 1687 10 240 0
218 23 457 688 10 0 194
219 10 230 585 10 0 256
220 -8 738 1281 10 271 0
221 -10 1454 1653 10 224 0
222 -10 703 988 10 41 0
223 9 49 909 10 0 298
224 10 598 957 10 0 221
225 20 137 627 10 0 331
226 -27 1583 1911 10 184 0
227 50 379 490 10 0 375
228 -20 1463 1928 10 392 0
229 1 382 840 10 0 338
230 -20 1747 2203 10 126 0
231 -20 355 921 10 52 0
232 -30 1894 2238 10 124 0
233 -20 333 480 10 77 0
234 -10 516 1109 10 250 0
235 -4 1925 2188 10 336 0
236 20 1191 1533 0 0 403
237 19 380 536 10 0 292
238 -20 756 884 10 150 0
239 10 114 406 10 0 350
240 30 356 719 10 0 217
241 24 1446 1605 10 0 84
242 -10 2092 2247 10 89 0
243 10 456 856 10 0 401
244 20 168 512 10 0 93
245 -20 1996 2414 10 11 0
246 15 47 512 10 0 333
247 10 589 712 10 0 199
248 24 277 859 10 0 40
249 20 796 943 10 0 49
250 10 357 899 10 0 234
251 22 32 579 10 0 68
252 20 371 1055 10 0 210
253 -26 191 589 10 384 0
254 -10 538 687 10 149 0
255 -13 476 804 10 163 0
256 -10 266 620 10 219 0
257 20 223 356 10 0 293
258 -27 1364 1646 10 83 0
259 -20 414 911 10 324 0
260 20 492 674 10 0 177
261 -20 190 1053 10 190 0
262 -20 451 867 10 186 0
263 17 982 1129 10 0 359
264 20 117 773 10 0 97
265 20 244 660 10 0 25
266 -20 532 547 10 33 0
267 -10 132 631 10 169 0
268 20 572 836 10 0 155
269 -10 743 966 10 364 0
270 10 68 542 10 0 96
271 8 432 823 10 0 220
272 -20 603 1191 10 196 0
273 13 738 1047 10 0 78
274 -18 2224 2631 10 121 0
275 -20 656 812 10 396 0
276 -26 359 954 10 299 0
277 19 123 500 10 0 66
278 -20 555 1231 10 16 0
279 17 232 367 10 0 334
280 10 668 781 10 0 112
281 10 787 1164 0 0 405
282 20 504 929 10 0 9
283 -20 517 769 10 305 0
284 21 42 654 10 0 390
285 -21 2822 2901 10 54 0
286 10 375 638 10 0 303
287 20 326 791 10 0 69
288 10 110 667 10 0 55
289 10 282 450 10 0 376
290 -30 581 1221 10 144 0
291 10 667 1188 10 0 179
292 -19 1516 2057 10 237 0
293 -20 489 908 10 257 0
294 -14 1670 2404 10 188 0
295 20 633 963 10 0 87
296 20 189 447 10 0 354
297 10 50 441 10 0 100
298 -9 472 769 10 223 0
299 26 327 687 10 0 276
300 28 605 1140 10 0 380
301 -19 1094 1326 10 315 0
302 -15 1969 2170 10 161 0
303 -10 349 745 10 286 0
304 20 556 1027 10 0 147
305 20 365 516 10 0 283
306 -20 623 900 10 145 0
307 10 277 696 10 0 42
308 30 168 536 10 0 173
309 23 614 890 10 0 349
310 -7 1211 1713 10 191 0
311 24 2337 2732 0 0 402
312 -8 621 807 10 316 0
313 -30 311 704 10 24 0
314 9 35 459 10 0 27
315 19 540 903 10 0 301
316 8 45 449 10 0 312
317 -21 147 429 10 165 0
318 21 170 625 10 0 374
319 20 145 565 10 0 57
320 -2 1594 2301 10 389 0
321 -20 618 723 10 200 0
322 22 1357 1830 0 0 404
323 -8 1269 1382 10 108 0
324 20 102 645 10 0 259
325 20 343 593 10 0 92
326 -10 868 1094 10 22 0
327 -10 373 771 10 113 0
328 20 424 1201 10 0 106
329 11 129 558 10 0 63
330 27 31 720 10 0 216
331 -20 421 620 10 225 0
332 -18 2271 2694 10 99 0
333 -15 996 1442 10 246 0
334 -17 200 418 10 279 0
335 18 556 1007 10 0 127
336 4 988 1357 10 0 235
337 -11 1707 2107 10 10 0
338 -1 514 648 10 229 0
339 -6 1485 1828 10 14 0
340 10 210 754 10 0 171
341 30 189 692 10 0 167
342 -20 401 794 10 368 0
343 10 460 717 10 0 19
344 -30 1718 1771 10 158 0
345 10 509 991 10 0 154
346 -10 541 718 10 178 0
347 30 118 585 10 0 51
348 -24 2463 2600 10 35 0
349 -23 543 1058 10 309 0
350 -10 95 523 10 239 0
351 10 686 995 10 0 20
352 20 638 908 10 0 363
353 20 332 784 10 0 138
354 -20 1689 2168 10 296 0
355 28 537 663 10 0 134
356 30 218 732 10 0 111
357 -10 529 879 10 148 0
358 -20 883 1199 10 170 0
359 -17 1457 1550 10 263 0
360 18 37 416 10 0 143
361 -10 152 723 10 128 0
362 -20 200 906 10 394 0
363 -20 583 955 10 352 0
364 10 424 582 10 0 269
365 10 808 1103 10 0 81
366 -16 1095 1578 10 195 0
367 20 477 975 10 0 370
368 20 362 719 10 0 342
369 13 70 679 10 0 172
370 -20 850 1366 10 367 0
371 12 552 1275 10 0 160
372 -12 1055 1677 10 201 0
373 10 341 594 10 0 101
374 -21 231 921 10 318 0
375 -50 592 797 10 227 0
376 -10 230 614 10 289 0
377 -20 1587 2112 10 198 0
378 20 547 784 10 0 204
379 12 1325 1656 10 0 67
380 -28 955 1358 10 300 0
381 27 506 731 10 0 37
382 26 144 616 10 0 38
383 20 545 860 10 0 175
384 26 29 373 10 0 253
385 -16 1948 2227 10 120 0
386 26 752 894 10 0 50
387 -32 1694 2064 10 17 0
388 -30 1322 1647 10 7 0
389 2 1194 1590 10 0 320
390 -21 318 582 10 284 0
391 20 351 433 10 0 74
392 20 115 418 10 0 228
393 10 320 703 10 0 82
394 20 572 673 10 0 362
395 -30 585 731 10 174 0
396 20 271 921 10 0 275
397 -20 151 623 10 197 0
398 23 1626 1833 10 0 85
399 21 25 207 10 0 206
400 -10 1745 1981 10 60 0
401 -10 619 825 10 243 0
402 -24 2337 2732 10 311 0
403 -20 1191 1533 10 236 0
404 -22 1357 1830 10 322 0
405 -10 787 1164 10 281 0
DEPOT_SECTION
1
-1
EOF
