NAME: lrc2_4_10
TYPE: PDPTW
COMMENT: Li & Lim PDPTW benchmark converted from SINTEF format
DIMENSION: 407
VEHICLES: 100
CAPACITY: 1000
EDGE_WEIGHT_TYPE: EUC_2D
NODE_COORD_SECTION
1 100 100
2 134 6
3 63 58
4 64 52
5 139 7
6 110 8
7 79 193
8 80 190
9 158 81
10 60 153
11 141 8
12 13 81
13 68 115
14 151 132
15 88 143
16 16 84
17 155 17
18 69 150
19 55 87
20 22 133
21 10 20
22 187 142
23 114 122
24 78 119
25 199 115
26 185 124
27 46 22
28 7 152
29 144 92
30 5 162
31 197 113
32 189 95
33 84 118
34 28 77
35 105 26
36 113 100
37 139 97
38 143 179
39 111 189
40 119 37
41 87 191
42 80 167
43 23 137
44 181 70
45 178 123
46 45 142
47 151 66
48 68 50
49 159 196
50 87 30
51 187 92
52 10 153
53 54 30
54 54 37
55 180 147
56 154 59
57 93 13
58 38 190
59 104 88
60 78 169
61 127 143
62 24 131
63 82 194
64 165 117
65 23 176
66 55 24
67 148 157
68 186 91
69 26 138
70 78 184
71 165 181
72 11 151
73 103 66
74 188 125
75 197 140
76 100 70
77 83 118
78 66 58
79 83 188
80 12 154
81 158 20
82 161 158
83 41 186
84 162 162
85 89 176
86 86 69
87 20 72
88 41 182
89 178 147
90 140 11
91 60 51
92 100 6
93 18 89
94 85 110
95 37 146
96 181 89
97 26 147
98 52 38
99 131 136
100 46 131
101 35 160
102 187 97
103 172 179
104 156 93
105 85 164
106 17 32
107 175 60
108 82 48
109 62 50
110 137 1
111 140 4
112 143 0
113 198 132
114 25 146
115 137 10
116 15 88
117 38 183
118 121 48
119 62 15
120 19 38
121 144 59
122 125 78
123 12 156
124 53 29
125 22 61
126 159 121
127 59 83
128 59 57
129 168 58
130 12 85
131 85 193
132 155 107
133 195 132
134 55 51
135 189 120
136 59 139
137 121 50
138 10 67
139 52 28
140 17 150
141 101 67
142 69 47
143 164 113
144 79 115
145 80 108
146 184 116
147 27 135
148 29 139
149 84 194
150 186 94
151 114 72
152 90 4
153 41 187
154 92 178
155 46 40
156 174 128
157 30 142
158 28 193
159 185 96
160 74 55
161 23 123
162 103 70
163 42 174
164 8 8
165 83 81
166 57 54
167 26 45
168 83 180
169 70 37
170 97 65
171 53 31
172 179 141
173 100 53
174 55 64
175 8 71
176 174 185
177 176 144
178 123 36
179 142 60
180 53 61
181 62 38
182 123 33
183 136 111
184 28 160
185 85 85
186 12 66
187 107 96
188 168 119
189 171 36
190 188 88
191 135 45
192 26 41
193 195 129
194 108 141
195 75 134
196 141 4
197 60 58
198 196 137
199 7 142
200 190 112
201 63 192
202 97 129
203 71 131
204 159 105
205 109 48
206 189 83
207 142 27
208 68 40
209 56 90
210 98 193
211 121 36
212 101 70
213 134 157
214 103 77
215 87 117
216 183 170
217 193 12
218 127 60
219 178 140
220 95 50
221 25 165
222 124 191
223 138 69
224 177 145
225 50 31
226 37 177
227 48 30
228 197 29
229 40 130
230 23 168
231 24 140
232 20 59
233 81 183
234 190 109
235 28 187
236 145 19
237 164 37
238 186 96
239 105 70
240 140 6
241 146 166
242 56 148
243 66 52
244 53 59
245 179 5
246 122 58
247 37 190
248 155 22
249 175 143
250 199 132
251 131 92
252 83 197
253 180 66
254 87 195
255 129 176
256 185 123
257 77 115
258 7 119
259 195 97
260 162 118
261 196 111
262 32 47
263 100 144
264 13 152
265 192 113
266 25 143
267 51 31
268 14 84
269 12 69
270 165 113
271 138 72
272 135 0
273 8 89
274 110 110
275 177 146
276 87 196
277 89 39
278 65 77
279 63 149
280 143 5
281 32 178
282 193 111
283 162 123
284 67 127
285 73 81
286 50 67
287 38 188
288 183 120
289 129 38
290 35 186
291 180 93
292 146 3
293 8 154
294 200 162
295 8 69
296 131 38
297 78 115
298 123 31
299 39 151
300 53 175
301 1 54
302 40 95
303 5 73
304 7 151
305 166 117
306 39 186
307 165 116
308 99 12
309 48 106
310 154 7
311 18 35
312 135 171
313 11 118
314 78 72
315 19 51
316 69 133
317 56 59
318 99 45
319 103 67
320 53 79
321 194 112
322 42 165
323 68 156
324 172 114
325 98 4
326 104 176
327 200 136
328 21 85
329 67 138
330 111 129
331 97 7
332 114 112
333 125 49
334 75 173
335 42 72
336 53 180
337 174 194
338 39 112
339 6 193
340 6 67
341 14 92
342 3 75
343 23 142
344 57 118
345 65 53
346 140 3
347 187 112
348 112 6
349 63 55
350 104 68
351 30 187
352 194 129
353 53 67
354 186 65
355 12 131
356 122 37
357 36 193
358 113 105
359 84 180
360 136 90
361 61 50
362 97 67
363 190 110
364 87 118
365 137 4
366 179 151
367 189 97
368 15 87
369 157 142
370 138 61
371 65 42
372 60 184
373 85 192
374 93 7
375 95 16
376 125 38
377 149 78
378 185 115
379 158 132
380 29 121
381 122 13
382 57 157
383 8 73
384 115 75
385 41 43
386 104 5
387 172 55
388 184 140
389 12 113
390 40 183
391 193 131
392 129 40
393 84 192
394 95 74
395 8 74
396 181 147
397 17 93
398 66 196
399 123 90
400 110 184
401 121 46
402 11 151
403 62 38
404 69 150
405 193 111
406 144 92
407 121 50
PICKUP_AND_DELIVERY_SECTION
1 0 0 3060 0 0 0
2 -10 710 1310 10 110 0
3 -9 55 655 10 314 0
4 -10 404 1004 10 349 0
5 20 192 792 10 0 221
6 -20 1672 2272 10 211 0
7 30 518 1118 10 0 117
8 13 1536 2136 10 0 202
9 -19 1798 2398 10 278 0
10 11 149 749 10 0 101
11 20 143 743 10 0 375
12 30 351 951 10 0 191
13 -20 2021 2621 10 231 0
14 -10 418 1018 10 373 0
15 -20 1843 2443 10 242 0
16 20 452 1052 10 0 186
17 -11 145 745 10 47 0
18 17 2017 2617 0 0 404
19 -21 573 1173 10 87 0
20 -20 447 1047 10 43 0
21 -23 2115 2715 10 208 0
22 10 225 825 10 0 71
23 -30 612 1212 10 240 0
24 -10 46 646 10 94 0
25 20 221 821 10 0 113
26 10 187 787 10 0 200
27 -14 1377 1977 10 301 0
28 -10 447 1047 10 364 0
29 23 1805 2405 0 0 406
30 26 255 855 10 0 306
31 20 273 873 10 0 99
32 -10 297 897 10 297 0
33 20 151 751 10 0 247
34 12 641 1241 10 0 354
35 -20 1052 1652 10 383 0
36 -10 681 1281 10 362 0
37 -18 2261 2861 10 121 0
38 24 845 1445 10 0 82
39 -20 1771 2371 10 140 0
40 20 431 1031 10 0 223
41 -8 119 719 10 316 0
42 -10 647 1247 10 149 0
43 20 390 990 10 0 20
44 -10 1859 2459 10 340 0
45 30 81 681 10 0 74
46 -13 1631 2231 10 339 0
47 11 61 661 10 0 17
48 10 305 905 10 0 173
49 -17 712 1312 10 216 0
50 -23 512 1112 10 218 0
51 -10 195 795 10 64 0
52 -30 243 843 10 114 0
53 10 360 960 10 0 171
54 -30 2344 2944 10 98 0
55 -20 340 940 10 352 0
56 17 67 667 10 0 292
57 30 340 940 10 0 235
58 -20 307 907 10 287 0
59 -30 2438 3038 10 385 0
60 -20 913 1513 10 252 0
61 -20 1925 2525 10 327 0
62 31 994 1594 10 0 302
63 -30 465 1065 10 88 0
64 10 230 830 10 0 51
65 -30 1174 1774 10 158 0
66 -10 252 852 10 169 0
67 21 1031 1631 10 0 84
68 10 150 750 10 0 249
69 10 513 1113 10 0 199
70 20 594 1194 10 0 290
71 -10 115 715 10 22 0
72 20 194 794 0 0 402
73 -30 99 699 10 76 0
74 -30 240 840 10 45 0
75 -20 212 812 10 265 0
76 30 30 630 10 0 73
77 20 107 707 10 0 226
78 -20 558 1158 10 328 0
79 -21 89 689 10 284 0
80 10 292 892 10 0 322
81 -32 2048 2648 10 310 0
82 -24 1334 1934 10 38 0
83 27 299 899 10 0 254
84 -21 1131 1731 10 67 0
85 13 1468 2068 10 0 154
86 14 463 1063 10 0 194
87 21 765 1365 10 0 19
88 30 104 704 10 0 63
89 -20 388 988 10 126 0
90 10 97 697 10 0 381
91 20 92 692 10 0 109
92 -20 116 716 10 296 0
93 10 82 682 10 0 134
94 10 18 618 10 0 24
95 10 1002 1602 10 0 100
96 10 81 681 10 0 275
97 -26 142 742 10 299 0
98 30 78 678 10 0 54
99 -20 2283 2883 10 31 0
100 -10 1122 1722 10 95 0
101 -11 95 695 10 10 0
102 -43 474 1074 10 206 0
103 1 2006 2606 10 0 274
104 -13 1443 2043 10 179 0
105 23 65 665 10 0 150
106 -30 1642 2242 10 317 0
107 18 85 685 10 0 248
108 8 119 719 10 0 243
109 -20 181 781 10 91 0
110 10 548 1148 10 0 2
111 -19 286 886 10 237 0
112 -20 484 1084 10 196 0
113 -20 372 972 10 25 0
114 30 188 788 10 0 52
115 -22 1522 2122 10 151 0
116 10 197 797 10 0 377
117 -30 995 1595 10 7 0
118 17 893 1493 10 0 387
119 29 115 715 10 0 315
120 -20 1577 2177 10 197 0
121 18 1527 2127 10 0 37
122 11 33 633 10 0 372
123 -16 340 940 10 195 0
124 30 314 914 10 0 232
125 -11 840 1440 10 164 0
126 20 397 997 10 0 89
127 24 667 1267 10 0 160
128 10 59 659 10 0 262
129 -26 648 1248 10 384 0
130 10 295 895 10 0 345
131 -19 1001 1601 10 277 0
132 -20 1960 2560 10 305 0
133 -40 814 1414 10 193 0
134 -10 832 1432 10 93 0
135 -11 300 900 10 329 0
136 -15 1043 1643 10 161 0
137 24 210 810 0 0 407
138 30 126 726 10 0 342
139 10 192 792 10 0 267
140 20 96 696 10 0 39
141 20 148 748 10 0 166
142 10 252 852 10 0 361
143 20 65 665 10 0 324
144 30 25 625 10 0 393
145 20 21 621 10 0 147
146 20 411 1011 10 0 337
147 -20 565 1165 10 145 0
148 10 81 681 10 0 380
149 10 259 859 10 0 42
150 -23 244 844 10 105 0
151 22 31 631 10 0 115
152 22 173 773 10 0 358
153 -26 206 806 10 382 0
154 -13 1643 2243 10 85 0
155 15 769 1369 10 0 192
156 20 79 679 10 0 347
157 10 81 681 10 0 343
158 30 476 1076 10 0 65
159 -13 564 1164 10 369 0
160 -24 1164 1764 10 127 0
161 15 922 1522 10 0 136
162 10 30 630 10 0 318
163 -10 211 811 10 215 0
164 11 313 913 10 0 125
165 21 25 625 10 0 244
166 -20 62 662 10 141 0
167 -50 647 1247 10 227 0
168 15 825 1425 10 0 398
169 10 69 669 10 0 66
170 20 205 805 10 0 263
171 -10 405 1005 10 53 0
172 -10 153 753 10 219 0
173 -10 2403 3003 10 48 0
174 30 143 743 10 0 175
175 -30 450 1050 10 174 0
176 -10 208 808 10 321 0
177 -10 524 1124 10 224 0
178 10 220 820 10 0 401
179 13 1412 2012 10 0 104
180 20 88 688 10 0 353
181 19 1914 2514 0 0 403
182 20 272 872 10 0 253
183 -20 2164 2764 10 363 0
184 -27 1330 1930 10 210 0
185 -19 2034 2634 10 285 0
186 -20 94 694 10 16 0
187 23 8 608 10 0 332
188 -11 1992 2592 10 233 0
189 -30 2291 2891 10 376 0
190 -20 95 695 10 260 0
191 -30 910 1510 10 12 0
192 -15 332 932 10 155 0
193 40 429 1029 10 0 133
194 -14 840 1440 10 86 0
195 16 42 642 10 0 123
196 20 375 975 10 0 112
197 20 58 658 10 0 120
198 20 159 759 10 0 222
199 -10 567 1167 10 69 0
200 -10 103 703 10 26 0
201 -20 692 1292 10 264 0
202 -13 2097 2697 10 8 0
203 -26 1756 2356 10 338 0
204 -12 2064 2664 10 379 0
205 -20 298 898 10 212 0
206 43 576 1176 10 0 102
207 -30 1240 1840 10 356 0
208 23 68 668 10 0 21
209 15 1877 2477 10 0 320
210 27 569 1169 10 0 184
211 20 382 982 10 0 6
212 20 30 630 10 0 205
213 -18 1433 2033 10 360 0
214 21 23 623 10 0 350
215 10 247 847 10 0 163
216 17 531 1131 10 0 49
217 -10 1255 1855 10 346 0
218 23 272 872 10 0 50
219 10 107 707 10 0 172
220 -20 709 1309 10 374 0
221 -20 1254 1854 10 5 0
222 -20 545 1145 10 198 0
223 -20 49 649 10 40 0
224 10 478 1078 10 0 177
225 -20 85 685 10 319 0
226 -20 1447 2047 10 77 0
227 50 135 735 10 0 167
228 16 1395 1995 10 0 348
229 1 311 911 10 0 389
230 -20 1675 2275 10 331 0
231 20 338 938 10 0 13
232 -30 1766 2366 10 124 0
233 11 106 706 10 0 188
234 -20 513 1113 10 257 0
235 -30 1756 2356 10 57 0
236 20 1062 1662 10 0 245
237 19 158 758 10 0 111
238 20 520 1120 10 0 259
239 10 30 630 10 0 311
240 30 238 838 10 0 23
241 -22 1226 1826 10 251 0
242 20 1870 2470 10 0 15
243 -8 356 956 10 108 0
244 -21 62 662 10 165 0
245 -20 1905 2505 10 236 0
246 15 47 647 10 0 271
247 -20 351 951 10 33 0
248 -18 268 868 10 107 0
249 -10 569 1169 10 68 0
250 10 328 928 10 0 255
251 22 32 632 10 0 241
252 20 413 1013 10 0 60
253 -20 90 690 10 182 0
254 -27 312 912 10 83 0
255 -10 340 940 10 250 0
256 30 143 743 10 0 396
257 20 27 627 10 0 234
258 -23 1205 1805 10 309 0
259 -20 362 962 10 238 0
260 20 283 883 10 0 190
261 30 322 922 10 0 366
262 -10 359 959 10 128 0
263 -20 756 1356 10 170 0
264 20 145 745 10 0 201
265 20 152 752 10 0 75
266 20 240 840 10 0 344
267 -10 84 684 10 139 0
268 20 404 1004 10 0 269
269 -20 554 1154 10 268 0
270 -21 66 666 10 399 0
271 -15 328 928 10 246 0
272 -20 597 1197 10 298 0
273 -20 592 1192 10 397 0
274 -1 2127 2727 10 103 0
275 -10 434 1034 10 96 0
276 -20 356 956 10 390 0
277 19 61 661 10 0 131
278 19 593 1193 10 0 9
279 17 61 661 10 0 304
280 10 424 1024 10 0 365
281 10 675 1275 10 0 400
282 20 416 1016 0 0 405
283 -27 343 943 10 330 0
284 21 42 642 10 0 79
285 19 2417 3017 10 0 185
286 10 206 806 10 0 395
287 20 259 859 10 0 58
288 10 89 689 10 0 378
289 10 68 668 10 0 308
290 -20 601 1201 10 70 0
291 -10 627 1227 10 307 0
292 -17 1487 2087 10 56 0
293 20 398 998 10 0 323
294 -27 1737 2337 10 312 0
295 20 498 1098 10 0 333
296 20 69 669 10 0 92
297 10 26 626 10 0 32
298 20 320 920 10 0 272
299 26 207 807 10 0 97
300 28 573 1173 10 0 351
301 14 910 1510 10 0 27
302 -31 1770 2370 10 62 0
303 10 247 847 10 0 371
304 -17 491 1091 10 279 0
305 20 140 740 10 0 132
306 -26 462 1062 10 30 0
307 10 186 786 10 0 291
308 -10 88 688 10 289 0
309 23 452 1052 10 0 258
310 32 1162 1762 10 0 81
311 -10 2235 2835 10 239 0
312 27 414 1014 10 0 294
313 -28 208 808 10 355 0
314 9 35 635 10 0 3
315 -29 421 1021 10 119 0
316 8 45 645 10 0 41
317 30 60 660 10 0 106
318 -10 98 698 10 162 0
319 20 55 655 10 0 225
320 -15 1647 2247 10 209 0
321 10 371 971 10 0 176
322 -10 1293 1893 10 80 0
323 -20 1026 1626 10 293 0
324 -20 74 674 10 143 0
325 20 168 768 10 0 386
326 -20 681 1281 10 392 0
327 20 272 872 10 0 61
328 20 513 1113 10 0 78
329 11 50 650 10 0 135
330 27 31 631 10 0 283
331 20 220 820 10 0 230
332 -23 2183 2783 10 187 0
333 -20 919 1519 10 295 0
334 30 77 677 10 0 367
335 18 481 1081 10 0 370
336 -20 873 1473 10 357 0
337 -20 1607 2207 10 146 0
338 26 281 881 10 0 203
339 13 1357 1957 10 0 46
340 10 182 782 10 0 44
341 30 140 740 10 0 368
342 -30 298 898 10 138 0
343 -10 289 889 10 157 0
344 -20 1445 2045 10 266 0
345 -10 450 1050 10 130 0
346 10 330 930 10 0 217
347 -20 87 687 10 156 0
348 -16 2231 2831 10 228 0
349 10 501 1101 10 0 4
350 -21 32 632 10 214 0
351 -28 541 1141 10 300 0
352 20 473 1073 10 0 55
353 -20 258 858 10 180 0
354 -12 1629 2229 10 34 0
355 28 300 900 10 0 313
356 30 175 775 10 0 207
357 20 404 1004 10 0 336
358 -22 741 1341 10 152 0
359 -20 1203 1803 10 394 0
360 18 37 637 10 0 213
361 -10 137 737 10 142 0
362 10 253 853 10 0 36
363 20 469 1069 10 0 183
364 10 203 803 10 0 28
365 -10 655 1255 10 280 0
366 -30 1037 1637 10 261 0
367 -30 426 1026 10 334 0
368 -30 241 841 10 341 0
369 13 70 670 10 0 159
370 -18 808 1408 10 335 0
371 -10 614 1214 10 303 0
372 -11 1066 1666 10 122 0
373 10 167 767 10 0 14
374 20 276 876 10 0 220
375 -20 395 995 10 11 0
376 30 122 722 10 0 189
377 -10 1549 2149 10 116 0
378 -10 366 966 10 288 0
379 12 1190 1790 10 0 204
380 -10 857 1457 10 148 0
381 -10 318 918 10 90 0
382 26 80 680 10 0 153
383 20 402 1002 10 0 35
384 26 29 629 10 0 129
385 30 1788 2388 10 0 59
386 -20 523 1123 10 325 0
387 -17 1579 2179 10 118 0
388 -20 1184 1784 10 391 0
389 -1 1092 1692 10 229 0
390 20 150 750 10 0 276
391 20 98 698 10 0 388
392 20 66 666 10 0 326
393 -30 211 811 10 144 0
394 20 323 923 10 0 359
395 -10 358 958 10 286 0
396 -30 296 896 10 256 0
397 20 87 687 10 0 273
398 -15 1430 2030 10 168 0
399 21 25 625 10 0 270
400 -10 1563 2163 10 281 0
401 -10 422 1022 10 178 0
402 -20 194 794 10 72 0
403 -19 1914 2514 10 181 0
404 -17 2017 2617 10 18 0
405 -20 416 1016 10 282 0
406 -23 1805 2405 10 29 0
407 -24 210 810 10 137 0
DEPOT_SECTION
1
-1
EOF
