NAME: DI-NEARP-n240-Q16k
COMMENT: Vidal (2017) DI-NEARP instance transformed to GVRP
TYPE: GVRP
DIMENSION: 361
EDGE_WEIGHT_TYPE: EXPLICIT
EDGE_WEIGHT_FORMAT: FULL_MATRIX
VEHICLES: 240
CAPACITY: 16000
EDGE_WEIGHT_SECTION
0	1035	1084	1180	851	355	1132	319	1445	826	1141	411	895	1180	923	1111	496	1630	648	386	891	1144	1010	1163	1219	849	857	1236	1059	937	1209	1143	1556	891	1068	719	1317	1216	586	866	1177	1261	1092	1079	1190	746	680	1248	1225	1062	814	600	1584	1004	985	1137	1103	1535	392	916	1244	1246	569	394	1041	1016	1093	856	1268	889	1210	701	1084	367	1121	1494	1203	1302	1130	610	538	619	369	1360	949	1006	789	1105	731	641	586	1054	1571	684	1369	1173	656	1001	1040	1028	682	1029	964	973	893	1136	254	462	725	915	1153	800	555	1536	1350	1367	1212	1280	537	1307	898	1039	1056	1145	1145	1222	1269	884	855	1163	1141	1137	1157	944	939	864	894	839	854	1143	1143	964	941	827	868	1440	1446	987	1007	903	891	894	881	868	857	796	811	1460	1491	1374	1410	1357	1444	1420	1496	781	797	1452	1485	1503	1553	1169	1183	1732	1684	515	492	817	838	1110	1094	780	755	880	917	1603	1587	1309	1345	776	833	1134	1230	895	911	1405	1459	1460	1417	847	854	1104	1092	922	949	908	913	638	692	895	894	791	834	756	751	1174	1214	1075	1059	745	770	1343	1327	787	773	719	766	1258	1246	898	865	1068	1015	720	742	884	909	1175	1193	1273	1372	1613	1609	1234	1276	1293	1304	1661	1719	1586	1579	1110	1143	943	927	1219	1242	1092	1126	1441	1399	1327	1386	842	794	963	985	1569	1556	1553	1529	1051	1063	1231	1260	1100	1085	1055	1035	765	749	1036	1020	925	904	962	950	848	822	882	861	973	1004	959	984	1636	1672	1130	1142	73	126	1199	1226	919	915	1164	1194	1311	1391	1325	1388	373	413	932	935	1271	1290	1332	1430	993	972	962	941	1131	1121	908	922	1592	1568	1012	1036	1350	1343	1152	1187	1086	1074	1571	1599	1397	1420	1001	970	1605	1593	1004	986	934	949	1529	1558	965	970	1154	1137	1136	1120	538	515	316	378
1035	0	363	289	305	802	383	856	618	209	154	858	398	405	112	353	539	777	421	1045	458	399	226	219	204	186	195	574	338	594	222	223	729	149	322	381	330	581	449	433	218	277	160	485	363	385	387	261	238	130	292	715	836	241	210	122	189	708	697	421	257	274	605	641	295	84	58	327	334	162	574	364	406	728	106	534	188	475	409	473	581	737	730	345	229	253	363	90	404	433	704	423	744	391	366	158	419	370	96	397	475	269	333	342	263	332	1177	969	320	482	518	366	673	709	398	380	256	395	498	401	258	530	478	158	132	477	524	247	238	176	154	211	231	383	412	376	406	276	316	217	223	157	146	290	292	555	619	513	498	287	299	406	436	346	353	408	399	781	664	547	583	370	457	433	509	425	409	625	658	824	726	243	257	905	857	1040	1063	445	412	133	117	325	350	334	371	776	760	482	511	438	381	307	403	462	478	743	632	633	590	354	381	172	160	169	176	327	367	636	582	303	319	511	464	351	382	347	387	143	164	340	315	340	324	332	368	475	428	286	298	364	327	73	126	359	337	201	210	430	448	446	545	786	782	407	391	408	419	834	895	759	752	156	189	464	480	296	319	254	220	454	412	393	426	391	433	280	302	742	729	726	702	211	236	234	257	156	150	20	40	360	380	236	220	361	352	155	143	384	410	342	371	253	260	208	233	809	870	409	421	1068	1121	273	303	576	537	337	335	308	388	663	561	1150	1184	230	214	349	405	447	545	308	329	279	300	116	106	550	536	765	741	172	196	347	346	487	452	154	142	744	772	570	593	423	458	778	766	204	186	213	198	702	705	325	330	185	168	204	188	1017	1040	1239	1301
1084	363	0	159	472	851	81	905	424	366	300	825	223	138	329	72	642	609	545	963	303	93	148	276	447	343	334	299	50	389	277	249	535	366	43	419	388	279	552	311	290	240	241	142	169	513	514	319	293	265	449	841	642	133	171	438	226	514	746	237	242	225	708	690	68	298	382	229	247	379	273	492	48	777	377	473	393	281	79	576	684	803	779	554	256	110	513	403	532	515	770	80	550	478	647	439	503	133	335	102	594	94	154	163	290	88	1095	887	448	295	216	312	739	515	329	357	262	259	601	286	285	249	197	348	374	185	232	424	395	322	344	260	257	208	237	281	284	404	398	243	249	389	363	418	459	419	425	237	217	257	245	284	314	292	303	318	304	523	470	353	389	428	454	491	506	335	319	431	464	566	532	233	219	711	663	886	909	584	562	336	341	453	478	501	538	582	566	288	324	476	419	257	209	307	291	468	438	439	396	482	531	253	265	386	408	354	337	554	500	249	233	451	426	479	510	153	193	278	257	468	443	621	605	460	496	513	466	237	225	344	381	396	343	487	465	378	403	138	156	252	351	592	588	213	255	272	283	640	701	565	558	513	514	259	275	198	221	215	249	451	409	306	365	541	561	177	155	548	535	532	508	211	186	518	538	311	322	383	363	488	508	159	175	201	222	387	375	289	315	288	281	280	287	440	465	615	676	79	91	1117	1170	235	205	379	418	143	173	589	669	388	367	1068	1030	445	429	250	269	311	409	133	154	176	196	387	397	340	326	571	547	239	215	628	630	185	150	271	277	550	578	376	399	218	253	584	572	195	213	428	430	508	537	352	324	296	313	271	287	863	886	1157	1219
1180	289	159	0	489	947	122	1001	357	383	158	940	338	144	298	105	684	542	566	1078	414	138	216	117	290	360	351	313	199	500	118	90	468	335	148	490	229	320	594	426	131	81	129	253	102	530	532	160	134	159	466	860	575	216	241	296	126	447	842	348	83	66	750	786	166	221	254	344	88	348	313	509	145	873	235	314	237	214	148	618	726	882	875	395	273	193	530	261	549	578	849	191	483	536	500	297	564	244	227	213	620	181	265	274	307	71	1210	1002	465	406	257	410	818	448	178	198	103	137	643	164	302	360	308	206	232	216	263	441	412	180	202	118	98	323	352	396	399	421	425	84	90	358	332	435	476	297	358	348	328	331	343	399	429	390	401	433	419	520	403	286	322	269	295	332	347	450	434	364	397	563	465	74	60	644	596	997	1020	601	579	198	214	470	495	518	555	515	499	221	253	547	490	238	142	418	402	482	371	372	329	499	548	141	153	355	377	371	411	669	615	347	348	566	524	496	527	86	126	188	209	485	460	474	458	477	513	584	537	78	66	433	408	322	312	504	482	387	411	169	187	185	284	525	521	146	133	150	161	573	634	498	491	405	372	370	386	39	62	191	157	292	250	147	206	558	578	292	270	481	468	465	441	192	167	376	393	173	184	309	289	505	525	176	192	316	337	356	344	404	430	386	396	297	304	409	434	548	609	148	160	1213	1266	76	46	490	529	76	46	444	522	402	300	1183	1141	431	415	91	147	189	287	248	269	291	311	245	255	451	437	504	480	229	205	481	488	226	191	159	171	483	511	309	332	329	364	517	505	212	230	414	399	441	470	369	374	154	171	129	145	974	997	1272	1334
851	305	472	489	0	618	497	672	754	116	426	674	369	537	208	462	355	939	237	932	420	513	335	448	455	139	148	679	447	556	494	440	865	177	431	216	597	659	265	395	462	549	377	522	499	136	203	533	510	347	37	488	972	350	319	352	406	844	513	392	529	540	421	457	404	301	363	318	562	175	653	180	515	544	357	788	439	611	518	289	397	518	546	596	258	362	108	341	209	249	485	488	880	207	568	409	235	435	325	462	252	378	398	407	227	468	1064	856	136	444	596	328	454	845	652	652	497	589	314	616	232	551	499	430	412	613	660	116	145	448	426	428	448	392	413	338	368	148	188	434	440	200	226	136	95	749	755	501	519	297	285	368	398	236	225	370	361	903	800	683	719	642	729	700	781	387	371	761	794	946	862	460	474	1041	993	990	1013	190	157	395	379	141	166	45	82	912	896	618	654	273	218	443	539	424	440	848	768	769	726	102	126	389	377	208	185	242	264	523	469	289	305	348	301	167	198	483	523	360	351	156	131	542	526	148	184	310	263	552	540	236	199	353	300	175	153	170	145	566	584	582	681	922	918	543	585	602	613	970	1031	895	888	309	342	452	456	513	536	401	435	726	684	621	680	136	184	374	396	878	865	862	838	360	372	430	459	385	370	325	320	176	196	345	329	366	345	196	186	346	372	304	333	282	327	171	196	945	1006	518	530	884	937	490	520	538	499	473	503	510	590	768	697	1037	1081	131	147	566	599	641	739	415	394	373	352	367	357	512	498	901	877	321	345	549	542	595	588	371	359	880	908	706	729	444	446	914	902	313	295	146	161	838	867	299	364	439	422	421	405	967	990	1126	1188
355	802	851	947	618	0	899	176	1212	593	908	96	662	947	690	878	263	1397	415	487	658	911	777	930	986	616	624	992	826	704	976	910	1323	658	835	486	1084	983	353	633	944	1028	859	846	957	513	447	1015	992	829	581	424	1430	771	752	904	870	1302	159	683	1011	1013	336	161	808	783	860	623	1035	656	977	468	851	134	888	1261	970	1069	897	377	305	386	136	1127	716	773	556	872	498	408	353	821	1338	451	1136	940	423	768	807	795	449	796	731	740	660	903	609	428	492	682	920	567	322	1303	1117	1134	979	1047	304	1074	665	806	823	912	912	989	1036	651	622	930	908	904	924	711	706	631	661	606	621	910	910	731	708	594	635	1207	1213	754	774	670	658	661	648	635	624	563	578	1206	1258	1141	1177	1124	1211	1187	1263	548	564	1219	1252	1249	1320	936	950	1499	1451	562	585	584	605	877	861	547	522	647	684	1370	1354	1076	1112	543	600	901	997	662	678	1154	1226	1227	1184	614	621	871	859	689	716	675	680	405	459	662	661	558	601	523	518	941	981	842	826	512	537	1110	1094	554	540	486	533	1025	1013	665	632	835	782	487	509	651	676	942	960	1040	1139	1380	1376	1001	1043	1060	1071	1428	1489	1353	1346	877	910	710	694	986	1009	859	893	1208	1166	1094	1153	609	561	730	752	1336	1323	1320	1296	818	830	998	1027	867	852	822	802	532	516	803	787	692	671	729	717	615	589	649	628	740	771	726	751	1403	1464	897	909	388	441	966	993	686	682	931	961	1078	1158	1081	1155	592	636	699	702	1038	1057	1099	1197	760	739	729	708	898	888	675	689	1359	1335	779	803	1117	1110	919	954	853	841	1338	1366	1164	1187	768	737	1372	1360	771	753	701	716	1296	1325	732	737	921	904	903	887	539	562	671	733
1132	383	81	122	497	899	0	953	381	391	280	873	271	61	349	61	690	566	574	1011	336	16	196	239	412	368	359	246	121	422	240	212	492	386	91	467	351	226	600	359	253	203	251	171	94	538	540	282	256	281	474	868	599	181	219	418	237	471	794	270	205	188	756	738	116	318	376	277	210	399	220	517	67	825	357	436	359	238	26	624	732	851	827	517	281	158	538	383	557	563	818	113	507	526	622	419	551	166	349	135	628	137	187	196	315	51	1143	935	473	328	163	360	787	472	286	320	225	216	649	243	310	282	230	328	354	132	179	449	420	302	324	240	220	256	285	329	332	429	433	206	212	409	383	443	484	376	382	270	250	305	293	332	362	340	351	366	352	470	427	310	346	391	417	454	469	383	367	388	421	513	489	196	182	668	620	919	942	609	587	320	336	478	503	526	563	539	523	245	281	524	467	268	172	340	324	415	395	396	353	507	556	263	275	406	428	379	385	602	548	297	281	499	474	504	535	116	150	298	277	493	468	596	580	485	521	561	514	200	188	392	416	416	363	512	490	403	428	85	103	209	308	549	545	170	212	229	240	597	658	522	515	527	494	292	308	161	184	226	260	414	372	269	328	566	586	225	203	505	492	489	465	222	197	498	515	295	306	403	383	513	533	184	200	249	270	407	395	337	363	336	329	305	312	460	485	572	633	26	38	1165	1218	198	168	412	451	106	136	566	644	335	324	1107	1063	470	454	213	226	268	366	181	202	224	244	367	377	373	359	528	504	259	235	603	610	132	97	281	293	507	535	333	356	251	286	541	529	220	238	453	450	465	494	377	372	276	293	251	267	896	919	1205	1267
319	856	905	1001	672	176	953	0	1266	647	962	232	716	1001	744	932	317	1451	469	451	712	965	831	984	1040	670	678	1057	880	758	1030	964	1377	712	889	540	1138	1037	407	687	998	1082	913	900	1011	567	501	1069	1046	883	635	478	1484	825	806	958	924	1356	213	737	1065	1067	390	215	862	837	914	677	1089	710	1031	522	905	188	942	1315	1024	1123	951	431	359	440	190	1181	770	827	610	926	552	462	407	875	1392	505	1190	994	477	822	861	849	503	850	785	794	714	957	573	490	546	736	974	621	376	1357	1171	1188	1033	1101	358	1128	719	860	877	966	966	1043	1090	705	676	984	962	958	978	765	760	685	715	660	675	964	964	785	762	648	689	1261	1267	808	828	724	712	715	702	689	678	617	632	1281	1312	1195	1231	1178	1265	1241	1317	602	618	1273	1306	1324	1374	990	1004	1553	1505	624	647	638	659	931	915	601	576	701	738	1424	1408	1130	1166	597	654	955	1051	716	732	1226	1280	1281	1238	668	675	925	913	743	770	729	734	459	513	716	715	612	655	577	572	995	1035	896	880	566	591	1164	1148	608	594	540	587	1079	1067	719	686	889	836	541	563	705	730	996	1014	1094	1193	1434	1430	1055	1097	1114	1125	1482	1543	1407	1400	931	964	764	748	1040	1063	913	947	1262	1220	1148	1207	663	615	784	806	1390	1377	1374	1350	872	884	1052	1081	921	906	876	856	586	570	857	841	746	725	783	771	669	643	703	682	794	825	780	805	1457	1518	951	963	352	405	1020	1047	740	736	985	1015	1132	1212	1146	1209	556	600	753	756	1092	1111	1153	1251	814	793	783	762	952	942	729	743	1413	1389	833	857	1171	1164	973	1008	907	895	1392	1420	1218	1241	822	791	1426	1414	825	807	755	770	1350	1379	786	791	975	958	957	941	601	624	635	697
1445	618	424	357	754	1212	381	1266	0	648	515	1153	603	329	584	370	949	225	831	1161	647	365	481	474	647	625	616	267	464	643	475	447	151	621	413	755	586	372	859	673	488	438	486	450	287	795	797	517	491	516	731	1125	218	481	506	653	472	130	1107	581	440	423	1015	1051	431	553	611	609	445	634	293	774	410	1138	592	224	594	143	377	883	991	1147	1140	752	538	458	795	618	814	843	1114	456	126	801	857	654	829	509	584	478	885	446	530	539	572	336	1293	1085	730	639	442	675	1083	131	422	442	460	359	908	386	567	593	541	563	589	401	448	706	677	537	559	475	455	588	617	661	664	686	690	441	447	644	618	700	741	323	215	581	561	596	608	664	688	655	666	698	684	277	188	143	107	626	539	688	591	715	699	149	182	216	108	431	417	327	279	1043	1066	866	844	555	571	735	760	783	820	198	182	208	244	812	755	503	407	651	635	340	228	157	114	764	813	498	510	641	663	636	676	934	880	612	613	831	789	761	792	351	311	533	512	750	725	831	815	742	778	849	802	435	423	698	673	651	598	769	747	660	685	354	372	370	271	180	164	331	355	372	383	216	277	141	174	762	729	603	619	396	419	461	495	536	494	504	450	823	843	557	535	164	151	148	124	457	432	733	750	530	541	638	618	770	790	441	457	581	602	642	630	669	695	651	661	562	569	695	720	191	252	401	389	1478	1531	433	403	723	762	341	371	801	879	382	287	1231	1187	717	701	425	369	411	313	513	534	556	576	602	612	684	670	147	123	494	470	838	845	411	376	516	528	166	194	94	71	562	597	160	148	477	495	700	685	124	153	634	639	511	528	486	502	1020	1043	1355	1417
826	209	366	383	116	593	391	647	648	0	315	649	288	431	97	356	330	833	212	886	339	407	229	337	393	23	32	598	341	475	383	329	759	65	325	172	491	578	240	314	351	438	266	441	393	176	178	422	399	236	103	506	866	244	213	311	295	738	488	311	418	429	396	432	298	190	267	237	451	63	572	155	409	519	295	677	377	505	412	264	372	528	521	534	152	256	174	279	195	224	495	407	774	182	555	347	210	354	214	381	266	272	317	326	143	362	1018	810	111	363	515	247	464	739	541	541	386	483	289	510	148	470	418	319	319	507	554	58	29	337	315	317	337	311	332	257	287	67	107	323	329	138	115	81	103	643	649	420	438	216	204	287	317	155	144	289	280	811	694	577	613	531	618	594	670	306	290	655	688	854	756	349	363	935	887	921	944	247	223	284	268	116	141	145	182	806	790	512	548	229	172	337	433	343	359	767	662	663	620	145	192	278	266	96	123	161	183	477	423	208	224	302	255	142	173	377	417	249	240	131	106	529	513	123	159	266	219	441	429	155	118	242	189	150	128	58	83	460	478	476	575	816	812	437	479	496	507	864	925	789	782	305	338	371	375	402	425	295	326	615	573	510	569	202	224	283	305	772	759	756	732	254	266	423	446	274	259	229	209	151	171	239	223	285	264	136	124	265	291	223	252	176	221	133	158	839	900	412	424	859	912	379	409	457	418	367	397	497	577	687	591	991	1035	125	109	455	493	535	633	311	313	282	271	305	295	431	417	795	771	215	239	536	535	514	482	260	248	774	802	600	623	363	365	808	796	207	189	108	123	732	761	215	282	328	311	310	294	898	921	1080	1142
1141	154	300	158	426	908	280	962	515	315	0	933	335	302	218	263	645	623	527	1071	429	296	213	72	147	292	301	471	275	545	68	92	619	255	259	472	176	478	555	423	64	123	91	411	260	491	493	107	84	103	413	821	733	213	236	138	88	578	803	358	103	120	711	747	232	141	96	341	180	268	471	470	303	834	77	380	93	372	306	579	687	843	836	263	255	190	484	103	510	539	810	349	641	497	347	139	525	307	101	334	581	206	270	279	289	229	1203	995	426	437	415	392	779	606	244	226	102	264	604	247	284	467	415	48	74	374	421	368	344	22	44	80	100	320	349	393	396	382	407	86	92	278	252	396	413	424	516	450	435	313	325	396	426	372	383	430	416	678	561	444	480	216	303	279	355	447	431	522	555	721	623	112	126	789	741	1037	1060	562	533	63	79	431	456	455	492	660	657	379	380	529	472	235	300	433	433	640	529	530	487	460	502	103	109	275	297	353	393	662	608	329	345	553	506	457	488	244	284	132	153	446	421	321	305	438	474	566	519	132	144	415	390	197	232	465	443	307	331	327	345	343	442	683	679	302	260	277	288	731	792	656	649	247	214	401	417	165	170	153	119	300	258	239	272	512	539	289	267	632	626	623	599	186	164	218	238	86	101	174	164	466	486	173	189	313	334	276	264	401	427	368	393	279	286	329	354	706	767	306	318	1174	1227	142	172	535	534	234	204	289	369	560	458	1176	1181	351	335	218	274	316	414	245	266	288	308	87	97	496	482	662	638	198	199	328	330	384	349	103	115	641	669	467	490	360	395	675	663	209	212	334	319	580	551	351	356	38	55	61	77	1014	1037	1265	1327
411	858	825	940	674	96	873	232	1153	649	933	0	635	907	746	852	319	1350	471	408	614	885	751	935	1042	672	680	896	800	640	1001	903	1276	714	809	542	1109	943	409	589	949	1021	868	806	933	569	503	1040	1017	838	637	480	1335	745	726	960	863	1255	215	639	1023	1006	392	217	782	839	916	597	1028	712	896	524	825	190	940	1247	997	1027	871	433	361	442	192	1183	766	747	612	928	554	464	409	795	1279	507	1192	996	479	742	863	769	505	770	705	714	716	877	540	332	548	638	880	541	378	1256	1110	1138	980	1040	360	1067	711	762	783	937	937	949	996	707	678	955	933	897	917	685	679	605	634	662	677	903	903	787	764	650	691	1170	1166	710	730	644	632	634	604	649	638	537	552	1110	1211	1094	1130	1149	1235	1212	1287	522	538	1172	1205	1153	1261	929	943	1452	1404	466	489	640	661	902	886	603	578	703	740	1323	1307	1034	1070	599	656	894	990	618	634	1058	1179	1180	1137	670	677	880	868	745	772	731	694	379	433	636	635	540	587	579	574	934	974	851	830	568	593	1166	1150	610	596	542	589	1018	1006	679	688	891	838	543	565	707	732	902	920	1033	1097	1333	1317	994	1036	1053	1064	1369	1430	1294	1299	933	966	666	650	979	1002	852	886	1232	1190	1087	1146	665	617	704	726	1289	1276	1273	1249	822	823	1054	1083	886	871	878	858	588	572	796	791	666	645	785	773	589	563	623	602	790	745	782	807	1344	1405	871	883	444	497	959	986	622	618	924	954	1134	1214	985	1087	513	557	755	758	1031	1050	1092	1160	734	713	703	682	950	944	611	625	1300	1276	783	807	1173	1166	879	914	862	850	1291	1319	1117	1140	728	693	1313	1301	775	757	757	772	1249	1278	778	711	933	921	908	896	443	466	602	664
895	398	223	338	369	662	271	716	603	288	335	635	0	291	364	250	463	788	381	773	94	283	183	333	482	307	298	347	198	227	401	301	714	349	207	282	511	327	373	88	347	419	276	190	317	385	377	442	417	300	346	652	808	168	206	473	261	693	557	23	421	404	529	501	180	333	417	83	426	347	321	364	223	588	412	652	428	460	269	397	505	614	590	598	266	145	410	438	404	336	581	186	729	341	682	474	366	140	370	167	415	168	103	112	216	275	905	697	320	118	264	147	550	694	508	536	378	438	422	465	211	184	167	383	409	333	380	346	317	357	379	295	315	73	44	91	61	301	261	301	301	422	398	315	356	598	604	132	152	144	132	61	91	155	166	129	114	571	649	532	568	551	633	614	685	146	130	610	643	614	711	327	341	890	842	702	725	456	459	371	376	325	350	398	435	761	745	467	503	339	282	292	388	98	114	516	617	618	575	379	428	288	300	380	407	240	200	365	311	136	127	262	289	351	382	332	372	313	292	340	315	656	640	332	368	334	329	416	404	207	244	431	378	359	337	342	367	286	304	431	530	771	767	392	434	451	462	819	880	744	737	548	549	83	99	377	400	250	284	630	588	485	544	438	433	175	154	727	714	711	687	246	221	553	573	346	357	418	398	360	380	194	210	110	104	420	408	99	125	123	94	290	245	417	442	794	855	269	281	928	981	357	384	217	199	322	352	624	704	436	538	878	846	409	393	429	448	490	588	132	111	174	153	422	432	178	164	750	726	274	250	663	665	263	298	306	312	729	757	555	578	112	77	763	751	230	248	392	407	687	716	278	211	331	348	306	322	679	702	967	1029
1180	405	138	144	537	947	61	1001	329	431	302	907	291	0	371	101	732	514	614	1032	334	45	241	261	434	408	399	212	178	402	262	234	440	408	144	524	373	192	642	360	275	225	273	137	42	578	580	304	278	303	514	908	547	226	266	440	259	419	842	268	227	210	798	786	162	340	398	324	232	421	186	557	124	873	379	392	381	186	59	666	774	899	875	539	321	203	578	405	597	620	866	169	455	583	644	441	608	223	371	192	668	177	244	253	355	91	1164	956	513	326	129	416	835	420	234	276	247	164	691	191	350	280	228	350	376	88	135	489	460	324	346	262	242	295	324	376	352	469	473	228	234	431	405	483	524	324	330	268	248	362	350	352	375	397	408	414	399	436	375	258	294	413	373	476	425	431	415	336	369	479	437	218	204	616	568	914	937	649	627	342	358	518	543	566	603	487	471	193	229	581	524	290	194	338	322	381	343	344	301	547	596	285	297	428	450	419	442	650	596	354	338	547	531	544	575	138	98	320	299	533	508	618	602	525	561	618	571	222	210	449	456	438	385	552	530	443	468	41	59	157	256	497	493	118	160	177	188	545	606	470	463	549	516	290	306	183	206	248	282	370	328	291	284	606	626	282	260	453	440	437	413	244	219	520	537	317	328	425	405	553	573	224	240	306	320	429	417	384	410	392	377	345	352	482	507	520	581	83	71	1213	1266	220	190	410	449	128	158	588	666	301	272	1102	1058	504	488	230	174	216	314	238	259	281	301	389	399	371	357	476	452	281	257	625	632	98	63	303	315	455	483	281	304	249	284	489	477	260	278	487	472	413	442	417	422	298	315	273	289	891	914	1226	1288
923	112	329	298	208	690	349	744	584	97	218	746	364	371	0	319	427	769	309	983	424	365	192	240	315	74	83	540	304	560	286	232	695	37	288	269	394	547	337	399	254	341	169	451	329	273	275	325	302	139	195	603	802	207	176	233	198	674	585	387	321	332	493	529	261	93	170	293	354	50	540	252	372	616	217	580	282	441	375	361	469	625	618	456	195	219	266	201	292	321	592	389	710	279	477	269	307	336	117	363	363	235	299	308	194	298	1115	907	208	448	484	332	561	675	444	444	289	404	386	431	199	496	444	222	222	443	490	150	126	240	218	220	240	349	378	342	372	164	204	226	232	60	34	178	195	564	585	479	464	253	265	372	402	248	241	374	365	747	630	513	549	434	521	497	573	391	375	591	624	790	692	252	266	871	823	1006	1029	344	315	187	171	213	238	237	274	742	726	448	484	326	269	273	369	428	444	709	598	599	556	242	284	181	169	57	79	221	261	574	520	269	285	399	352	239	270	313	353	152	143	228	203	451	435	220	256	363	316	344	332	252	215	145	92	247	225	89	113	396	414	412	511	752	748	373	400	417	428	800	861	725	718	227	260	430	446	305	328	228	229	518	476	413	472	294	321	246	268	708	695	692	668	177	202	345	368	177	162	132	112	248	268	202	186	327	318	58	46	350	376	308	337	219	226	111	136	775	836	375	387	956	1009	282	312	542	503	303	333	419	499	629	527	1088	1132	133	117	358	414	456	554	274	295	245	266	227	217	516	502	731	707	138	162	458	457	453	418	163	151	710	738	536	559	389	424	744	732	170	152	116	101	668	697	266	296	231	214	213	197	983	1006	1177	1239
1111	353	72	105	462	878	61	932	370	356	263	852	250	101	319	0	657	555	539	990	327	75	166	222	395	333	324	281	103	413	223	195	481	356	43	446	334	261	567	338	236	186	231	166	115	503	505	265	239	255	439	833	588	151	191	401	216	460	773	261	188	171	723	717	70	288	359	256	193	369	255	482	58	804	340	419	342	227	61	591	699	830	806	500	246	128	503	366	522	542	797	104	496	505	605	402	530	157	325	126	593	96	178	187	280	34	1122	914	438	319	198	339	766	461	275	303	208	205	616	232	275	273	221	311	337	167	214	414	385	285	307	223	203	235	264	308	311	394	398	189	195	379	353	408	449	365	371	261	241	284	272	311	341	319	330	345	331	505	416	299	335	374	400	437	452	362	346	377	410	548	478	179	165	657	609	910	933	574	552	303	319	443	468	491	528	528	512	234	270	503	446	247	155	331	315	450	384	385	342	472	521	243	255	376	398	344	364	581	527	276	260	478	453	469	500	99	139	268	247	458	433	579	563	450	486	540	493	183	171	371	381	386	333	477	455	368	393	120	138	198	297	538	534	159	201	218	229	586	647	511	504	503	477	283	299	144	167	205	239	397	355	252	311	531	551	204	182	494	481	478	454	201	176	481	498	278	289	373	353	478	498	149	165	228	249	377	365	316	342	315	308	270	277	430	455	561	622	61	73	1144	1197	181	151	403	442	89	119	549	627	370	313	1095	1054	435	419	196	215	257	355	160	181	203	223	350	360	364	350	517	493	229	205	586	593	167	132	261	267	496	524	322	345	242	277	530	518	185	203	418	420	454	483	342	347	259	276	234	250	887	910	1184	1246
496	539	642	684	355	263	690	317	949	330	645	319	463	732	427	657	0	1134	152	628	461	702	530	667	723	353	361	804	617	533	713	647	1060	395	626	223	821	784	90	436	681	765	596	647	694	250	184	752	729	566	318	236	1167	545	514	641	607	1039	158	486	748	750	73	102	599	520	597	424	772	393	778	205	652	189	625	998	707	806	688	114	42	198	191	864	453	557	293	609	235	145	165	622	1075	188	873	677	160	569	544	596	186	573	532	541	397	663	750	567	229	485	721	368	134	1040	854	871	716	784	41	811	402	609	624	649	649	790	837	388	359	667	645	641	661	512	507	432	462	343	358	647	647	468	445	331	372	944	950	557	577	433	421	462	451	372	361	364	379	1028	995	878	914	861	948	924	1000	349	365	956	989	1071	1057	673	687	1236	1188	701	724	321	342	614	598	284	259	384	421	1107	1091	813	849	280	337	638	734	465	481	973	963	964	921	351	358	608	596	426	453	412	417	234	288	425	441	295	338	260	255	678	718	579	563	249	274	847	831	291	277	223	270	762	750	402	369	572	519	224	246	388	413	743	761	777	876	1117	1113	738	780	797	808	1165	1226	1090	1083	614	647	513	497	723	746	596	630	945	903	831	890	346	298	510	532	1073	1060	1057	1033	555	567	735	764	604	589	559	539	269	253	540	524	493	472	466	454	416	390	440	429	477	522	463	488	1140	1201	688	700	529	582	703	730	515	509	668	698	815	895	893	892	733	777	436	439	775	794	836	934	551	530	509	488	635	625	504	518	1096	1072	516	540	854	847	720	755	590	578	1075	1103	901	924	569	540	1109	1097	508	490	438	453	1033	1062	469	500	658	641	640	624	678	701	812	874
1630	777	609	542	939	1397	566	1451	225	833	623	1350	788	514	769	555	1134	0	1016	1374	832	550	666	622	727	810	801	461	649	840	555	615	198	806	598	940	605	564	1044	858	609	500	654	635	472	980	982	580	571	684	916	1310	394	666	691	761	651	157	1292	766	520	529	1200	1236	616	738	719	794	469	819	485	959	595	1323	700	243	674	328	562	1068	1176	1332	1325	771	723	643	980	726	999	1028	1299	641	305	986	876	755	1014	694	724	663	1070	631	715	724	757	521	1506	1298	915	824	627	860	1268	206	441	461	573	505	1093	444	752	778	726	671	697	586	633	891	862	645	667	643	623	773	802	846	849	871	875	609	615	829	803	885	926	508	400	766	746	781	793	849	873	840	851	883	869	490	373	328	292	645	558	707	610	900	884	260	293	441	333	599	585	368	320	1256	1279	1051	1029	686	702	920	945	968	1005	239	255	393	429	997	940	688	592	836	820	534	413	268	299	949	998	666	678	826	848	821	861	1119	1065	797	798	1016	974	946	977	536	496	713	697	935	910	850	834	927	963	1034	987	541	529	883	858	820	783	954	932	845	870	539	557	555	456	281	297	516	540	480	491	349	410	292	249	870	837	788	804	564	541	646	680	555	513	528	469	1008	1028	742	720	211	224	223	199	642	617	841	830	698	709	797	787	955	975	626	642	766	787	827	815	854	880	836	846	747	754	880	905	367	428	586	574	1663	1716	601	571	908	947	526	556	881	898	574	472	1444	1400	902	886	610	554	596	498	698	719	741	761	710	720	869	855	299	274	679	655	857	880	596	561	684	696	239	267	279	256	747	782	293	300	662	680	885	870	159	130	819	824	661	678	654	670	1233	1256	1568	1630
648	421	545	566	237	415	574	469	831	212	527	471	381	614	309	539	152	1016	0	780	379	590	412	549	605	235	243	718	520	484	595	529	942	277	508	126	703	698	62	354	563	647	478	561	576	132	66	634	611	448	200	312	1049	427	396	523	489	921	310	404	630	632	218	254	481	402	479	342	654	275	692	87	557	341	507	880	589	688	591	86	194	342	343	746	335	439	172	491	103	63	309	527	957	70	755	559	42	474	426	501	54	455	437	446	279	545	902	719	111	403	635	286	278	922	736	753	598	666	111	693	284	527	538	531	531	690	737	270	241	549	527	523	543	430	425	350	380	225	240	529	529	350	327	213	254	826	832	475	495	336	324	380	369	275	264	282	297	942	877	760	796	743	830	806	882	267	283	838	871	985	939	555	569	1118	1070	853	876	200	221	496	480	166	141	266	303	989	973	695	731	183	240	520	616	383	399	887	845	846	803	233	240	490	478	308	335	294	316	386	334	328	344	213	241	142	137	560	600	461	445	131	156	729	713	173	159	141	173	644	632	288	251	454	401	106	128	270	295	643	661	659	758	999	995	620	662	679	690	1047	1108	972	965	496	529	431	415	605	628	478	512	827	785	713	772	228	180	413	435	955	942	939	915	437	449	617	646	486	471	441	421	151	135	422	406	405	384	348	336	334	308	343	347	359	404	345	370	1022	1083	591	603	681	734	585	612	466	427	550	580	697	777	807	774	885	929	318	321	657	676	718	816	454	433	412	391	517	507	455	457	978	954	398	422	736	729	634	662	472	460	957	985	783	806	483	458	991	979	390	372	320	335	915	944	351	403	540	523	522	506	830	853	964	1026
386	1045	963	1078	932	487	1011	451	1161	886	1071	408	773	1032	983	990	628	1374	780	0	752	1023	889	1073	1186	909	917	977	938	721	1139	1041	1300	951	947	746	1247	1056	718	727	1087	1159	1006	931	1058	857	812	1178	1155	976	895	789	1233	883	864	1139	1001	1279	524	777	1161	1144	701	526	920	980	1065	735	1166	949	977	833	963	499	1078	1271	1135	1108	1009	742	670	751	501	1327	904	885	900	1104	863	752	718	930	1287	805	1348	1140	788	880	1018	907	814	908	843	852	854	1015	132	76	836	732	1005	679	687	1280	1248	1276	1118	1178	669	1205	849	859	911	1075	1075	1074	1121	944	915	1093	1071	1035	1055	823	817	743	772	899	859	1041	1041	1024	1001	908	949	1251	1247	807	827	782	770	772	742	787	776	675	690	1118	1235	1175	1154	1287	1373	1350	1425	660	676	1196	1229	1161	1269	1067	1081	1476	1428	210	228	928	949	1040	1024	873	866	961	998	1347	1331	1115	1151	803	828	1032	1128	756	768	1139	1260	1204	1161	928	965	1018	1006	982	1009	872	832	517	571	774	773	678	725	867	862	1072	1112	989	968	856	863	1322	1306	880	884	750	793	1156	1144	817	854	1078	1025	831	853	944	969	1027	1045	1171	1178	1341	1325	1132	1174	1191	1202	1377	1368	1302	1323	1191	1215	791	775	1117	1140	990	1024	1370	1328	1225	1284	953	905	842	864	1313	1300	1297	1273	960	961	1219	1239	1024	1009	1065	1045	876	860	934	929	804	783	1022	1010	727	701	761	740	928	883	1019	1044	1352	1321	1009	1021	459	512	1097	1124	703	699	1062	1092	1290	1370	1066	1168	105	149	1011	995	1169	1188	1230	1241	872	851	841	820	1088	1098	692	706	1308	1284	921	945	1329	1331	1004	1039	1000	988	1315	1343	1141	1164	866	831	1321	1309	913	895	994	1009	1273	1302	916	849	1071	1059	1046	1034	187	210	194	256
891	458	303	414	420	658	336	712	647	339	429	614	94	334	424	327	461	832	379	752	0	348	277	427	576	358	349	390	292	165	495	395	758	400	301	328	605	370	371	26	441	495	370	233	360	436	411	536	511	389	397	648	851	262	264	552	355	737	553	71	497	480	527	497	274	393	478	134	502	398	364	415	269	584	491	710	522	504	334	395	503	610	586	692	317	239	461	517	455	334	577	229	773	387	761	553	373	234	431	261	413	262	197	206	267	343	884	676	371	48	307	198	546	738	552	594	472	482	420	509	262	172	210	477	488	376	423	397	368	451	473	389	409	167	138	142	112	352	312	395	395	473	450	366	407	642	648	120	140	195	183	112	82	206	217	166	151	614	693	576	612	645	691	708	743	183	167	654	687	657	755	421	435	934	886	641	664	507	510	453	437	376	401	449	486	805	789	511	547	385	333	386	464	28	44	559	661	662	619	430	479	382	394	431	458	291	251	361	309	187	178	260	307	402	433	408	416	402	381	391	366	735	719	383	419	332	375	492	480	258	295	491	438	410	388	393	418	329	347	475	574	815	811	436	478	495	506	863	924	788	781	608	628	76	60	453	476	344	378	688	646	561	602	489	484	242	248	771	758	755	731	340	315	632	652	437	422	478	458	411	431	288	304	199	178	471	459	150	162	174	145	341	296	468	493	838	899	334	346	924	977	451	460	155	138	398	428	703	783	479	581	829	785	460	444	505	492	534	632	226	205	241	220	501	511	116	102	794	770	334	344	742	744	306	341	400	401	773	801	599	622	155	120	807	795	324	308	443	458	731	760	329	262	425	442	400	416	618	641	946	1008
1144	399	93	138	513	911	16	965	365	407	296	885	283	45	365	75	702	550	590	1023	348	0	208	255	428	384	375	234	133	424	256	228	476	402	103	479	367	214	612	371	269	219	267	159	78	554	556	298	272	297	490	884	583	193	231	434	253	455	806	282	221	204	768	750	128	334	392	289	226	415	208	533	79	837	373	428	375	222	14	636	744	863	839	533	297	170	554	399	573	575	830	125	491	538	638	435	563	178	365	147	644	153	199	208	331	67	1155	947	489	340	151	372	799	456	270	312	241	200	661	227	326	294	242	344	370	120	167	465	436	318	340	256	236	268	297	341	344	445	449	222	228	425	399	459	500	360	366	282	262	317	305	344	374	352	363	378	364	458	411	294	330	407	409	470	461	395	379	372	405	501	473	212	198	652	604	931	954	625	603	336	352	494	519	542	579	523	507	229	265	536	479	284	188	352	336	403	379	380	337	523	572	279	291	422	444	395	397	614	560	309	293	511	486	520	551	132	134	314	293	509	484	612	596	501	537	573	526	216	204	404	432	432	379	528	506	419	444	73	91	193	292	533	529	154	196	213	224	581	642	506	499	543	510	304	320	177	200	242	276	406	364	285	320	582	602	237	215	489	476	473	449	238	213	514	531	311	322	419	399	529	549	200	216	261	282	423	411	349	375	348	341	321	328	476	501	556	617	38	26	1177	1230	214	184	424	463	122	152	582	660	323	308	1119	1075	486	470	229	210	252	350	193	214	236	256	383	393	385	371	512	488	275	251	619	626	120	85	297	309	491	519	317	340	263	298	525	513	236	254	469	466	449	478	393	384	292	309	267	283	908	931	1217	1279
1010	226	148	216	335	777	196	831	481	229	213	751	183	241	192	166	530	666	412	889	277	208	0	211	360	206	197	414	123	393	279	179	592	229	132	334	389	394	440	264	225	297	135	270	226	376	378	320	295	128	312	706	699	15	25	319	139	571	672	206	299	282	596	616	105	161	245	155	304	242	388	355	191	703	258	530	306	338	194	464	572	728	705	476	119	38	376	284	395	424	695	208	607	382	528	320	410	155	198	182	466	82	118	127	153	174	1021	813	311	285	331	227	664	572	386	414	256	316	489	343	148	315	263	252	255	300	347	287	258	235	248	173	193	168	197	207	237	267	271	179	179	252	226	281	322	476	482	298	283	172	160	237	267	207	218	244	230	638	527	410	446	429	511	492	563	261	245	488	521	681	589	205	219	768	720	871	894	447	425	217	204	316	341	364	401	639	623	345	381	391	334	170	266	281	281	583	495	496	453	345	394	147	158	249	271	217	252	480	426	164	148	377	341	342	373	210	250	141	120	331	306	502	486	323	359	428	381	294	282	259	254	259	206	350	328	241	266	253	271	309	408	649	645	270	312	329	340	697	758	622	615	376	395	249	265	255	278	128	162	508	466	363	422	404	424	100	115	605	592	589	565	87	99	399	419	192	189	246	226	351	371	72	56	161	172	250	238	215	241	203	207	143	150	303	328	672	733	194	206	1043	1096	235	262	383	368	200	230	470	550	503	424	994	1015	308	292	307	326	368	466	93	114	99	120	268	278	344	330	628	604	102	78	509	511	300	265	152	140	607	635	433	456	208	243	641	629	58	76	291	293	565	594	215	220	209	211	184	186	848	871	1083	1145
1163	219	276	117	448	930	239	984	474	337	72	935	333	261	240	222	667	622	549	1073	427	255	211	0	183	314	323	430	273	543	68	87	585	277	257	478	179	437	577	421	14	122	89	370	219	513	515	110	84	101	435	843	692	211	236	210	86	564	825	356	102	119	733	769	230	163	168	339	173	290	430	492	262	856	149	379	129	331	265	601	709	865	858	299	261	188	506	175	532	561	832	308	600	519	395	210	547	305	156	330	603	204	268	277	295	188	1205	997	448	435	374	398	801	565	243	229	49	223	626	246	290	465	413	120	146	333	380	390	366	94	116	78	95	318	347	391	394	404	413	81	87	300	274	418	435	383	475	448	433	319	331	394	424	378	389	428	414	637	520	403	439	219	306	282	358	445	429	481	514	680	582	71	85	761	713	1035	1058	584	555	118	134	453	478	477	514	632	616	338	339	535	478	233	259	431	431	599	488	489	446	482	524	101	107	297	319	359	399	664	610	335	343	559	512	479	510	203	243	130	151	468	443	369	353	460	496	572	525	131	143	421	396	252	254	487	465	329	353	286	304	302	401	642	638	261	219	236	247	690	751	615	608	319	286	399	415	124	147	151	117	303	261	232	271	534	561	287	265	598	585	582	558	184	162	290	286	111	122	239	219	488	508	171	187	311	332	298	286	399	425	374	391	285	292	351	376	665	726	265	277	1196	1249	101	131	533	532	193	163	337	417	519	417	1178	1179	373	357	177	233	275	373	243	264	286	306	159	169	494	480	621	597	204	197	376	399	343	308	101	113	600	628	426	449	358	393	634	622	207	218	356	341	558	550	357	362	68	85	59	75	1012	1035	1267	1329
1219	204	447	290	455	986	412	1040	647	393	147	1042	482	434	315	395	723	727	605	1186	576	428	360	183	0	370	379	603	422	692	172	239	723	339	406	565	144	610	633	570	169	227	238	543	392	541	571	195	178	239	442	888	865	360	351	134	235	682	881	505	207	224	789	825	379	256	185	468	284	347	603	548	435	912	166	484	58	504	438	657	765	920	914	141	370	337	513	192	588	617	887	481	773	575	212	46	603	454	216	481	657	353	417	426	404	361	1318	1110	504	584	547	507	856	731	348	288	206	396	682	351	399	614	562	189	163	506	553	397	422	169	185	227	247	467	496	517	543	460	500	233	239	307	333	474	442	556	648	597	582	428	440	543	573	487	498	549	540	810	693	576	612	278	365	247	344	566	550	629	662	853	755	254	268	893	845	1181	1204	595	562	204	194	509	534	484	521	764	780	511	512	622	565	382	432	580	580	772	661	637	619	507	531	250	256	354	326	468	508	777	723	444	460	668	621	535	566	376	416	267	288	524	499	186	170	516	552	659	612	236	248	530	505	277	330	543	521	385	360	459	477	475	574	806	811	434	392	387	398	863	924	788	774	243	210	548	564	297	274	300	266	289	320	343	376	541	589	421	414	736	749	748	724	333	311	132	103	227	227	224	244	544	564	320	336	460	481	305	293	525	551	483	512	394	401	358	383	838	899	438	450	1252	1305	284	304	682	678	366	336	154	234	692	590	1291	1325	380	364	350	406	448	546	392	413	420	441	176	186	643	629	794	770	313	336	193	216	516	481	250	251	764	792	599	622	507	542	807	795	345	327	363	348	684	655	466	471	185	202	208	224	1158	1181	1380	1442
849	186	343	360	139	616	368	670	625	23	292	672	307	408	74	333	353	810	235	909	358	384	206	314	370	0	9	581	318	494	360	306	736	42	302	195	468	588	263	333	328	415	243	460	370	199	201	399	376	213	126	529	843	221	190	288	272	715	511	330	395	406	419	455	275	167	244	256	428	40	581	178	386	542	272	654	354	482	389	287	395	551	544	511	129	233	197	256	218	247	518	403	751	205	532	324	233	350	191	377	289	249	313	322	120	339	1041	833	134	382	525	266	487	716	518	518	363	460	312	487	125	489	437	296	296	484	531	81	52	314	292	294	314	330	351	276	306	90	130	300	306	115	92	104	126	620	626	439	457	216	223	306	336	174	167	308	299	788	671	554	590	508	595	571	647	325	309	632	665	831	733	326	340	912	864	940	963	270	246	261	245	139	164	168	205	783	767	489	525	252	195	314	410	362	378	750	639	640	597	168	215	255	243	73	100	147	187	500	446	227	243	325	278	165	196	354	394	226	217	154	129	506	490	146	182	289	242	418	406	178	141	219	166	173	151	35	60	437	455	453	552	793	789	414	456	473	484	841	902	766	759	282	315	390	394	379	402	272	303	592	550	487	546	225	247	260	282	749	736	733	709	231	243	400	423	251	236	206	186	174	194	216	200	304	283	113	101	284	310	242	271	153	198	110	135	816	877	389	401	882	935	356	386	476	437	344	374	474	554	670	568	1014	1058	102	86	432	470	512	610	288	309	259	280	282	272	450	436	772	748	192	216	513	512	494	459	237	225	751	779	577	600	382	384	785	773	184	166	85	100	709	738	192	259	305	288	287	271	917	940	1103	1165
857	195	334	351	148	624	359	678	616	32	301	680	298	399	83	324	361	801	243	917	349	375	197	323	379	9	0	572	309	485	369	314	727	51	293	203	477	579	271	324	337	424	252	451	361	207	209	408	385	222	135	537	834	212	181	297	274	706	519	321	404	415	427	463	266	176	253	247	437	49	572	186	377	550	281	663	363	473	380	295	403	559	552	520	120	224	206	265	226	255	526	394	742	213	541	333	241	341	200	368	297	240	304	313	111	330	1049	841	142	373	516	257	495	707	521	527	372	451	320	478	116	480	428	305	305	475	522	90	61	323	301	303	323	321	342	267	297	98	138	309	314	124	101	112	135	611	617	430	448	207	214	297	327	165	175	299	290	779	662	545	581	517	604	580	656	316	300	623	656	822	724	335	349	903	855	931	954	278	255	270	254	147	172	177	214	774	758	480	516	260	203	305	401	353	369	741	630	631	588	176	224	264	252	82	109	138	178	508	454	218	234	333	286	173	204	345	385	235	226	162	137	515	499	154	190	297	250	427	415	186	149	228	175	181	159	44	69	428	446	444	543	784	780	405	447	464	475	832	893	757	750	291	324	381	385	388	411	263	297	601	559	496	555	234	255	251	273	740	727	724	700	222	234	409	432	260	245	215	195	182	202	207	191	295	274	122	110	275	301	233	262	144	189	119	144	807	868	380	392	890	943	365	395	467	428	335	365	483	563	661	559	1022	1066	111	95	441	461	503	601	279	300	250	271	291	281	441	427	763	739	183	207	522	521	485	450	246	234	742	770	568	591	373	375	776	764	175	157	94	109	700	729	183	250	314	297	296	280	908	931	1111	1173
1236	574	299	313	679	992	246	1057	267	598	471	896	347	212	540	281	804	461	718	977	390	234	414	430	603	581	572	0	339	386	431	403	387	577	309	592	542	105	714	416	444	394	442	193	238	695	687	473	447	472	656	993	461	399	437	609	428	366	898	324	396	379	870	842	334	509	567	380	401	590	26	674	265	929	548	358	550	157	220	738	846	955	931	708	494	376	720	574	714	677	922	225	393	651	813	610	676	288	540	257	756	360	309	318	502	292	1109	901	630	382	185	472	891	367	403	445	416	333	763	360	497	336	284	519	545	254	301	656	627	493	515	431	411	351	380	432	408	611	571	397	403	600	574	625	666	300	277	324	304	430	418	408	431	465	476	470	455	224	322	205	241	582	542	645	594	487	471	283	316	267	375	387	373	563	515	859	882	766	769	511	527	635	660	708	745	434	418	164	200	649	592	459	363	394	378	169	290	291	248	689	738	454	466	597	619	550	510	706	652	422	406	603	599	661	692	307	267	489	468	650	625	787	771	642	678	675	639	391	379	517	554	607	554	669	647	616	641	207	225	326	227	444	431	287	329	346	357	483	544	408	410	718	685	346	362	352	375	417	451	539	497	460	453	748	743	419	398	400	387	384	360	413	388	689	706	486	497	594	574	670	690	397	413	370	376	598	586	440	466	448	433	518	525	651	676	458	519	244	232	1269	1322	389	359	466	505	297	327	757	835	115	217	1047	1003	673	657	399	343	385	290	376	355	418	397	558	568	427	413	414	390	450	426	794	801	184	219	472	484	402	430	228	251	305	340	427	415	433	451	656	641	360	389	564	497	467	484	442	458	836	859	1171	1233
1059	338	50	199	447	826	121	880	464	341	275	800	198	178	304	103	617	649	520	938	292	133	123	273	422	318	309	339	0	408	317	241	575	341	60	394	428	319	527	286	287	280	216	192	209	488	489	359	333	240	424	816	682	108	146	413	201	554	721	221	282	265	683	665	43	273	357	204	287	354	313	467	98	752	352	513	368	321	119	551	659	778	754	538	231	85	488	378	507	490	745	130	590	453	622	414	478	170	310	152	569	69	133	142	265	128	1070	862	423	300	256	287	714	555	369	397	302	299	576	326	260	299	247	323	349	225	272	399	370	297	319	235	255	183	212	256	259	379	373	241	241	364	338	393	434	459	465	287	267	232	220	259	289	267	278	293	279	563	510	393	429	468	494	531	546	310	294	471	504	606	572	267	259	751	703	900	923	559	537	311	316	428	453	476	513	622	606	328	364	451	394	232	249	296	296	508	478	479	436	457	506	228	240	361	383	329	312	529	475	224	208	426	401	454	485	193	233	253	232	443	418	596	580	435	471	488	441	277	265	319	356	371	318	462	440	353	378	178	196	292	391	632	628	253	295	312	323	680	741	605	598	488	489	264	280	238	261	190	224	491	449	346	405	516	536	152	130	588	575	572	548	186	161	493	513	286	297	358	338	463	483	134	150	176	197	362	350	264	290	263	256	255	262	415	440	655	716	119	131	1092	1145	275	245	398	397	183	213	564	644	428	407	1043	1044	420	404	290	309	351	449	108	129	151	171	362	372	359	345	611	587	214	190	603	605	225	190	246	252	590	618	416	439	223	258	624	612	170	188	403	405	548	577	327	299	271	288	246	262	877	900	1132	1194
937	594	389	500	556	704	422	758	643	475	545	640	227	402	560	413	533	840	484	721	165	424	393	543	692	494	485	386	408	0	611	511	766	536	417	433	721	438	476	187	557	581	486	301	428	544	516	652	627	510	533	694	837	378	400	683	471	745	599	204	583	566	606	543	390	529	614	270	588	534	386	523	355	630	622	737	638	517	410	500	575	656	632	808	453	355	587	648	563	439	623	315	769	492	892	684	478	350	567	347	518	378	313	322	403	429	853	645	507	117	375	317	592	746	620	662	588	550	525	577	398	244	296	593	619	444	491	533	504	567	589	505	525	300	271	278	253	488	448	511	511	609	586	502	543	660	656	192	212	331	319	253	223	342	353	271	256	600	701	584	620	761	759	824	811	288	272	662	695	643	751	537	551	942	894	603	626	615	636	581	573	512	537	585	622	813	797	524	560	490	469	502	550	169	153	548	669	670	627	566	615	498	510	567	594	427	387	407	414	323	314	365	412	538	549	494	484	523	502	527	502	866	850	519	555	437	480	578	566	394	431	627	574	518	524	529	554	397	415	543	587	823	807	504	546	563	574	859	920	784	789	744	759	176	160	539	562	460	494	756	714	647	670	625	592	378	364	779	766	763	739	456	431	763	783	556	558	614	594	547	547	404	420	320	319	607	595	262	267	310	281	477	432	604	629	834	895	420	422	970	1023	567	546	96	135	484	514	834	914	475	577	791	747	596	580	591	560	602	650	342	321	377	356	632	642	85	99	790	766	470	460	873	875	374	409	516	522	781	809	607	630	255	220	803	791	440	444	579	594	739	768	465	398	541	558	516	532	580	603	915	977
1209	222	277	118	494	976	240	1030	475	383	68	1001	401	262	286	223	713	555	595	1139	495	256	279	68	172	360	369	431	317	611	0	129	551	323	266	540	111	438	623	489	54	55	157	371	220	559	561	42	16	169	481	889	693	279	304	206	154	510	871	424	35	52	779	815	284	209	164	407	112	336	431	538	263	902	145	312	119	332	266	647	755	911	904	277	323	256	552	171	578	607	878	309	601	565	382	200	593	362	169	331	649	272	336	345	357	189	1271	1063	494	503	375	460	847	559	176	161	34	224	672	179	352	478	426	116	142	334	381	436	412	90	112	146	137	386	415	459	462	450	475	123	129	346	320	464	481	384	476	466	446	381	393	462	492	440	451	496	482	638	521	404	440	151	238	214	290	513	497	457	490	681	583	113	105	721	673	1103	1126	630	601	131	147	499	524	523	560	592	608	339	340	597	540	301	260	499	499	600	489	465	447	528	570	169	175	343	365	421	461	730	676	397	411	621	574	525	556	204	244	198	219	514	489	356	340	506	542	634	587	64	76	483	458	265	300	533	511	375	399	287	305	303	402	634	639	262	220	215	226	691	752	616	602	315	282	467	483	125	102	219	185	235	193	171	204	580	607	355	333	564	577	576	552	252	230	286	275	154	169	242	232	534	554	239	255	379	400	344	332	467	493	436	459	347	354	397	422	666	727	266	278	1242	1295	121	132	601	600	194	164	326	404	520	418	1244	1247	419	403	178	234	276	374	311	332	354	374	155	165	562	548	622	598	266	265	363	386	344	309	169	181	592	620	427	450	426	461	635	623	275	280	402	387	512	483	419	424	106	123	127	143	1080	1103	1333	1395
1143	223	249	90	440	910	212	964	447	329	92	903	301	234	232	195	647	615	529	1041	395	228	179	87	239	306	314	403	241	511	129	0	558	269	225	453	240	410	557	389	101	139	63	343	192	493	495	171	145	93	427	823	665	179	204	230	60	537	805	324	141	124	713	749	198	155	188	307	146	282	403	472	235	836	169	372	185	304	238	581	689	845	838	355	236	156	493	195	512	541	812	281	573	499	439	231	527	273	161	300	583	172	236	245	270	161	1173	965	428	403	347	373	781	538	236	256	95	196	606	223	265	433	381	140	166	306	353	382	358	114	136	52	32	286	315	359	362	384	388	18	12	292	266	398	427	356	448	416	401	294	306	362	392	353	364	396	382	610	493	376	412	280	353	343	405	413	397	454	487	653	555	44	58	734	686	1003	1026	564	542	132	148	433	458	469	506	605	589	311	312	510	453	201	232	399	399	572	461	462	419	462	511	75	87	289	311	334	374	632	578	310	311	529	487	459	490	176	216	122	143	448	423	413	397	440	476	547	500	136	124	396	371	256	246	467	445	321	345	259	277	275	374	615	611	234	192	209	220	663	724	588	581	339	306	367	383	97	120	119	85	350	308	205	264	521	541	255	233	571	558	555	531	152	130	310	330	107	118	243	223	468	488	139	155	279	300	290	278	367	393	349	359	260	267	343	368	638	699	238	250	1176	1229	74	104	501	500	166	136	381	461	492	390	1146	1147	365	349	150	206	248	346	211	232	254	274	179	189	462	448	594	570	189	165	420	422	316	281	93	105	573	601	399	422	326	361	607	595	175	193	348	333	531	543	332	337	88	105	63	79	980	1003	1235	1297
1556	729	535	468	865	1323	492	1377	151	759	619	1276	714	440	695	481	1060	198	942	1300	758	476	592	585	723	736	727	387	575	766	551	558	0	732	524	866	601	490	970	784	599	496	597	561	398	906	908	576	567	627	842	1236	213	592	617	757	583	66	1218	692	516	525	1126	1162	542	664	715	720	465	745	411	885	521	1249	696	239	670	254	488	994	1102	1258	1251	767	649	569	906	722	925	954	1225	567	179	912	872	751	940	620	695	589	996	557	641	650	683	447	1432	1224	841	750	553	786	1194	82	437	457	569	470	1019	440	678	704	652	667	693	512	559	817	788	641	663	586	566	699	728	772	775	797	801	552	558	755	729	811	852	434	326	692	672	707	719	775	799	766	777	809	795	416	299	254	218	641	554	703	606	826	810	256	289	367	259	542	528	202	154	1182	1205	977	955	666	682	846	871	894	931	73	57	319	355	923	866	614	518	762	746	460	339	264	225	875	924	609	621	752	774	747	787	1045	991	723	724	942	900	872	903	462	422	644	623	861	836	846	830	853	889	960	913	537	525	809	784	762	709	880	858	771	796	465	483	481	382	83	99	442	466	476	487	151	212	168	125	866	833	714	730	507	530	572	606	551	509	524	465	934	954	668	646	13	26	51	75	568	543	837	826	641	652	749	729	881	901	552	568	692	713	753	741	780	806	762	772	673	680	806	831	186	247	512	500	1589	1642	544	514	834	873	452	482	877	894	500	398	1370	1326	828	812	536	480	522	424	624	645	667	687	706	716	795	781	134	150	605	581	853	876	522	487	627	639	41	69	205	182	673	708	95	107	588	606	811	796	125	126	745	750	622	639	597	613	1159	1182	1494	1556
891	149	366	335	177	658	386	712	621	65	255	714	349	408	37	356	395	806	277	951	400	402	229	277	339	42	51	577	341	536	323	269	732	0	325	237	431	584	305	375	291	378	206	488	366	241	243	362	339	176	164	571	839	244	213	257	235	711	553	372	358	369	461	497	298	130	207	298	391	18	577	220	409	584	241	617	319	478	412	329	437	593	586	480	171	256	235	225	260	289	560	426	747	247	501	293	275	373	154	400	331	272	336	345	162	335	1083	875	176	424	521	308	529	712	481	481	326	441	354	468	167	531	479	259	259	480	527	119	94	277	255	257	277	372	393	318	348	132	172	263	269	84	60	146	164	601	622	481	499	258	265	348	378	216	209	350	341	784	667	550	586	471	558	534	610	367	351	628	661	827	729	289	303	908	860	982	1005	312	284	224	208	181	206	206	243	779	763	485	521	294	237	310	406	404	420	746	635	636	593	210	253	218	206	41	69	189	229	542	488	269	285	367	320	207	238	350	390	189	180	196	171	475	459	188	224	331	284	381	369	220	183	182	129	215	193	57	82	433	451	449	548	789	785	410	437	454	465	837	898	762	755	251	284	432	436	342	365	265	266	555	513	450	509	263	289	283	305	745	732	729	705	214	239	369	392	214	199	169	149	216	236	239	223	346	325	82	70	326	352	284	313	195	240	124	149	812	873	412	424	924	977	319	349	518	479	340	370	443	523	666	564	1056	1100	124	108	395	451	493	591	311	332	282	303	251	241	492	478	768	744	175	199	482	481	490	455	200	188	747	775	573	596	424	426	781	769	207	189	107	114	705	734	234	301	268	251	250	234	959	982	1145	1207
1068	322	43	148	431	835	91	889	413	325	259	809	207	144	288	43	626	598	508	947	301	103	132	257	406	302	293	309	60	417	266	225	524	325	0	403	377	289	536	295	271	229	200	184	158	472	474	308	282	224	408	802	631	117	155	397	185	503	730	230	231	214	692	674	27	257	341	213	236	338	283	451	86	761	336	462	352	270	89	560	668	787	763	522	215	94	472	362	491	499	754	122	539	462	606	398	487	175	294	144	562	53	142	151	249	77	1079	871	407	309	226	296	723	504	318	346	251	248	585	275	244	291	239	307	333	195	242	383	354	281	303	219	239	192	221	265	268	363	367	225	225	348	322	377	418	408	414	279	259	241	229	268	298	276	287	302	288	533	459	342	378	417	443	480	495	319	303	420	453	576	521	222	208	700	652	909	932	543	521	295	300	412	437	460	497	571	555	277	313	460	403	216	198	305	305	478	427	428	385	441	490	212	224	345	367	313	321	538	484	233	217	435	410	438	469	142	182	237	216	427	402	580	564	419	455	497	450	226	214	328	350	355	302	446	424	337	362	148	166	241	340	581	577	202	244	261	272	629	690	554	547	472	473	273	289	187	210	174	208	440	398	295	354	500	520	161	139	537	524	521	497	170	145	477	497	270	281	342	322	447	467	118	134	185	206	346	334	273	299	272	265	239	246	399	424	604	665	89	101	1101	1154	224	194	407	406	132	162	548	628	398	356	1052	1053	404	388	239	258	300	398	117	138	160	180	346	356	368	354	560	536	198	174	587	589	195	160	230	236	539	567	365	388	232	267	573	561	154	172	387	389	497	526	311	308	255	272	230	246	886	909	1141	1203
719	381	419	490	216	486	467	540	755	172	472	542	282	524	269	446	223	940	126	746	328	479	334	478	565	195	203	592	394	433	540	453	866	237	403	0	648	572	133	303	492	571	407	435	500	111	95	579	556	377	179	433	973	328	309	483	413	845	381	305	573	556	289	325	376	362	439	231	578	235	566	90	431	412	467	804	536	612	465	157	265	421	414	706	259	341	154	451	130	96	388	401	881	59	727	519	84	348	386	375	175	364	311	320	184	469	878	670	90	352	509	235	357	846	660	688	527	590	182	617	189	464	412	476	476	571	618	230	201	494	472	447	467	305	326	251	281	185	145	453	453	310	287	192	233	750	756	414	432	210	198	281	311	149	138	231	246	816	801	684	720	688	775	751	827	216	232	762	795	859	863	479	493	1042	994	804	827	182	203	441	425	145	120	245	282	913	897	619	655	57	114	444	540	332	348	761	769	770	727	212	219	419	407	268	295	199	194	337	283	202	218	162	115	121	116	484	524	390	369	110	135	701	685	152	138	94	47	568	556	179	156	414	361	85	107	230	255	524	542	583	682	923	919	544	586	603	614	971	1032	896	889	475	508	365	364	529	552	402	436	772	730	637	696	207	159	287	309	879	866	863	839	361	373	595	618	425	410	401	381	130	114	346	330	279	258	308	296	259	257	217	246	283	311	305	330	946	1007	465	477	752	805	509	536	415	376	474	504	669	749	681	698	851	895	297	281	581	600	642	740	328	307	286	265	477	467	404	406	902	878	322	346	708	707	508	536	401	389	881	909	707	730	357	359	915	903	314	296	280	295	839	868	256	277	476	460	451	435	781	804	940	1002
1317	330	388	229	597	1084	351	1138	586	491	176	1109	511	373	394	334	821	605	703	1247	605	367	389	179	144	468	477	542	428	721	111	240	601	431	377	648	0	549	731	599	165	166	267	482	331	667	669	69	95	279	584	997	797	389	412	276	264	560	979	534	146	163	887	923	395	317	272	517	223	444	542	646	374	1010	253	362	158	443	377	755	863	1019	1012	166	431	366	655	279	686	715	986	420	708	673	271	190	701	473	277	442	757	382	446	455	465	300	1379	1171	602	613	486	568	955	609	226	144	145	290	780	229	460	589	537	224	250	445	492	539	520	198	220	256	248	496	525	569	572	558	583	234	240	449	428	572	584	495	587	577	557	489	501	572	602	548	559	606	592	749	632	515	551	134	221	103	200	623	607	507	540	792	694	224	216	771	723	1213	1236	737	704	239	255	607	632	626	663	642	658	450	451	705	648	411	371	609	609	711	600	515	558	636	673	279	285	451	468	529	569	838	784	505	521	729	682	633	664	315	355	308	329	622	597	245	229	614	650	742	695	175	187	591	566	373	408	641	619	483	502	398	416	414	513	684	700	373	331	265	276	752	813	695	652	385	352	577	593	236	213	329	295	145	176	282	254	683	715	465	443	614	627	626	602	362	340	276	247	262	277	350	340	642	662	349	365	489	510	447	435	577	603	544	569	455	462	500	525	770	831	377	389	1350	1403	232	243	711	710	305	275	298	293	631	529	1352	1357	522	506	289	345	387	485	421	442	464	484	263	273	672	658	702	677	374	375	252	275	455	420	279	291	642	670	538	561	536	571	696	703	385	388	505	490	562	533	527	532	214	231	237	253	1190	1213	1441	1503
1216	581	279	320	659	983	226	1037	372	578	478	943	327	192	547	261	784	564	698	1056	370	214	394	437	610	588	579	105	319	438	438	410	490	584	289	572	549	0	694	396	451	401	449	173	218	675	667	480	454	479	636	973	566	379	417	616	435	469	878	304	403	386	850	822	314	516	574	360	408	597	79	654	245	909	555	461	557	236	200	718	826	935	911	715	501	356	700	581	694	657	902	205	498	631	820	617	656	268	547	237	736	340	289	298	482	277	1188	980	610	362	111	452	871	470	410	452	423	340	743	367	477	316	264	526	552	234	281	636	607	500	522	438	418	331	360	412	388	591	551	404	410	607	581	605	646	379	380	304	284	410	398	388	411	445	456	450	435	329	425	308	344	589	549	652	601	467	451	386	419	372	480	394	380	666	618	938	961	746	749	518	534	615	640	688	725	537	521	243	279	629	572	466	370	374	358	274	393	394	351	669	718	461	473	604	626	530	490	686	632	402	386	583	579	641	672	314	274	496	475	630	605	794	778	622	658	655	619	398	386	497	534	614	561	649	627	623	648	187	205	333	306	547	536	294	336	353	364	588	649	513	513	725	692	326	342	359	382	424	458	546	504	467	460	728	723	399	378	503	490	487	463	420	395	696	713	493	504	601	581	650	670	404	420	350	356	605	593	420	446	428	413	525	511	658	683	563	624	224	212	1249	1302	396	366	446	485	304	334	764	842	194	296	1126	1082	680	664	406	350	392	369	356	335	398	377	565	575	407	393	519	495	457	433	801	808	164	199	479	491	505	533	331	354	285	320	532	520	440	458	663	648	463	492	544	477	474	491	449	465	915	938	1250	1312
586	449	552	594	265	353	600	407	859	240	555	409	373	642	337	567	90	1044	62	718	371	612	440	577	633	263	271	714	527	476	623	557	970	305	536	133	731	694	0	346	591	675	506	557	604	160	94	662	639	476	228	326	1077	455	424	551	517	949	248	396	658	660	156	192	509	430	507	334	682	303	688	115	562	279	535	908	617	716	598	24	132	288	281	774	363	467	203	519	145	55	255	532	985	98	783	587	70	479	454	506	96	483	442	451	307	573	840	657	139	395	631	278	224	950	764	781	626	694	49	721	312	519	534	559	559	700	747	298	269	577	555	551	571	422	417	342	372	253	268	557	557	378	355	241	282	854	860	467	487	343	331	372	361	282	271	274	289	938	905	788	824	771	858	834	910	259	275	866	899	981	967	583	597	1146	1098	791	814	231	252	524	508	194	169	294	331	1017	1001	723	759	190	247	548	644	375	391	883	873	874	831	261	268	518	506	336	363	322	327	324	326	335	351	205	248	170	165	588	628	489	473	159	184	757	741	201	187	133	180	672	660	312	279	482	429	134	156	298	323	653	671	687	786	1027	1023	648	690	707	718	1075	1136	1000	993	524	557	423	407	633	656	506	540	855	813	741	800	256	208	420	442	983	970	967	943	465	477	645	674	514	499	469	449	179	163	450	434	403	382	376	364	326	300	350	339	387	432	373	398	1050	1111	598	610	619	672	613	640	458	419	578	608	725	805	803	802	823	867	346	349	685	704	746	844	461	440	419	398	545	535	447	449	1006	982	426	450	764	757	630	665	500	488	985	1013	811	834	479	450	1019	1007	418	400	348	363	943	972	379	410	568	551	550	534	768	791	902	964
866	433	311	426	395	633	359	687	673	314	423	589	88	360	399	338	436	858	354	727	26	371	264	421	570	333	324	416	286	187	489	389	784	375	295	303	599	396	346	0	435	507	364	259	386	411	386	530	505	364	372	623	877	256	239	527	349	763	528	92	509	492	502	472	268	368	453	109	514	373	390	390	295	559	466	736	516	530	357	370	478	585	561	686	292	233	436	492	430	309	552	255	799	362	736	528	348	228	406	255	388	256	191	200	242	363	859	651	346	74	333	173	521	764	578	620	466	508	395	535	237	198	236	463	463	402	449	372	343	445	459	383	403	161	132	117	87	327	287	389	389	448	425	341	382	668	674	146	166	170	158	87	57	181	192	141	126	640	719	602	638	639	717	702	769	158	142	680	713	683	781	415	429	960	912	633	656	482	485	428	412	351	376	424	461	831	815	537	573	360	308	380	476	54	70	585	687	688	645	405	454	376	388	406	433	266	226	336	284	162	153	235	282	377	408	420	442	377	356	366	341	710	694	358	394	307	350	504	492	233	270	466	413	385	363	368	393	355	373	501	600	841	837	462	504	521	532	889	950	814	807	583	603	102	86	465	488	338	372	714	672	573	628	464	459	217	239	797	784	781	757	334	309	607	627	412	397	453	433	386	406	282	298	174	153	446	434	125	137	149	120	316	271	443	468	864	925	357	369	899	952	445	472	169	130	410	440	678	758	505	607	821	777	435	419	517	518	560	658	220	199	216	195	476	486	142	128	820	796	309	333	717	719	332	367	388	376	799	827	625	648	181	146	833	821	301	283	418	433	757	786	304	237	419	436	394	410	610	633	921	983
1177	218	290	131	462	944	253	998	488	351	64	949	347	275	254	236	681	609	563	1087	441	269	225	14	169	328	337	444	287	557	54	101	599	291	271	492	165	451	591	435	0	109	103	384	233	527	529	96	70	115	449	857	706	225	250	202	100	564	839	370	89	106	747	783	244	177	160	353	166	304	444	506	276	870	141	366	115	345	279	615	723	879	872	285	275	202	520	167	546	575	846	322	614	533	381	196	561	319	165	344	617	218	282	291	309	202	1219	1011	462	449	388	412	815	579	230	215	58	237	640	233	304	479	427	112	138	347	394	404	380	86	108	92	109	332	361	405	408	418	427	95	101	314	288	432	449	397	489	462	447	333	345	408	438	392	403	442	428	651	534	417	453	205	292	268	344	459	443	495	528	694	596	85	99	775	727	1049	1072	598	569	127	143	467	492	491	528	646	630	352	353	549	492	247	273	445	445	613	502	503	460	496	538	115	121	311	333	373	413	678	624	349	357	573	526	493	524	217	257	144	165	482	457	355	339	474	510	586	539	118	130	435	410	261	268	501	479	343	367	300	318	316	415	656	652	275	233	250	261	704	765	629	622	311	278	413	429	138	156	165	131	289	247	225	258	548	575	301	279	612	599	596	572	198	176	282	272	125	136	238	228	502	522	185	201	325	346	312	300	413	439	388	405	299	306	365	390	679	740	279	291	1210	1263	115	145	547	546	207	177	323	403	533	431	1192	1193	387	371	191	247	289	387	257	278	300	320	151	161	508	494	635	611	218	211	362	385	357	322	115	127	614	642	440	463	372	407	648	636	221	232	370	355	566	537	371	376	82	99	73	89	1026	1049	1281	1343
1261	277	240	81	549	1028	203	1082	438	438	123	1021	419	225	341	186	765	500	647	1159	495	219	297	122	227	415	424	394	280	581	55	139	496	378	229	571	166	401	675	507	109	0	178	334	183	611	613	97	71	208	536	941	656	297	322	261	175	455	923	429	20	37	831	867	247	264	219	425	75	391	394	590	226	954	200	257	174	295	229	699	807	963	956	332	354	274	607	226	630	659	930	272	564	617	437	255	645	325	224	294	701	262	346	355	388	152	1291	1083	546	487	338	491	899	504	121	141	73	185	724	124	383	441	389	171	197	297	344	491	467	145	167	167	147	404	433	477	480	502	506	133	139	401	375	516	536	347	439	429	409	412	424	480	510	471	482	514	500	601	484	367	403	206	238	269	290	531	515	402	435	644	546	123	109	666	618	1078	1101	682	656	186	202	551	576	578	615	537	553	302	303	628	571	319	223	499	483	563	452	410	410	580	625	190	202	398	420	452	492	750	696	428	429	647	605	577	608	167	207	237	258	566	541	411	395	558	594	665	618	49	53	514	489	320	355	585	563	430	454	250	268	266	365	579	595	225	183	160	171	647	708	579	547	370	337	451	467	88	65	240	206	235	193	134	149	635	659	373	351	509	522	521	497	273	248	341	330	209	224	297	287	586	606	257	273	397	418	399	387	485	511	467	477	378	385	452	477	629	690	229	241	1294	1347	125	95	571	610	157	127	381	459	483	381	1264	1222	474	458	141	197	239	337	329	350	372	392	210	220	532	518	585	561	310	286	418	441	307	272	208	220	537	565	390	413	410	445	591	586	293	311	457	442	457	428	450	455	161	178	178	194	1055	1078	1353	1415
1092	160	241	129	377	859	251	913	486	266	91	868	276	273	169	231	596	654	478	1006	370	267	135	89	238	243	252	442	216	486	157	63	597	206	200	407	267	449	506	364	103	178	0	363	231	442	444	198	173	30	364	772	704	150	160	220	29	576	754	299	180	163	662	698	173	92	148	282	185	219	442	421	274	785	159	411	184	343	277	530	638	794	787	354	190	131	435	185	461	490	761	301	612	448	429	221	476	248	115	275	532	147	211	220	224	200	1138	930	377	378	386	327	730	577	275	295	134	235	555	262	219	408	356	130	156	345	392	319	295	113	126	51	71	261	290	334	337	333	342	57	63	229	203	347	364	395	487	391	376	248	260	337	367	307	318	369	357	649	532	415	451	307	392	370	444	386	370	493	526	692	594	83	97	773	725	978	1001	513	484	95	107	382	407	406	443	644	628	350	351	464	407	176	271	374	374	611	500	501	458	411	453	12	24	226	248	288	328	597	543	264	280	488	441	408	439	215	255	59	80	397	372	403	387	389	425	501	454	175	163	350	325	193	183	416	394	258	282	298	316	314	413	654	650	273	231	248	259	702	763	627	620	316	296	342	358	136	159	94	60	389	347	244	303	463	490	230	208	610	597	594	570	98	105	300	320	70	81	180	160	417	437	114	129	254	275	227	215	342	368	303	332	214	221	280	305	677	738	277	289	1125	1178	113	143	476	475	205	175	371	451	531	429	1111	1122	302	286	189	245	287	385	186	207	229	249	169	179	437	423	633	609	133	111	410	412	355	320	30	42	612	640	438	461	301	336	646	634	131	147	285	270	570	582	286	291	87	89	62	64	955	978	1200	1262
1079	485	142	253	522	846	171	900	450	441	411	806	190	137	451	166	647	635	561	931	233	159	270	370	543	460	451	193	192	301	371	343	561	488	184	435	482	173	557	259	384	334	363	0	163	538	530	413	387	387	499	836	654	255	293	549	348	540	741	167	336	319	713	685	209	420	504	223	341	500	167	517	108	772	488	513	490	307	145	581	689	798	774	648	378	232	563	514	557	520	765	68	576	494	753	550	519	131	457	100	599	235	152	161	345	182	1063	855	473	225	110	315	734	541	355	397	356	285	606	312	340	179	127	459	485	179	226	499	470	433	455	371	351	194	223	275	251	454	414	337	343	511	485	468	509	445	451	167	147	273	261	251	274	308	319	313	298	417	496	379	415	522	494	585	546	330	314	457	490	460	558	327	313	737	689	813	836	609	612	451	463	478	503	551	588	608	592	314	350	492	435	379	303	237	221	362	464	465	422	532	581	375	387	508	530	393	353	549	495	265	249	446	442	504	535	247	219	400	379	493	468	727	711	485	521	518	482	331	319	360	397	518	465	512	490	495	520	132	150	278	377	618	614	239	281	298	309	666	727	591	584	635	625	189	205	292	315	337	371	491	449	400	405	591	586	262	241	574	561	558	534	333	308	629	646	426	437	505	485	513	533	281	297	213	219	509	497	283	309	291	276	402	374	562	587	641	702	169	157	1112	1165	329	299	309	348	237	267	697	775	282	384	1001	957	562	546	344	295	337	435	219	198	261	240	498	508	270	256	597	573	361	337	734	741	109	144	393	399	576	604	402	425	148	183	610	598	317	335	545	552	534	563	407	340	407	424	382	398	790	813	1125	1187
1190	363	169	102	499	957	94	1011	287	393	260	933	317	42	329	115	694	472	576	1058	360	78	226	219	392	370	361	238	209	428	220	192	398	366	158	500	331	218	604	386	233	183	231	163	0	540	542	262	236	261	476	870	505	226	251	398	217	377	852	294	185	168	760	796	176	298	356	350	190	379	212	519	155	883	337	350	339	144	90	628	736	892	885	497	283	203	540	363	559	588	859	195	413	546	602	399	574	254	329	223	630	191	275	284	317	81	1190	982	475	352	155	420	828	378	192	234	205	122	653	149	312	306	254	308	334	114	161	451	422	282	304	220	200	321	350	402	378	431	435	186	192	389	363	445	486	282	288	294	274	341	353	378	401	400	411	440	425	450	333	216	252	371	331	434	383	457	441	294	327	493	395	176	162	574	526	940	963	611	589	300	316	480	505	528	565	445	429	151	187	557	500	248	152	364	348	407	301	302	259	509	558	243	255	386	408	381	421	676	622	357	358	573	534	506	537	96	56	278	257	495	470	576	560	487	523	594	547	180	168	443	418	396	343	514	492	405	430	67	85	115	214	455	451	76	118	135	146	503	564	428	421	507	474	316	332	141	164	206	240	328	286	249	242	568	588	302	280	411	398	395	371	202	177	478	495	275	286	383	363	515	535	186	202	326	346	387	375	410	436	396	403	307	314	440	465	478	539	114	102	1223	1276	178	148	436	475	86	116	546	624	327	230	1128	1084	462	446	188	132	174	272	258	279	301	321	347	357	397	383	434	410	239	215	583	590	124	89	261	273	413	441	239	262	275	310	447	435	222	240	445	430	371	400	379	384	256	273	231	247	917	940	1252	1314
746	385	513	530	136	513	538	567	795	176	491	569	385	578	273	503	250	980	132	857	436	554	376	513	541	199	207	695	488	544	559	493	906	241	472	111	667	675	160	411	527	611	442	538	540	0	98	598	575	412	99	369	1013	391	360	438	453	885	408	408	594	596	316	352	445	366	443	334	618	239	669	71	534	439	443	844	525	652	559	184	292	399	441	682	299	403	43	427	73	144	366	504	921	102	654	495	130	451	390	478	133	419	414	423	243	509	989	781	69	460	612	344	335	886	700	717	562	630	209	657	248	567	515	495	495	654	701	202	205	513	491	487	507	408	429	354	384	189	204	493	493	286	291	177	181	790	796	517	535	313	301	384	414	252	241	342	357	919	841	724	760	707	794	770	846	327	343	802	835	962	903	519	533	1082	1034	915	938	71	92	460	444	129	99	165	202	953	937	659	695	168	219	484	580	440	456	864	809	810	767	157	108	454	442	272	271	258	280	448	394	305	321	273	226	100	69	524	564	425	409	95	120	628	612	136	104	205	158	608	596	252	215	418	365	70	92	234	231	607	625	623	722	963	959	584	626	643	654	1011	1072	936	929	395	428	468	472	569	592	442	476	791	749	677	736	96	48	390	412	919	906	903	879	401	413	516	545	450	435	405	385	96	67	386	370	382	361	282	272	362	368	320	349	323	368	257	282	986	1047	559	571	779	832	549	576	526	487	514	544	596	676	784	738	962	1006	217	233	621	640	682	780	431	410	389	368	453	443	515	514	942	918	362	386	635	628	611	629	436	424	921	949	747	770	460	462	955	943	354	336	232	247	879	908	315	380	504	487	486	470	892	915	1051	1113
680	387	514	532	203	447	540	501	797	178	493	503	377	580	275	505	184	982	66	812	411	556	378	515	571	201	209	687	489	516	561	495	908	243	474	95	669	667	94	386	529	613	444	530	542	98	0	600	577	414	166	378	1015	393	362	489	455	887	342	400	596	598	250	286	447	368	445	326	620	241	661	53	526	373	473	846	555	654	560	118	226	382	375	712	301	405	141	457	75	95	349	496	923	36	721	525	64	443	392	470	120	421	406	415	245	511	934	751	77	435	604	318	318	888	702	719	564	632	143	659	250	559	507	497	497	656	703	236	207	515	493	489	509	400	421	346	376	191	206	495	495	316	293	179	220	792	798	507	527	305	293	376	401	244	233	314	329	911	843	726	762	709	796	772	848	299	315	804	837	954	905	521	535	1084	1036	885	908	169	190	462	446	132	107	232	269	955	939	661	697	152	209	486	582	415	431	856	811	812	769	199	206	456	444	274	301	260	282	418	366	297	313	245	210	108	103	526	566	427	411	97	122	695	679	139	125	173	142	610	598	254	217	420	367	72	94	236	261	609	627	625	724	965	961	586	628	645	656	1013	1074	938	931	462	495	460	447	571	594	444	478	793	751	679	738	194	146	382	404	921	908	905	881	403	415	583	612	452	437	407	387	117	101	388	372	374	353	314	302	354	340	312	341	325	370	311	336	988	1049	560	572	713	766	551	578	498	459	516	546	663	743	776	740	917	961	284	287	623	642	684	782	423	402	381	360	483	473	487	489	944	920	364	388	702	695	603	631	438	426	923	951	749	772	452	454	957	945	356	338	286	301	881	910	317	372	506	489	488	472	862	885	996	1058
1248	261	319	160	533	1015	282	1069	517	422	107	1040	442	304	325	265	752	580	634	1178	536	298	320	110	195	399	408	473	359	652	42	171	576	362	308	579	69	480	662	530	96	97	198	413	262	598	600	0	26	210	520	928	735	320	343	239	195	535	910	465	77	94	818	854	326	248	203	448	154	375	473	577	305	941	184	337	151	374	308	686	794	950	943	235	362	297	591	210	617	646	917	351	643	604	340	232	632	404	208	373	688	313	377	386	396	231	1310	1102	533	544	417	499	886	584	201	119	76	265	711	204	391	520	468	155	181	376	423	475	451	129	151	187	179	427	456	500	503	489	514	165	171	385	359	503	520	426	518	508	488	420	432	503	533	479	490	537	523	680	563	446	482	109	196	172	248	554	538	482	515	723	625	155	147	746	698	1144	1167	669	640	170	186	538	563	562	599	617	633	381	382	636	579	342	302	540	540	642	531	490	489	567	609	210	216	382	404	460	500	769	715	436	452	660	613	564	595	246	286	239	260	553	528	314	298	545	581	673	626	106	118	522	497	304	339	572	550	414	438	329	347	345	444	659	675	304	262	240	251	727	788	658	627	348	315	508	524	167	144	260	226	193	151	213	229	619	646	396	374	589	602	601	577	293	271	319	298	193	208	281	271	573	593	280	296	420	441	383	371	508	534	475	500	386	393	436	461	708	769	308	320	1281	1334	163	174	642	641	236	206	349	362	562	460	1283	1288	458	442	220	276	318	416	352	373	395	415	194	204	603	589	664	640	305	306	321	344	386	351	210	222	617	645	469	492	467	502	671	665	316	319	441	426	537	508	458	463	145	162	168	184	1121	1144	1372	1434
1225	238	293	134	510	992	256	1046	491	399	84	1017	417	278	302	239	729	571	611	1155	511	272	295	84	178	376	385	447	333	627	16	145	567	339	282	556	95	454	639	505	70	71	173	387	236	575	577	26	0	185	497	905	709	295	320	222	170	526	887	440	51	68	795	831	300	225	180	423	128	352	447	554	279	918	161	328	134	348	282	663	771	927	920	261	339	272	568	187	594	623	894	325	617	581	366	215	609	378	185	347	665	288	352	361	373	205	1287	1079	510	519	391	476	863	575	192	145	50	240	688	195	368	494	442	132	158	350	397	452	428	106	128	162	153	402	431	475	478	466	491	139	145	362	336	480	497	400	492	482	462	397	409	478	508	456	467	512	498	654	537	420	456	135	222	198	274	529	513	473	506	697	599	129	121	737	689	1119	1142	646	617	147	163	515	540	539	576	608	624	355	356	613	556	317	276	515	515	616	505	481	463	544	586	185	191	359	381	437	477	746	692	413	427	637	590	541	572	220	260	214	235	530	505	340	324	522	558	650	603	80	92	499	474	281	316	549	527	391	415	303	321	319	418	650	655	278	236	231	242	707	768	632	618	331	298	483	499	141	118	235	201	219	177	187	220	596	623	371	349	580	593	592	568	268	246	302	281	170	185	258	248	550	570	255	271	395	416	360	348	483	509	452	475	363	370	413	438	682	743	282	294	1258	1311	137	148	617	616	210	180	332	388	536	434	1260	1263	435	419	194	250	292	390	327	348	370	390	171	181	578	564	638	614	282	281	347	370	360	325	185	197	608	636	443	466	442	477	651	639	291	296	418	403	528	499	435	440	122	139	143	159	1096	1119	1349	1411
1062	130	265	159	347	829	281	883	516	236	103	838	300	303	139	255	566	684	448	976	389	297	128	101	239	213	222	472	240	510	169	93	627	176	224	377	279	479	476	364	115	208	30	387	261	412	414	210	185	0	334	742	734	143	141	192	59	606	724	323	203	193	632	668	197	62	118	258	215	189	472	391	304	755	131	441	188	373	307	500	608	764	757	366	160	155	405	157	431	460	731	325	642	418	401	193	446	272	85	299	502	171	235	244	194	230	1108	900	347	402	416	297	700	607	305	325	150	265	525	292	189	432	380	124	128	375	422	289	265	125	120	81	101	285	314	307	337	303	312	87	93	199	173	317	334	425	517	415	400	218	230	337	367	277	288	339	330	679	562	445	481	319	406	382	458	356	340	523	556	722	624	113	127	803	755	971	994	483	454	89	77	352	377	376	413	674	658	380	381	434	377	206	301	393	398	641	530	531	488	381	423	42	30	196	218	258	298	567	513	234	250	458	411	378	409	245	285	29	50	367	342	375	359	359	395	471	424	205	193	320	295	163	153	386	364	228	252	328	346	344	443	684	680	303	261	278	289	732	793	657	650	286	268	366	382	166	189	124	90	403	361	274	333	433	460	211	232	640	627	624	600	113	135	272	292	64	62	150	130	387	407	138	122	278	283	197	185	315	341	273	302	184	191	250	275	707	768	307	319	1095	1148	143	173	500	468	235	205	343	423	561	459	1081	1115	272	256	219	275	317	415	210	231	210	231	141	151	461	447	663	639	103	98	382	384	385	350	24	12	642	670	468	491	325	360	676	664	124	117	255	240	600	612	256	261	99	83	74	58	948	971	1170	1232
814	292	449	466	37	581	474	635	731	103	413	637	346	514	195	439	318	916	200	895	397	490	312	435	442	126	135	656	424	533	481	427	842	164	408	179	584	636	228	372	449	536	364	499	476	99	166	520	497	334	0	451	949	327	296	339	389	821	476	369	516	527	384	420	381	288	350	295	549	162	630	143	492	507	344	775	426	588	495	252	360	481	509	583	235	339	71	328	172	212	448	465	857	170	555	396	198	412	312	439	215	355	375	384	204	445	1027	819	99	421	573	305	417	822	636	639	484	566	277	593	209	528	476	417	399	590	637	103	132	435	413	415	435	369	390	315	345	125	165	421	427	187	213	113	82	726	732	478	496	274	262	345	375	213	202	347	338	880	777	660	696	629	716	687	768	364	348	738	771	923	839	447	461	1018	970	953	976	153	120	382	366	104	129	66	103	889	873	595	631	236	181	420	516	401	417	825	745	746	703	65	89	376	364	195	172	219	241	486	432	266	282	311	264	130	161	460	500	347	338	119	94	529	513	111	147	273	226	539	527	213	176	340	287	138	116	157	132	543	561	559	658	899	895	520	562	579	590	947	1008	872	865	296	329	429	433	500	523	378	412	713	671	608	667	99	147	351	373	855	842	839	815	337	349	417	446	372	357	312	307	139	159	322	306	343	322	183	173	323	349	281	310	259	304	158	183	922	983	495	507	847	900	477	507	515	476	450	480	497	577	745	674	1000	1044	118	134	553	576	618	716	392	371	350	329	354	344	489	475	878	854	298	322	536	529	572	565	358	346	857	885	683	706	421	423	891	879	290	272	133	148	815	844	276	341	426	409	408	392	930	953	1089	1151
600	715	841	860	488	424	868	478	1125	506	821	480	652	908	603	833	236	1310	312	789	648	884	706	843	888	529	537	993	816	694	889	823	1236	571	802	433	997	973	326	623	857	941	772	836	870	369	378	928	905	742	451	0	1343	721	690	754	783	1215	319	673	924	926	309	263	775	696	773	613	948	569	967	351	841	350	795	1174	872	982	887	350	224	166	352	1029	629	733	380	779	311	355	133	811	1251	382	970	842	354	758	720	785	284	749	721	730	573	839	854	728	405	672	910	557	102	1216	1030	1047	892	960	277	987	578	796	813	825	825	979	1026	554	535	843	821	817	837	701	696	621	651	519	534	823	823	638	621	507	533	1120	1126	744	764	643	631	651	638	582	571	553	568	1217	1171	1054	1090	1037	1124	1100	1176	538	554	1132	1165	1260	1233	849	863	1412	1364	862	885	398	429	790	774	460	435	517	554	1283	1267	989	1025	490	547	814	910	652	668	1162	1139	1140	1097	509	460	784	772	602	623	588	610	395	449	635	651	505	548	436	415	854	894	755	739	425	450	944	928	467	450	433	480	938	926	582	545	748	695	400	422	564	583	932	950	953	1052	1293	1289	914	956	973	984	1341	1402	1266	1259	711	744	700	684	899	922	772	806	1121	1079	1007	1066	448	417	720	742	1249	1236	1233	1209	731	743	832	861	780	765	735	715	442	413	716	700	682	661	626	624	605	579	639	618	653	698	599	624	1316	1377	887	899	641	588	879	906	676	672	844	874	912	992	1082	1068	894	938	559	575	951	970	1012	1110	750	729	719	698	805	795	665	679	1272	1248	692	716	951	944	909	944	766	754	1251	1279	1077	1100	758	727	1285	1273	684	666	574	589	1209	1238	645	710	834	817	816	800	839	862	916	978
1584	836	642	575	972	1430	599	1484	218	866	733	1335	808	547	802	588	1167	394	1049	1233	851	583	699	692	865	843	834	461	682	837	693	665	213	839	631	973	797	566	1077	877	706	656	704	654	505	1013	1015	735	709	734	949	1343	0	699	724	871	690	279	1325	785	658	641	1233	1269	649	771	829	827	661	852	487	992	628	1356	810	435	812	361	595	1101	1209	1365	1358	963	756	676	1013	836	1032	1061	1332	674	166	1019	1068	872	1047	727	802	696	1103	664	748	757	790	554	1365	1157	948	843	646	893	1301	188	633	653	678	577	1126	604	785	797	745	781	807	619	666	924	895	755	777	693	673	806	835	879	869	904	908	659	665	862	836	918	959	541	433	785	765	814	826	869	892	873	884	916	902	471	406	361	325	837	750	899	802	933	917	367	400	410	326	649	635	293	245	1115	1138	1084	1062	773	789	953	978	1001	1038	204	188	426	462	1030	973	721	625	855	839	534	446	375	332	982	1031	716	728	859	881	854	894	1152	1098	830	831	1049	1007	979	1010	569	529	751	730	968	943	1042	1026	960	996	1067	1020	653	641	916	891	869	816	987	965	878	903	572	590	588	489	162	146	549	573	590	601	194	135	188	231	980	947	807	823	614	637	679	713	747	705	720	661	1041	1061	775	753	226	213	238	243	675	650	951	968	748	759	856	836	988	1008	659	675	799	820	860	848	887	913	869	879	780	787	913	938	149	88	619	607	1657	1710	651	621	927	966	559	589	1019	1090	576	505	1303	1259	935	919	643	587	629	531	731	752	774	794	820	830	888	874	145	170	712	688	1049	1063	629	594	734	746	228	200	312	289	766	801	142	130	695	713	918	903	293	322	852	857	729	746	704	720	1092	1115	1427	1489
1004	241	133	216	350	771	181	825	481	244	213	745	168	226	207	151	545	666	427	883	262	193	15	211	360	221	212	399	108	378	279	179	592	244	117	328	389	379	455	256	225	297	150	255	226	391	393	320	295	143	327	721	699	0	40	334	139	571	666	191	299	282	611	610	90	176	260	149	304	257	373	370	176	697	273	530	306	338	179	479	587	723	699	476	134	23	391	299	410	424	690	193	607	387	543	335	412	140	213	167	481	67	103	112	168	159	1015	807	326	270	316	221	659	572	386	414	256	316	504	343	163	300	248	261	270	285	332	302	273	235	257	173	193	153	182	201	229	282	286	179	179	267	241	296	337	476	482	283	268	166	154	229	259	201	212	238	224	623	527	410	446	429	511	492	563	255	239	488	521	666	589	205	219	768	720	865	888	462	440	232	219	331	356	379	416	639	623	345	381	385	328	170	266	266	266	568	495	496	453	360	409	162	173	264	286	232	246	474	420	158	142	371	335	357	388	210	250	156	135	346	321	517	501	338	374	422	375	294	282	253	269	274	221	365	343	256	281	238	256	309	408	649	645	270	312	329	340	697	758	622	615	391	410	234	250	255	278	128	162	508	466	363	422	419	439	85	100	605	592	589	565	102	99	414	434	207	204	261	241	366	386	72	71	146	157	265	253	209	235	197	201	158	165	318	343	672	733	179	191	1037	1090	235	262	368	362	200	230	485	565	488	424	988	1009	323	307	307	326	368	466	78	99	84	105	283	293	329	315	628	604	117	93	524	526	285	250	167	155	607	635	433	456	193	228	641	629	73	91	306	308	565	594	230	233	209	226	184	200	842	865	1077	1139
985	210	171	241	319	752	219	806	506	213	236	726	206	266	176	191	514	691	396	864	264	231	25	236	351	190	181	437	146	400	304	204	617	213	155	309	412	417	424	239	250	322	160	293	251	360	362	343	320	141	296	690	724	40	0	304	164	596	647	229	324	307	580	591	128	145	230	130	329	226	411	339	214	678	243	555	300	363	217	448	556	704	680	492	103	63	360	269	379	405	671	231	632	366	513	305	393	178	183	205	450	107	141	150	137	199	996	788	295	288	354	202	640	597	411	439	281	341	473	368	132	338	286	240	240	323	370	271	242	258	236	198	218	191	220	182	212	251	255	204	204	236	210	265	306	501	507	321	306	147	135	212	242	182	193	219	205	661	552	435	471	452	536	515	588	236	220	513	546	704	614	230	244	793	745	846	869	431	409	205	189	300	325	348	385	664	648	370	406	366	309	195	291	268	284	606	520	521	478	329	378	172	171	233	255	201	227	455	401	139	123	352	316	326	357	235	275	154	133	315	290	487	471	307	343	403	356	319	307	234	238	243	190	334	312	225	250	276	294	334	433	674	670	295	337	354	365	722	783	647	640	360	380	272	288	280	303	153	187	533	491	388	447	388	408	75	97	630	617	614	590	112	124	384	404	189	174	230	210	335	355	97	81	156	147	234	222	190	216	178	182	127	134	287	312	697	758	217	229	1018	1071	260	287	382	343	225	255	455	535	526	449	969	990	292	276	332	351	393	491	116	137	74	95	253	263	356	342	653	629	86	103	494	496	323	288	165	153	632	660	458	481	231	266	666	654	78	60	275	277	590	619	199	204	234	224	209	199	823	846	1058	1120
1137	122	438	296	352	904	418	958	653	311	138	960	473	440	233	401	641	761	523	1139	552	434	319	210	134	288	297	609	413	683	206	230	757	257	397	483	276	616	551	527	202	261	220	549	398	438	489	239	222	192	339	754	871	334	304	0	226	716	799	496	241	258	707	743	370	206	138	421	318	265	609	466	441	830	119	518	118	510	444	575	683	786	832	275	323	328	410	110	506	535	753	487	779	493	250	88	521	445	169	472	554	344	408	417	357	367	1271	1063	422	575	553	460	722	744	382	358	240	402	600	385	352	605	553	142	116	512	559	315	340	160	138	218	238	458	487	470	500	378	418	224	230	225	251	392	360	562	654	588	573	381	393	500	530	440	451	502	493	816	699	582	618	348	435	379	476	519	503	660	693	859	761	250	264	927	879	1134	1157	480	459	157	147	427	452	381	418	798	795	517	518	540	483	373	438	556	571	778	667	668	625	404	428	232	220	272	244	421	461	730	676	397	413	613	566	453	484	382	422	220	241	442	417	224	208	434	470	577	530	270	282	466	429	195	248	461	439	303	278	465	483	481	580	821	817	440	398	415	426	869	930	794	787	109	76	539	555	303	308	291	257	421	390	377	410	438	486	374	396	770	764	761	737	304	302	112	141	180	180	142	162	462	482	311	313	451	446	223	211	478	504	436	465	347	354	276	301	844	905	444	456	1170	1223	280	310	670	631	372	342	192	272	698	596	1244	1278	259	275	356	412	454	552	383	404	373	394	129	126	634	620	800	776	266	289	231	224	522	487	214	204	779	807	605	628	498	533	813	801	298	280	274	266	718	689	419	424	176	192	199	215	1111	1134	1333	1395
1103	189	226	126	406	870	237	924	472	295	88	863	261	259	198	216	607	651	489	1001	355	253	139	86	235	272	274	428	201	471	154	60	583	235	185	413	264	435	517	349	100	175	29	348	217	453	455	195	170	59	389	783	690	139	164	226	0	562	765	284	177	160	673	709	158	121	177	267	182	248	428	432	260	796	165	408	181	329	263	541	649	805	798	351	196	116	453	191	472	501	772	286	598	459	435	227	487	233	144	260	543	132	196	205	230	186	1133	925	388	363	372	333	741	563	272	292	131	232	566	259	225	393	341	136	162	331	378	348	324	110	132	48	68	246	275	319	322	344	348	54	60	258	232	358	393	392	473	376	361	254	266	322	352	313	324	356	342	635	518	401	437	304	389	367	441	373	357	479	512	678	580	80	94	759	711	963	986	524	502	124	136	393	418	435	472	630	614	336	348	470	413	161	257	359	359	597	486	487	444	422	471	41	53	255	277	294	334	592	538	270	271	489	447	419	450	201	241	88	109	408	383	409	393	400	436	507	460	172	160	356	331	222	212	427	405	287	311	284	302	300	399	640	636	261	228	245	256	688	749	613	606	335	302	327	343	133	156	79	45	386	344	241	300	481	501	215	193	596	583	580	556	112	90	306	326	99	110	209	189	428	448	99	115	239	260	256	244	327	353	309	319	220	227	309	334	663	724	263	275	1136	1189	110	140	461	460	191	172	377	457	517	415	1106	1107	331	315	186	242	284	382	171	192	214	234	175	185	422	408	619	595	149	125	416	418	341	306	59	71	598	626	424	447	286	321	632	620	135	153	314	299	556	579	292	297	84	101	59	75	940	963	1195	1257
1535	708	514	447	844	1302	471	1356	130	738	578	1255	693	419	674	460	1039	157	921	1279	737	455	571	564	682	715	706	366	554	745	510	537	66	711	503	845	560	469	949	763	564	455	576	540	377	885	887	535	526	606	821	1215	279	571	596	716	562	0	1197	671	475	484	1105	1141	521	643	674	699	424	724	390	864	500	1228	655	198	629	233	467	973	1081	1237	1230	726	628	548	885	681	904	933	1204	546	210	891	831	710	919	599	674	568	975	536	620	629	662	426	1411	1203	820	729	532	765	1173	111	396	416	528	449	998	399	657	683	631	626	652	491	538	796	767	600	622	565	545	678	707	751	754	776	780	531	537	734	708	790	831	413	305	671	651	686	698	754	778	745	756	788	774	395	278	233	197	600	513	662	565	805	789	215	248	346	238	521	507	263	215	1161	1184	956	934	641	657	825	850	873	910	134	123	298	334	902	845	593	497	741	725	439	318	223	204	854	903	588	600	731	753	726	766	1024	970	702	703	921	879	851	882	441	401	623	602	840	815	805	789	832	868	939	892	496	484	788	763	741	688	859	837	750	775	444	462	460	361	149	165	421	445	435	446	217	278	197	154	825	792	693	709	486	496	551	585	510	468	483	424	913	933	647	625	79	92	117	104	547	522	796	785	620	631	728	708	860	880	531	547	671	692	732	720	759	785	741	751	652	659	785	810	252	313	491	479	1568	1621	523	493	813	852	431	461	836	853	479	377	1349	1305	807	791	515	459	501	403	603	624	646	666	665	675	774	760	200	179	584	560	812	835	501	466	606	618	107	135	184	161	652	687	161	173	567	585	790	775	64	85	724	729	601	618	576	592	1138	1161	1473	1535
392	697	746	842	513	159	794	213	1107	488	803	215	557	842	585	773	158	1292	310	524	553	806	672	825	881	511	519	898	721	599	871	805	1218	553	730	381	979	878	248	528	839	923	754	741	852	408	342	910	887	724	476	319	1325	666	647	799	765	1197	0	578	906	908	231	56	703	678	755	518	930	551	872	363	746	85	783	1156	865	964	792	272	200	281	87	1022	611	668	451	767	393	303	248	716	1233	346	1031	835	318	663	702	690	344	691	626	635	555	798	646	547	387	577	815	462	217	1198	1012	1029	874	942	199	969	560	701	718	807	807	884	931	546	517	825	803	799	819	606	601	526	556	501	516	805	805	626	603	489	530	1102	1108	649	669	565	553	556	543	530	519	458	473	1122	1153	1036	1072	1019	1106	1082	1158	443	459	1114	1147	1165	1215	831	845	1394	1346	681	704	479	500	772	756	442	417	542	579	1265	1249	971	1007	438	495	796	892	557	573	1067	1121	1122	1079	509	516	766	754	584	611	570	575	300	354	557	556	453	496	418	413	836	876	737	721	407	432	1005	989	449	435	381	428	920	908	560	527	730	677	382	404	546	571	837	855	935	1034	1275	1271	896	938	955	966	1323	1384	1248	1241	772	805	605	589	881	904	754	788	1103	1061	989	1048	504	456	625	647	1231	1218	1215	1191	713	725	893	922	762	747	717	697	427	411	698	682	587	566	624	612	510	484	544	523	635	666	621	646	1298	1359	792	804	425	478	861	888	581	577	826	856	973	1053	987	1050	629	673	594	597	933	952	994	1092	655	634	624	603	793	783	570	584	1254	1230	674	698	1012	1005	814	849	748	736	1233	1261	1059	1082	663	632	1267	1255	666	648	596	611	1191	1220	627	632	816	799	798	782	658	681	708	770
916	421	237	348	392	683	270	737	581	311	358	639	23	268	387	261	486	766	404	777	71	282	206	356	505	330	321	324	221	204	424	324	692	372	230	305	534	304	396	92	370	429	299	167	294	408	400	465	440	323	369	673	785	191	229	496	284	671	578	0	431	414	552	522	203	356	440	106	436	370	298	387	203	609	435	644	451	438	268	420	528	635	611	621	289	168	433	461	427	359	602	163	707	364	705	497	389	163	393	190	438	191	126	135	239	277	909	701	343	95	241	170	571	672	486	528	401	416	445	443	234	161	144	406	432	310	357	369	340	380	402	318	338	96	67	114	84	324	284	324	324	445	421	338	379	576	582	109	129	167	155	84	107	178	189	152	137	548	627	510	546	574	625	637	677	169	153	588	621	591	689	350	364	868	820	701	724	479	482	394	399	348	373	421	458	739	723	445	481	362	305	315	398	75	91	493	595	596	553	402	451	311	323	403	430	263	223	386	334	159	150	285	312	374	405	342	350	336	315	363	338	679	663	355	391	357	352	426	414	230	267	454	401	382	360	365	390	263	281	409	508	749	745	370	412	429	440	797	858	722	715	571	572	60	76	387	410	273	307	622	580	495	536	461	456	198	177	705	692	689	665	269	244	576	596	369	380	441	421	383	403	217	233	133	127	443	431	122	148	146	117	313	268	440	465	772	833	268	280	949	1002	380	394	194	203	332	362	647	727	413	515	882	845	432	416	439	426	468	566	155	134	197	176	445	455	155	141	728	704	297	273	686	688	240	275	329	335	707	735	533	556	89	54	741	729	253	271	415	430	665	694	301	234	354	371	329	345	678	701	971	1033
1244	257	242	83	529	1011	205	1065	440	418	103	1023	421	227	321	188	748	520	630	1161	497	221	299	102	207	395	404	396	282	583	35	141	516	358	231	573	146	403	658	509	89	20	180	336	185	594	596	77	51	203	516	924	658	299	324	241	177	475	906	431	0	17	814	850	249	244	199	427	77	371	396	573	228	937	180	277	154	297	231	682	790	946	939	312	356	276	587	206	613	642	913	274	566	600	417	235	628	327	204	296	684	264	348	357	390	154	1293	1085	529	489	340	493	882	524	141	161	53	189	707	144	385	443	391	151	177	299	346	471	447	125	147	169	149	406	435	479	482	485	508	135	141	381	355	499	516	349	441	431	411	414	426	482	512	473	484	516	502	603	486	369	405	186	258	249	310	533	517	422	455	646	548	125	111	686	638	1080	1103	665	636	166	182	534	559	558	595	557	573	304	305	630	573	321	225	501	485	565	454	430	412	563	605	192	204	378	400	454	494	752	698	430	431	649	607	560	591	169	209	232	253	549	524	391	375	541	577	667	620	29	41	516	491	300	335	568	546	410	434	252	270	268	367	599	604	227	185	180	191	656	717	581	567	350	317	453	469	90	67	242	208	255	213	136	169	615	642	375	353	529	542	541	517	275	250	321	310	189	204	277	267	569	589	259	275	399	420	379	367	487	513	469	479	380	387	432	457	631	692	231	243	1277	1330	127	97	573	612	159	129	361	439	485	383	1266	1224	454	438	143	199	241	339	331	352	374	394	190	200	534	520	587	563	301	288	398	421	309	274	203	215	557	585	392	415	412	447	600	588	295	313	437	422	477	448	452	457	141	158	161	177	1057	1080	1355	1417
1246	274	225	66	540	1013	188	1067	423	429	120	1006	404	210	332	171	750	529	632	1144	480	204	282	119	224	406	415	379	265	566	52	124	525	369	214	556	163	386	660	492	106	37	163	319	168	596	598	94	68	193	527	926	641	282	307	258	160	484	908	414	17	0	816	852	232	255	216	410	60	382	379	575	211	939	197	286	171	280	214	684	792	948	941	329	339	259	596	223	615	644	915	257	549	602	434	252	630	310	221	279	686	247	331	340	373	137	1276	1068	531	472	323	476	884	514	150	170	70	172	709	153	368	426	374	168	194	282	329	482	458	142	164	152	132	389	418	462	465	487	491	118	124	392	366	501	527	332	424	414	394	397	409	465	495	456	467	499	485	586	469	352	388	203	267	266	319	516	500	430	463	629	531	108	94	695	647	1063	1086	667	645	183	199	536	561	569	606	566	565	287	288	613	556	304	208	484	468	548	437	438	395	565	614	175	187	389	411	437	477	735	681	413	414	632	590	562	593	152	192	222	243	551	526	408	392	543	579	650	603	12	24	499	474	317	346	570	548	421	445	235	253	251	350	591	587	210	168	185	196	639	700	564	557	367	334	436	452	73	50	225	191	264	222	119	178	624	644	358	336	538	534	531	507	258	233	338	327	206	218	294	284	571	591	242	258	382	403	390	378	470	496	452	462	363	370	443	468	614	675	214	226	1279	1332	110	80	556	595	142	112	378	456	468	366	1249	1207	465	449	126	182	224	322	314	335	357	377	207	217	517	503	570	546	295	271	415	438	292	257	193	205	549	577	375	398	395	430	583	571	278	296	448	433	486	457	435	440	158	175	163	179	1040	1063	1338	1400
569	605	708	750	421	336	756	390	1015	396	711	392	529	798	493	723	73	1200	218	701	527	768	596	733	789	419	427	870	683	606	779	713	1126	461	692	289	887	850	156	502	747	831	662	713	760	316	250	818	795	632	384	309	1233	611	580	707	673	1105	231	552	814	816	0	175	665	586	663	490	838	459	844	271	718	262	691	1064	773	872	754	180	115	271	264	930	519	623	359	675	301	211	238	688	1141	254	939	743	226	635	610	662	252	639	598	607	463	729	823	640	295	551	787	434	207	1106	920	937	782	850	107	877	468	675	690	715	715	856	903	454	425	733	711	707	727	578	573	498	528	409	424	713	713	534	511	397	438	1010	1016	623	643	499	487	528	517	438	427	430	445	1094	1061	944	980	927	1014	990	1066	415	431	1022	1055	1137	1123	739	753	1302	1254	774	797	387	408	680	664	350	325	450	487	1173	1157	879	915	346	403	704	800	531	547	1039	1029	1030	987	417	424	674	662	492	519	478	483	307	361	491	507	361	404	326	321	744	784	645	629	315	340	913	897	357	343	289	336	828	816	468	435	638	585	290	312	454	479	809	827	843	942	1183	1179	804	846	863	874	1231	1292	1156	1149	680	713	579	563	789	812	662	696	1011	969	897	956	412	364	576	598	1139	1126	1123	1099	621	633	801	830	670	655	625	605	335	319	606	590	559	538	532	520	482	456	506	495	543	588	529	554	1206	1267	754	766	602	655	769	796	588	575	734	764	881	961	959	958	806	850	502	505	841	860	902	1000	617	596	575	554	701	691	577	591	1162	1138	582	606	920	913	786	821	656	644	1141	1169	967	990	635	606	1175	1163	574	556	504	519	1099	1128	535	566	724	707	706	690	751	774	885	947
394	641	690	786	457	161	738	215	1051	432	747	217	501	786	529	717	102	1236	254	526	497	750	616	769	825	455	463	842	665	543	815	749	1162	497	674	325	923	822	192	472	783	867	698	685	796	352	286	854	831	668	420	263	1269	610	591	743	709	1141	56	522	850	852	175	0	647	622	699	462	874	495	816	307	690	87	727	1100	809	908	736	216	144	225	89	966	555	612	395	711	337	247	192	660	1177	290	975	779	262	607	646	634	288	635	570	579	499	742	648	549	331	521	759	406	161	1142	956	973	818	886	143	913	504	645	662	751	751	828	875	490	461	769	747	743	763	550	545	470	500	445	460	749	749	570	547	433	474	1046	1052	593	613	509	497	500	487	474	463	402	417	1066	1097	980	1016	963	1050	1026	1102	387	403	1058	1091	1109	1159	775	789	1338	1290	683	706	423	444	716	700	386	361	486	523	1209	1193	915	951	382	439	740	836	501	517	1011	1065	1066	1023	453	460	710	698	528	555	514	519	244	298	501	500	397	440	362	357	780	820	681	665	351	376	949	933	393	379	325	372	864	852	504	471	674	621	326	348	490	515	781	799	879	978	1219	1215	840	882	899	910	1267	1328	1192	1185	716	749	549	533	825	848	698	732	1047	1005	933	992	448	400	569	591	1175	1162	1159	1135	657	669	837	866	706	691	661	641	371	355	642	626	531	510	568	556	454	428	488	467	579	610	565	590	1242	1303	736	748	427	480	805	832	525	521	770	800	917	997	931	994	631	675	538	541	877	896	938	1036	599	578	568	547	737	727	514	528	1198	1174	618	642	956	949	758	793	692	680	1177	1205	1003	1026	607	576	1211	1199	610	592	540	555	1135	1164	571	576	760	743	742	726	660	683	710	772
1041	295	68	166	404	808	116	862	431	298	232	782	180	162	261	70	599	616	481	920	274	128	105	230	379	275	266	334	43	390	284	198	542	298	27	376	395	314	509	268	244	247	173	209	176	445	447	326	300	197	381	775	649	90	128	370	158	521	703	203	249	232	665	647	0	230	314	186	254	311	308	424	111	734	309	480	325	288	114	533	641	760	736	495	188	67	445	335	464	472	727	147	557	435	579	371	460	152	267	169	535	26	115	124	222	95	1052	844	380	282	251	269	696	522	336	364	269	266	558	293	217	312	260	280	306	220	267	356	327	254	276	192	212	165	194	238	241	336	340	198	198	321	295	350	391	426	432	295	280	214	202	241	271	249	260	275	261	558	477	360	396	435	461	498	513	292	276	438	471	601	539	224	226	718	670	882	905	516	494	268	273	385	410	433	470	589	573	295	331	433	376	189	216	278	278	503	445	446	403	414	463	185	197	318	340	286	294	511	457	206	190	408	383	411	442	160	200	210	189	400	375	553	537	392	428	470	423	244	232	301	323	328	275	419	397	310	335	173	191	259	358	599	595	220	262	279	290	647	708	572	565	445	446	246	262	205	228	147	181	458	416	313	372	473	493	134	112	555	542	539	515	143	118	450	470	243	254	315	295	420	440	91	107	158	179	319	307	246	272	245	238	212	219	372	397	622	683	114	126	1074	1127	242	212	380	379	150	180	521	601	423	374	1025	1026	377	361	257	276	318	416	90	111	133	153	319	329	341	327	578	554	171	147	560	562	220	185	203	209	557	585	383	406	205	240	591	579	127	145	360	362	515	544	284	281	228	245	203	219	859	882	1114	1176
1016	84	298	221	301	783	318	837	553	190	141	839	333	340	93	288	520	738	402	980	393	334	161	163	256	167	176	509	273	529	209	155	664	130	257	362	317	516	430	368	177	264	92	420	298	366	368	248	225	62	288	696	771	176	145	206	121	643	678	356	244	255	586	622	230	0	135	262	277	143	509	345	341	709	148	503	205	410	344	454	562	718	711	397	164	188	359	174	385	414	685	358	679	372	418	210	400	305	40	332	456	204	268	277	198	267	1112	904	301	417	453	301	654	644	367	367	212	327	479	354	193	465	413	145	145	412	459	243	219	163	141	143	163	318	347	311	341	257	297	149	155	153	127	271	288	487	554	448	433	222	234	341	371	281	292	343	334	716	599	482	518	357	444	420	496	360	344	560	593	759	661	175	189	840	792	975	998	437	408	110	94	306	331	330	367	711	695	417	443	419	362	242	338	397	413	678	567	568	525	335	377	104	92	150	172	262	302	571	517	238	254	462	415	332	363	282	322	75	96	321	296	392	376	313	349	456	409	267	255	324	299	117	107	340	318	182	206	365	383	381	480	721	717	342	323	340	351	769	830	694	687	240	273	399	415	228	251	186	152	441	399	336	395	387	414	215	237	677	664	661	637	146	171	289	309	100	85	104	84	341	361	171	155	296	287	151	139	319	345	277	306	188	195	204	229	744	805	344	356	1049	1102	205	235	511	472	272	267	360	440	598	496	1085	1119	226	210	281	337	379	477	243	264	214	235	158	168	485	471	700	676	107	131	399	401	422	387	86	74	679	707	505	528	358	393	713	701	139	121	209	194	637	666	260	265	154	137	136	120	952	975	1174	1236
1093	58	382	254	363	860	376	914	611	267	96	916	417	398	170	359	597	719	479	1065	478	392	245	168	185	244	253	567	357	614	164	188	715	207	341	439	272	574	507	453	160	219	148	504	356	443	445	203	180	118	350	773	829	260	230	138	177	674	755	440	199	216	663	699	314	135	0	347	276	220	567	422	399	786	77	476	134	468	402	531	639	795	788	326	249	272	421	103	462	491	762	442	737	449	347	139	477	389	95	416	533	288	352	361	283	325	1197	989	378	502	511	386	731	702	340	322	198	360	556	343	278	549	497	100	74	470	517	305	296	118	96	176	196	402	431	396	426	334	374	182	188	215	204	348	350	520	612	532	517	307	319	426	456	366	377	428	419	774	657	540	576	312	399	375	451	445	429	618	651	817	719	208	222	885	837	1060	1083	503	470	89	73	383	408	392	429	756	753	475	476	496	439	324	396	482	498	736	625	626	583	412	439	160	148	227	234	347	387	656	602	323	339	547	500	409	440	340	380	146	167	398	373	321	305	390	426	533	486	228	240	409	384	131	184	417	395	259	268	423	441	439	538	779	775	398	356	373	384	827	888	752	745	214	214	483	499	261	266	242	208	396	354	335	368	449	491	300	322	728	722	719	695	230	253	218	238	112	106	78	98	418	438	255	239	381	372	213	201	404	430	362	391	273	280	266	291	802	863	402	414	1126	1179	238	268	596	557	330	300	289	369	656	554	1170	1204	288	272	314	370	412	510	327	348	299	320	87	97	570	556	758	734	192	215	328	330	480	445	142	130	737	765	563	586	442	477	771	759	224	206	271	256	676	647	345	350	134	124	157	150	1037	1060	1259	1321
856	327	229	344	318	623	277	677	609	237	341	597	83	324	293	256	424	794	342	735	134	289	155	339	468	256	247	380	204	270	407	307	720	298	213	231	517	360	334	109	353	425	282	223	350	334	326	448	423	258	295	613	827	149	130	421	267	699	518	106	427	410	490	462	186	262	347	0	432	296	354	313	229	549	360	658	417	466	275	358	466	575	551	604	191	151	359	386	353	297	542	199	735	290	630	422	315	146	300	173	376	174	109	118	141	281	867	659	269	158	297	106	511	700	514	542	384	444	383	471	136	252	200	357	357	366	413	295	266	363	353	301	321	88	117	52	82	250	210	307	307	353	327	264	305	604	610	215	220	69	57	82	112	104	115	90	75	604	655	538	574	557	639	620	691	107	91	616	649	647	717	333	347	896	848	716	739	405	408	322	306	274	299	347	384	767	751	473	509	288	231	298	394	138	154	549	623	624	581	328	377	294	288	329	356	189	149	326	272	61	45	223	238	300	331	338	378	271	250	289	264	604	588	281	317	295	278	422	410	156	193	360	307	308	286	291	316	319	337	437	536	777	773	398	440	457	468	825	886	750	743	477	497	166	170	383	406	256	290	636	594	491	550	387	382	108	130	733	720	717	693	242	227	501	521	306	291	347	327	309	329	200	211	70	49	351	339	60	86	82	53	215	170	366	391	800	861	275	287	889	942	363	390	252	213	328	358	572	652	469	552	840	860	358	342	435	454	496	594	138	117	107	86	370	380	226	212	756	732	203	227	611	613	296	331	282	270	735	763	561	584	145	160	769	757	195	177	341	356	693	722	203	136	337	341	312	316	693	716	929	991
1268	334	247	88	562	1035	210	1089	445	451	180	1028	426	232	354	193	772	469	654	1166	502	226	304	173	284	428	437	401	287	588	112	146	465	391	236	578	223	408	682	514	166	75	185	341	190	618	620	154	128	215	549	948	661	304	329	318	182	424	930	436	77	60	838	874	254	277	276	432	0	404	401	597	233	961	257	226	231	302	236	706	814	970	963	389	361	281	618	283	637	666	937	279	571	624	494	312	652	332	281	301	708	269	353	362	395	159	1298	1090	553	494	345	498	906	473	90	110	130	154	731	93	390	448	396	228	254	304	351	504	480	202	224	174	154	411	440	484	487	509	513	140	146	414	388	523	549	354	446	436	416	419	431	487	517	478	489	521	507	608	491	374	410	263	207	326	259	538	522	371	404	651	553	130	116	635	587	1085	1108	689	667	243	259	558	583	591	628	506	522	309	310	635	578	326	230	506	490	570	459	379	417	587	636	197	209	411	433	459	499	757	703	435	436	654	612	584	615	174	214	244	265	573	548	468	452	565	601	672	625	72	60	521	496	377	368	592	570	443	467	257	275	273	372	548	564	232	190	129	140	616	677	559	516	427	394	458	474	95	72	247	213	204	162	59	118	646	666	380	358	478	491	490	466	280	255	398	387	229	240	354	344	593	613	264	280	404	425	412	400	492	518	474	484	385	392	465	490	634	695	236	248	1301	1354	132	102	578	617	164	134	438	516	490	388	1271	1229	487	471	148	204	246	344	336	357	379	399	267	277	539	525	566	541	317	293	475	498	314	279	215	227	506	534	397	420	417	452	560	567	300	318	470	455	426	397	457	462	210	227	185	201	1062	1085	1360	1422
889	162	379	348	175	656	399	710	634	63	268	712	347	421	50	369	393	819	275	949	398	415	242	290	347	40	49	590	354	534	336	282	745	18	338	235	444	597	303	373	304	391	219	500	379	239	241	375	352	189	162	569	852	257	226	265	248	724	551	370	371	382	459	495	311	143	220	296	404	0	590	218	422	582	249	630	331	491	425	327	435	591	584	488	169	269	233	233	258	287	558	439	760	245	509	301	273	386	167	413	329	285	349	358	160	348	1081	873	174	422	534	306	527	725	494	494	339	454	352	481	165	529	477	272	272	493	540	117	92	290	268	270	290	370	391	316	346	130	170	276	282	92	68	144	162	614	635	479	497	256	263	346	376	214	207	348	339	797	680	563	599	484	571	547	623	365	349	641	674	840	742	302	316	921	873	980	1003	310	282	237	221	179	204	204	241	792	776	498	534	292	235	323	419	402	418	759	648	649	606	208	251	231	219	49	77	187	227	540	486	267	283	365	318	205	236	363	403	202	193	194	169	483	467	186	222	329	282	394	382	218	181	195	142	213	191	55	80	446	464	462	561	802	798	423	450	467	478	850	911	775	768	259	292	430	434	355	378	278	279	568	526	463	522	261	287	296	318	758	745	742	718	227	252	377	400	227	212	182	162	214	234	252	236	344	323	90	78	324	350	282	311	193	238	130	155	825	886	425	437	922	975	332	362	516	477	353	383	451	531	679	577	1054	1098	122	106	408	464	506	604	324	345	295	316	259	249	490	476	781	757	188	212	490	489	503	468	213	201	760	788	586	609	422	424	794	782	220	202	105	120	718	747	232	299	281	264	263	247	957	980	1143	1205
1210	574	273	313	653	977	220	1031	293	572	471	896	321	186	540	255	778	485	692	977	364	208	388	430	603	581	572	26	313	386	431	403	411	577	283	566	542	79	688	390	444	394	442	167	212	669	661	473	447	472	630	967	487	373	411	609	428	390	872	298	396	379	844	816	308	509	567	354	401	590	0	648	239	903	548	382	550	157	194	712	820	929	905	708	494	350	694	574	688	651	896	199	419	625	813	610	650	262	540	231	730	334	283	292	476	271	1109	901	604	356	159	446	865	391	403	445	416	333	737	360	471	310	258	519	545	228	275	630	601	493	515	431	411	325	354	406	382	585	545	397	403	600	574	599	640	300	301	298	278	404	392	382	405	439	450	444	429	250	346	229	265	582	542	645	594	461	445	307	340	293	401	387	373	587	539	859	882	740	743	511	527	609	634	682	719	458	442	164	200	623	566	459	363	368	352	195	314	315	272	663	712	454	466	597	619	524	484	680	626	396	380	577	573	635	666	307	267	489	468	624	599	787	771	616	652	649	613	391	379	491	528	607	554	643	621	616	641	181	199	326	227	468	457	287	329	346	357	509	570	434	434	718	685	320	336	352	375	417	451	539	497	460	453	722	717	393	372	424	411	408	384	413	388	689	706	486	497	594	574	644	664	397	413	344	350	598	586	414	440	422	407	518	505	651	676	484	545	218	206	1243	1296	389	359	440	479	297	327	757	835	115	217	1047	1003	673	657	399	343	385	290	350	329	392	371	558	568	401	387	440	416	450	426	794	801	158	193	472	484	426	454	252	275	279	314	453	441	433	451	656	641	384	413	538	471	467	484	442	458	836	859	1171	1233
701	364	492	509	180	468	517	522	774	155	470	524	364	557	252	482	205	959	87	833	415	533	355	492	548	178	186	674	467	523	538	472	885	220	451	90	646	654	115	390	506	590	421	517	519	71	53	577	554	391	143	351	992	370	339	466	432	864	363	387	573	575	271	307	424	345	422	313	597	218	648	0	513	394	450	823	532	631	538	139	247	381	396	689	278	382	114	434	40	116	348	483	900	57	698	502	85	430	369	457	115	398	393	402	222	488	955	760	54	439	591	323	317	865	679	696	541	609	164	636	227	546	494	474	474	633	680	213	184	492	470	466	486	387	408	333	363	168	183	472	472	293	270	156	197	769	775	496	514	292	280	363	393	231	220	321	336	898	820	703	739	686	773	749	825	306	322	781	814	941	882	498	512	1061	1013	894	917	142	163	439	423	109	84	209	246	932	916	638	674	147	198	463	559	419	435	843	788	789	746	176	179	433	421	251	278	237	259	427	373	284	300	252	205	85	80	503	543	404	388	74	99	672	656	116	102	184	137	587	575	231	194	397	344	49	71	213	238	586	604	602	701	942	938	563	605	622	633	990	1051	915	908	439	472	447	451	548	571	421	455	770	728	656	715	167	119	369	391	898	885	882	858	380	392	560	589	429	414	384	364	94	78	365	349	361	340	291	279	341	347	299	328	302	347	288	313	965	1026	538	550	734	787	528	555	505	466	493	523	640	720	763	717	938	982	261	264	600	619	661	759	410	389	368	347	460	450	494	493	921	897	341	365	679	672	590	608	415	403	900	928	726	749	439	441	934	922	333	315	263	278	858	887	294	359	483	466	465	449	871	894	1017	1079
1084	406	48	145	515	851	67	905	410	409	303	825	223	124	372	58	652	595	557	963	269	79	191	262	435	386	377	265	98	355	263	235	521	409	86	431	374	245	562	295	276	226	274	108	155	534	526	305	279	304	492	841	628	176	214	441	260	500	746	203	228	211	718	690	111	341	399	229	233	422	239	513	0	777	380	459	382	267	65	586	694	803	779	540	299	153	556	406	553	525	770	46	536	490	645	442	515	99	372	68	604	137	120	129	333	74	1095	887	469	261	182	318	739	501	315	343	248	245	611	272	328	215	163	351	377	171	218	467	438	325	347	263	243	208	237	281	284	447	410	229	235	432	406	461	502	405	411	203	183	269	257	284	310	304	315	318	304	489	456	339	375	414	440	477	492	335	319	417	450	532	518	219	205	697	649	852	875	605	605	343	359	474	499	544	581	568	552	274	310	488	431	291	195	273	257	434	424	425	382	525	574	286	298	429	451	389	349	554	500	261	245	451	438	500	531	139	179	321	300	489	464	619	603	481	517	523	478	223	211	356	393	439	386	508	486	421	446	124	142	238	337	578	574	199	241	258	269	626	687	551	544	550	517	225	241	184	207	249	283	437	395	292	351	584	582	220	198	534	521	518	494	245	220	521	538	318	329	426	406	509	529	202	218	201	222	430	418	289	315	294	281	323	330	483	508	601	662	65	77	1117	1170	221	191	345	384	129	159	589	667	354	353	1040	996	488	472	236	255	297	395	176	166	219	208	390	400	306	292	557	533	282	258	626	633	171	136	304	316	536	564	362	385	184	219	570	558	238	256	471	473	494	523	395	336	299	316	274	290	829	852	1157	1219
367	728	777	873	544	134	825	188	1138	519	834	190	588	873	616	804	189	1323	341	499	584	837	703	856	912	542	550	929	752	630	902	836	1249	584	761	412	1010	909	279	559	870	954	785	772	883	439	373	941	918	755	507	350	1356	697	678	830	796	1228	85	609	937	939	262	87	734	709	786	549	961	582	903	394	777	0	814	1187	896	995	823	303	231	312	62	1053	642	699	482	798	424	334	279	747	1264	377	1062	866	349	694	733	721	375	722	657	666	586	829	621	522	418	608	846	493	248	1229	1043	1060	905	973	230	1000	591	732	749	838	838	915	962	577	548	856	834	830	850	637	632	557	587	532	547	836	836	657	634	520	561	1133	1139	680	700	596	584	587	574	561	550	489	504	1153	1184	1067	1103	1050	1137	1113	1189	474	490	1145	1178	1196	1246	862	876	1425	1377	656	679	510	531	803	787	473	448	573	610	1296	1280	1002	1038	469	526	827	923	588	604	1098	1152	1153	1110	540	547	797	785	615	642	601	606	331	385	588	587	484	527	449	444	867	907	768	752	438	463	1036	1020	480	466	412	459	951	939	591	558	761	708	413	435	577	602	868	886	966	1065	1306	1302	927	969	986	997	1354	1415	1279	1272	803	836	636	620	912	935	785	819	1134	1092	1020	1079	535	487	656	678	1262	1249	1246	1222	744	756	924	953	793	778	748	728	458	442	729	713	618	597	655	643	541	515	575	554	666	697	652	677	1329	1390	823	835	400	453	892	919	612	608	857	887	1004	1084	1018	1081	604	648	625	628	964	983	1025	1123	686	665	655	634	824	814	601	615	1285	1261	705	729	1043	1036	845	880	779	767	1264	1292	1090	1113	694	663	1298	1286	697	679	627	642	1222	1251	658	663	847	830	829	813	633	656	683	745
1121	106	377	235	357	888	357	942	592	295	77	940	412	379	217	340	625	700	507	1078	491	373	258	149	166	272	281	548	352	622	145	169	696	241	336	467	253	555	535	466	141	200	159	488	337	443	473	184	161	131	344	795	810	273	243	119	165	655	783	435	180	197	691	727	309	148	77	360	257	249	548	450	380	814	0	457	115	449	383	559	667	823	816	307	262	267	415	26	490	519	790	426	718	477	328	120	505	384	108	411	559	283	347	356	296	306	1210	1002	406	514	492	399	759	683	321	303	179	341	584	324	291	544	492	81	55	451	498	299	324	99	77	157	177	397	426	409	439	362	402	163	169	209	235	376	344	501	593	527	512	320	332	439	469	379	390	441	432	755	638	521	557	293	380	356	432	458	442	599	632	798	700	189	203	866	818	1073	1096	497	464	96	86	411	436	386	423	737	734	456	457	524	467	312	377	495	510	717	606	607	564	409	433	171	159	256	228	360	400	669	615	336	352	560	513	437	468	321	361	159	180	426	401	302	286	418	454	561	514	209	221	422	397	179	232	445	423	287	262	404	422	420	519	760	756	379	337	354	365	808	869	733	726	208	195	478	494	242	247	230	196	377	335	316	349	443	491	313	335	709	703	700	676	243	241	199	219	119	119	126	146	446	466	250	252	390	385	207	195	417	443	375	404	286	293	260	285	783	844	383	395	1154	1207	219	249	609	570	311	281	270	350	637	535	1183	1217	282	266	295	351	393	491	322	343	312	333	10	20	573	559	739	715	205	228	309	311	461	426	153	143	718	746	544	567	437	472	752	740	237	219	265	250	657	628	358	363	115	131	138	154	1050	1073	1272	1334
1494	534	473	314	788	1261	436	1315	224	677	380	1247	652	392	580	419	998	243	880	1271	710	428	530	379	484	654	663	358	513	737	312	372	239	617	462	804	362	461	908	736	366	257	411	513	350	844	846	337	328	441	775	1174	435	530	555	518	408	198	1156	644	277	286	1064	1100	480	503	476	658	226	630	382	823	459	1187	457	0	431	225	440	932	1040	1196	1189	528	587	507	844	483	863	892	1163	505	346	850	633	512	878	558	481	527	934	495	579	588	621	385	1403	1195	779	702	505	724	1132	247	198	218	330	262	957	201	616	656	604	428	454	464	511	730	706	402	424	400	380	637	666	710	713	735	739	366	372	640	614	749	775	405	297	644	624	645	657	713	743	704	715	747	733	387	270	225	189	402	315	464	367	764	748	145	178	430	332	356	342	409	361	1153	1176	915	893	443	459	784	809	817	854	280	296	290	326	861	804	552	456	714	698	431	310	153	196	813	862	423	435	637	659	685	725	983	929	661	662	880	838	810	841	400	374	470	491	799	774	607	591	791	827	898	851	298	286	747	722	577	594	818	796	669	693	417	435	433	353	322	338	358	316	237	248	390	451	333	290	627	594	666	682	321	298	473	439	312	270	285	226	872	892	606	584	252	265	264	240	506	481	598	587	455	466	554	544	819	839	490	506	630	651	638	626	718	744	700	710	611	618	691	716	408	469	462	452	1527	1580	358	328	786	825	390	360	638	655	471	369	1341	1297	713	697	374	330	372	395	562	583	605	625	467	477	747	733	340	315	543	519	614	637	474	439	441	453	280	308	176	199	625	660	334	341	526	544	696	681	200	171	683	688	418	435	411	427	1130	1153	1465	1527
1203	188	393	237	439	970	359	1024	594	377	93	997	428	381	282	342	707	674	589	1135	522	375	306	129	58	354	363	550	368	638	119	185	670	319	352	536	158	557	617	516	115	174	184	490	339	525	555	151	134	188	426	872	812	306	300	118	181	629	865	451	154	171	773	809	325	205	134	417	231	331	550	532	382	896	115	431	0	451	385	641	749	904	898	199	319	283	497	141	572	601	871	428	720	559	270	81	587	400	165	427	641	299	363	372	353	308	1267	1059	488	530	494	456	840	678	295	270	153	343	666	298	348	560	508	138	112	453	500	381	406	115	134	173	193	413	442	466	489	444	471	179	185	291	316	458	426	503	595	543	528	377	389	489	519	436	447	498	489	757	640	523	559	260	347	261	358	515	499	576	609	800	702	200	214	840	792	1130	1153	579	546	153	143	493	518	468	505	711	727	458	459	593	536	328	379	526	526	719	608	584	566	491	515	196	202	338	310	417	457	726	672	393	409	617	570	519	550	323	363	216	237	508	483	244	228	500	536	630	583	183	195	479	454	261	296	527	505	369	344	406	424	422	521	753	758	381	339	334	345	810	871	735	721	227	194	494	510	244	221	246	212	303	302	290	323	525	573	370	360	683	696	695	671	279	257	190	161	176	176	208	228	528	548	266	282	406	427	289	277	474	500	432	461	343	350	342	367	785	846	385	397	1236	1289	230	251	628	627	313	283	212	292	639	537	1240	1274	364	348	297	353	395	493	338	359	369	390	125	135	589	575	741	717	262	285	251	274	463	428	196	200	711	739	546	569	453	488	754	742	294	276	347	332	631	602	415	420	131	148	154	170	1107	1130	1329	1391
1302	475	281	214	611	1069	238	1123	143	505	372	1027	460	186	441	227	806	328	688	1108	504	222	338	331	504	482	473	157	321	517	332	304	254	478	270	612	443	236	716	530	345	295	343	307	144	652	654	374	348	373	588	982	361	338	363	510	329	233	964	438	297	280	872	908	288	410	468	466	302	491	157	631	267	995	449	225	451	0	234	740	848	1004	997	609	395	315	652	475	671	700	971	313	269	658	714	511	686	366	441	335	742	303	387	396	429	193	1240	1032	587	496	299	532	940	234	304	346	317	234	765	261	424	450	398	420	446	258	305	563	534	394	416	332	312	445	474	518	521	543	547	298	304	501	475	557	598	201	144	438	418	453	465	521	545	512	523	555	541	306	189	72	108	483	443	546	495	572	556	150	183	349	251	288	274	430	382	990	1013	723	701	412	428	592	617	640	677	301	285	65	101	669	612	360	264	508	492	278	157	158	115	621	670	355	367	498	520	493	533	791	737	469	470	688	646	618	649	208	168	390	369	607	582	688	672	599	635	706	659	292	280	555	530	508	455	626	604	517	542	211	229	227	128	311	307	188	230	247	258	359	420	284	277	619	586	460	476	253	276	318	352	440	398	361	354	680	700	414	392	267	254	251	227	314	289	590	607	387	398	495	475	627	647	298	314	438	459	499	487	526	552	508	518	419	426	552	577	334	395	258	246	1335	1388	290	260	580	619	198	228	658	736	246	144	1178	1134	574	558	300	244	286	191	370	391	413	433	459	469	541	527	290	266	351	327	695	702	268	233	373	385	269	297	95	118	419	454	303	291	334	352	557	542	227	256	491	496	368	385	343	359	967	990	1302	1364
1130	409	79	148	518	897	26	951	377	412	306	871	269	59	375	61	688	562	591	1009	334	14	194	265	438	389	380	220	119	410	266	238	488	412	89	465	377	200	598	357	279	229	277	145	90	559	560	308	282	307	495	887	595	179	217	444	263	467	792	268	231	214	754	736	114	344	402	275	236	425	194	538	65	823	383	440	385	234	0	622	730	849	825	543	302	156	559	409	578	561	816	111	503	524	648	445	549	164	375	133	640	140	185	194	336	77	1141	933	494	326	137	358	785	468	282	324	251	212	647	239	331	280	228	354	380	106	153	470	441	328	350	266	246	254	283	327	330	450	444	232	238	435	409	464	505	372	378	268	248	303	291	330	360	338	349	364	350	444	423	306	342	417	421	480	473	381	365	384	417	487	485	222	208	664	616	917	940	630	608	346	362	499	524	547	584	535	519	241	277	522	465	294	198	338	322	389	391	392	349	528	577	289	301	432	454	400	383	600	546	295	279	497	472	525	556	142	146	324	303	514	489	622	606	506	542	559	512	226	214	390	427	442	389	533	511	424	449	59	77	205	304	545	541	166	208	225	236	593	654	518	511	553	520	290	306	187	210	252	286	418	376	295	332	587	607	223	201	501	488	485	461	248	223	524	541	321	332	429	409	534	554	205	221	247	268	433	421	335	361	334	327	326	333	486	511	568	629	24	12	1163	1216	224	194	410	449	132	162	592	670	309	320	1105	1061	491	475	239	222	264	362	179	200	222	242	393	403	371	357	524	500	285	261	629	636	106	71	307	319	503	531	329	352	249	284	537	525	241	259	474	476	461	490	398	370	302	319	277	293	894	917	1203	1265
610	473	576	618	289	377	624	431	883	264	579	433	397	666	361	591	114	1068	86	742	395	636	464	601	657	287	295	738	551	500	647	581	994	329	560	157	755	718	24	370	615	699	530	581	628	184	118	686	663	500	252	350	1101	479	448	575	541	973	272	420	682	684	180	216	533	454	531	358	706	327	712	139	586	303	559	932	641	740	622	0	156	312	305	798	387	491	227	543	169	79	279	556	1009	122	807	611	94	503	478	530	120	507	466	475	331	597	864	681	163	419	655	302	248	974	788	805	650	718	73	745	336	543	558	583	583	724	771	322	293	601	579	575	595	446	441	366	396	277	292	581	581	402	379	265	306	878	884	491	511	367	355	396	385	306	295	298	313	962	929	812	848	795	882	858	934	283	299	890	923	1005	991	607	621	1170	1122	815	838	255	276	548	532	218	193	318	355	1041	1025	747	783	214	271	572	668	399	415	907	897	898	855	285	292	542	530	360	387	346	351	348	350	359	375	229	272	194	189	612	652	513	497	183	208	781	765	225	211	157	204	696	684	336	303	506	453	158	180	322	347	677	695	711	810	1051	1047	672	714	731	742	1099	1160	1024	1017	548	581	447	431	657	680	530	564	879	837	765	824	280	232	444	466	1007	994	991	967	489	501	669	698	538	523	493	473	203	187	474	458	427	406	400	388	350	324	374	363	411	456	397	422	1074	1135	622	634	643	696	637	664	482	443	602	632	749	829	827	826	847	891	370	373	709	728	770	868	485	464	443	422	569	559	471	473	1030	1006	450	474	788	781	654	689	524	512	1009	1037	835	858	503	474	1043	1031	442	424	372	387	967	996	403	434	592	575	574	558	792	815	926	988
538	581	684	726	397	305	732	359	991	372	687	361	505	774	469	699	42	1176	194	670	503	744	572	709	765	395	403	846	659	575	755	689	1102	437	668	265	863	826	132	478	723	807	638	689	736	292	226	794	771	608	360	224	1209	587	556	683	649	1081	200	528	790	792	115	144	641	562	639	466	814	435	820	247	694	231	667	1040	749	848	730	156	0	186	233	906	495	599	335	651	277	187	153	664	1117	230	915	719	202	611	586	638	228	615	574	583	439	705	792	609	271	527	763	410	122	1082	896	913	758	826	83	853	444	651	666	691	691	832	879	430	401	709	687	683	703	554	549	474	504	385	400	689	689	510	487	373	414	986	992	599	619	475	463	504	493	414	403	406	421	1070	1037	920	956	903	990	966	1042	391	407	998	1031	1113	1099	715	729	1278	1230	743	766	363	384	656	640	326	301	426	463	1149	1133	855	891	322	379	680	776	507	523	1015	1005	1006	963	393	400	650	638	468	495	454	459	276	330	467	483	337	380	302	297	720	760	621	605	291	316	889	873	333	319	265	312	804	792	444	411	614	561	266	288	430	455	785	803	819	918	1159	1155	780	822	839	850	1207	1268	1132	1125	656	689	555	539	765	788	638	672	987	945	873	932	388	340	552	574	1115	1102	1099	1075	597	609	777	806	646	631	601	581	311	295	582	566	535	514	508	496	458	432	482	471	519	564	505	530	1182	1243	730	742	571	624	745	772	557	551	710	740	857	937	935	934	775	819	478	481	817	836	878	976	593	572	551	530	677	667	546	560	1138	1114	558	582	896	889	762	797	632	620	1117	1145	943	966	611	582	1151	1139	550	532	480	495	1075	1104	511	542	700	683	682	666	720	743	854	916
619	737	803	882	518	386	851	440	1147	528	843	442	614	899	625	830	198	1332	342	751	610	863	728	865	920	551	559	955	778	656	911	845	1258	593	787	421	1019	935	288	585	879	963	794	798	892	399	382	950	927	764	481	166	1365	723	704	786	805	1237	281	635	946	948	271	225	760	718	795	575	970	591	929	381	803	312	823	1196	904	1004	849	312	186	0	314	1061	651	725	410	807	341	343	75	773	1273	386	1002	874	358	720	742	747	314	748	683	692	595	855	873	690	427	634	872	519	64	1238	1052	1069	914	982	239	1009	600	758	775	847	847	941	988	584	557	865	843	839	859	663	658	583	613	541	556	845	845	666	643	529	563	1142	1148	706	726	622	610	613	600	570	559	515	530	1179	1193	1076	1112	1059	1146	1122	1198	500	516	1154	1187	1222	1255	871	885	1434	1386	824	847	430	459	812	796	482	457	547	584	1305	1289	1011	1047	478	535	836	932	614	630	1124	1161	1162	1119	539	490	806	794	624	651	610	615	357	411	614	613	493	536	458	445	876	916	777	761	447	472	976	960	489	475	421	468	960	948	600	567	770	717	422	444	586	611	894	912	975	1074	1315	1311	936	978	995	1006	1363	1424	1288	1281	743	776	662	646	921	944	794	828	1143	1101	1029	1088	478	447	682	704	1271	1258	1255	1231	753	765	864	893	802	787	757	737	467	443	738	722	644	623	658	652	567	541	601	580	675	720	631	656	1338	1399	849	861	652	705	901	928	638	634	866	896	944	1024	1044	1090	856	900	591	607	973	992	1034	1132	712	691	681	660	833	823	627	641	1294	1270	714	738	983	976	871	906	788	776	1273	1301	1099	1122	720	689	1307	1295	706	688	606	621	1231	1260	667	689	856	839	838	822	801	824	935	997
369	730	779	875	546	136	827	190	1140	521	836	192	590	875	618	806	191	1325	343	501	586	839	705	858	914	544	552	931	754	632	904	838	1251	586	763	414	1012	911	281	561	872	956	787	774	885	441	375	943	920	757	509	352	1358	699	680	832	798	1230	87	611	939	941	264	89	736	711	788	551	963	584	905	396	779	62	816	1189	898	997	825	305	233	314	0	1055	644	701	484	800	426	336	281	749	1266	379	1064	868	351	696	735	723	377	724	659	668	588	831	623	524	420	610	848	495	250	1231	1045	1062	907	975	232	1002	593	734	751	840	840	917	964	579	550	858	836	832	852	639	634	559	589	534	549	838	838	659	636	522	563	1135	1141	682	702	598	586	589	576	563	552	491	506	1155	1186	1069	1105	1052	1139	1115	1191	476	492	1147	1180	1198	1248	864	878	1427	1379	658	681	512	533	805	789	475	450	575	612	1298	1282	1004	1040	471	528	829	925	590	606	1100	1154	1155	1112	542	549	799	787	617	644	603	608	333	387	590	589	486	529	451	446	869	909	770	754	440	465	1038	1022	482	468	414	461	953	941	593	560	763	710	415	437	579	604	870	888	968	1067	1308	1304	929	971	988	999	1356	1417	1281	1274	805	838	638	622	914	937	787	821	1136	1094	1022	1081	537	489	658	680	1264	1251	1248	1224	746	758	926	955	795	780	750	730	460	444	731	715	620	599	657	645	543	517	577	556	668	699	654	679	1331	1392	825	837	402	455	894	921	614	610	859	889	1006	1086	1020	1083	606	650	627	630	966	985	1027	1125	688	667	657	636	826	816	603	617	1287	1263	707	731	1045	1038	847	882	781	769	1266	1294	1092	1115	696	665	1300	1288	699	681	629	644	1224	1253	660	665	849	832	831	815	635	658	685	747
1360	345	554	395	596	1127	517	1181	752	534	263	1183	598	539	456	500	864	771	746	1327	692	533	476	299	141	511	520	708	538	808	277	355	767	480	522	706	166	715	774	686	285	332	354	648	497	682	712	235	261	366	583	1029	963	476	492	275	351	726	1022	621	312	329	930	966	495	397	326	604	389	488	708	689	540	1053	307	528	199	609	543	798	906	1061	1055	0	511	453	654	333	729	758	1028	586	874	716	192	187	744	570	357	597	798	469	533	542	545	466	1459	1251	645	700	652	648	997	775	392	310	311	456	823	395	540	730	678	311	304	611	658	538	563	285	307	343	363	583	612	656	659	601	641	349	355	448	474	615	583	661	753	713	698	569	581	659	689	628	639	690	679	915	798	681	717	300	387	269	366	707	691	673	706	958	860	370	382	937	889	1300	1323	736	703	326	335	650	675	625	662	808	824	616	617	763	706	498	537	696	696	877	766	681	724	648	672	366	372	495	467	609	649	918	864	585	601	809	762	676	707	481	521	395	416	665	640	166	150	657	693	800	753	341	353	671	646	418	471	684	662	526	501	564	582	580	679	850	866	539	497	431	442	918	979	861	818	384	351	664	680	402	379	416	382	311	342	448	420	682	730	552	530	780	793	792	768	449	427	272	243	349	364	365	385	685	705	436	452	576	597	446	434	664	690	624	653	535	542	499	524	936	997	543	555	1393	1446	398	409	798	797	471	441	294	214	797	695	1432	1444	521	505	455	511	553	651	508	529	551	571	317	327	759	745	868	843	454	462	173	196	621	586	366	378	808	836	704	727	623	658	862	869	472	468	504	489	728	699	607	612	301	318	324	340	1277	1300	1521	1583
949	229	256	273	258	716	281	770	538	152	255	766	266	321	195	246	453	723	335	904	317	297	119	261	370	129	120	494	231	453	323	236	649	171	215	259	431	501	363	292	275	354	190	378	283	299	301	362	339	160	235	629	756	134	103	323	196	628	611	289	356	339	519	555	188	164	249	191	361	169	494	278	299	642	262	587	319	395	302	387	495	651	644	511	0	146	299	288	318	347	618	316	664	305	532	324	333	263	202	290	389	162	226	235	76	252	1036	828	234	341	438	225	587	629	443	471	310	373	412	400	71	423	371	259	259	397	444	210	181	277	255	230	250	265	294	235	265	190	194	236	236	244	221	204	245	533	539	398	391	146	158	265	295	167	178	267	258	701	584	467	503	471	558	534	610	284	268	545	578	744	646	262	276	825	777	899	922	370	348	224	208	239	264	287	324	696	680	402	438	316	259	227	323	321	337	663	552	553	510	268	317	202	190	202	229	140	180	495	441	162	178	348	301	265	296	267	307	173	152	254	229	506	490	246	282	353	306	351	339	202	177	262	209	273	251	164	189	350	368	366	465	706	702	327	369	386	397	754	815	679	672	379	399	349	353	312	335	185	219	555	513	420	479	327	347	173	195	662	649	646	622	144	156	403	423	208	193	249	229	274	294	129	113	239	218	242	230	243	269	201	230	66	111	239	264	729	790	302	314	982	1035	292	319	435	396	257	287	474	554	583	481	1009	1043	231	215	364	383	425	523	201	222	172	193	272	282	409	395	685	661	105	129	513	515	407	372	184	172	664	692	490	513	316	343	698	686	97	79	214	229	622	651	138	189	259	243	234	218	876	899	1098	1160
1006	253	110	193	362	773	158	827	458	256	190	747	145	203	219	128	557	643	439	885	239	170	38	188	337	233	224	376	85	355	256	156	569	256	94	341	366	356	467	233	202	274	131	232	203	403	405	297	272	155	339	733	676	23	63	328	116	548	668	168	276	259	623	612	67	188	272	151	281	269	350	382	153	699	267	507	283	315	156	491	599	725	701	453	146	0	403	293	422	437	692	170	584	400	537	329	425	117	225	144	493	44	80	89	180	136	1017	809	338	247	293	234	661	549	363	391	233	293	516	320	175	277	225	238	264	262	309	314	285	212	234	150	170	130	159	203	206	294	298	156	156	279	253	308	349	453	459	260	245	179	167	206	236	214	225	240	226	600	504	387	423	406	488	469	540	257	241	465	498	643	566	182	196	745	697	847	870	474	452	226	231	343	368	391	428	616	600	322	358	398	341	147	243	243	243	545	472	473	430	372	421	143	155	276	298	244	259	476	422	171	155	373	348	369	400	187	227	168	147	358	333	511	495	350	386	435	388	271	259	266	281	286	233	377	355	268	293	215	233	286	385	626	622	247	289	306	317	674	735	599	592	403	404	211	227	232	255	105	139	485	443	340	399	431	451	99	77	582	569	566	542	101	76	408	428	201	212	273	253	378	398	49	65	123	144	277	265	211	237	210	203	170	177	330	355	649	710	156	168	1039	1092	212	239	345	344	177	207	479	559	465	401	990	991	335	319	284	303	345	443	55	76	98	118	277	287	306	292	605	581	129	105	518	520	262	227	161	167	584	612	410	433	170	205	618	606	85	103	318	320	542	571	242	246	186	203	161	177	824	847	1079	1141
789	363	513	530	108	556	538	610	795	174	484	612	410	578	266	503	293	980	172	900	461	554	376	506	513	197	206	720	488	587	552	493	906	235	472	154	655	700	203	436	520	607	435	563	540	43	141	591	568	405	71	380	1013	391	360	410	453	885	451	433	587	596	359	395	445	359	421	359	618	233	694	114	556	482	415	844	497	652	559	227	335	410	484	654	299	403	0	399	116	187	377	529	921	145	626	467	173	476	383	503	144	419	439	448	268	509	1032	824	112	485	637	369	346	886	700	710	555	630	252	657	273	592	540	488	470	654	701	174	203	506	484	486	506	433	454	379	409	189	229	492	493	258	284	177	153	790	796	542	560	338	326	409	439	277	266	385	400	944	841	724	760	700	787	758	839	370	386	802	835	987	903	518	532	1082	1034	958	981	82	49	453	437	168	142	137	174	953	937	659	695	211	245	484	580	465	481	889	809	810	767	129	80	447	435	266	243	283	305	491	437	330	346	316	269	143	112	524	564	418	409	138	158	600	584	175	147	248	201	608	596	277	240	411	358	113	135	228	203	607	625	623	722	963	959	584	626	643	654	1011	1072	936	929	367	400	493	497	569	592	442	476	784	742	677	736	68	91	415	437	919	906	903	879	401	413	488	517	443	428	383	378	139	110	386	370	407	386	254	244	387	411	345	374	323	368	229	254	986	1047	559	571	822	875	548	576	569	530	514	544	568	648	809	738	1005	1049	189	205	621	640	682	780	456	435	414	393	425	415	553	539	942	918	362	386	607	600	636	629	429	417	921	949	747	770	485	487	955	943	354	336	204	219	879	908	340	405	497	480	479	463	935	958	1094	1156
1105	90	403	261	341	872	383	926	618	279	103	928	438	405	201	366	609	726	491	1104	517	399	284	175	192	256	265	574	378	648	171	195	722	225	362	451	279	581	519	492	167	226	185	514	363	427	457	210	187	157	328	779	836	299	269	110	191	681	767	461	206	223	675	711	335	174	103	386	283	233	574	434	406	798	26	483	141	475	409	543	651	807	800	333	288	293	399	0	474	503	774	452	744	461	354	146	489	410	134	437	543	309	373	382	322	332	1236	1028	390	540	518	425	743	709	347	329	205	367	568	350	317	570	518	107	81	477	524	283	308	125	103	183	203	423	452	435	465	346	386	189	195	193	219	360	328	527	619	553	538	346	358	465	495	405	416	467	458	781	664	547	583	319	406	382	458	484	468	625	658	824	726	215	229	892	844	1099	1122	481	448	122	112	395	420	370	407	763	760	482	483	508	451	338	403	521	536	743	632	633	590	393	417	197	185	240	212	386	426	695	641	362	378	581	534	421	452	347	387	185	206	410	385	328	312	402	438	545	498	235	247	434	397	163	216	429	407	271	246	430	448	446	545	786	782	405	363	380	391	834	895	759	752	192	186	504	520	268	273	256	222	403	361	342	375	427	475	339	361	735	729	726	702	269	267	222	245	145	145	110	130	430	450	276	278	416	411	191	179	443	469	401	430	312	319	244	269	809	870	409	421	1138	1191	245	275	635	596	337	307	296	376	663	561	1209	1243	266	250	321	377	419	517	348	369	338	359	36	26	599	585	765	741	231	254	335	334	487	452	179	169	744	772	570	593	463	498	778	766	263	245	249	234	683	654	384	389	141	157	164	180	1076	1099	1298	1360
731	404	532	549	209	498	557	552	814	195	510	554	404	597	292	522	235	999	103	863	455	573	395	532	588	218	226	714	507	563	578	512	925	260	491	130	686	694	145	430	546	630	461	557	559	73	75	617	594	431	172	311	1032	410	379	506	472	904	393	427	613	615	301	337	464	385	462	353	637	258	688	40	553	424	490	863	572	671	578	169	277	341	426	729	318	422	116	474	0	146	308	523	940	97	727	542	125	470	409	497	75	438	433	442	262	528	985	800	94	479	631	363	277	905	719	736	581	649	194	676	267	586	534	514	514	673	720	253	224	532	510	506	526	427	448	373	403	208	223	512	512	333	310	196	237	809	815	536	554	332	320	403	433	271	260	361	376	938	860	743	779	726	813	789	865	346	362	821	854	981	922	538	552	1101	1053	934	957	144	165	479	463	149	124	238	275	972	956	678	714	187	238	503	599	459	475	883	828	829	786	216	181	473	461	291	318	277	299	467	413	324	340	292	245	125	104	543	583	444	428	114	139	701	685	156	139	224	177	627	615	271	234	437	384	89	111	253	278	626	644	642	741	982	978	603	645	662	673	1030	1091	955	948	468	501	487	491	588	611	461	495	810	768	696	755	169	121	409	431	938	925	922	898	420	432	589	618	469	454	424	404	131	102	405	389	401	380	331	319	381	387	339	368	342	387	328	353	1005	1066	578	590	764	817	568	595	545	506	533	563	669	749	803	757	968	1012	290	304	640	659	701	799	450	429	408	387	500	490	534	533	961	937	381	405	708	701	630	648	455	443	940	968	766	789	479	481	974	962	373	355	303	318	898	927	334	399	523	506	505	489	911	934	1047	1109
641	433	515	578	249	408	563	462	843	224	539	464	336	620	321	542	145	1028	63	752	334	575	424	561	617	247	255	677	490	439	607	541	954	289	499	96	715	657	55	309	575	659	490	520	588	144	95	646	623	460	212	355	1061	424	405	535	501	933	303	359	642	644	211	247	472	414	491	297	666	287	651	116	525	334	519	892	601	700	561	79	187	343	336	758	347	437	187	503	146	0	310	495	969	64	767	571	39	442	438	469	97	460	405	414	280	557	884	676	123	358	594	241	279	934	748	765	610	678	104	705	285	482	497	543	543	663	710	282	253	561	539	535	555	385	380	305	335	237	241	541	541	362	339	225	266	838	844	430	450	306	294	335	324	245	234	237	252	901	889	772	808	755	842	818	894	222	238	850	883	944	951	567	581	1130	1082	810	833	215	236	508	492	178	153	278	315	1001	985	707	743	153	210	532	628	338	354	846	857	858	815	245	252	502	490	320	347	295	290	343	289	298	314	168	211	154	149	572	612	473	457	143	168	741	725	185	171	96	143	656	644	275	252	466	413	118	140	282	307	616	634	671	770	1011	1007	632	674	691	702	1059	1120	984	977	508	541	386	370	617	640	490	524	839	797	725	784	240	192	383	405	967	954	951	927	449	461	629	658	498	483	453	433	163	147	434	418	366	345	360	348	289	263	313	302	371	407	357	382	1034	1095	561	573	674	727	597	624	421	382	562	592	709	789	766	786	857	901	330	333	669	688	730	828	424	403	382	361	529	519	410	412	990	966	410	434	748	741	593	628	484	472	969	997	795	818	442	413	1003	991	402	384	332	347	927	956	352	373	552	535	534	518	787	810	946	1008
586	704	770	849	485	353	818	407	1114	495	810	409	581	866	592	797	165	1299	309	718	577	830	695	832	887	518	526	922	745	623	878	812	1225	560	754	388	986	902	255	552	846	930	761	765	859	366	349	917	894	731	448	133	1332	690	671	753	772	1204	248	602	913	915	238	192	727	685	762	542	937	558	896	348	770	279	790	1163	871	971	816	279	153	75	281	1028	618	692	377	774	308	310	0	740	1240	353	969	841	325	687	709	714	281	715	650	659	562	822	840	657	394	601	839	486	31	1205	1019	1036	881	949	206	976	567	725	742	814	814	908	955	551	524	832	810	806	826	630	625	550	580	508	523	812	812	633	610	496	530	1109	1115	673	693	589	577	580	567	537	526	482	497	1146	1160	1043	1079	1026	1113	1089	1165	467	483	1121	1154	1189	1222	838	852	1401	1353	791	814	397	426	779	763	449	424	514	551	1272	1256	978	1014	445	502	803	899	581	597	1091	1128	1129	1086	506	457	773	761	591	618	577	582	324	378	581	580	460	503	425	412	843	883	744	728	414	439	943	927	456	442	388	435	927	915	567	534	737	684	389	411	553	578	861	879	942	1041	1282	1278	903	945	962	973	1330	1391	1255	1248	710	743	629	613	888	911	761	795	1110	1068	996	1055	445	414	649	671	1238	1225	1222	1198	720	732	831	860	769	754	724	704	434	410	705	689	611	590	625	619	534	508	568	547	642	687	598	623	1305	1366	816	828	619	672	868	895	605	601	833	863	911	991	1011	1057	823	867	558	574	940	959	1001	1099	679	658	648	627	800	790	594	608	1261	1237	681	705	950	943	838	873	755	743	1240	1268	1066	1089	687	656	1274	1262	673	655	573	588	1198	1227	634	656	823	806	805	789	768	791	902	964
1054	423	80	191	488	821	113	875	456	407	349	795	186	169	389	104	622	641	527	930	229	125	208	308	481	403	394	225	130	315	309	281	567	426	122	401	420	205	532	255	322	272	301	68	195	504	496	351	325	325	465	811	674	193	231	487	286	546	716	163	274	257	688	660	147	358	442	199	279	439	199	483	46	747	426	505	428	313	111	556	664	773	749	586	316	170	529	452	523	495	740	0	582	460	691	488	485	69	395	38	574	173	90	99	311	120	1062	854	439	221	142	288	709	547	361	389	294	291	581	318	306	175	123	397	423	211	258	465	436	371	393	309	289	178	207	251	247	420	380	275	281	449	423	434	475	451	457	163	143	239	227	247	270	274	285	288	274	449	502	385	421	460	486	523	538	305	289	463	496	492	564	265	251	743	695	812	835	575	578	389	401	444	469	517	554	614	598	320	356	458	401	317	241	233	217	394	470	471	428	498	547	313	325	446	468	359	319	524	470	231	215	421	408	470	501	185	225	338	317	459	434	665	649	451	487	493	448	269	257	326	363	456	403	478	456	438	463	164	182	284	383	624	620	245	287	304	315	672	733	597	590	573	563	185	201	230	253	275	309	483	441	338	397	557	552	200	179	580	567	564	540	271	246	567	584	364	375	443	423	479	499	219	235	171	192	447	435	259	285	264	251	340	340	500	525	647	708	111	123	1087	1140	267	237	305	344	175	205	635	713	314	399	1000	956	505	489	282	301	343	441	157	136	199	178	436	446	266	252	603	579	299	275	672	679	141	176	331	337	582	610	408	431	144	179	616	604	255	273	488	490	540	569	373	306	345	362	320	336	789	812	1124	1186
1571	744	550	483	880	1338	507	1392	126	774	641	1279	729	455	710	496	1075	305	957	1287	773	491	607	600	773	751	742	393	590	769	601	573	179	747	539	881	708	498	985	799	614	564	612	576	413	921	923	643	617	642	857	1251	166	607	632	779	598	210	1233	707	566	549	1141	1177	557	679	737	735	571	760	419	900	536	1264	718	346	720	269	503	1009	1117	1273	1266	874	664	584	921	744	940	969	1240	582	0	927	979	780	955	635	710	604	1011	572	656	665	698	462	1419	1211	856	765	568	801	1209	99	544	564	586	485	1034	512	693	719	667	689	715	527	574	832	803	663	685	601	581	714	743	787	790	812	816	567	573	770	744	826	867	449	341	707	687	722	734	790	814	781	792	824	810	403	314	269	233	748	661	810	713	841	825	275	308	342	234	557	543	299	251	1169	1192	992	970	681	697	861	886	909	946	170	154	334	370	938	881	629	533	777	761	466	354	283	240	890	939	624	636	767	789	762	802	1060	1006	738	739	957	915	887	918	477	437	659	638	876	851	953	937	868	904	975	928	561	549	824	799	777	724	895	873	786	811	480	498	496	397	128	112	457	481	498	509	164	225	99	142	888	855	729	745	522	545	587	621	658	616	630	572	949	969	683	661	192	179	178	154	583	558	859	876	656	667	764	744	896	916	567	583	707	728	768	756	795	821	777	787	688	695	821	846	139	200	527	515	1604	1657	559	529	849	888	467	497	927	1001	508	413	1357	1313	843	827	551	495	537	439	639	660	682	702	728	738	810	796	95	81	620	596	960	971	537	502	642	654	194	166	220	197	688	723	108	96	603	621	826	811	204	233	760	765	637	654	612	628	1146	1169	1481	1543
684	391	478	536	207	451	526	505	801	182	497	507	341	583	279	505	188	986	70	805	387	538	382	519	575	205	213	651	453	492	565	499	912	247	462	59	673	631	98	362	533	617	448	494	546	102	36	604	581	418	170	382	1019	387	366	493	459	891	346	364	600	602	254	290	435	372	449	290	624	245	625	57	490	377	477	850	559	658	524	122	230	386	379	716	305	400	145	461	97	64	353	460	927	0	725	529	51	407	396	434	124	423	370	379	243	515	937	729	81	411	568	294	322	892	706	723	568	636	147	663	248	523	471	501	501	630	677	240	211	519	497	493	513	364	385	310	340	195	204	499	499	320	297	183	224	796	802	473	491	269	257	340	370	208	197	290	305	875	847	730	766	713	800	776	852	275	291	808	841	918	909	525	539	1088	1040	863	886	173	194	466	450	136	111	236	273	959	943	665	701	116	173	490	586	391	407	820	815	816	773	203	210	460	448	278	305	258	253	396	342	261	277	221	174	112	107	530	570	431	415	101	126	699	683	143	129	153	106	614	602	238	215	424	371	76	98	240	265	583	601	629	728	969	965	590	632	649	660	1017	1078	942	935	466	499	424	423	575	598	448	482	797	755	683	742	198	150	346	368	925	912	909	885	407	419	587	616	456	441	411	391	121	105	392	376	338	317	318	306	318	316	276	305	329	370	315	340	992	1053	524	536	717	770	555	582	474	435	520	550	667	747	740	744	910	954	288	291	627	646	688	786	387	366	345	324	487	477	463	465	948	924	368	392	706	699	567	595	442	430	927	955	753	776	416	418	961	949	360	342	290	305	885	914	315	336	510	493	492	476	840	863	999	1061
1369	366	647	500	568	1136	622	1190	857	555	347	1192	682	644	477	605	873	876	755	1348	761	638	528	395	212	532	541	813	622	892	382	439	872	501	606	727	271	820	783	736	381	437	429	753	602	654	721	340	366	401	555	970	1068	543	513	250	435	831	1031	705	417	434	939	975	579	418	347	630	494	509	813	698	645	1062	328	633	270	714	648	807	915	1002	1064	192	532	537	626	354	727	767	969	691	979	725	0	208	753	654	378	681	770	553	617	626	566	571	1480	1272	654	784	757	669	938	880	497	415	416	561	832	500	561	814	762	351	325	716	763	559	584	369	347	427	447	667	696	679	709	622	662	433	439	469	495	636	604	766	858	797	782	590	602	709	739	649	660	711	702	1020	903	786	822	405	492	374	471	728	712	778	811	1063	965	459	473	1042	994	1343	1366	696	675	366	356	659	684	597	634	913	929	721	722	784	727	582	642	765	780	982	871	786	829	620	644	441	429	516	488	630	670	939	885	606	622	830	783	685	716	586	626	429	450	674	649	58	74	666	702	821	774	446	458	692	667	439	492	693	671	547	522	669	687	685	784	955	971	644	602	536	547	1023	1084	966	923	325	292	748	764	507	484	500	466	416	447	553	525	654	702	583	605	885	898	897	873	513	511	196	167	389	389	386	406	694	714	520	522	660	655	467	455	687	713	645	674	556	563	515	540	1041	1102	648	660	1402	1455	489	514	879	840	576	546	218	138	902	800	1453	1487	475	491	560	616	658	756	592	613	582	603	338	348	843	829	973	948	475	498	65	88	726	691	423	413	913	941	809	832	707	742	967	974	507	489	490	505	833	804	628	633	385	401	408	424	1320	1343	1542	1604
1173	158	439	297	409	940	419	994	654	347	139	996	474	441	269	402	677	755	559	1140	553	435	320	210	46	324	333	610	414	684	200	231	751	293	398	519	190	617	587	528	196	255	221	550	399	495	525	232	215	193	396	842	872	335	305	88	227	710	835	497	235	252	743	779	371	210	139	422	312	301	610	502	442	866	120	512	81	511	445	611	719	874	868	187	324	329	467	146	542	571	841	488	780	529	208	0	557	446	170	473	611	345	409	418	358	368	1272	1064	458	576	554	461	810	745	376	334	234	403	636	379	353	606	554	143	117	513	560	351	376	161	139	219	239	459	488	471	501	414	454	225	231	261	287	428	396	563	655	589	574	382	394	501	531	441	452	503	494	817	700	583	619	324	411	293	390	520	504	657	690	860	762	251	265	921	873	1135	1158	549	516	158	148	463	488	438	475	792	796	518	519	576	519	374	439	557	572	779	668	665	626	461	485	233	221	308	280	422	462	731	677	398	414	622	575	489	520	383	423	221	242	478	453	182	166	470	506	613	566	264	276	484	459	231	284	497	475	339	314	466	484	482	581	822	818	441	399	415	426	870	931	795	788	197	164	540	556	304	302	292	258	335	366	371	404	495	543	375	397	764	765	762	738	305	303	128	99	181	181	178	198	498	518	312	314	452	447	259	247	479	505	437	466	348	355	312	337	845	906	445	457	1206	1259	281	311	671	632	373	343	150	230	699	597	1245	1279	334	318	357	413	455	553	384	405	374	395	130	140	635	621	801	777	267	290	189	212	523	488	215	205	780	808	606	629	499	534	814	802	299	281	317	302	712	683	420	425	177	193	200	216	1112	1135	1334	1396
656	419	503	564	235	423	551	477	829	210	525	479	366	608	307	530	160	1014	42	788	373	563	410	547	603	233	241	676	478	478	593	527	940	275	487	84	701	656	70	348	561	645	476	519	574	130	64	632	609	446	198	354	1047	412	393	521	487	919	318	389	628	630	226	262	460	400	477	315	652	273	650	85	515	349	505	878	587	686	549	94	202	358	351	744	333	425	173	489	125	39	325	485	955	51	753	557	0	432	424	459	96	448	395	404	268	543	910	715	109	397	593	280	294	920	734	751	596	664	119	691	273	521	496	529	529	655	702	268	239	547	525	521	541	389	410	335	365	223	229	527	527	348	325	211	252	824	830	469	489	294	282	365	363	233	222	276	291	900	875	758	794	741	828	804	880	261	277	836	869	943	937	553	567	1116	1068	849	872	201	222	494	478	164	139	264	301	987	971	693	729	141	198	518	614	377	393	845	843	844	801	231	238	488	476	306	333	283	278	382	328	286	302	207	199	140	135	558	598	459	443	129	154	727	711	171	157	135	131	642	630	263	240	452	399	104	126	268	293	608	626	657	756	997	993	618	660	677	688	1045	1106	970	963	494	527	425	409	603	626	476	510	825	783	711	770	226	178	371	393	953	940	937	913	435	447	615	644	484	469	439	419	149	133	420	404	363	342	346	334	328	302	301	330	357	395	343	368	1020	1081	549	561	689	742	583	610	460	421	548	578	695	775	765	772	893	937	316	319	655	674	716	814	412	391	370	349	515	505	449	451	976	952	396	420	734	727	592	620	470	458	955	983	781	804	441	443	989	977	388	370	318	333	913	942	340	361	538	521	520	504	826	849	972	1034
1001	370	133	244	435	768	166	822	509	354	307	742	140	223	336	157	569	694	474	880	234	178	155	305	454	350	341	288	170	350	362	273	620	373	175	348	473	268	479	228	319	325	248	131	254	451	443	404	378	272	412	758	727	140	178	445	233	599	663	163	327	310	635	607	152	305	389	146	332	386	262	430	99	694	384	558	400	366	164	503	611	720	696	570	263	117	476	410	470	442	687	69	635	407	654	446	432	0	342	43	521	140	37	46	258	173	1012	804	386	242	205	235	656	600	414	442	347	344	528	371	253	238	186	355	381	270	317	412	383	329	351	267	287	125	154	198	201	367	327	273	273	396	370	381	422	504	510	226	206	186	174	201	231	221	232	235	221	512	555	438	474	513	539	576	591	252	236	516	549	555	617	299	304	796	748	842	865	522	525	343	348	391	416	464	501	667	651	373	409	405	348	264	294	238	238	457	523	524	481	445	494	260	272	393	415	306	266	471	417	178	162	368	355	417	448	238	278	285	264	406	381	628	612	398	434	440	395	322	310	273	310	403	350	425	403	385	410	223	241	337	436	677	673	298	340	357	368	725	786	650	643	520	521	206	222	283	306	222	256	536	494	391	450	504	499	147	126	633	620	617	593	218	193	525	545	318	329	390	370	426	446	166	182	118	139	394	382	206	232	211	198	287	287	447	472	700	761	164	176	1034	1087	320	290	340	339	228	258	596	676	377	452	985	986	452	436	335	354	396	494	104	83	146	125	394	404	301	287	656	632	246	222	635	637	204	235	278	284	635	663	461	484	165	200	669	657	202	220	435	437	593	622	320	253	303	320	278	294	819	842	1074	1136
1040	96	335	227	325	807	349	861	584	214	101	863	370	371	117	325	544	724	426	1018	431	365	198	156	216	191	200	540	310	567	169	161	695	154	294	386	277	547	454	406	165	224	115	457	329	390	392	208	185	85	312	720	802	213	183	169	144	674	702	393	204	221	610	646	267	40	95	300	281	167	540	369	372	733	108	481	165	441	375	478	586	742	735	357	202	225	383	134	409	438	709	395	710	396	378	170	424	342	0	369	480	241	305	314	236	298	1150	942	325	455	484	339	678	675	345	327	203	333	503	348	231	502	450	105	105	443	490	267	243	123	101	149	169	355	384	349	379	281	321	155	161	177	151	295	312	493	585	485	470	260	272	379	409	319	330	381	372	747	630	513	549	317	404	380	456	398	382	591	624	790	692	181	195	871	823	1013	1036	461	432	70	54	330	355	354	391	742	726	448	449	443	386	279	369	435	451	709	598	599	556	359	401	127	115	174	196	300	340	609	555	276	292	500	453	356	387	313	353	99	120	345	320	352	336	337	373	480	433	233	245	362	332	129	131	364	342	206	230	396	414	412	511	752	748	371	329	346	357	800	861	725	718	252	245	436	452	234	257	209	175	401	359	340	373	411	438	253	275	708	695	692	668	183	208	249	269	88	73	116	96	365	385	208	192	334	325	175	163	357	383	315	344	226	233	228	253	775	836	375	387	1073	1126	211	241	549	510	303	273	320	400	629	527	1123	1157	250	234	287	343	385	483	280	301	252	273	118	128	523	509	731	707	145	168	359	361	453	418	109	97	710	738	536	559	395	430	744	732	177	159	233	218	668	652	298	303	122	105	138	122	990	1013	1212	1274
1028	397	102	213	462	795	135	849	478	381	334	769	167	192	363	126	596	663	501	907	261	147	182	330	481	377	368	257	152	347	331	300	589	400	144	375	442	237	506	255	344	294	275	100	223	478	470	373	347	299	439	785	696	167	205	472	260	568	690	190	296	279	662	634	169	332	416	173	301	413	231	457	68	721	411	527	427	335	133	530	638	747	723	597	290	144	503	437	497	469	714	38	604	434	681	473	459	43	369	0	548	167	64	73	285	142	1039	831	413	253	174	262	683	569	383	411	316	313	555	340	280	207	155	382	408	239	286	439	410	356	378	294	311	152	181	225	228	394	354	297	300	423	397	408	449	473	479	195	175	213	201	228	258	248	259	262	248	481	524	407	443	482	508	545	560	279	263	485	518	524	586	287	273	765	717	844	867	549	552	370	375	418	443	491	528	636	620	342	378	432	375	291	263	265	249	426	492	493	450	472	521	287	299	420	442	333	293	498	444	205	189	395	382	444	475	207	247	312	291	433	408	655	639	425	461	467	422	291	279	300	337	430	377	452	430	412	437	192	210	306	405	646	642	267	309	326	337	694	755	619	612	547	548	217	233	252	275	249	283	505	463	360	419	531	526	174	153	602	589	586	562	245	220	552	572	345	356	417	397	453	473	193	209	145	166	421	409	233	259	238	225	314	314	474	499	669	730	133	145	1061	1114	289	259	337	366	197	227	623	703	346	421	1012	988	479	463	304	323	365	463	131	110	173	152	421	431	298	284	625	601	273	249	662	664	173	204	305	311	604	632	430	453	176	211	638	626	229	247	462	464	562	591	347	280	330	347	305	321	821	844	1101	1163
682	475	594	620	252	449	628	503	885	266	581	505	415	668	363	593	186	1070	54	814	413	644	466	603	657	289	297	756	569	518	649	583	996	331	562	175	757	736	96	388	617	701	532	599	630	133	120	688	665	502	215	284	1103	481	450	554	543	975	344	438	684	686	252	288	535	456	533	376	708	329	730	115	604	375	559	934	641	742	640	120	228	314	377	798	389	493	144	543	75	97	281	574	1011	124	770	611	96	521	480	548	0	509	484	493	333	599	936	753	165	437	673	320	250	976	790	807	652	720	145	747	338	561	576	585	585	742	789	318	295	603	581	577	597	464	459	384	414	279	294	583	583	402	381	267	297	880	886	509	529	385	373	414	403	324	313	316	331	980	931	814	850	797	884	860	936	301	317	892	925	1023	993	609	623	1172	1124	887	910	172	193	550	534	220	195	281	318	1043	1027	749	785	232	289	574	670	417	433	925	899	900	857	273	224	544	532	362	387	348	369	420	368	377	393	247	290	196	179	614	654	515	499	185	210	744	728	227	213	175	222	698	686	342	305	508	455	160	182	324	347	695	713	713	812	1053	1049	674	716	733	744	1101	1162	1026	1019	511	544	465	449	659	682	532	566	881	839	767	826	212	181	462	484	1009	996	993	969	491	503	632	661	540	525	495	475	205	177	476	460	445	424	398	388	368	342	392	381	413	458	373	398	1076	1137	640	652	715	768	639	666	500	461	604	634	712	792	845	828	919	963	333	349	711	730	772	870	503	482	461	440	569	559	489	491	1032	1008	452	476	751	744	672	707	526	514	1011	1039	837	860	521	492	1045	1033	444	426	348	363	969	998	405	452	594	577	576	560	864	887	998	1060
1029	269	94	181	378	796	137	850	446	272	206	770	168	177	235	96	573	631	455	908	262	153	82	204	353	249	240	360	69	378	272	172	557	272	53	364	382	340	483	256	218	262	147	235	191	419	421	313	288	171	355	749	664	67	107	344	132	536	691	191	264	247	639	635	26	204	288	174	269	285	334	398	137	722	283	495	299	303	140	507	615	748	724	469	162	44	419	309	438	460	715	173	572	423	553	345	448	140	241	167	509	0	103	112	196	110	1040	832	354	270	277	257	684	537	351	379	249	281	532	308	191	300	248	254	280	246	293	330	301	228	250	166	186	153	182	226	229	310	314	172	172	295	269	324	365	441	447	283	268	202	190	229	259	237	248	263	249	584	492	375	411	422	476	485	528	280	264	453	486	627	554	198	212	733	685	870	893	490	468	242	247	359	384	407	444	604	588	310	346	421	364	163	231	266	266	529	460	461	418	388	437	159	171	292	314	260	282	499	445	194	178	396	371	385	416	175	215	184	163	374	349	527	511	366	402	458	411	259	247	289	297	302	249	393	371	284	309	199	217	274	373	614	610	235	277	294	305	662	723	587	580	419	420	234	250	220	243	121	155	473	431	328	387	447	467	122	100	570	557	554	530	117	92	424	444	217	228	289	269	394	414	65	81	146	167	293	281	234	260	233	226	186	193	346	371	637	698	140	152	1062	1115	228	227	368	367	165	195	495	575	449	389	1013	1014	351	335	272	291	333	431	78	99	121	141	293	303	329	315	593	569	145	121	534	536	246	211	177	183	572	600	398	421	193	228	606	594	101	119	334	336	530	559	258	263	202	219	177	193	847	870	1102	1164
964	333	154	265	398	731	187	785	530	317	270	705	103	244	299	178	532	715	437	843	197	199	118	268	417	313	304	309	133	313	336	236	641	336	142	311	446	289	442	191	282	346	211	152	275	414	406	377	352	235	375	721	748	103	141	408	196	620	626	126	348	331	598	570	115	268	352	109	353	349	283	393	120	657	347	579	363	387	185	466	574	683	659	533	226	80	439	373	433	405	650	90	656	370	617	409	395	37	305	64	484	103	0	9	221	194	975	767	349	205	226	198	619	621	435	463	313	365	491	392	216	235	183	318	344	291	338	375	346	292	314	230	250	88	117	161	164	330	290	236	236	359	333	344	385	525	531	218	203	149	137	164	194	184	195	198	184	533	576	459	495	486	560	549	612	215	199	537	570	576	638	262	276	817	769	805	828	485	488	306	311	354	379	427	464	688	672	394	430	368	311	227	315	201	201	478	544	545	502	408	457	223	235	356	378	269	229	434	380	141	125	331	318	380	411	259	299	248	227	369	344	591	575	361	397	403	358	343	331	236	273	366	313	388	366	348	373	244	262	358	457	698	694	319	361	378	389	746	807	671	664	483	484	169	185	304	327	185	219	557	515	412	471	467	462	110	89	654	641	638	614	181	156	488	508	281	292	353	333	389	409	129	145	81	102	357	345	169	195	174	161	250	250	410	435	721	782	185	197	997	1050	292	311	303	302	249	279	559	639	398	473	948	949	415	399	356	375	417	515	67	46	109	88	357	367	264	250	677	653	209	185	598	600	225	256	241	247	656	684	482	505	128	163	690	678	165	183	398	400	614	643	283	216	266	283	241	257	782	805	1037	1099
973	342	163	274	407	740	196	794	539	326	279	714	112	253	308	187	541	724	446	852	206	208	127	277	426	322	313	318	142	322	345	245	650	345	151	320	455	298	451	200	291	355	220	161	284	423	415	386	361	244	384	730	757	112	150	417	205	629	635	135	357	340	607	579	124	277	361	118	362	358	292	402	129	666	356	588	372	396	194	475	583	692	668	542	235	89	448	382	442	414	659	99	665	379	626	418	404	46	314	73	493	112	9	0	230	203	984	776	358	214	235	207	628	630	444	472	322	374	500	401	225	244	192	327	353	300	347	384	355	301	323	239	259	97	126	170	173	339	299	245	245	368	342	353	394	534	540	227	212	158	146	173	203	193	204	207	193	542	585	468	504	495	569	558	621	224	208	546	579	585	647	271	285	826	778	814	837	494	497	315	320	363	388	436	473	697	681	403	439	377	320	236	324	210	210	487	553	554	511	417	466	232	244	365	387	278	238	443	389	150	134	340	327	389	420	268	308	257	236	378	353	600	584	370	406	412	367	352	340	245	282	375	322	397	375	357	382	253	271	367	466	707	703	328	370	387	398	755	816	680	673	492	493	178	194	313	336	194	228	566	524	421	480	476	471	119	98	663	650	647	623	190	165	497	517	290	301	362	342	398	418	138	154	90	111	366	354	178	204	183	170	259	259	419	444	730	791	194	206	1006	1059	301	320	312	311	258	288	568	648	407	482	957	958	424	408	365	384	426	524	76	55	118	97	366	376	273	259	686	662	218	194	607	609	234	265	250	256	665	693	491	514	137	172	699	687	174	192	407	409	623	652	292	225	275	292	250	266	791	814	1046	1108
893	263	290	307	227	660	315	714	572	143	289	716	216	355	194	280	397	757	279	854	267	331	153	295	404	120	111	502	265	403	357	270	683	162	249	184	465	482	307	242	309	388	224	345	317	243	245	396	373	194	204	573	790	168	137	357	230	662	555	239	390	373	463	499	222	198	283	141	395	160	476	222	333	586	296	621	353	429	336	331	439	595	588	545	76	180	268	322	262	280	562	311	698	243	566	358	268	258	236	285	333	196	221	230	0	286	986	778	178	291	419	175	531	663	477	505	344	407	356	434	5	374	322	293	293	431	478	201	172	311	289	264	284	215	244	185	215	159	119	270	270	235	212	173	214	567	573	348	342	96	108	215	245	92	103	217	208	726	618	501	537	505	592	568	644	234	218	579	612	769	680	296	310	859	811	849	872	314	317	258	242	183	208	256	293	730	714	436	472	241	184	261	357	271	287	671	586	587	544	237	286	236	224	193	220	65	105	445	391	112	128	273	226	209	240	301	341	207	186	198	173	540	524	190	226	278	231	385	373	127	102	296	243	217	195	155	180	384	402	400	499	740	736	361	403	420	431	788	849	713	706	402	433	299	303	346	369	219	253	589	547	454	513	296	291	197	219	696	683	680	656	178	190	437	457	242	227	283	263	218	238	163	147	189	168	233	221	193	219	151	180	100	145	230	255	763	824	336	348	926	979	326	353	385	346	291	321	508	588	591	515	959	993	222	206	398	417	459	557	235	217	196	175	306	316	359	345	719	695	139	163	547	549	418	406	218	206	698	726	524	547	267	293	732	720	131	113	205	220	656	685	72	139	293	277	268	252	826	849	1048	1110
1136	332	88	71	468	903	51	957	336	362	229	877	275	91	298	34	663	521	545	1015	343	67	174	188	361	339	330	292	128	429	189	161	447	335	77	469	300	277	573	363	202	152	200	182	81	509	511	231	205	230	445	839	554	159	199	367	186	426	798	277	154	137	729	742	95	267	325	281	159	348	271	488	74	829	306	385	308	193	77	597	705	855	831	466	252	136	509	332	528	557	822	120	462	515	571	368	543	173	298	142	599	110	194	203	286	0	1147	939	444	335	214	364	791	427	241	269	174	171	622	198	281	289	237	277	303	179	226	420	391	251	273	189	169	260	289	333	336	400	404	155	161	358	332	414	455	331	337	277	257	309	297	336	366	344	355	370	356	499	382	265	301	340	366	403	418	387	371	343	376	542	444	145	131	623	575	926	949	580	558	269	285	449	474	497	534	494	478	200	236	526	469	217	121	347	331	461	350	351	308	478	527	212	224	355	377	350	389	606	552	301	285	503	478	475	506	65	105	247	226	464	439	545	529	456	492	563	516	149	137	396	387	365	312	483	461	374	399	132	150	164	263	504	500	125	167	184	195	552	613	477	470	476	443	299	315	110	133	175	209	363	321	218	277	537	557	229	207	460	447	444	420	171	146	447	464	244	255	352	332	484	504	155	171	253	274	356	344	341	367	340	333	276	283	409	434	527	588	77	89	1169	1222	147	117	419	458	55	85	515	593	381	279	1114	1070	431	415	162	181	223	321	185	206	228	248	316	326	380	366	483	459	208	184	552	559	183	148	230	242	462	490	288	311	258	293	496	484	191	209	414	399	420	449	348	353	225	242	200	216	903	926	1209	1271
254	1177	1095	1210	1064	609	1143	573	1293	1018	1203	540	905	1164	1115	1122	750	1506	902	132	884	1155	1021	1205	1318	1041	1049	1109	1070	853	1271	1173	1432	1083	1079	878	1379	1188	840	859	1219	1291	1138	1063	1190	989	934	1310	1287	1108	1027	854	1365	1015	996	1271	1133	1411	646	909	1293	1276	823	648	1052	1112	1197	867	1298	1081	1109	955	1095	621	1210	1403	1267	1240	1141	864	792	873	623	1459	1036	1017	1032	1236	985	884	840	1062	1419	937	1480	1272	910	1012	1150	1039	936	1040	975	984	986	1147	0	208	968	864	1137	811	809	1412	1380	1408	1250	1310	791	1337	981	991	1043	1207	1207	1206	1253	1076	1047	1225	1203	1167	1187	955	949	875	904	1031	991	1173	1173	1156	1133	1040	1081	1383	1379	939	959	914	902	904	874	919	908	807	822	1250	1367	1307	1286	1419	1505	1482	1557	792	808	1328	1361	1293	1401	1199	1213	1608	1560	311	288	1060	1081	1172	1156	1005	998	1093	1130	1479	1463	1247	1283	935	960	1164	1260	888	900	1271	1392	1336	1293	1060	1097	1150	1138	1114	1141	1004	964	649	703	906	905	810	857	999	994	1204	1244	1121	1100	988	995	1454	1438	1012	1016	882	925	1288	1276	949	986	1210	1157	963	985	1076	1101	1159	1177	1303	1310	1473	1457	1264	1306	1323	1334	1509	1500	1434	1455	1323	1347	923	907	1249	1272	1122	1156	1502	1460	1357	1416	1085	1037	974	996	1445	1432	1429	1405	1092	1093	1351	1371	1156	1141	1197	1177	1008	992	1066	1061	936	915	1154	1142	859	833	893	872	1060	1015	1151	1176	1484	1453	1141	1153	327	380	1229	1256	835	831	1194	1224	1422	1502	1198	1300	165	209	1143	1127	1301	1320	1362	1373	1004	983	973	952	1220	1230	824	838	1440	1416	1053	1077	1461	1463	1136	1171	1132	1120	1447	1475	1273	1296	998	963	1453	1441	1045	1027	1126	1141	1405	1434	1048	981	1203	1191	1178	1166	319	311	62	124
462	969	887	1002	856	428	935	490	1085	810	995	332	697	956	907	914	567	1298	719	76	676	947	813	997	1110	833	841	901	862	645	1063	965	1224	875	871	670	1171	980	657	651	1011	1083	930	855	982	781	751	1102	1079	900	819	728	1157	807	788	1063	925	1203	547	701	1085	1068	640	549	844	904	989	659	1090	873	901	760	887	522	1002	1195	1059	1032	933	681	609	690	524	1251	828	809	824	1028	800	676	657	854	1211	729	1272	1064	715	804	942	831	753	832	767	776	778	939	208	0	760	656	929	603	626	1204	1172	1200	1042	1102	608	1129	773	783	835	999	999	998	1045	868	839	1017	995	959	979	747	741	667	696	823	783	965	965	948	925	832	873	1175	1171	731	751	706	694	696	666	711	700	599	614	1042	1159	1099	1078	1211	1297	1274	1349	584	600	1120	1153	1085	1193	991	1005	1400	1352	134	157	852	873	964	948	797	790	885	922	1271	1255	1039	1075	727	752	956	1052	680	692	1063	1184	1128	1085	852	889	942	930	906	933	796	756	441	495	698	697	602	649	791	786	996	1036	913	892	780	787	1246	1230	804	808	674	717	1080	1068	741	778	1002	949	755	777	868	893	951	969	1095	1102	1265	1249	1056	1098	1115	1126	1301	1292	1226	1247	1115	1139	715	699	1041	1064	914	948	1294	1252	1149	1208	877	829	766	788	1237	1224	1221	1197	884	885	1143	1163	948	933	989	969	800	784	858	853	728	707	946	934	651	625	685	664	852	807	943	968	1276	1245	933	945	535	588	1021	1048	627	623	986	1016	1214	1294	990	1092	181	225	935	919	1093	1112	1154	1165	796	775	765	744	1012	1022	616	630	1232	1208	845	869	1253	1255	928	963	924	912	1239	1267	1065	1088	790	755	1245	1233	837	819	918	933	1197	1226	840	773	995	983	970	958	111	134	270	332
725	320	448	465	136	492	473	546	730	111	426	548	320	513	208	438	229	915	111	836	371	489	311	448	504	134	142	630	423	507	494	428	841	176	407	90	602	610	139	346	462	546	377	473	475	69	77	533	510	347	99	405	948	326	295	422	388	820	387	343	529	531	295	331	380	301	378	269	553	174	604	54	469	418	406	779	488	587	494	163	271	427	420	645	234	338	112	390	94	123	394	439	856	81	654	458	109	386	325	413	165	354	349	358	178	444	968	760	0	395	547	279	363	821	635	652	497	565	188	592	183	502	450	430	430	589	636	169	140	448	426	422	442	343	364	289	319	124	139	428	428	249	226	112	153	725	731	452	470	248	236	319	349	187	176	321	312	854	776	659	695	642	729	705	781	306	322	737	770	897	838	454	468	1017	969	894	917	140	161	395	379	60	30	165	202	888	872	594	630	147	154	419	515	375	391	799	744	745	702	132	177	389	377	207	234	193	215	427	373	240	256	252	205	31	62	459	499	360	344	30	55	628	612	67	48	184	137	543	531	187	150	353	300	49	27	169	194	542	560	558	657	898	894	519	561	578	589	946	1007	871	864	395	428	403	407	504	527	377	411	726	684	612	671	165	117	325	347	854	841	838	814	336	348	516	545	385	370	340	320	40	60	321	305	317	296	247	235	297	323	255	284	258	303	244	269	921	982	494	506	758	811	484	511	489	450	449	479	596	676	719	673	941	985	217	220	556	575	617	715	366	345	324	303	416	406	463	449	877	853	297	321	635	628	546	564	371	359	856	884	682	705	395	397	890	878	289	271	219	234	814	843	250	315	439	422	421	405	871	894	1030	1092
915	482	295	406	444	682	328	736	639	363	437	638	118	326	448	319	485	824	403	732	48	340	285	435	584	382	373	382	300	117	503	403	750	424	309	352	613	362	395	74	449	487	378	225	352	460	435	544	519	402	421	672	843	270	288	575	363	729	577	95	489	472	551	521	282	417	502	158	494	422	356	439	261	608	514	702	530	496	326	419	527	634	610	700	341	247	485	540	479	358	601	221	765	411	784	576	397	242	455	253	437	270	205	214	291	335	864	656	395	0	299	222	570	730	544	586	480	474	444	501	286	164	202	485	511	368	415	421	392	459	481	397	417	191	162	166	136	376	336	403	403	497	474	390	431	634	640	112	132	219	207	136	106	230	241	190	175	606	685	568	604	653	683	716	735	207	191	646	679	649	747	429	443	926	878	614	637	531	534	473	461	400	425	473	510	797	781	503	539	409	357	394	456	52	36	551	653	654	611	454	503	390	402	455	482	315	275	385	333	211	202	284	331	426	457	400	408	415	394	415	390	758	742	407	443	356	399	484	472	282	319	515	462	434	412	417	442	321	339	467	566	807	803	428	470	487	498	855	916	780	773	632	651	68	52	445	468	352	386	680	638	553	594	513	508	266	256	763	750	747	723	348	323	655	675	448	446	502	482	435	455	296	312	212	202	495	483	174	186	198	169	365	320	492	517	830	891	326	338	948	1001	459	452	107	146	390	420	726	806	471	573	802	758	484	468	497	484	526	624	234	213	265	244	524	534	68	54	786	762	358	352	765	767	298	333	408	414	765	793	591	614	147	112	799	787	332	332	467	482	723	752	353	286	433	450	408	424	591	614	926	988
1153	518	216	257	596	920	163	974	442	515	415	880	264	129	484	198	721	627	635	1005	307	151	331	374	547	525	516	185	256	375	375	347	553	521	226	509	486	111	631	333	388	338	386	110	155	612	604	417	391	416	573	910	646	316	354	553	372	532	815	241	340	323	787	759	251	453	511	297	345	534	159	591	182	846	492	505	494	299	137	655	763	872	848	652	438	293	637	518	631	594	839	142	568	568	757	554	593	205	484	174	673	277	226	235	419	214	1137	929	547	299	0	389	808	533	347	389	360	277	680	304	414	253	201	463	489	171	218	573	544	437	459	375	355	268	297	349	325	528	488	341	347	544	518	542	583	437	443	241	221	347	335	325	348	382	393	387	372	409	488	371	407	526	486	589	538	404	388	449	482	452	550	331	317	729	681	887	910	683	686	455	471	552	577	625	662	600	584	306	342	566	509	403	307	311	295	354	456	457	414	606	655	398	410	541	563	467	427	623	569	339	323	520	516	578	609	251	211	433	412	567	542	731	715	559	595	592	556	335	323	434	471	551	498	586	564	560	585	124	142	270	369	610	606	231	273	290	301	658	719	583	576	662	629	263	279	296	319	361	395	483	441	404	397	665	660	336	315	566	553	550	526	357	332	633	650	430	441	538	518	587	607	341	357	287	293	542	530	357	383	365	350	462	448	595	620	633	694	161	149	1186	1239	333	303	383	422	241	271	701	779	274	376	1075	1031	617	601	343	287	329	427	293	272	335	314	502	512	344	330	589	565	394	370	738	745	101	136	416	428	568	596	394	417	222	257	602	590	377	395	600	585	526	555	481	414	411	428	386	402	864	887	1199	1261
800	366	312	410	328	567	360	621	675	247	392	541	147	416	332	339	368	860	286	679	198	372	227	398	507	266	257	472	287	317	460	373	786	308	296	235	568	452	278	173	412	491	327	315	420	344	318	499	476	297	305	557	893	221	202	460	333	765	462	170	493	476	434	406	269	301	386	106	498	306	446	323	318	493	399	724	456	532	358	302	410	519	495	648	225	234	369	425	363	241	486	288	801	294	669	461	280	235	339	262	320	257	198	207	175	364	811	603	279	222	389	0	455	766	580	608	447	510	327	537	170	331	292	396	396	458	505	305	276	414	392	367	387	185	191	116	146	260	220	373	373	381	358	274	315	670	676	279	299	103	91	146	176	114	125	76	91	696	721	604	640	608	695	671	747	61	77	682	715	739	783	399	413	962	914	737	760	415	418	361	345	284	309	357	394	833	817	539	575	292	241	364	460	202	218	641	689	690	647	338	387	339	327	339	366	199	159	270	216	95	111	167	214	310	341	404	444	310	289	299	274	643	627	291	327	239	282	488	476	166	203	399	346	318	296	301	326	411	429	503	602	843	839	464	506	523	534	891	952	816	809	516	536	230	234	449	472	322	356	692	650	557	616	397	392	180	202	799	786	783	759	281	293	540	560	345	330	386	366	319	339	266	250	159	138	379	367	124	102	82	111	249	204	376	401	866	927	358	370	833	886	429	456	299	260	394	424	611	691	561	618	784	828	368	352	501	520	562	660	221	200	179	158	409	419	288	276	822	798	242	266	650	652	388	423	321	309	801	829	627	650	237	224	835	823	234	216	351	366	759	788	237	170	396	380	371	355	714	737	873	935
555	673	739	818	454	322	787	376	1083	464	779	378	550	835	561	766	134	1268	278	687	546	799	664	801	856	487	495	891	714	592	847	781	1194	529	723	357	955	871	224	521	815	899	730	734	828	335	318	886	863	700	417	102	1301	659	640	722	741	1173	217	571	882	884	207	161	696	654	731	511	906	527	865	317	739	248	759	1132	840	940	785	248	122	64	250	997	587	661	346	743	277	279	31	709	1209	322	938	810	294	656	678	683	250	684	619	628	531	791	809	626	363	570	808	455	0	1174	988	1005	850	918	175	945	536	694	711	783	783	877	924	520	493	801	779	775	795	599	594	519	549	477	492	781	781	602	579	465	499	1078	1084	642	662	558	546	549	536	506	495	451	466	1115	1129	1012	1048	995	1082	1058	1134	436	452	1090	1123	1158	1191	807	821	1370	1322	760	783	366	395	748	732	418	393	483	520	1241	1225	947	983	414	471	772	868	550	566	1060	1097	1098	1055	475	426	742	730	560	587	546	551	293	347	550	549	429	472	394	381	812	852	713	697	383	408	912	896	425	411	357	404	896	884	536	503	706	653	358	380	522	547	830	848	911	1010	1251	1247	872	914	931	942	1299	1360	1224	1217	679	712	598	582	857	880	730	764	1079	1037	965	1024	414	383	618	640	1207	1194	1191	1167	689	701	800	829	738	723	693	673	403	379	674	658	580	559	594	588	503	477	537	516	611	656	567	592	1274	1335	785	797	588	641	837	864	574	570	802	832	880	960	980	1026	792	836	527	543	909	928	970	1068	648	627	617	596	769	759	563	577	1230	1206	650	674	919	912	807	842	724	712	1209	1237	1035	1058	656	625	1243	1231	642	624	542	557	1167	1196	603	625	792	775	774	758	737	760	871	933
1536	709	515	448	845	1303	472	1357	131	739	606	1256	694	420	675	461	1040	206	922	1280	738	456	572	565	731	716	707	367	555	746	559	538	82	712	504	846	609	470	950	764	579	504	577	541	378	886	888	584	575	607	822	1216	188	572	597	744	563	111	1198	672	524	514	1106	1142	522	644	702	700	473	725	391	865	501	1229	683	247	678	234	468	974	1082	1238	1231	775	629	549	886	709	905	934	1205	547	99	892	880	745	920	600	675	569	976	537	621	630	663	427	1412	1204	821	730	533	766	1174	0	445	465	551	450	999	448	658	684	632	654	680	492	539	797	768	628	650	566	546	679	708	752	755	777	781	532	538	735	709	791	832	414	306	672	652	687	699	755	779	746	757	789	775	396	279	234	198	649	562	711	614	806	790	240	273	347	239	522	508	258	210	1162	1185	957	935	646	662	826	851	874	911	129	113	299	335	903	846	594	498	742	726	440	319	248	205	855	904	589	601	732	754	727	767	1025	971	703	704	922	880	852	883	442	402	624	603	841	816	854	838	833	869	940	893	526	514	789	764	742	689	860	838	751	776	445	463	461	362	126	110	422	446	463	474	162	223	86	43	853	820	694	710	487	510	552	586	559	517	532	473	914	934	648	626	95	82	79	55	548	523	824	834	621	632	729	709	861	881	532	548	672	693	733	721	760	786	742	752	653	660	786	811	161	222	492	480	1569	1622	524	494	814	853	432	462	885	902	480	378	1350	1306	808	792	516	460	502	404	604	625	647	667	693	703	775	761	93	68	585	561	861	884	502	467	607	619	97	125	185	162	653	688	106	94	568	586	791	776	105	134	725	730	602	619	577	593	1139	1162	1474	1536
1350	398	329	178	652	1117	286	1171	422	541	244	1110	508	234	444	275	854	441	736	1248	552	270	386	243	348	518	521	403	369	620	176	236	437	481	318	660	226	410	764	578	230	121	275	355	192	700	702	201	192	305	636	1030	633	386	411	382	272	396	1012	486	141	150	920	956	336	367	340	514	90	494	403	679	315	1043	321	198	295	304	282	788	896	1052	1045	392	443	363	700	347	719	748	1019	361	544	706	497	376	734	414	345	383	790	351	435	444	477	241	1380	1172	635	544	347	580	988	445	0	82	194	104	813	43	472	498	446	292	318	306	353	594	570	266	288	264	244	493	522	566	569	591	595	230	236	504	478	605	639	322	430	486	466	501	513	569	593	560	571	603	589	585	468	358	387	266	179	328	231	620	604	343	376	628	530	220	206	607	559	1132	1155	771	749	307	323	640	665	681	718	478	494	311	278	717	660	408	312	556	540	564	443	351	394	669	718	287	299	501	523	541	581	839	785	517	518	736	694	666	697	256	216	334	355	655	630	471	455	647	683	754	707	162	150	603	578	441	458	674	652	533	557	259	277	275	374	520	536	200	158	79	90	588	649	531	488	491	458	508	524	185	162	337	303	176	134	149	90	728	748	462	440	450	463	462	438	362	337	462	451	319	330	418	408	675	695	346	362	486	507	502	490	574	600	556	566	467	474	555	580	606	667	306	294	1383	1436	222	192	628	667	246	224	502	519	492	390	1320	1276	577	561	228	172	214	312	418	439	461	481	331	341	589	575	538	513	399	375	478	501	316	281	305	317	478	506	374	397	467	502	532	539	382	400	560	545	398	369	539	544	282	299	275	291	1109	1132	1442	1504
1367	380	357	198	652	1134	320	1188	442	541	226	1138	536	276	444	303	871	461	753	1276	594	312	414	229	288	518	527	445	397	662	161	256	457	481	346	688	144	452	781	620	215	141	295	397	234	717	719	119	145	325	639	1047	653	414	439	358	292	416	1029	528	161	170	937	973	364	367	322	542	110	494	445	696	343	1060	303	218	270	346	324	805	913	1069	1062	310	471	391	710	329	736	765	1036	389	564	723	415	334	751	442	327	411	807	379	463	472	505	269	1408	1200	652	586	389	608	1005	465	82	0	195	146	830	85	500	540	488	274	300	348	395	594	570	248	270	284	264	521	550	594	597	608	623	250	256	504	478	622	639	364	472	528	508	529	541	597	627	588	599	631	617	605	488	400	407	184	97	246	149	648	632	363	396	648	550	240	226	627	579	1174	1197	788	759	289	305	657	682	681	718	498	514	353	320	745	688	436	340	598	582	606	485	371	414	686	728	307	319	501	523	569	609	867	813	545	546	764	722	683	714	284	258	354	375	672	647	389	373	664	700	782	735	182	170	631	606	423	458	691	669	533	557	301	319	317	416	540	556	242	200	121	132	608	669	551	508	467	434	550	566	205	182	357	323	94	52	169	110	738	765	490	468	470	483	482	458	390	365	420	391	312	327	400	390	692	712	374	390	514	535	502	490	602	628	584	594	495	502	555	580	626	687	346	336	1400	1453	242	212	670	709	274	244	442	437	534	432	1362	1318	577	561	258	214	256	354	446	467	489	509	313	323	631	617	558	533	424	403	396	419	358	323	325	337	498	526	394	417	509	544	552	559	410	428	560	545	418	389	567	572	264	281	287	303	1151	1174	1470	1532
1212	256	262	103	497	979	225	1033	460	386	102	980	378	247	289	208	716	573	598	1118	472	241	256	49	206	363	372	416	302	588	34	95	569	326	251	527	145	423	626	466	58	73	134	356	205	562	564	76	50	150	484	892	678	256	281	240	131	528	874	401	53	70	782	818	269	212	198	384	130	339	416	541	248	905	179	330	153	317	251	650	758	914	907	311	310	233	555	205	581	610	881	294	586	568	416	234	596	347	203	316	652	249	313	322	344	174	1250	1042	497	480	360	447	850	551	194	195	0	209	675	197	339	463	411	150	176	319	366	439	415	124	146	123	103	363	392	436	439	453	462	89	95	349	323	467	484	369	461	451	431	368	380	439	469	427	438	473	459	623	506	389	425	185	272	248	324	490	474	467	500	666	568	79	71	739	691	1080	1103	633	604	165	181	502	527	526	563	610	602	324	325	584	527	278	245	476	476	585	474	475	432	531	573	146	156	346	368	408	448	709	655	384	388	606	561	528	559	189	229	179	200	517	492	390	374	509	545	621	574	82	94	470	445	299	303	536	514	378	402	272	290	288	387	628	624	247	205	222	233	676	737	601	594	349	316	444	460	110	120	196	162	269	227	189	222	583	610	332	310	582	571	568	544	229	207	320	309	160	171	276	266	537	557	216	232	356	377	347	335	444	470	423	436	334	341	400	425	651	712	251	263	1245	1298	87	117	578	577	179	149	360	438	505	403	1223	1224	422	406	163	219	261	359	288	309	331	351	189	199	539	525	607	583	253	242	397	420	329	294	150	162	586	614	412	435	403	438	620	608	252	267	405	390	530	501	406	411	117	134	108	124	1057	1080	1312	1374
1280	395	259	137	589	1047	216	1101	359	483	264	1040	438	164	404	205	784	505	666	1178	482	200	316	223	396	460	451	333	299	550	224	196	470	441	248	590	290	340	694	508	237	185	235	285	122	630	632	265	240	265	566	960	577	316	341	402	232	449	942	416	189	172	850	886	266	327	360	444	154	454	333	609	245	973	341	262	343	234	212	718	826	982	975	456	373	293	630	367	649	678	949	291	485	636	561	403	664	344	333	313	720	281	365	374	407	171	1310	1102	565	474	277	510	918	450	104	146	209	0	743	61	402	428	376	312	338	236	283	541	512	286	308	224	204	423	452	496	499	521	525	190	196	464	438	535	576	252	360	416	396	431	443	499	523	490	501	533	519	522	405	288	324	330	243	392	295	550	534	366	399	565	467	180	166	646	598	1062	1085	701	679	304	320	570	595	618	655	517	501	241	208	647	590	338	242	486	470	494	373	374	331	599	648	247	259	461	483	471	511	769	715	447	448	666	624	596	627	186	146	294	315	585	560	535	519	577	613	684	637	184	172	533	508	428	418	604	582	493	517	189	207	205	304	527	523	130	88	47	36	575	636	500	493	511	478	438	454	145	168	296	263	240	198	213	154	658	678	392	370	483	470	467	443	292	267	482	499	279	290	415	395	605	625	276	292	416	437	462	450	504	530	486	496	397	404	515	540	550	611	236	224	1313	1366	182	152	558	597	176	183	550	583	422	320	1250	1206	537	521	158	102	144	242	348	369	391	411	351	361	519	505	506	482	329	305	542	565	246	211	265	277	485	513	311	334	397	432	519	507	312	330	520	505	443	433	469	474	260	277	235	251	1039	1062	1372	1434
537	498	601	643	314	304	649	358	908	289	604	360	422	691	386	616	41	1093	111	669	420	661	489	626	682	312	320	763	576	525	672	606	1019	354	585	182	780	743	49	395	640	724	555	606	653	209	143	711	688	525	277	277	1126	504	473	600	566	998	199	445	707	709	107	143	558	479	556	383	731	352	737	164	611	230	584	957	666	765	647	73	83	239	232	823	412	516	252	568	194	104	206	581	1034	147	832	636	119	528	503	555	145	532	491	500	356	622	791	608	188	444	680	327	175	999	813	830	675	743	0	770	361	568	583	608	608	749	796	347	318	626	604	600	620	471	466	391	421	302	317	606	606	427	404	290	331	903	909	516	536	392	380	421	410	331	320	323	338	987	954	837	873	820	907	883	959	308	324	915	948	1030	1016	632	646	1195	1147	742	765	280	301	573	557	243	218	343	380	1066	1050	772	808	239	296	597	693	424	440	932	922	923	880	310	317	567	555	385	412	371	376	275	329	384	400	254	297	219	214	637	677	538	522	208	233	806	790	250	236	182	229	721	709	361	328	531	478	183	205	347	372	702	720	736	835	1076	1072	697	739	756	767	1124	1185	1049	1042	573	606	472	456	682	705	555	589	904	862	790	849	305	257	469	491	1032	1019	1016	992	514	526	694	723	563	548	518	498	228	212	499	483	452	431	425	413	375	349	399	388	436	481	422	447	1099	1160	647	659	570	623	662	689	507	468	627	657	774	854	852	851	774	818	395	398	734	753	795	893	510	489	468	447	594	584	496	498	1055	1031	475	499	813	806	679	714	549	537	1034	1062	860	883	528	499	1068	1056	467	449	397	412	992	1021	428	459	617	600	599	583	719	742	853	915
1307	401	286	164	616	1074	243	1128	386	510	247	1067	465	191	431	232	811	444	693	1205	509	227	343	246	351	487	478	360	326	577	179	223	440	468	275	617	229	367	721	535	233	124	262	312	149	657	659	204	195	292	593	987	604	343	368	385	259	399	969	443	144	153	877	913	293	354	343	471	93	481	360	636	272	1000	324	201	298	261	239	745	853	1009	1002	395	400	320	657	350	676	705	976	318	512	663	500	379	691	371	348	340	747	308	392	401	434	198	1337	1129	592	501	304	537	945	448	43	85	197	61	770	0	429	455	403	295	321	263	310	568	539	269	291	251	231	450	479	523	526	548	552	217	223	491	465	562	603	279	387	443	423	458	470	526	550	517	528	560	546	549	432	315	351	269	182	331	234	577	561	346	379	592	494	207	193	610	562	1089	1112	728	706	310	326	597	622	645	682	481	497	268	235	674	617	365	269	513	497	521	400	354	358	626	675	274	286	488	510	498	538	796	742	474	475	693	651	623	654	213	173	321	342	612	587	474	458	604	640	711	664	165	153	560	535	444	445	631	609	520	544	216	234	232	331	523	539	157	115	36	47	591	652	527	491	494	461	465	481	172	165	323	290	179	137	152	93	685	705	419	397	453	466	465	441	319	294	465	454	306	317	421	411	632	652	303	319	443	464	489	477	531	557	513	523	424	431	542	567	577	638	263	251	1340	1393	209	179	585	624	203	210	505	522	449	347	1277	1233	564	548	185	129	171	269	375	396	418	438	334	344	546	532	533	509	356	332	481	504	273	238	292	304	481	509	338	361	424	459	535	534	339	357	547	532	401	372	496	501	285	302	262	278	1066	1089	1399	1461
898	258	285	302	232	665	310	719	567	148	284	711	211	350	199	275	402	752	284	849	262	326	148	290	399	125	116	497	260	398	352	265	678	167	244	189	460	477	312	237	304	383	219	340	312	248	250	391	368	189	209	578	785	163	132	352	225	657	560	234	385	368	468	504	217	193	278	136	390	165	471	227	328	591	291	616	348	424	331	336	444	600	593	540	71	175	273	317	267	285	567	306	693	248	561	353	273	253	231	280	338	191	216	225	5	281	981	773	183	286	414	170	536	658	472	500	339	402	361	429	0	369	317	288	288	426	473	206	177	306	284	259	279	210	239	180	210	164	124	265	265	240	217	178	219	562	568	343	337	91	103	210	240	97	108	212	203	721	613	496	532	500	587	563	639	229	213	574	607	764	675	291	305	854	806	844	867	319	322	253	237	188	213	261	298	725	709	431	467	246	189	256	352	266	282	666	581	582	539	242	291	231	219	198	225	70	110	440	386	107	123	278	231	214	245	296	336	202	181	203	178	535	519	195	231	283	236	380	368	132	107	291	238	222	200	160	185	379	397	395	494	735	731	356	398	415	426	783	844	708	701	407	428	294	298	341	364	214	248	584	542	449	508	301	296	192	214	691	678	675	651	173	185	432	452	237	222	278	258	223	243	158	142	184	163	238	226	188	214	146	175	95	140	235	260	758	819	331	343	931	984	321	348	380	341	286	316	503	583	586	510	954	988	227	211	393	412	454	552	230	212	191	170	301	311	354	340	714	690	134	158	542	544	413	401	213	201	693	721	519	542	262	288	727	715	126	108	210	225	651	680	67	134	288	272	263	247	821	844	1043	1105
1004	426	145	256	447	771	178	825	489	366	363	731	115	176	392	169	572	674	486	859	158	190	211	361	510	385	376	232	195	244	374	329	600	427	187	360	485	212	482	184	375	337	304	75	202	463	455	416	390	328	424	761	693	196	234	501	289	579	666	92	339	322	638	610	208	361	445	148	344	425	206	442	111	697	440	552	456	346	176	506	614	723	699	626	319	173	488	466	482	445	690	71	615	419	710	502	444	134	398	103	524	196	131	140	270	185	991	783	398	150	149	240	659	580	394	436	359	324	531	351	265	0	52	411	437	218	265	424	395	385	407	323	343	119	148	200	176	379	339	329	329	452	426	393	434	484	490	92	72	198	186	176	199	233	244	238	223	456	535	418	454	525	533	588	585	255	239	496	529	499	597	330	316	776	728	741	764	534	537	399	404	403	428	476	513	647	631	353	389	417	360	320	306	162	146	401	503	504	461	457	506	316	328	449	471	318	278	474	420	190	174	371	367	429	460	250	258	341	320	418	393	684	668	410	446	443	407	334	322	285	322	459	406	437	415	420	445	171	189	317	416	657	653	278	320	337	348	705	766	630	623	576	577	114	130	295	318	278	312	530	488	403	444	516	511	203	182	613	600	597	573	274	249	581	601	374	385	446	426	438	458	222	238	138	144	450	438	208	234	216	201	343	299	495	520	680	741	176	188	1037	1090	332	302	234	273	240	270	652	732	321	423	929	885	487	471	347	334	376	474	160	139	202	181	450	460	195	181	636	612	302	278	691	693	148	183	334	340	615	643	441	464	73	108	649	637	258	276	470	485	573	602	332	265	359	376	334	350	718	741	1053	1115
987	478	197	308	499	754	230	808	541	418	415	710	132	228	444	221	557	726	475	807	120	242	263	413	562	437	428	284	247	192	426	381	652	479	239	412	537	264	467	146	427	389	356	127	254	515	507	468	442	380	476	744	745	248	286	553	341	631	649	109	391	374	623	593	260	413	497	200	396	477	258	494	163	680	492	604	508	398	228	491	599	706	682	678	371	225	540	518	534	430	673	123	667	471	762	554	469	186	450	155	509	248	183	192	322	237	939	731	450	112	201	279	642	632	446	488	411	376	516	403	317	52	0	463	489	270	317	476	447	437	459	375	395	171	176	223	193	431	391	381	381	504	478	445	486	536	542	40	20	250	238	193	178	285	296	261	246	508	587	470	506	577	585	640	637	278	262	548	581	551	649	382	368	828	780	689	712	586	589	451	456	455	480	528	565	699	683	405	441	469	412	372	358	124	108	453	555	556	513	509	558	368	380	501	523	370	330	457	405	242	226	356	403	481	512	302	310	393	372	470	445	736	720	462	498	428	459	386	374	337	374	511	458	489	467	472	497	223	241	369	468	709	705	330	372	389	400	757	818	682	675	628	629	108	92	347	370	330	364	582	540	455	496	568	563	255	234	665	652	649	625	326	301	633	653	426	437	498	478	490	510	274	290	190	196	502	490	231	257	255	226	395	351	547	572	732	793	228	240	1020	1073	384	354	182	221	292	322	704	784	373	475	877	833	539	523	399	386	428	526	212	191	254	233	502	512	143	129	688	664	354	330	743	745	200	235	386	392	667	695	493	516	125	125	701	689	310	328	522	537	625	654	384	317	411	428	386	402	666	689	1001	1063
1119	106	348	206	386	886	328	940	563	293	48	911	383	350	196	311	623	671	505	1049	462	344	229	120	137	270	279	519	323	593	116	140	667	233	307	450	224	526	533	437	112	171	130	459	308	469	471	155	132	102	373	799	781	244	214	90	136	626	781	406	151	168	689	725	280	119	48	331	228	246	519	448	351	812	29	428	86	420	354	557	665	821	814	278	233	238	444	55	488	517	788	397	689	475	299	91	503	355	79	382	559	254	318	327	267	277	1181	973	404	485	463	370	757	654	292	274	150	312	582	295	262	515	463	0	26	422	469	328	322	70	48	128	148	368	397	380	410	360	385	134	140	238	230	374	373	472	564	498	483	291	303	410	440	350	361	412	403	726	609	492	528	264	351	327	403	429	413	570	603	769	671	160	174	837	789	1044	1067	526	493	67	57	409	434	415	452	708	705	427	428	507	450	283	348	466	481	688	577	578	535	438	462	142	130	253	257	331	371	640	586	307	323	531	484	435	466	292	332	130	151	424	399	273	257	416	452	544	497	180	192	393	368	175	210	443	421	285	291	375	393	391	490	731	727	350	308	325	336	779	840	704	697	199	166	449	465	213	218	201	167	348	306	287	320	472	517	284	306	680	674	671	647	214	212	170	190	90	90	126	142	444	464	221	223	361	356	236	224	388	414	346	375	257	264	289	314	754	815	354	366	1152	1205	190	220	580	541	282	252	241	321	608	506	1154	1188	311	295	266	322	364	462	293	314	283	304	39	49	544	530	710	686	176	199	280	282	432	397	124	114	689	717	515	538	408	443	723	711	208	190	294	279	628	599	329	334	86	102	109	125	1021	1044	1243	1305
1119	132	322	180	404	886	302	940	537	293	22	911	357	324	196	285	623	645	505	1049	451	318	226	94	163	270	279	493	297	567	90	114	641	233	281	450	198	500	533	437	86	145	104	433	282	469	471	129	106	98	391	799	755	235	214	116	110	600	781	380	125	142	689	725	254	119	74	331	202	246	493	448	325	812	55	402	112	394	328	557	665	821	814	285	233	212	462	81	488	517	788	371	663	475	325	117	503	329	79	356	559	228	292	301	267	251	1181	973	404	459	437	370	757	628	266	248	124	286	582	269	262	489	437	26	0	396	443	346	322	44	22	102	122	342	371	380	410	360	385	108	114	256	230	374	391	446	538	472	457	291	303	410	440	350	361	412	403	700	583	466	502	238	325	301	377	429	413	544	577	743	645	134	148	811	763	1044	1067	540	511	41	57	409	434	433	470	682	679	401	402	507	450	257	322	455	455	662	551	552	509	438	480	116	104	253	275	331	371	640	586	307	323	531	484	435	466	266	306	127	148	424	399	299	283	416	452	544	497	154	166	393	368	175	210	443	421	285	309	349	367	365	464	705	701	324	282	299	310	753	814	678	671	225	192	423	439	187	192	175	141	322	280	261	294	490	517	284	289	654	648	645	621	202	186	196	216	64	79	152	142	444	464	195	211	335	356	254	242	388	414	346	375	257	264	307	332	728	789	328	340	1152	1205	164	194	557	541	256	226	267	347	582	480	1154	1188	329	313	240	296	338	436	267	288	283	304	65	75	518	504	684	660	176	196	306	308	406	371	98	110	663	691	489	512	382	417	697	685	208	190	312	297	602	573	329	334	60	76	83	99	1021	1044	1243	1305
1222	477	185	216	613	989	132	1043	401	507	374	949	333	88	443	167	790	586	690	1074	376	120	300	333	506	484	475	254	225	444	334	306	512	480	195	571	445	234	700	402	347	297	345	179	114	654	656	376	350	375	590	979	619	285	323	512	331	491	884	310	299	282	856	828	220	412	470	366	304	493	228	633	171	915	451	464	453	258	106	724	832	941	917	611	397	262	654	477	673	663	908	211	527	630	716	513	655	270	443	239	742	246	291	300	431	179	1206	998	589	368	171	458	877	492	306	348	319	236	749	263	426	322	270	422	448	0	47	565	536	396	418	334	314	337	366	418	394	545	549	300	306	503	477	559	600	396	402	310	290	409	397	394	417	444	455	456	441	478	447	330	366	485	445	548	497	473	457	408	441	521	509	290	276	688	640	956	979	725	703	414	430	594	619	642	679	559	543	265	301	628	571	362	266	380	364	423	415	416	373	623	672	357	369	500	522	495	489	692	638	401	385	589	578	620	651	210	170	392	371	609	584	690	674	601	637	661	618	294	282	496	532	510	457	628	606	519	544	83	65	229	328	569	565	190	232	249	260	617	678	542	535	621	588	332	348	255	278	320	354	442	400	363	356	682	702	329	307	525	512	509	485	316	291	592	609	389	400	497	477	629	649	300	316	353	362	501	489	426	452	434	419	421	428	554	579	592	653	130	118	1255	1308	292	262	452	491	200	230	660	738	343	344	1144	1100	576	560	302	246	288	386	285	306	328	348	461	471	413	399	548	524	353	329	697	704	140	105	375	387	527	555	353	376	291	326	561	549	336	354	559	544	485	514	493	476	370	387	345	361	933	956	1268	1330
1175	430	138	169	566	942	85	996	354	460	327	902	286	41	396	120	743	539	643	1027	329	73	253	286	459	437	428	207	178	397	287	259	465	433	148	524	398	187	653	355	300	250	298	132	67	607	609	329	303	328	543	932	572	238	276	465	284	444	837	263	252	235	809	781	173	365	423	319	257	446	181	586	124	868	404	417	406	211	59	677	785	894	870	564	350	215	607	430	626	616	861	164	480	583	669	466	608	223	396	192	695	199	244	253	384	132	1159	951	542	321	124	411	830	445	259	301	272	189	702	216	379	275	223	375	401	47	0	518	489	349	371	287	267	290	319	371	347	498	502	253	259	456	430	512	553	349	355	263	243	362	350	347	370	397	408	409	394	431	400	283	319	438	398	501	450	426	410	361	394	474	462	243	229	641	593	909	932	678	656	367	383	547	572	595	632	512	496	218	254	581	524	315	219	333	317	376	368	369	326	576	625	310	322	453	475	448	442	645	591	354	338	542	531	573	604	163	123	345	324	562	537	643	627	554	590	614	571	247	235	449	485	463	410	581	559	472	497	36	18	182	281	522	518	143	185	202	213	570	631	495	488	574	541	285	301	208	231	273	307	395	353	316	309	635	655	282	260	478	465	462	438	269	244	545	562	342	353	450	430	582	602	253	269	306	315	454	442	379	405	387	372	374	381	507	532	545	606	83	71	1208	1261	245	215	405	444	153	183	613	691	296	297	1097	1053	529	513	255	199	241	339	238	259	281	301	414	424	366	352	501	477	306	282	650	657	93	58	328	340	480	508	306	329	244	279	514	502	289	307	512	497	438	467	446	429	323	340	298	314	886	909	1221	1283
826	209	366	383	116	593	391	647	648	0	315	649	288	431	97	356	330	833	212	886	339	407	229	337	393	23	32	598	341	475	383	329	759	65	325	172	491	578	240	314	351	438	266	441	393	176	178	422	399	236	103	506	866	244	213	311	295	738	488	311	418	429	396	432	298	190	267	237	451	63	572	155	409	519	295	677	377	505	412	264	372	528	521	534	152	256	174	279	195	224	495	407	774	182	555	347	210	354	214	381	266	272	317	326	143	362	1018	810	111	363	515	247	464	739	541	541	386	483	289	510	148	470	418	319	319	507	554	0	29	337	315	317	337	311	332	257	287	67	107	323	329	138	115	81	103	643	649	420	438	216	204	287	317	155	144	289	280	811	694	577	613	531	618	594	670	306	290	655	688	854	756	349	363	935	887	921	944	247	223	284	268	116	141	145	182	806	790	512	548	229	172	337	433	343	359	767	662	663	620	145	192	278	266	96	123	161	183	477	423	208	224	302	255	142	173	377	417	249	240	131	106	529	513	123	159	266	219	441	429	155	118	242	189	150	128	58	83	460	478	476	575	816	812	437	479	496	507	864	925	789	782	305	338	371	375	402	425	295	326	615	573	510	569	202	224	283	305	772	759	756	732	254	266	423	446	274	259	229	209	151	171	239	223	285	264	136	124	265	291	223	252	176	221	133	158	839	900	412	424	859	912	379	409	457	418	367	397	497	577	687	591	991	1035	125	109	455	493	535	633	311	313	282	271	305	295	431	417	795	771	215	239	536	535	514	482	260	248	774	802	600	623	363	365	808	796	207	189	108	123	732	761	215	282	328	311	310	294	898	921	1080	1142
855	218	395	412	87	622	420	676	677	29	339	678	317	460	121	385	359	862	241	915	368	436	258	361	368	52	61	627	370	504	407	353	788	90	354	201	510	607	269	343	375	462	290	470	422	173	207	446	423	260	74	525	895	273	242	286	319	767	517	340	442	453	425	461	327	214	276	266	475	88	601	184	438	548	270	701	352	534	441	293	401	555	550	509	181	285	145	254	224	253	522	436	803	211	530	322	239	383	238	410	289	301	346	355	172	391	1047	839	140	392	544	276	491	768	565	565	410	512	318	539	177	499	447	343	325	536	583	29	0	361	339	341	361	340	361	286	316	96	136	347	353	113	139	110	74	672	678	449	467	245	233	316	346	184	173	318	309	840	723	606	642	555	642	613	694	335	319	684	717	883	785	373	387	964	916	950	973	227	194	308	292	145	170	116	153	835	819	541	577	258	201	366	462	372	388	796	691	692	649	139	163	302	290	121	98	190	212	506	452	237	253	331	284	171	202	406	446	273	264	160	135	504	488	152	188	295	248	465	453	184	147	266	213	179	157	83	58	489	507	505	604	845	841	466	508	525	536	893	954	818	811	280	313	400	404	426	449	324	350	639	597	534	593	173	221	312	334	801	788	785	761	283	295	398	421	298	283	238	233	180	200	268	252	314	293	111	99	294	320	252	281	205	250	108	133	868	929	441	453	888	941	403	433	486	447	396	426	472	552	716	620	1020	1064	100	84	479	522	564	662	340	342	311	300	280	270	460	446	824	800	244	268	511	510	543	511	284	272	803	831	629	652	392	394	837	825	236	218	83	98	761	790	244	311	352	335	334	318	927	950	1109	1171
1119	132	322	180	404	886	302	940	537	293	22	911	357	324	196	285	623	645	505	1049	451	318	226	94	163	270	279	493	297	567	90	114	641	233	281	450	198	500	533	437	86	145	104	433	282	469	471	129	106	98	391	799	755	235	214	116	110	600	781	380	125	142	689	725	254	119	74	331	202	246	493	448	325	812	55	402	112	394	328	557	665	821	814	285	233	212	462	81	488	517	788	371	663	475	325	117	503	329	79	356	559	228	292	301	267	251	1181	973	404	459	437	370	757	628	266	248	124	286	582	269	262	489	437	26	52	396	443	346	322	0	22	102	122	342	371	380	410	360	385	108	114	256	230	374	391	446	538	472	457	291	303	410	440	350	361	412	403	700	583	466	502	238	325	301	377	429	413	544	577	743	645	134	148	811	763	1044	1067	540	511	41	57	409	434	433	470	682	679	401	402	507	450	257	322	455	455	662	551	552	509	438	480	116	104	253	275	331	371	640	586	307	323	531	484	435	466	266	306	127	148	424	399	299	283	416	452	544	497	154	166	393	368	175	210	443	421	285	309	349	367	365	464	705	701	324	282	299	310	753	814	678	671	225	192	423	439	187	192	175	141	322	280	261	294	490	517	284	289	654	648	645	621	202	186	196	216	64	79	152	142	444	464	195	211	335	356	254	242	388	414	346	375	257	264	307	332	728	789	328	340	1152	1205	164	194	557	541	256	226	267	347	582	480	1154	1188	329	313	240	296	338	436	267	288	283	304	65	75	518	504	684	660	176	196	306	308	406	371	98	110	663	691	489	512	382	417	697	685	208	190	312	297	602	573	329	334	60	76	83	99	1021	1044	1243	1305
1141	154	300	158	426	908	280	962	515	315	0	933	335	302	218	263	645	623	527	1071	429	296	213	72	147	292	301	471	275	545	68	92	619	255	259	472	176	478	555	423	64	123	91	411	260	491	493	107	84	103	413	821	733	213	236	138	88	578	803	358	103	120	711	747	232	141	96	341	180	268	471	470	303	834	77	380	93	372	306	579	687	843	836	263	255	190	484	103	510	539	810	349	641	497	347	139	525	307	101	334	581	206	270	279	289	229	1203	995	426	437	415	392	779	606	244	226	102	264	604	247	284	467	415	48	74	374	421	368	344	22	0	80	100	320	349	393	396	382	407	86	92	278	252	396	413	424	516	450	435	313	325	396	426	372	383	430	416	678	561	444	480	216	303	279	355	447	431	522	555	721	623	112	126	789	741	1037	1060	562	533	63	79	431	456	455	492	660	657	379	380	529	472	235	300	433	433	640	529	530	487	460	502	103	109	275	297	353	393	662	608	329	345	553	506	457	488	244	284	132	153	446	421	321	305	438	474	566	519	132	144	415	390	197	232	465	443	307	331	327	345	343	442	683	679	302	260	277	288	731	792	656	649	247	214	401	417	165	170	153	119	300	258	239	272	512	539	289	267	632	626	623	599	186	164	218	238	86	101	174	164	466	486	173	189	313	334	276	264	401	427	368	393	279	286	329	354	706	767	306	318	1174	1227	142	172	535	534	234	204	289	369	560	458	1176	1181	351	335	218	274	316	414	245	266	288	308	87	97	496	482	662	638	198	199	328	330	384	349	103	115	641	669	467	490	360	395	675	663	209	212	334	319	580	551	351	356	38	55	61	77	1014	1037	1265	1327
1137	211	237	78	428	904	200	958	435	317	80	897	295	222	220	183	641	603	523	1035	389	216	173	75	227	294	303	391	235	505	117	12	546	257	219	447	228	398	551	383	89	127	51	331	180	487	489	159	133	81	415	817	653	173	198	218	48	525	799	318	129	112	707	743	192	143	176	301	134	270	391	466	223	830	157	360	173	292	226	575	683	839	832	343	230	150	486	183	506	535	806	269	561	493	427	219	521	267	149	291	577	166	230	239	264	149	1167	959	422	397	335	367	775	526	224	244	83	184	600	211	259	427	375	128	154	294	341	370	346	102	124	0	20	280	309	353	356	378	382	6	12	280	254	392	415	344	436	410	395	288	300	356	386	347	358	390	376	598	481	364	400	268	341	331	393	407	391	442	475	641	543	32	46	722	674	997	1020	558	535	120	136	427	452	457	494	593	577	299	300	504	447	195	220	393	393	560	449	450	407	456	504	63	75	277	299	328	368	626	572	304	305	523	481	453	484	164	204	110	131	442	417	401	385	434	470	541	494	124	112	390	365	244	234	461	439	309	333	247	265	263	362	603	599	222	180	197	208	651	712	576	569	327	294	361	377	85	108	113	79	338	296	193	252	514	535	249	227	559	546	543	519	146	124	298	318	95	106	231	211	462	482	133	149	273	294	278	266	361	387	343	353	254	261	331	356	626	687	226	238	1170	1223	62	92	495	494	154	124	369	449	480	378	1140	1141	353	337	138	194	236	334	205	226	248	268	167	177	456	442	582	558	183	159	408	410	304	269	81	93	561	589	387	410	320	355	595	583	169	187	336	321	519	531	326	331	76	93	51	67	974	997	1229	1291
1117	191	240	98	408	884	220	938	455	297	60	877	275	242	200	203	621	623	503	1015	369	236	153	58	207	274	283	411	215	485	126	32	566	237	199	427	236	418	531	363	72	147	31	351	200	467	469	167	142	61	395	797	673	153	178	198	28	545	779	298	149	132	687	723	172	123	156	281	154	250	411	446	243	810	137	380	153	312	246	555	663	819	812	323	210	130	466	163	486	515	786	289	581	473	407	199	501	247	129	274	557	146	210	219	244	169	1147	939	402	377	355	347	755	546	244	264	103	204	580	231	239	407	355	108	134	314	361	350	326	82	104	20	0	260	289	333	336	358	362	26	32	260	234	372	395	364	456	390	375	268	280	336	366	327	338	370	356	618	501	384	420	276	361	339	413	387	371	462	495	661	563	52	66	742	694	977	1000	538	515	100	116	407	432	437	474	613	597	319	320	484	427	175	240	373	373	580	469	470	427	436	484	43	55	257	279	308	348	606	552	284	285	503	461	433	464	184	224	90	111	422	397	381	365	414	450	521	474	144	132	370	345	224	214	441	419	289	313	267	285	283	382	623	619	242	200	217	228	671	732	596	589	307	274	341	357	105	128	93	59	358	316	213	272	494	515	229	207	579	566	563	539	126	104	278	298	75	86	211	191	442	462	113	129	253	274	258	246	341	367	323	333	234	241	311	336	646	707	246	258	1150	1203	82	112	475	474	174	144	349	429	500	398	1120	1121	333	317	158	214	256	354	185	206	228	248	147	157	436	422	602	578	163	139	388	390	324	289	61	73	581	609	407	430	300	335	615	603	149	167	316	301	539	551	306	311	56	73	31	47	954	977	1209	1271
910	383	208	323	384	677	256	731	588	303	320	650	15	295	349	235	478	773	396	788	109	268	168	318	467	322	313	351	183	242	386	286	699	364	192	297	496	331	388	103	332	404	261	194	321	400	392	427	402	285	361	667	806	153	191	458	246	678	572	38	406	389	544	516	165	318	402	88	411	362	325	379	208	603	397	637	413	445	254	412	520	629	605	583	265	130	425	423	419	351	596	178	714	356	667	459	381	125	355	152	430	153	88	97	215	260	920	712	335	133	268	162	565	679	493	521	363	423	437	450	210	199	171	368	394	337	384	361	332	342	364	280	300	0	29	106	76	316	276	286	286	409	383	330	371	583	589	147	167	143	131	76	106	170	181	144	129	575	634	517	553	536	618	599	670	161	145	595	628	618	696	312	326	875	827	717	740	471	474	356	361	340	365	413	450	746	730	452	488	354	297	277	373	113	129	520	602	603	560	394	443	273	285	395	422	255	215	380	326	135	119	277	304	366	397	317	357	298	277	355	330	641	625	347	383	349	344	401	389	222	259	416	363	374	352	357	382	290	308	416	515	756	752	377	419	436	447	804	865	729	722	533	534	98	114	362	385	235	269	615	573	470	529	453	448	160	139	712	699	696	672	231	206	538	558	331	342	403	383	375	395	179	195	95	89	407	395	114	140	138	109	289	244	432	457	779	840	254	266	943	996	342	369	232	214	307	337	609	689	440	531	893	861	424	408	414	433	475	573	117	96	159	138	407	417	193	179	735	711	259	235	648	650	267	302	291	297	714	742	540	563	116	92	748	736	215	233	407	422	672	701	277	210	316	333	291	307	694	717	982	1044
915	354	179	294	363	682	227	736	559	282	291	656	44	266	320	206	483	744	401	794	138	239	139	289	438	301	292	322	154	271	357	257	670	343	163	276	467	302	393	132	303	375	232	165	292	379	371	398	373	256	340	672	777	124	162	429	217	649	577	67	377	360	549	521	136	289	373	59	382	341	296	358	179	608	368	608	384	416	225	417	525	634	610	554	236	101	404	394	398	356	601	149	685	335	638	430	360	96	326	123	435	124	59	68	186	231	926	718	314	162	239	156	570	650	464	492	334	394	442	421	181	194	142	339	365	308	355	340	311	313	335	251	271	29	0	111	105	295	255	257	257	380	354	309	350	554	560	176	162	114	102	105	135	149	160	149	134	546	605	488	524	507	589	570	641	166	150	566	599	589	667	283	297	846	798	746	769	450	453	327	332	319	344	392	429	717	701	423	459	333	276	248	344	142	158	491	573	574	531	373	422	244	256	374	399	234	194	385	331	106	90	282	283	345	376	288	328	269	248	334	309	612	596	326	362	354	323	372	360	201	238	387	334	353	331	336	361	261	279	387	486	727	723	348	390	407	418	775	836	700	693	504	505	127	143	333	356	206	240	586	544	441	500	432	427	131	110	683	670	667	643	202	177	509	529	302	313	374	354	354	374	150	166	66	60	378	366	119	145	132	112	260	215	411	436	750	811	225	237	948	1001	313	340	261	243	278	308	580	660	411	502	899	890	403	387	385	404	446	544	88	67	130	109	378	388	222	208	706	682	230	206	619	621	238	273	262	268	685	713	511	534	87	121	719	707	186	204	386	401	643	672	248	181	287	304	262	278	723	746	988	1050
864	376	254	369	338	631	302	685	634	257	366	604	31	322	342	281	432	819	350	742	82	314	207	364	513	276	267	378	229	223	432	332	745	318	238	251	542	358	342	57	378	450	307	221	348	354	346	473	448	307	315	621	839	199	182	470	292	724	526	54	452	435	498	470	211	311	396	52	457	316	352	333	254	557	409	683	459	491	300	366	474	583	559	629	235	176	379	435	373	305	550	217	760	310	679	471	335	171	349	198	384	199	134	143	185	306	874	666	289	106	295	116	519	725	539	567	409	469	391	496	180	215	198	406	406	364	411	315	286	388	402	326	346	104	75	0	30	270	230	332	332	391	368	284	325	629	635	163	183	113	101	30	60	124	135	98	83	602	680	563	599	582	664	645	716	115	99	641	674	645	742	358	372	921	873	671	694	425	428	371	355	294	319	367	404	792	776	498	534	308	251	323	419	86	102	547	648	649	606	348	397	319	331	349	376	209	169	334	280	105	96	231	258	320	351	363	403	320	299	309	284	653	637	301	337	303	298	447	435	176	213	409	356	328	306	311	336	317	335	462	561	802	798	423	465	482	493	850	911	775	768	526	546	114	118	408	431	281	315	661	619	516	575	407	402	160	182	758	745	742	718	277	252	550	570	355	340	396	376	329	349	225	241	117	96	389	377	68	94	92	63	259	214	386	411	825	886	300	312	897	950	388	415	207	168	353	383	621	701	467	569	847	815	378	362	460	479	521	619	163	142	159	138	419	429	174	160	781	757	252	276	660	662	294	329	331	319	760	788	586	609	143	108	794	782	244	226	361	376	718	747	247	180	362	379	337	353	648	671	936	998
834	346	251	366	308	601	299	655	631	227	363	575	61	346	312	278	402	816	320	713	112	311	177	361	487	246	237	402	226	248	429	329	742	288	235	221	539	382	312	87	375	447	304	245	372	324	316	470	445	277	285	591	849	171	152	440	289	721	496	84	449	432	468	440	208	281	366	22	454	286	376	303	251	527	379	680	436	488	297	336	444	553	529	626	205	173	349	405	343	275	520	221	757	280	649	441	305	168	319	195	354	196	131	140	155	303	845	637	259	136	319	86	489	722	536	564	406	466	361	493	150	245	222	376	376	388	435	285	256	385	372	323	343	110	105	30	0	240	200	329	329	361	338	254	295	626	632	193	213	83	71	60	90	94	105	68	53	626	677	560	596	579	661	642	713	85	69	638	671	669	739	355	369	918	870	694	717	395	398	341	325	264	289	337	374	789	773	495	531	278	221	320	416	116	132	571	645	646	603	318	367	316	307	319	346	179	139	304	250	75	66	201	228	290	321	360	400	290	269	279	254	623	607	271	307	273	268	444	432	146	183	379	326	298	276	281	306	341	359	459	558	799	795	420	462	479	490	847	908	772	765	496	516	144	148	405	428	278	312	658	616	513	572	377	372	130	152	755	742	739	715	261	249	520	540	325	310	366	346	299	319	222	230	92	71	359	347	38	64	62	33	229	184	356	381	822	883	297	309	867	920	385	412	230	191	350	380	591	671	491	574	818	838	348	332	457	476	518	616	160	139	129	108	389	399	204	190	778	754	222	246	630	632	318	353	301	289	757	785	583	606	167	138	791	779	214	196	331	346	715	744	217	150	359	360	334	335	671	694	907	969
814	276	358	385	148	581	393	635	650	67	367	637	221	433	164	358	318	835	200	819	272	409	231	373	460	90	98	531	333	408	435	348	761	132	327	105	543	511	228	247	387	466	302	374	395	164	166	474	451	272	125	494	868	246	215	378	308	740	476	244	468	451	384	420	300	257	334	170	473	130	505	143	370	507	362	699	431	507	404	252	360	516	509	601	154	258	189	346	183	201	483	340	776	164	622	414	189	287	281	314	254	274	250	259	79	364	951	743	99	296	448	180	452	741	555	583	422	485	277	512	84	403	351	371	371	509	556	125	96	389	367	342	362	244	265	190	220	0	40	348	348	205	182	94	135	645	651	353	371	149	137	220	250	88	77	222	213	755	696	579	615	583	670	646	722	239	223	657	690	798	758	374	388	937	889	854	877	235	238	336	320	104	129	177	214	808	792	514	550	162	105	339	435	276	292	700	664	665	622	158	207	314	302	163	190	94	116	410	356	141	157	235	188	130	161	379	419	285	264	119	94	596	580	111	147	199	152	463	451	88	51	309	256	138	116	125	150	462	480	478	577	818	814	439	481	498	509	866	927	791	784	372	405	304	308	424	447	297	331	667	625	532	591	217	212	226	248	774	761	758	734	256	268	490	513	320	305	296	276	139	159	241	225	218	197	203	191	198	224	156	185	178	223	200	225	841	902	404	416	847	900	404	431	390	351	369	399	564	644	620	593	924	968	192	176	476	495	537	635	267	246	225	204	372	362	364	350	797	773	217	241	603	602	447	475	296	284	776	804	602	625	296	298	810	798	209	191	175	190	734	763	151	216	371	355	346	330	831	854	1013	1075
799	236	364	381	108	566	389	620	646	27	342	622	261	429	124	354	303	831	185	859	312	405	227	364	420	50	58	571	339	448	410	344	757	92	323	145	518	551	213	287	378	462	293	414	391	149	151	449	426	263	85	479	864	242	211	338	304	736	461	284	445	447	369	405	296	217	294	210	469	90	545	128	407	492	322	695	404	503	410	237	345	501	494	561	150	254	149	306	168	197	468	380	772	155	582	374	183	327	241	354	239	270	290	299	119	360	991	783	84	336	488	220	437	737	551	568	413	481	262	508	124	443	391	346	346	505	552	85	56	364	342	338	358	284	305	230	260	40	0	344	344	165	142	54	95	641	647	393	411	189	177	260	290	128	117	262	253	795	692	575	611	558	645	621	697	279	263	653	686	838	754	370	384	933	885	894	917	220	198	311	295	89	114	137	174	804	788	510	546	202	145	335	431	316	332	740	660	661	618	118	167	305	293	123	150	134	156	450	396	181	197	275	228	115	146	375	415	276	260	104	79	556	540	96	132	239	192	459	447	128	91	269	216	123	101	85	110	458	476	474	573	814	810	435	477	494	505	862	923	787	780	332	365	344	348	420	443	293	327	642	600	528	587	177	197	266	288	770	757	754	730	252	264	450	473	301	286	256	236	124	144	237	221	258	237	163	151	238	264	196	225	174	219	160	185	837	898	410	422	832	885	400	427	430	391	365	395	524	604	660	589	964	1008	152	136	472	491	533	631	307	286	265	244	332	322	404	390	793	769	213	237	563	562	487	480	287	275	772	800	598	621	336	338	806	794	205	187	135	150	730	759	191	256	355	338	337	321	871	894	1053	1115
1137	217	243	84	434	904	206	958	441	323	86	897	295	228	226	189	641	609	523	1035	389	222	173	81	233	300	308	397	235	505	123	6	552	263	219	447	234	404	551	383	95	133	57	337	186	487	489	165	139	87	421	817	659	173	198	224	54	531	799	318	135	118	707	743	192	149	182	301	140	276	397	466	229	830	163	366	179	298	232	575	683	839	832	349	230	150	487	189	506	535	806	275	567	493	433	225	521	267	155	294	577	166	230	239	264	155	1167	959	422	397	341	367	775	532	230	250	89	190	600	217	259	427	375	134	160	300	347	376	352	108	130	46	26	280	309	353	356	378	382	0	6	286	260	392	421	350	442	410	395	288	300	356	386	347	358	390	376	604	487	370	406	274	347	337	399	407	391	448	481	647	549	38	52	728	680	997	1020	558	536	126	142	427	452	463	500	599	583	305	306	504	447	195	226	393	393	566	455	456	413	456	505	69	81	283	305	328	368	626	572	304	305	523	481	453	484	170	210	116	137	442	417	407	391	434	470	541	494	130	118	390	365	250	240	461	439	315	339	253	271	269	368	609	605	228	186	203	214	657	718	582	575	333	300	361	377	91	114	113	79	344	302	199	258	515	535	249	227	565	552	549	525	146	124	304	324	101	112	237	217	462	482	133	149	273	294	284	272	361	387	343	353	254	261	337	362	632	693	232	244	1170	1223	68	98	495	494	160	130	375	455	486	384	1140	1141	359	343	144	200	242	340	205	226	248	268	173	183	456	442	588	564	183	159	414	416	310	275	87	99	567	595	393	416	320	355	601	589	169	187	342	327	525	537	326	331	82	99	57	73	974	997	1229	1291
1137	211	237	78	428	904	200	958	435	317	80	897	295	222	220	183	641	603	523	1035	389	216	173	75	227	294	303	391	235	505	117	12	546	257	219	447	228	398	551	383	89	127	51	331	180	487	489	159	133	81	415	817	653	173	198	218	48	525	799	318	129	112	707	743	192	143	176	301	134	270	391	466	223	830	157	360	173	292	226	575	683	839	832	343	230	150	486	183	506	535	806	269	561	493	427	219	521	267	149	291	577	166	230	239	264	149	1167	959	422	397	335	367	775	526	224	244	83	184	600	211	259	427	375	128	154	294	341	370	346	102	124	40	20	280	309	353	356	378	382	6	0	280	254	392	415	344	436	410	395	288	300	356	386	347	358	390	376	598	481	364	400	268	341	331	393	407	391	442	475	641	543	32	46	722	674	997	1020	558	535	120	136	427	452	457	494	593	577	299	300	504	447	195	220	393	393	560	449	450	407	456	504	63	75	277	299	328	368	626	572	304	305	523	481	453	484	164	204	110	131	442	417	401	385	434	470	541	494	124	112	390	365	244	234	461	439	309	333	247	265	263	362	603	599	222	180	197	208	651	712	576	569	327	294	361	377	85	108	113	79	338	296	193	252	514	535	249	227	559	546	543	519	146	124	298	318	95	106	231	211	462	482	133	149	273	294	278	266	361	387	343	353	254	261	331	356	626	687	226	238	1170	1223	62	92	495	494	154	124	369	449	480	378	1140	1141	353	337	138	194	236	334	205	226	248	268	167	177	456	442	582	558	183	159	408	410	304	269	81	93	561	589	387	410	320	355	595	583	169	187	336	321	519	531	326	331	76	93	51	67	974	997	1229	1291
915	120	337	306	200	682	357	736	592	89	226	738	372	379	8	327	419	777	301	975	424	373	200	248	307	66	75	548	312	560	294	240	703	34	296	261	402	555	329	399	262	349	177	459	337	265	267	333	310	147	187	595	810	215	184	225	206	682	577	395	329	340	485	521	269	101	178	301	362	42	548	244	380	608	209	588	290	449	383	353	461	617	610	448	195	227	258	193	284	313	584	397	718	271	469	261	299	344	125	371	355	243	307	316	186	306	1107	899	200	448	492	332	553	683	452	452	297	412	378	439	191	504	452	230	230	451	498	142	118	248	226	228	248	357	386	342	372	156	196	234	240	0	26	170	187	572	593	487	472	261	273	372	402	240	233	374	365	755	638	521	557	442	529	505	581	391	375	599	632	798	700	260	274	879	831	1006	1029	336	307	195	179	205	230	229	266	750	734	456	492	318	261	281	377	428	444	717	606	607	564	234	276	189	177	49	71	213	253	566	512	277	293	391	344	231	262	321	361	160	151	220	195	443	427	212	248	355	308	352	340	244	207	153	100	239	217	81	105	404	422	420	519	760	756	381	408	425	436	808	869	733	726	219	252	438	454	313	336	236	237	526	484	421	480	286	313	254	276	716	703	700	676	185	210	337	360	185	170	140	120	240	260	210	194	335	326	50	38	350	376	308	337	219	234	103	128	783	844	383	395	948	1001	290	320	542	503	311	341	411	491	637	535	1080	1124	125	109	366	422	464	562	282	303	253	274	219	209	516	502	739	715	146	170	450	449	461	426	171	159	718	746	544	567	397	432	752	740	178	160	108	93	676	705	258	304	239	222	221	205	983	1006	1169	1231
938	131	363	332	174	705	383	759	618	112	252	761	396	405	34	353	442	803	324	998	447	399	226	274	281	89	98	574	338	583	320	266	729	58	322	284	423	581	352	422	288	375	203	485	363	260	290	359	336	173	161	612	836	241	210	199	232	708	600	419	355	366	508	544	295	127	189	327	388	66	574	267	406	631	183	614	265	475	409	376	484	640	633	422	218	253	232	167	307	336	607	423	744	294	443	235	322	370	151	397	376	269	333	342	209	332	1130	922	223	471	518	355	576	709	478	478	323	438	401	465	214	530	478	256	238	477	524	116	141	274	252	254	274	383	412	365	395	179	219	260	266	26	0	193	161	598	619	513	498	287	299	395	425	263	256	397	388	781	664	547	583	468	555	526	607	414	398	625	658	824	726	286	300	905	857	1029	1052	314	281	221	205	228	253	203	240	776	760	482	518	341	284	307	403	451	467	743	632	633	590	226	250	215	203	73	45	236	276	589	535	303	319	414	367	254	285	347	387	186	177	243	218	417	401	235	271	378	331	378	366	267	230	179	126	262	240	104	79	430	448	446	545	786	782	407	434	451	462	834	895	759	752	193	226	464	480	339	362	262	263	552	510	447	506	260	308	280	302	742	729	726	702	211	236	311	334	211	196	151	146	263	283	236	220	361	352	24	12	373	399	331	360	242	260	77	102	809	870	409	421	971	1024	316	346	565	526	337	367	385	465	663	561	1103	1147	99	83	392	448	490	588	308	329	279	300	193	183	539	525	765	741	172	196	424	423	487	452	197	185	744	772	570	593	423	458	778	766	204	186	82	67	702	731	281	330	265	248	247	231	1006	1029	1192	1254
827	251	418	435	54	594	443	648	700	62	372	650	315	483	154	408	331	885	213	908	366	459	281	394	401	85	94	625	393	502	440	386	811	123	377	192	543	605	241	341	408	495	323	468	445	140	179	479	456	293	41	492	918	296	265	319	352	790	489	338	475	486	397	433	350	247	309	264	508	121	599	156	461	520	303	734	385	557	464	265	373	522	522	542	204	308	112	287	196	225	489	434	826	183	563	355	211	381	271	408	256	324	344	353	173	414	1040	832	112	390	542	274	458	791	598	598	443	535	290	562	178	497	445	376	358	559	606	62	91	394	372	374	394	338	359	284	314	94	134	380	386	146	172	0	41	695	701	447	465	243	231	314	344	182	171	316	307	849	746	629	665	588	675	646	727	333	317	707	740	892	808	406	420	987	939	948	971	194	161	341	325	117	142	83	120	858	842	564	600	249	194	389	485	370	386	794	714	715	672	106	130	335	323	154	131	188	210	499	445	235	251	324	277	143	174	429	469	306	297	132	107	537	521	124	160	286	239	498	486	182	145	299	246	151	129	116	91	512	530	528	627	868	864	489	531	548	559	916	977	841	834	313	346	398	402	459	482	347	381	672	630	567	626	140	188	320	342	824	811	808	784	306	318	431	454	331	316	271	266	152	172	291	275	312	291	144	132	292	318	250	279	228	273	141	166	891	952	464	476	860	913	436	466	484	445	419	449	505	585	714	643	1013	1057	133	117	512	545	587	685	361	340	319	298	313	303	458	444	847	823	267	291	544	543	541	534	317	305	826	854	652	675	390	392	860	848	259	241	116	131	784	813	245	310	385	368	367	351	925	948	1102	1164
786	249	377	394	95	553	402	607	659	40	355	609	274	442	137	367	290	844	172	867	325	418	240	377	433	63	71	584	352	461	423	357	770	105	336	151	531	564	200	300	391	475	306	427	404	136	138	462	439	276	72	466	877	255	224	351	317	749	448	297	458	460	356	392	309	230	307	223	482	103	558	115	420	479	335	708	417	516	423	224	332	488	481	574	163	267	136	319	155	184	455	393	785	142	595	387	170	340	254	367	226	283	303	312	132	373	999	791	71	349	501	233	424	750	564	581	426	494	249	521	137	456	404	359	359	518	565	98	69	377	355	351	371	297	318	243	273	53	93	357	357	178	155	41	0	654	660	406	424	202	190	273	303	141	130	275	266	808	705	588	624	571	658	634	710	292	276	666	699	851	767	383	397	946	898	907	930	207	185	324	308	76	101	124	161	817	801	523	559	208	153	348	444	329	345	753	673	674	631	105	154	318	306	136	163	147	169	458	404	194	210	283	236	102	133	388	428	289	273	91	66	569	553	83	119	245	198	472	460	141	104	282	229	110	88	98	123	471	489	487	586	827	823	448	490	507	518	875	936	800	793	345	378	357	361	433	456	306	340	655	613	541	600	164	184	279	301	783	770	767	743	265	277	463	486	314	299	269	249	111	131	250	234	271	250	176	164	251	277	209	238	187	232	173	198	850	911	423	435	819	872	413	440	443	404	378	408	537	617	673	602	972	1016	165	149	485	504	546	644	320	299	278	257	345	335	417	403	806	782	226	250	576	575	500	493	300	288	785	813	611	634	349	351	819	807	218	200	148	163	743	772	204	269	368	351	350	334	884	907	1061	1123
1338	511	317	250	647	1105	274	1159	107	541	408	1058	496	222	477	263	842	292	724	1139	540	258	374	367	540	518	509	169	357	548	368	340	218	514	306	648	479	272	752	566	381	331	379	343	180	688	690	410	384	409	624	1018	325	374	399	546	365	197	1000	474	333	316	908	944	324	446	504	502	338	527	193	667	303	1031	485	189	487	36	270	776	884	1040	1033	645	431	351	688	511	707	736	1007	349	233	694	750	547	722	402	477	371	778	339	423	432	465	229	1271	1063	623	532	335	568	976	198	322	364	353	252	801	279	460	486	434	456	482	294	341	599	570	430	452	368	348	481	510	554	557	579	583	334	340	537	511	593	634	0	108	474	454	489	501	557	581	548	559	591	577	270	153	36	72	519	461	582	513	608	592	114	147	313	215	324	310	394	346	1021	1044	759	737	448	464	628	653	676	713	265	249	101	137	705	648	396	300	544	528	242	121	122	79	657	706	391	403	534	556	529	569	827	773	505	506	724	682	654	685	244	204	426	405	643	618	724	708	635	671	742	695	328	316	591	566	544	491	662	640	553	578	247	265	263	164	275	271	224	248	265	276	323	384	248	241	655	622	496	512	289	312	354	388	458	416	397	372	716	736	450	428	231	218	215	191	350	325	626	643	423	434	531	511	663	683	334	350	474	495	535	523	562	588	544	554	455	462	588	613	298	359	294	282	1371	1424	326	296	616	655	234	264	694	772	282	180	1209	1165	610	594	318	262	304	206	406	427	449	469	495	505	577	563	254	230	387	363	731	738	304	269	409	421	233	261	59	82	455	490	267	255	370	388	593	578	191	220	527	532	404	421	379	395	998	1021	1333	1395
1332	447	311	189	641	1099	268	1153	215	535	316	1062	490	216	456	257	836	400	718	1143	534	252	368	275	448	512	503	192	351	552	276	248	326	493	300	642	387	271	746	560	289	239	287	337	174	682	684	318	292	317	618	1012	433	368	393	454	284	305	994	468	241	224	902	938	318	379	412	496	246	506	192	661	297	1025	393	297	395	93	264	770	878	1034	1027	553	425	345	682	419	701	730	1001	343	341	688	658	455	716	396	385	365	772	333	417	426	459	223	1275	1067	617	526	329	562	970	306	214	256	261	144	795	171	454	480	428	364	390	288	335	593	564	338	360	276	256	475	504	548	551	573	577	242	248	516	490	587	628	108	0	468	448	483	495	551	575	542	553	585	571	378	261	144	180	427	353	490	405	602	586	222	255	421	323	232	218	502	454	1025	1048	753	731	356	372	622	647	670	707	373	357	100	64	699	642	390	294	538	522	350	229	230	187	651	700	299	311	513	535	523	563	821	767	499	500	718	676	648	679	238	198	346	367	637	612	632	616	629	665	736	689	236	224	585	560	480	470	656	634	545	569	241	259	257	163	383	379	182	140	157	168	431	492	356	349	563	530	490	506	197	220	348	315	350	308	305	264	710	730	444	422	339	326	323	299	344	319	534	551	331	342	467	447	657	677	328	344	468	489	514	502	556	582	538	548	449	456	567	592	406	467	288	276	1365	1418	234	204	610	649	228	235	602	680	281	179	1213	1169	589	573	210	154	196	98	400	421	443	463	403	413	571	557	362	338	381	357	639	646	298	263	317	329	341	369	167	190	449	484	375	363	364	382	572	557	299	328	521	526	312	329	287	303	1002	1025	1337	1399
987	478	197	308	499	754	230	808	541	418	415	710	132	228	444	221	557	726	475	807	120	242	263	413	562	437	428	284	247	192	426	381	652	479	239	412	537	264	467	146	427	389	356	127	254	515	507	468	442	380	476	744	745	248	286	553	341	631	649	109	391	374	623	593	260	413	497	200	396	477	258	494	163	680	492	604	508	398	228	491	599	706	682	678	371	225	540	518	534	430	673	123	667	471	762	554	469	186	450	155	509	248	183	192	322	237	939	731	450	112	201	279	642	632	446	488	411	376	516	403	317	52	104	463	489	270	317	476	447	437	459	375	395	171	176	223	193	431	391	381	381	504	478	445	486	536	542	0	20	250	238	193	178	285	296	261	246	508	587	470	506	577	585	640	637	278	262	548	581	551	649	382	368	828	780	689	712	586	589	451	456	455	480	528	565	699	683	405	441	469	412	372	358	124	108	453	555	556	513	509	558	368	380	501	523	370	330	457	405	242	226	356	403	481	512	302	310	393	372	470	445	736	720	462	498	428	459	386	374	337	374	511	458	489	467	472	497	223	241	369	468	709	705	330	372	389	400	757	818	682	675	628	629	108	92	347	370	330	364	582	540	455	496	568	563	255	234	665	652	649	625	326	301	633	653	426	437	498	478	490	510	274	290	190	196	502	490	231	257	255	226	395	351	547	572	732	793	228	240	1020	1073	384	354	182	221	292	322	704	784	373	475	877	833	539	523	399	386	428	526	212	191	254	233	502	512	143	129	688	664	354	330	743	745	200	235	386	392	667	695	493	516	125	125	701	689	310	328	522	537	625	654	384	317	411	428	386	402	666	689	1001	1063
967	493	217	328	481	734	250	788	561	400	430	690	112	248	459	241	537	746	455	787	100	262	278	428	577	419	410	304	267	172	446	396	672	461	259	394	557	284	447	126	442	409	371	147	274	497	487	488	462	395	458	724	765	263	301	568	356	651	629	89	411	394	603	573	275	428	512	195	416	459	278	476	183	660	507	624	523	418	248	471	579	686	662	693	378	240	522	533	516	410	653	143	687	453	777	569	449	206	465	175	489	263	198	207	328	257	919	711	432	92	221	259	622	652	466	508	431	396	496	423	323	72	124	478	504	290	337	458	429	452	474	390	410	185	156	203	173	413	373	396	396	519	493	427	468	556	562	20	0	256	244	173	158	267	278	241	226	528	607	490	526	597	605	660	657	258	242	568	601	571	669	402	388	848	800	669	692	568	571	466	471	437	462	510	547	719	703	425	461	451	394	387	378	104	88	473	575	576	533	491	540	383	395	492	519	352	312	437	385	248	239	336	383	463	494	322	330	408	387	452	427	751	735	444	480	408	441	406	394	319	356	526	473	471	449	454	479	243	261	389	488	729	725	350	392	409	420	777	838	702	695	643	644	88	72	367	390	345	379	602	560	475	516	550	545	270	249	685	672	669	645	341	316	648	668	441	452	513	493	472	492	289	305	205	211	517	505	211	237	235	206	402	357	529	554	752	813	248	260	1000	1053	404	374	162	201	312	342	719	799	393	495	857	813	521	505	419	406	448	546	227	206	269	248	517	527	123	109	708	684	369	345	758	760	220	255	401	407	687	715	513	536	140	105	721	709	325	343	504	519	645	674	390	323	426	443	401	417	646	669	981	1043
879	287	233	331	273	646	281	700	596	192	313	620	120	338	253	260	409	781	312	758	171	293	148	319	428	211	202	406	208	307	381	294	707	253	217	186	489	386	319	146	333	412	248	249	341	289	281	420	397	218	250	619	814	142	123	381	254	686	541	143	414	397	475	485	190	222	307	45	419	251	380	268	245	572	320	645	377	453	279	343	451	598	574	569	146	155	314	346	308	282	565	215	722	245	590	382	270	162	260	189	361	178	125	134	96	285	890	682	224	195	323	79	534	687	501	529	368	431	368	458	91	278	226	317	317	385	432	250	221	335	313	288	308	119	148	89	119	205	165	294	294	313	287	219	260	591	597	252	246	0	12	119	149	59	70	121	112	630	642	525	561	529	616	592	668	138	122	603	636	673	704	320	334	883	835	753	776	360	363	282	266	229	254	302	339	754	738	460	496	243	186	285	381	175	191	575	610	611	568	283	332	260	248	284	311	144	104	349	295	16	32	240	193	255	286	325	365	231	210	244	219	564	548	236	272	280	233	409	397	111	148	320	267	263	241	246	271	338	356	424	523	764	760	385	427	444	455	812	873	737	730	437	457	203	207	370	393	243	277	613	571	478	537	342	337	101	123	720	707	704	680	202	214	461	481	266	251	307	287	264	284	187	171	93	72	311	299	97	123	55	84	170	125	321	346	787	848	279	291	912	965	350	377	289	250	315	345	532	612	495	539	863	897	313	297	422	441	483	581	142	121	100	79	330	340	263	249	743	719	163	187	571	573	322	350	242	230	722	750	548	571	171	197	756	744	155	137	296	311	680	709	158	91	317	301	292	276	730	753	952	1014
891	275	245	319	285	658	293	712	584	204	301	632	132	350	241	272	421	769	324	770	183	305	160	307	416	204	195	418	220	319	369	282	695	246	229	198	477	398	331	158	321	400	236	261	329	301	293	408	385	206	262	631	802	154	135	369	242	674	553	155	402	385	487	497	202	210	295	57	407	244	392	280	257	584	308	633	365	441	291	355	463	610	586	557	134	167	326	334	320	294	577	227	710	257	578	370	282	174	248	201	373	190	137	146	84	297	902	694	236	207	335	91	546	675	489	517	356	419	380	446	79	290	238	305	305	397	444	262	233	323	301	276	296	131	160	101	131	217	177	282	282	301	275	231	272	579	585	264	258	12	0	131	161	71	82	133	124	642	630	513	549	517	604	580	656	150	134	591	624	685	692	308	322	871	823	765	788	372	375	270	254	241	266	314	351	742	726	448	484	255	198	273	369	187	203	587	598	599	556	295	344	248	236	277	304	149	116	361	307	28	44	252	205	267	298	313	353	219	198	256	231	552	536	248	284	292	245	397	385	123	160	308	255	275	253	239	264	350	368	412	511	752	748	373	415	432	443	800	861	725	718	425	445	215	219	358	381	231	265	601	559	466	525	354	349	113	135	708	695	692	668	190	202	449	469	254	239	295	275	276	296	175	159	105	84	299	287	109	135	67	96	158	113	314	339	775	836	291	303	924	977	338	365	301	262	303	333	520	600	507	527	875	909	306	290	410	429	471	569	154	133	112	91	318	328	275	261	731	707	151	175	559	561	334	362	230	218	710	738	536	559	183	209	744	732	143	125	289	304	668	697	146	79	305	289	280	264	742	765	964	1026
851	406	284	399	368	618	332	672	658	287	396	574	61	345	372	311	421	843	339	712	52	344	237	394	543	306	297	401	259	193	462	362	769	348	268	281	572	381	331	27	408	480	337	244	371	384	371	503	478	337	345	608	862	229	212	500	322	748	513	77	482	465	487	457	241	341	426	82	487	346	375	363	280	544	439	713	489	515	330	355	463	570	546	659	265	206	409	465	403	294	537	240	784	340	709	501	333	201	379	228	373	229	164	173	215	336	844	636	319	76	318	146	506	749	563	597	439	493	380	520	210	200	221	436	436	387	434	345	316	418	432	356	376	134	105	90	60	300	260	362	362	421	398	314	355	653	659	148	168	143	131	0	30	154	165	126	111	625	704	587	623	612	694	675	746	143	127	665	698	668	766	388	402	945	897	641	664	455	458	401	385	324	349	397	434	816	800	522	558	338	281	353	449	56	72	570	672	673	630	378	427	349	361	379	406	239	199	321	269	135	126	220	267	350	381	393	427	350	329	339	314	683	667	331	367	292	328	477	465	206	243	439	386	358	336	341	366	340	358	486	585	826	822	447	489	506	517	874	935	799	792	556	576	104	88	438	461	311	345	691	649	546	605	437	432	190	212	782	769	766	742	307	282	580	600	385	370	426	406	359	379	255	271	147	126	419	407	98	122	122	93	289	244	416	441	849	910	330	342	884	937	418	445	177	138	383	413	651	731	490	592	817	785	408	392	490	503	545	643	193	172	189	168	449	459	144	130	805	781	282	306	690	692	317	352	361	349	784	812	610	633	166	131	818	806	274	256	391	406	742	771	277	210	392	409	367	383	618	641	906	968
864	376	254	369	338	631	302	685	634	257	366	604	31	322	342	281	432	819	350	742	82	314	207	364	513	276	267	378	229	223	432	332	745	318	238	251	542	358	342	57	378	450	307	221	348	354	346	473	448	307	315	621	839	199	182	470	292	724	526	54	452	435	498	470	211	311	396	52	457	316	352	333	254	557	409	683	459	491	300	366	474	583	559	629	235	176	379	435	373	305	550	217	760	310	679	471	335	171	349	198	384	199	134	143	185	306	874	666	289	106	295	116	519	725	539	567	409	469	391	496	180	215	198	406	406	364	411	315	286	388	402	326	346	104	75	60	30	270	230	332	332	391	368	284	325	629	635	163	183	113	101	30	0	124	135	98	83	602	680	563	599	582	664	645	716	115	99	641	674	645	742	358	372	921	873	671	694	425	428	371	355	294	319	367	404	792	776	498	534	308	251	323	419	86	102	547	648	649	606	348	397	319	331	349	376	209	169	334	280	105	96	231	258	320	351	363	403	320	299	309	284	653	637	301	337	303	298	447	435	176	213	409	356	328	306	311	336	317	335	462	561	802	798	423	465	482	493	850	911	775	768	526	546	114	118	408	431	281	315	661	619	516	575	407	402	160	182	758	745	742	718	277	252	550	570	355	340	396	376	329	349	225	241	117	96	389	377	68	94	92	63	259	214	386	411	825	886	300	312	897	950	388	415	207	168	353	383	621	701	467	569	847	815	378	362	460	479	521	619	163	142	159	138	419	429	174	160	781	757	252	276	660	662	294	329	331	319	760	788	586	609	143	108	794	782	244	226	361	376	718	747	247	180	362	379	337	353	648	671	936	998
846	342	292	390	214	613	340	667	655	133	372	627	155	397	230	319	350	840	253	765	206	352	207	378	487	156	164	465	267	342	440	353	766	198	276	127	548	445	260	181	392	471	307	308	400	230	222	479	456	277	191	560	873	201	182	440	313	745	508	178	473	456	416	452	249	281	366	104	478	196	439	209	304	539	379	704	436	512	338	284	392	548	541	628	167	214	255	405	249	223	515	274	781	186	649	441	211	221	319	248	302	237	184	193	92	344	897	689	165	230	382	114	484	746	560	588	427	490	309	517	97	337	285	376	376	444	491	191	162	394	372	347	367	178	199	124	154	146	106	353	353	271	248	160	201	650	656	287	305	83	71	154	184	0	11	156	147	689	701	584	620	588	675	651	727	173	157	662	695	732	763	379	393	942	894	788	811	301	304	341	325	170	195	243	280	813	797	519	555	184	127	344	440	210	226	634	669	670	627	224	273	319	307	229	256	107	67	356	302	75	91	181	134	196	227	384	424	290	269	185	160	623	607	177	213	221	174	468	456	52	89	375	322	204	182	191	216	397	415	483	582	823	819	444	486	503	514	871	932	796	789	438	471	238	242	429	452	302	336	672	630	537	596	283	278	160	182	779	766	763	739	261	273	520	540	325	310	362	342	205	225	246	230	152	131	269	257	132	158	90	119	191	184	266	291	846	907	338	350	879	932	409	436	324	285	374	404	591	671	554	598	870	914	258	242	481	500	542	640	201	180	159	138	389	399	298	284	802	778	222	246	630	632	381	409	301	289	781	809	607	630	230	232	815	803	214	196	241	256	739	768	164	150	376	360	351	335	765	788	959	1021
857	335	281	379	225	624	329	678	644	144	361	638	144	386	237	308	361	829	264	776	195	341	196	367	476	163	154	454	256	331	429	342	755	205	265	138	537	434	271	170	381	460	296	297	389	241	233	468	445	266	202	571	862	190	171	429	302	734	519	167	462	445	427	463	238	270	355	93	467	203	428	220	293	550	368	693	425	501	327	295	403	559	552	617	156	203	266	394	260	234	526	263	770	197	638	430	222	210	308	237	313	226	173	182	81	333	908	700	176	219	371	103	495	735	549	577	416	479	320	506	86	326	274	365	365	433	480	202	173	383	361	336	356	167	188	113	143	157	117	342	342	278	255	171	212	639	645	276	294	72	60	143	173	11	0	145	136	678	690	573	609	577	664	640	716	162	146	651	684	721	752	368	382	931	883	777	800	312	315	330	314	181	206	254	291	802	786	508	544	195	138	333	429	199	215	623	658	659	616	235	284	308	296	236	263	96	56	367	313	64	80	192	145	207	238	373	413	279	258	196	171	612	596	188	224	232	185	457	445	63	100	368	315	215	193	198	223	386	404	472	571	812	808	433	475	492	503	860	921	785	778	445	478	227	231	418	441	291	325	661	619	526	585	294	289	149	171	768	755	752	728	250	262	509	529	314	299	355	335	216	236	235	219	141	120	276	264	121	147	79	108	180	173	273	298	835	896	327	339	890	943	398	425	313	274	363	393	580	660	543	587	881	921	265	249	470	489	531	629	190	169	148	127	378	388	287	273	791	767	211	235	619	621	370	398	290	278	770	798	596	619	219	221	804	792	203	185	248	263	728	757	153	139	365	349	340	324	754	777	970	1032
796	384	289	404	346	563	337	617	669	265	401	537	99	384	350	316	364	854	282	675	136	349	215	399	525	284	275	440	264	241	467	367	780	326	273	231	577	420	274	111	413	485	342	283	410	342	314	508	483	315	323	553	887	209	190	478	327	759	458	122	487	470	430	402	246	319	404	60	492	324	414	321	289	489	417	718	474	526	335	298	406	515	491	664	243	211	385	443	361	237	482	259	795	290	687	479	276	206	357	233	316	234	169	178	193	341	807	599	297	160	357	76	451	760	574	602	444	504	323	531	188	283	260	414	414	426	473	323	294	423	410	361	381	148	143	68	98	278	238	367	367	399	376	292	333	664	670	231	251	121	109	98	126	132	143	0	15	664	715	598	634	617	699	680	751	47	31	676	709	707	777	393	407	956	908	687	710	413	434	379	363	302	327	375	412	827	811	533	569	288	259	358	454	140	156	609	683	684	641	356	405	354	345	357	384	217	177	266	212	113	104	163	210	328	347	398	438	328	307	317	292	661	645	309	345	235	278	482	470	184	221	417	364	316	314	319	344	379	397	497	596	837	833	458	500	517	528	885	946	810	803	534	554	182	172	443	466	316	350	696	654	551	610	415	390	168	190	793	780	777	753	299	287	558	578	363	348	404	384	337	345	260	268	130	109	397	385	52	26	100	71	267	222	394	419	860	921	335	347	829	882	423	450	223	184	388	418	629	709	529	612	780	824	386	370	495	514	556	654	198	177	167	146	427	437	212	214	816	792	260	284	668	670	356	391	339	327	795	823	621	644	205	176	829	817	252	234	369	384	753	782	255	188	397	398	372	373	664	687	869	931
781	393	303	418	355	548	351	602	683	274	415	522	114	399	359	330	349	868	267	660	151	363	229	413	534	293	284	455	278	256	481	381	794	335	287	216	591	435	259	126	427	499	354	298	425	327	299	522	497	324	332	538	901	223	204	487	341	773	443	137	501	484	415	387	260	328	413	75	506	333	429	306	303	474	426	732	483	540	349	283	391	500	476	675	252	225	370	452	346	222	467	273	809	275	696	488	261	220	366	247	301	248	183	192	202	355	792	584	306	175	372	61	436	774	588	616	458	518	308	545	197	298	275	423	423	441	488	332	303	437	419	375	395	163	158	83	113	287	247	381	381	408	385	301	342	678	684	246	266	130	118	113	141	141	152	15	0	679	729	612	648	631	713	694	765	32	16	690	723	722	791	407	421	970	922	702	725	398	419	388	372	311	336	384	421	841	825	547	583	273	268	372	468	155	171	624	697	698	655	365	414	366	354	366	393	226	186	251	197	122	113	148	195	337	332	412	452	337	316	326	301	670	654	318	354	220	263	496	484	193	230	426	373	301	323	328	353	394	412	511	610	851	847	472	514	531	542	899	960	824	817	543	563	197	187	457	480	330	364	710	668	565	624	423	375	182	204	807	794	791	767	308	301	567	587	372	357	413	393	346	330	274	277	144	123	406	394	67	41	109	80	276	231	403	428	874	935	349	361	814	867	437	464	238	199	402	432	638	718	544	626	765	809	395	379	509	528	570	668	212	191	181	160	436	446	227	229	830	806	269	293	677	679	371	406	348	336	809	837	635	658	220	191	843	831	261	243	378	393	767	796	264	197	411	407	386	382	679	702	854	916
1374	547	353	286	683	1141	310	1195	71	577	444	1094	532	258	513	299	878	256	760	1118	576	294	410	403	576	554	545	205	393	584	404	376	182	550	342	684	515	308	788	602	417	367	415	379	216	724	726	446	420	445	660	1054	289	410	435	582	401	161	1036	510	369	352	944	980	360	482	540	538	374	563	229	703	339	1067	521	153	523	72	306	812	920	1076	1069	681	467	387	724	547	743	772	1043	385	197	730	786	583	758	438	513	407	814	375	459	468	501	265	1250	1042	659	568	371	604	1012	162	351	371	389	288	837	315	496	522	470	492	518	330	377	635	606	466	488	404	384	517	546	590	593	615	619	370	376	573	547	629	670	252	144	510	490	525	537	593	617	584	595	627	613	0	117	72	36	555	468	617	520	644	628	78	111	277	179	360	346	358	310	1000	1023	795	773	484	500	664	689	712	749	229	213	137	173	741	684	432	336	580	564	278	157	86	43	693	742	427	439	570	592	565	605	863	809	541	542	760	718	690	721	280	240	462	441	679	654	760	744	671	707	778	731	364	352	627	602	580	527	698	676	589	614	283	301	299	200	239	235	260	284	301	312	287	348	212	205	691	658	532	548	325	348	390	424	465	423	433	379	752	772	486	464	195	182	179	155	386	361	662	679	459	470	567	547	699	719	370	386	510	531	571	559	598	624	580	590	491	498	624	649	262	323	330	318	1407	1460	362	332	652	691	270	300	730	808	318	216	1188	1144	646	630	354	298	340	242	442	463	485	505	531	541	613	599	218	194	423	399	767	774	340	305	445	457	197	225	23	46	491	526	231	219	406	424	629	614	155	184	563	568	440	457	415	431	977	1000	1312	1374
1343	664	406	403	786	1089	353	1164	160	694	561	993	454	319	630	388	911	373	825	1001	497	341	521	520	693	671	662	107	446	483	521	493	299	667	416	699	632	212	821	523	534	484	532	300	333	802	794	563	537	562	763	1100	354	506	544	699	518	278	1005	431	486	469	977	949	441	599	657	487	491	680	133	781	372	1036	638	270	640	189	327	845	953	1062	1038	798	584	483	827	664	821	784	1029	332	286	758	903	700	783	395	630	364	863	467	416	425	609	382	1133	925	737	489	292	579	998	279	468	488	506	405	870	432	604	443	391	609	635	361	408	752	723	583	605	521	501	458	487	539	515	718	678	487	493	690	664	732	773	369	261	431	411	537	525	515	538	572	583	577	562	117	0	189	153	672	585	734	637	594	578	195	228	160	268	477	463	475	427	883	906	873	876	601	617	742	767	815	852	346	330	254	290	756	699	549	453	501	485	180	274	203	160	796	845	544	556	687	709	657	617	813	759	529	513	710	706	768	799	397	357	579	558	757	732	877	861	749	785	782	746	481	469	624	661	697	644	776	754	706	731	314	332	416	317	340	324	377	401	418	429	376	437	301	322	808	775	453	469	442	465	507	541	582	540	550	496	855	850	526	505	312	299	296	272	503	478	779	796	576	587	684	664	777	797	487	503	477	483	688	676	547	573	555	540	608	615	741	766	351	412	351	339	1376	1429	479	449	573	612	387	417	847	925	222	324	1071	1027	763	747	471	415	457	359	483	462	525	504	648	658	534	520	307	283	540	516	884	891	291	326	562	574	314	342	140	163	412	447	320	308	523	541	746	731	272	301	671	604	557	574	532	548	860	883	1195	1257
1374	547	353	286	683	1141	310	1195	71	577	444	1094	532	258	513	299	878	256	760	1118	576	294	410	403	576	554	545	205	393	584	404	376	182	550	342	684	515	308	788	602	417	367	415	379	216	724	726	446	420	445	660	1054	289	410	435	582	401	161	1036	510	369	352	944	980	360	482	540	538	374	563	229	703	339	1067	521	153	523	72	306	812	920	1076	1069	681	467	387	724	547	743	772	1043	385	197	730	786	583	758	438	513	407	814	375	459	468	501	265	1250	1042	659	568	371	604	1012	162	351	371	389	288	837	315	496	522	470	492	518	330	377	635	606	466	488	404	384	517	546	590	593	615	619	370	376	573	547	629	670	252	144	510	490	525	537	593	617	584	595	627	613	234	117	0	36	555	468	617	520	644	628	78	111	277	179	360	346	358	310	1000	1023	795	773	484	500	664	689	712	749	229	213	137	173	741	684	432	336	580	564	278	157	86	43	693	742	427	439	570	592	565	605	863	809	541	542	760	718	690	721	280	240	462	441	679	654	760	744	671	707	778	731	364	352	627	602	580	527	698	676	589	614	283	301	299	200	239	235	260	284	301	312	287	348	212	205	691	658	532	548	325	348	390	424	465	423	433	379	752	772	486	464	195	182	179	155	386	361	662	679	459	470	567	547	699	719	370	386	510	531	571	559	598	624	580	590	491	498	624	649	262	323	330	318	1407	1460	362	332	652	691	270	300	730	808	318	216	1188	1144	646	630	354	298	340	242	442	463	485	505	531	541	613	599	218	194	423	399	767	774	340	305	445	457	197	225	23	46	491	526	231	219	406	424	629	614	155	184	563	568	440	457	415	431	977	1000	1312	1374
1338	511	317	250	647	1105	274	1159	107	541	408	1058	496	222	477	263	842	292	724	1139	540	258	374	367	540	518	509	169	357	548	368	340	218	514	306	648	479	272	752	566	381	331	379	343	180	688	690	410	384	409	624	1018	325	374	399	546	365	197	1000	474	333	316	908	944	324	446	504	502	338	527	193	667	303	1031	485	189	487	36	270	776	884	1040	1033	645	431	351	688	511	707	736	1007	349	233	694	750	547	722	402	477	371	778	339	423	432	465	229	1271	1063	623	532	335	568	976	198	322	364	353	252	801	279	460	486	434	456	482	294	341	599	570	430	452	368	348	481	510	554	557	579	583	334	340	537	511	593	634	216	108	474	454	489	501	557	581	548	559	591	577	270	153	36	0	519	461	582	513	608	592	114	147	313	215	324	310	394	346	1021	1044	759	737	448	464	628	653	676	713	265	249	101	137	705	648	396	300	544	528	242	121	122	79	657	706	391	403	534	556	529	569	827	773	505	506	724	682	654	685	244	204	426	405	643	618	724	708	635	671	742	695	328	316	591	566	544	491	662	640	553	578	247	265	263	164	275	271	224	248	265	276	323	384	248	241	655	622	496	512	289	312	354	388	458	416	397	372	716	736	450	428	231	218	215	191	350	325	626	643	423	434	531	511	663	683	334	350	474	495	535	523	562	588	544	554	455	462	588	613	298	359	294	282	1371	1424	326	296	616	655	234	264	694	772	282	180	1209	1165	610	594	318	262	304	206	406	427	449	469	495	505	577	563	254	230	387	363	731	738	304	269	409	421	233	261	59	82	455	490	267	255	370	388	593	578	191	220	527	532	404	421	379	395	998	1021	1333	1395
1357	370	367	208	642	1124	330	1178	452	531	216	1148	546	286	434	313	861	471	743	1286	604	322	424	219	278	508	517	455	407	672	151	266	467	471	356	688	134	462	771	630	205	151	305	407	244	707	709	109	135	319	629	1037	663	424	449	348	302	426	1019	538	171	180	927	963	374	357	312	552	120	484	455	686	353	1050	293	228	260	356	334	795	903	1059	1052	300	471	401	700	319	726	755	1026	399	574	713	405	324	741	452	317	421	797	389	473	482	505	279	1418	1210	642	596	399	608	995	475	92	10	185	156	820	95	500	550	498	264	290	358	405	584	560	238	260	294	274	531	560	604	607	598	623	260	266	494	468	612	629	374	482	538	518	529	541	607	637	588	599	641	627	615	498	410	417	0	87	236	139	658	642	373	406	658	560	250	236	637	589	1184	1207	778	749	279	295	647	672	671	708	508	524	363	330	745	688	446	350	608	592	616	495	381	424	676	718	317	325	491	513	569	609	877	823	545	556	769	722	673	704	294	268	348	369	662	637	379	363	654	690	782	735	192	180	631	606	413	448	681	659	523	547	311	329	327	426	550	566	252	210	131	142	618	679	561	518	457	424	560	576	215	192	367	333	84	42	179	120	728	755	500	478	480	493	492	468	400	375	410	381	302	317	390	380	682	702	384	400	524	545	492	480	612	638	584	604	495	502	545	570	636	697	356	346	1390	1443	252	222	680	719	284	254	432	427	544	442	1372	1328	567	551	268	224	266	364	456	477	499	519	303	313	641	627	568	543	414	413	386	409	368	333	319	331	508	536	404	427	519	554	562	569	420	428	550	535	428	399	567	572	254	271	277	293	1161	1184	1480	1542
1270	283	341	182	555	1037	304	1091	539	444	129	1062	464	326	347	287	774	558	656	1200	558	320	342	132	191	421	430	495	381	674	64	193	554	384	330	601	47	502	684	552	118	119	220	435	284	620	622	22	48	232	542	950	750	342	365	261	217	513	932	487	99	116	840	876	348	270	225	470	176	397	495	599	327	963	206	315	173	396	330	708	816	972	965	213	384	319	613	232	639	668	939	373	661	626	318	237	654	426	230	395	710	335	399	408	418	253	1332	1124	555	566	439	521	908	562	179	97	98	243	733	182	413	542	490	177	203	398	445	497	473	151	173	209	201	449	478	522	525	511	536	187	193	407	381	525	542	448	540	530	510	442	454	525	555	501	512	559	545	702	585	468	504	87	0	150	226	576	560	460	493	745	647	177	169	724	676	1166	1189	691	662	192	208	560	585	584	621	595	611	403	404	658	601	364	324	562	562	664	553	468	511	589	631	232	238	404	426	482	522	791	737	458	474	682	635	586	617	268	308	261	282	575	550	292	276	567	603	695	648	128	140	544	519	326	361	594	572	436	460	351	369	367	466	637	653	326	284	218	229	705	766	648	605	370	337	530	546	189	166	282	248	171	129	235	207	641	668	418	396	567	580	579	555	315	293	323	294	215	230	303	293	595	615	302	318	442	463	405	393	530	556	497	522	408	415	458	483	723	784	330	342	1303	1356	185	196	664	663	258	228	345	340	584	482	1305	1310	480	464	242	298	340	438	374	395	417	437	216	226	625	611	655	630	327	328	299	322	408	373	232	244	595	623	491	514	489	524	649	656	338	341	463	448	515	486	480	485	167	184	190	206	1143	1166	1394	1456
1399	412	409	250	684	1166	372	1220	494	573	258	1190	588	328	476	355	903	513	785	1328	646	364	466	261	247	550	559	497	449	714	193	308	509	513	398	730	103	504	813	672	247	193	347	449	286	749	751	151	177	361	671	1079	705	466	491	379	344	468	1061	580	213	222	969	1005	416	399	354	594	162	526	497	728	395	1092	335	270	261	398	376	837	945	1101	1094	269	513	443	742	361	768	797	1068	441	616	755	374	293	783	494	359	463	839	431	515	524	547	321	1460	1252	684	638	441	650	1037	517	134	52	227	198	862	137	542	592	540	306	332	400	447	626	602	280	302	336	316	573	602	646	649	640	665	302	308	536	510	654	671	416	524	580	560	571	583	649	679	630	641	683	669	657	540	452	459	216	129	0	97	700	684	415	448	700	602	292	278	679	631	1226	1249	820	791	321	337	689	714	713	750	550	566	405	372	787	730	488	392	650	634	658	537	423	466	718	760	359	367	533	555	611	651	919	865	587	598	811	764	715	746	336	310	390	411	704	679	348	332	696	732	824	777	234	222	673	648	455	490	723	701	565	589	353	371	369	468	592	608	294	252	173	184	660	721	603	560	488	455	602	618	257	234	409	375	42	84	221	162	770	797	542	520	522	535	534	510	442	417	379	350	344	359	432	422	724	744	426	442	566	587	534	522	654	680	626	646	537	544	587	612	678	739	398	388	1432	1485	294	264	722	761	326	296	401	396	586	484	1414	1370	609	593	310	266	308	406	498	519	541	561	345	355	683	669	610	585	456	455	355	378	410	375	361	373	550	578	446	469	561	596	604	611	462	470	592	577	470	441	609	614	296	313	319	335	1203	1226	1522	1584
1323	336	394	235	603	1090	357	1144	591	497	182	1115	517	379	400	340	827	610	709	1253	611	373	395	185	150	474	483	548	434	727	117	246	606	437	383	654	6	555	737	605	171	172	273	488	337	673	675	75	101	285	590	1003	802	395	418	282	270	565	985	540	152	169	893	929	401	323	278	523	229	450	548	652	380	1016	259	367	164	449	383	761	869	1025	1018	172	437	372	661	285	692	721	992	426	713	679	277	196	707	479	283	448	763	388	452	461	471	306	1385	1177	608	619	492	574	961	614	231	149	151	295	786	234	466	595	543	230	256	451	498	545	526	204	226	262	254	502	531	575	578	564	589	240	246	455	434	578	590	501	593	583	563	495	507	578	608	554	565	612	598	754	637	521	556	140	226	97	0	629	613	512	545	797	699	230	222	776	728	1219	1242	743	710	245	261	613	638	632	669	647	663	456	457	711	654	417	377	615	615	717	606	520	563	642	679	285	291	457	474	535	575	844	790	511	527	735	688	639	670	321	361	314	335	628	603	251	235	620	656	748	701	181	193	597	572	379	414	647	625	489	508	404	422	420	519	689	705	379	337	270	281	757	818	700	657	391	358	583	599	242	219	335	301	139	181	288	259	689	721	471	449	619	632	631	607	368	346	282	253	268	283	356	346	648	668	355	371	495	516	453	441	583	609	550	575	461	468	506	531	775	836	383	395	1356	1409	238	249	717	716	311	281	304	299	637	535	1358	1363	528	512	295	351	393	491	427	448	470	490	269	279	678	664	707	682	380	381	258	281	461	426	285	297	647	675	543	566	542	577	701	708	391	394	511	496	567	538	533	538	220	237	243	259	1196	1219	1447	1509
781	393	303	418	355	548	351	602	683	274	415	522	114	399	359	330	349	868	267	660	151	363	229	413	534	293	284	455	278	256	481	381	794	335	287	216	591	435	259	126	427	499	354	298	425	327	299	522	497	324	332	538	901	223	204	487	341	773	443	137	501	484	415	387	260	328	413	75	506	333	429	306	303	474	426	732	483	540	349	283	391	500	476	675	252	225	370	452	346	222	467	273	809	275	696	488	261	220	366	247	301	248	183	192	202	355	792	584	306	175	372	61	436	774	588	616	458	518	308	545	197	298	275	423	423	441	488	332	303	437	419	375	395	163	158	83	113	287	247	381	381	408	385	301	342	678	684	246	266	130	118	113	141	141	152	15	30	679	729	612	648	631	713	694	765	0	16	690	723	722	791	407	421	970	922	702	725	398	419	388	372	311	336	384	421	841	825	547	583	273	268	372	468	155	171	624	697	698	655	365	414	366	354	366	393	226	186	251	197	122	113	148	195	337	332	412	452	337	316	326	301	670	654	318	354	220	263	496	484	193	230	426	373	301	323	328	353	394	412	511	610	851	847	472	514	531	542	899	960	824	817	543	563	197	187	457	480	330	364	710	668	565	624	423	375	182	204	807	794	791	767	308	301	567	587	372	357	413	393	346	330	274	277	144	123	406	394	67	41	109	80	276	231	403	428	874	935	349	361	814	867	437	464	238	199	402	432	638	718	544	626	765	809	395	379	509	528	570	668	212	191	181	160	436	446	227	229	830	806	269	293	677	679	371	406	348	336	809	837	635	658	220	191	843	831	261	243	378	393	767	796	264	197	411	407	386	382	679	702	854	916
765	409	319	434	371	532	367	586	699	290	431	506	130	415	375	346	333	884	251	644	167	379	245	429	550	309	300	471	294	272	497	397	810	351	303	200	607	451	243	142	443	515	370	314	441	311	283	538	513	340	348	522	917	239	220	503	357	789	427	153	517	500	399	371	276	344	429	91	522	349	445	290	319	458	442	748	499	556	365	267	375	484	460	691	268	241	354	468	330	206	451	289	825	259	712	504	245	236	382	263	285	264	199	208	218	371	776	568	290	191	388	45	420	790	604	632	474	534	292	561	213	314	291	439	439	457	504	348	319	453	435	391	411	179	174	99	129	303	263	397	397	424	401	317	358	694	700	262	282	146	134	129	157	157	168	31	46	695	745	628	664	647	729	710	781	16	0	706	739	738	807	423	437	986	938	702	725	382	403	404	388	327	320	400	437	857	841	563	599	257	282	388	484	171	187	640	713	714	671	381	419	382	370	382	409	242	202	235	181	138	129	132	179	321	316	428	468	353	332	310	317	686	670	334	338	204	247	512	500	209	246	442	389	285	307	344	369	410	428	527	626	867	863	488	530	547	558	915	976	840	833	559	579	213	203	473	496	346	380	726	684	581	640	407	359	198	220	823	810	807	783	324	317	583	603	388	373	429	409	330	314	290	293	160	139	422	410	83	57	125	96	292	247	419	444	890	951	365	377	798	851	453	480	254	215	418	448	654	734	560	642	749	793	411	395	525	544	586	684	228	207	197	176	452	462	243	245	846	822	285	309	693	695	387	422	364	352	825	853	651	674	236	207	859	847	277	259	394	409	783	812	280	213	427	423	402	398	679	702	838	900
1452	625	431	364	761	1219	388	1273	149	655	522	1172	610	336	591	377	956	260	838	1196	654	372	488	481	629	632	623	283	471	662	457	454	256	628	420	762	507	386	866	680	495	402	493	457	294	802	804	482	473	523	738	1132	367	488	513	660	479	215	1114	588	422	430	1022	1058	438	560	618	616	371	641	307	781	417	1145	599	145	576	150	384	890	998	1154	1147	673	545	465	802	625	821	850	1121	463	275	808	778	657	836	516	591	485	892	453	537	546	579	343	1328	1120	737	646	449	682	1090	240	343	363	467	366	915	346	574	600	548	570	596	408	455	713	684	544	566	482	462	595	624	668	671	693	697	448	454	651	625	707	748	330	222	588	568	603	615	671	695	662	673	705	691	312	195	150	114	547	460	609	512	722	706	0	33	355	257	438	424	426	378	1078	1101	873	851	562	578	742	767	790	827	297	291	215	251	819	762	510	414	658	642	356	235	78	121	771	820	505	517	648	670	643	683	941	887	619	620	838	796	768	799	358	318	540	519	757	732	752	736	749	785	856	809	442	430	705	680	658	605	776	754	667	692	361	379	377	278	317	313	338	362	379	390	365	426	290	283	769	736	610	626	403	426	468	502	457	415	430	371	830	850	564	542	269	260	257	233	464	439	740	732	537	548	645	625	777	797	448	464	588	609	649	637	676	702	658	668	569	576	702	727	340	401	408	396	1485	1538	440	410	730	769	348	378	783	800	396	294	1266	1222	724	708	432	376	418	320	520	541	563	583	609	619	691	677	296	272	501	477	759	782	418	383	523	535	275	303	101	124	569	604	309	297	484	502	707	692	217	188	641	646	518	535	493	509	1055	1078	1390	1452
1419	592	398	331	728	1186	355	1240	116	622	489	1139	577	303	558	344	923	227	805	1163	621	339	455	448	596	599	590	250	438	629	424	421	223	595	387	729	474	353	833	647	462	369	460	424	261	769	771	449	440	490	705	1099	334	455	480	627	446	182	1081	555	389	397	989	1025	405	527	585	583	338	608	274	748	384	1112	566	112	543	117	351	857	965	1121	1114	640	512	432	769	592	788	817	1088	430	242	775	745	624	803	483	558	452	859	420	504	513	546	310	1295	1087	704	613	416	649	1057	207	310	330	434	333	882	313	541	567	515	537	563	375	422	680	651	511	533	449	429	562	591	635	638	660	664	415	421	618	592	674	715	297	189	555	535	570	582	638	662	629	640	672	658	279	162	117	81	514	427	576	479	689	673	33	0	322	224	405	391	393	345	1045	1068	840	818	529	545	709	734	757	794	264	258	182	218	786	729	477	381	625	609	323	202	45	88	738	787	472	484	615	637	610	650	908	854	586	587	805	763	735	766	325	285	507	486	724	699	719	703	716	752	823	776	409	397	672	647	625	572	743	721	634	659	328	346	344	245	284	280	305	329	346	357	332	393	257	250	736	703	577	593	370	393	435	469	424	382	397	338	797	817	531	509	236	227	224	200	431	406	707	699	504	515	612	592	744	764	415	431	555	576	616	604	643	669	625	635	536	543	669	694	307	368	375	363	1452	1505	407	377	697	736	315	345	750	767	363	261	1233	1189	691	675	399	343	385	287	487	508	530	550	576	586	658	644	263	239	468	444	726	749	385	350	490	502	242	270	68	91	536	571	276	264	451	469	674	659	184	155	608	613	485	502	460	476	1022	1045	1357	1419
1445	618	424	357	754	1212	381	1266	0	648	515	1153	603	329	584	370	949	225	831	1161	647	365	481	474	647	625	616	267	464	643	475	447	151	621	413	755	586	372	859	673	488	438	486	450	287	795	797	517	491	516	731	1125	218	481	506	653	472	130	1107	581	440	423	1015	1051	431	553	611	609	445	634	293	774	410	1138	592	224	594	143	377	883	991	1147	1140	752	538	458	795	618	814	843	1114	456	126	801	857	654	829	509	584	478	885	446	530	539	572	336	1293	1085	730	639	442	675	1083	131	422	442	460	359	908	386	567	593	541	563	589	401	448	706	677	537	559	475	455	588	617	661	664	686	690	441	447	644	618	700	741	323	215	581	561	596	608	664	688	655	666	698	684	277	188	143	107	626	539	688	591	715	699	149	182	0	108	431	417	327	279	1043	1066	866	844	555	571	735	760	783	820	198	182	208	244	812	755	503	407	651	635	340	228	157	114	764	813	498	510	641	663	636	676	934	880	612	613	831	789	761	792	351	311	533	512	750	725	831	815	742	778	849	802	435	423	698	673	651	598	769	747	660	685	354	372	370	271	180	164	331	355	372	383	216	277	141	174	762	729	603	619	396	419	461	495	536	494	504	450	823	843	557	535	164	151	148	124	457	432	733	750	530	541	638	618	770	790	441	457	581	602	642	630	669	695	651	661	562	569	695	720	191	252	401	389	1478	1531	433	403	723	762	341	371	801	879	382	287	1231	1187	717	701	425	369	411	313	513	534	556	576	602	612	684	670	147	123	494	470	838	845	411	376	516	528	166	194	94	71	562	597	160	148	477	495	700	685	124	153	634	639	511	528	486	502	1020	1043	1355	1417
1395	716	458	455	838	1141	405	1216	108	746	613	1045	506	371	682	440	963	333	877	1053	549	393	573	572	745	723	714	159	498	535	573	545	259	719	468	751	684	264	873	575	586	536	584	352	385	854	846	615	589	614	815	1152	302	558	596	751	570	238	1057	483	538	521	1029	1001	493	651	709	539	543	732	185	833	424	1088	690	322	692	241	379	897	1005	1114	1090	850	636	535	879	716	873	836	1081	384	234	810	955	752	835	447	682	416	915	519	468	477	661	434	1185	977	789	541	344	631	1050	239	520	540	558	457	922	484	656	495	443	661	687	413	460	804	775	635	657	573	553	510	539	591	567	770	730	539	545	742	716	784	825	421	313	483	463	589	577	567	590	624	635	629	614	169	286	241	205	724	637	786	689	646	630	247	280	108	0	529	515	435	387	935	958	925	928	653	669	794	819	867	904	306	290	306	342	808	751	601	505	553	537	232	326	255	212	848	897	596	608	739	761	709	669	865	811	581	565	762	758	820	851	449	409	631	610	809	784	929	913	801	837	834	798	533	521	676	713	749	696	828	806	758	783	366	384	468	369	288	272	429	453	470	481	324	385	249	282	860	827	505	521	494	517	559	593	634	592	602	548	907	902	578	557	272	259	256	232	555	530	831	848	628	639	736	716	829	849	539	555	529	535	740	728	599	625	607	592	660	667	793	818	299	360	403	391	1428	1481	531	501	625	664	439	469	899	977	274	376	1123	1079	815	799	523	467	509	411	535	514	577	556	700	710	586	572	255	231	592	568	936	943	343	378	614	626	274	302	192	179	464	499	268	256	575	593	798	783	232	261	723	656	609	626	584	600	912	935	1247	1309
1169	243	205	46	460	936	168	990	403	349	112	929	327	190	252	151	673	571	555	1067	421	184	205	71	254	326	335	359	245	537	91	44	514	289	194	479	202	366	583	415	85	95	83	299	148	519	521	133	107	113	447	849	621	205	230	250	80	493	831	350	97	80	739	775	212	175	208	333	102	302	359	498	191	862	189	328	200	260	194	607	715	871	864	368	262	182	518	215	538	567	838	237	529	525	459	251	553	290	181	259	609	198	262	271	296	117	1199	991	454	429	303	399	807	494	192	212	57	152	632	179	291	406	354	160	186	262	309	402	378	134	156	72	52	312	341	385	388	410	414	38	44	312	286	424	447	312	404	394	374	320	332	388	418	379	390	422	408	566	449	332	368	242	309	305	361	439	423	410	443	609	511	0	14	690	642	1029	1052	590	567	152	168	459	484	489	526	561	545	267	268	536	479	227	188	425	425	528	417	418	375	488	536	95	107	309	331	360	400	658	604	336	337	555	513	485	516	132	172	142	163	474	449	433	417	466	502	573	526	92	80	422	397	276	266	493	471	341	365	215	233	231	330	571	567	190	148	165	176	619	680	544	537	359	326	393	409	53	76	145	111	306	264	161	220	546	567	281	259	527	514	511	487	178	156	330	350	127	138	263	243	494	514	165	181	305	326	310	298	393	419	375	385	286	293	363	388	594	655	194	206	1202	1255	30	60	527	526	122	92	401	481	448	346	1172	1173	385	369	106	162	204	302	237	258	280	300	199	209	488	474	550	526	215	191	440	442	272	237	113	125	529	557	355	378	352	387	563	551	201	219	368	353	487	499	358	363	108	125	83	99	1006	1029	1261	1323
1155	229	219	60	446	922	182	976	417	335	98	915	313	204	238	165	659	585	541	1053	407	198	191	57	240	312	321	373	253	523	99	30	528	275	208	465	210	380	569	401	71	109	69	313	162	505	507	141	115	99	433	835	635	191	216	236	66	507	817	336	111	94	725	761	210	161	194	319	116	288	373	484	205	848	175	342	186	274	208	593	701	857	850	356	248	168	504	201	524	553	824	251	543	511	445	237	539	285	167	273	595	184	248	257	282	131	1185	977	440	415	317	385	793	508	206	226	65	166	618	193	277	420	368	146	172	276	323	388	364	120	142	58	38	298	327	371	374	396	400	24	30	298	272	410	433	326	418	408	388	306	318	374	404	365	376	408	394	580	463	346	382	250	323	313	375	425	409	424	457	623	525	14	0	704	656	1015	1038	576	553	138	154	445	470	475	512	575	559	281	282	522	465	213	202	411	411	542	431	432	389	474	522	81	93	295	317	346	386	644	590	322	323	541	499	471	502	146	186	128	149	460	435	419	403	452	488	559	512	106	94	408	383	262	252	479	457	327	351	229	247	245	344	585	581	204	162	179	190	633	694	558	551	345	312	379	395	67	90	131	97	320	278	175	234	532	553	267	245	541	528	525	501	164	142	316	336	113	124	249	229	480	500	151	167	291	312	296	284	379	405	361	371	272	279	349	374	608	669	208	220	1188	1241	44	74	513	512	136	106	387	467	462	360	1158	1159	371	355	120	176	218	316	223	244	266	286	185	195	474	460	564	540	201	177	426	428	286	251	99	111	543	571	369	392	338	373	577	565	187	205	354	339	501	513	344	349	94	111	69	85	992	1015	1247	1309
1636	809	615	548	945	1403	572	1457	231	839	693	1356	794	520	775	561	1140	272	1022	1380	838	556	672	665	797	816	807	467	655	846	625	638	106	812	604	946	675	570	1050	864	679	570	677	641	478	986	988	650	641	707	922	1316	197	672	697	831	663	167	1298	772	590	599	1206	1242	622	744	789	800	539	825	491	965	601	1329	770	313	744	334	568	1074	1182	1338	1331	841	729	649	986	796	1005	1034	1305	647	203	992	946	825	1020	700	775	669	1076	637	721	730	763	527	1512	1304	921	830	633	866	1274	162	511	531	643	550	1099	514	758	784	732	741	767	592	639	897	868	715	737	666	646	779	808	852	855	877	881	632	638	835	809	891	932	514	406	772	752	787	799	855	879	846	857	889	875	496	379	334	298	715	628	777	680	906	890	330	363	447	339	622	608	0	48	1262	1285	1057	1035	746	762	926	951	974	1011	65	81	399	435	1003	946	694	598	842	826	540	419	338	305	955	1004	689	701	832	854	827	867	1125	1071	803	804	1022	980	952	983	542	502	724	703	941	916	920	904	933	969	1040	993	611	599	889	864	842	789	960	938	851	876	545	563	561	462	107	123	522	546	550	561	175	202	201	205	940	907	794	810	587	610	652	686	625	583	598	539	1014	1034	748	726	119	106	131	155	648	623	911	900	721	732	829	809	961	981	632	648	772	793	833	821	860	886	842	852	753	760	886	911	210	245	592	580	1669	1722	624	594	914	953	532	562	951	968	580	478	1450	1406	908	892	616	560	602	504	704	725	747	767	780	790	875	861	158	183	685	661	927	950	602	567	707	719	121	93	285	262	753	788	119	131	668	686	891	876	205	200	825	830	702	719	677	693	1239	1262	1574	1636
1684	857	663	596	993	1451	620	1505	279	887	741	1404	842	568	823	609	1188	320	1070	1428	886	604	720	713	845	864	855	515	703	894	673	686	154	860	652	994	723	618	1098	912	727	618	725	689	526	1034	1036	698	689	755	970	1364	245	720	745	879	711	215	1346	820	638	647	1254	1290	670	792	837	848	587	873	539	1013	649	1377	818	361	792	382	616	1122	1230	1386	1379	889	777	697	1034	844	1053	1082	1353	695	251	1040	994	873	1068	748	823	717	1124	685	769	778	811	575	1560	1352	969	878	681	914	1322	210	559	579	691	598	1147	562	806	832	780	789	815	640	687	945	916	763	785	714	694	827	856	900	903	925	929	680	686	883	857	939	980	562	454	820	800	835	847	903	927	894	905	937	923	544	427	382	346	763	676	825	728	954	938	378	411	495	387	670	656	48	0	1310	1333	1105	1083	794	810	974	999	1022	1059	113	129	447	483	1051	994	742	646	890	874	588	467	386	353	1003	1052	737	749	880	902	875	915	1173	1119	851	852	1070	1028	1000	1031	590	550	772	751	989	964	968	952	981	1017	1088	1041	659	647	937	912	890	837	1008	986	899	924	593	611	609	510	155	171	570	594	598	609	223	250	249	253	988	955	842	858	635	658	700	734	673	631	646	587	1062	1082	796	774	167	154	179	203	696	671	959	948	769	780	877	857	1009	1029	680	696	820	841	881	869	908	934	890	900	801	808	934	959	258	293	640	628	1717	1770	672	642	962	1001	580	610	999	1016	628	526	1498	1454	956	940	664	608	650	552	752	773	795	815	828	838	923	909	206	231	733	709	975	998	650	615	755	767	169	141	333	310	801	836	167	179	716	734	939	924	253	248	873	878	750	767	725	741	1287	1310	1622	1684
469	1040	886	997	990	562	919	624	1043	921	1037	466	702	914	1006	910	701	1256	853	205	641	931	871	1035	1181	940	931	859	900	603	1103	1003	1182	982	909	804	1213	938	791	633	1049	1078	978	813	940	915	885	1144	1119	971	953	862	1115	865	846	1134	963	1161	681	701	1080	1063	774	683	882	975	1060	716	1085	980	859	894	852	656	1073	1153	1130	990	917	815	743	824	658	1300	899	847	958	1099	934	810	791	812	1169	863	1343	1135	849	842	1013	844	887	870	805	814	849	926	265	134	894	614	887	737	760	1162	1132	1174	1080	1062	742	1089	844	741	793	1070	1070	956	1003	979	950	1059	1066	997	1017	775	746	724	701	934	894	1003	1003	1055	1032	948	989	1133	1129	689	709	777	765	701	671	788	799	717	702	1000	1117	1057	1036	1253	1271	1316	1323	718	718	1078	1111	1043	1151	1029	1043	1358	1310	0	23	986	1007	1035	1019	931	924	1019	1056	1229	1213	997	1033	861	886	994	1047	666	650	1021	1142	1086	1043	986	1023	990	1001	1013	1040	873	833	575	629	769	760	736	783	925	920	991	996	984	963	914	921	1317	1301	938	942	808	851	1075	1063	840	877	1073	1020	889	911	975	1000	909	927	1055	1060	1223	1207	1016	1058	1075	1086	1259	1250	1184	1205	1190	1210	673	657	1036	1059	952	986	1268	1226	1144	1182	1011	963	824	846	1195	1182	1179	1155	948	923	1214	1234	1019	1004	1060	1040	934	918	896	912	786	765	1053	1041	708	713	756	727	923	878	1050	1075	1234	1203	917	929	542	595	1059	1043	585	581	981	1011	1285	1365	948	1050	188	144	1042	1026	1088	1072	1114	1123	834	813	823	802	1083	1093	574	588	1190	1166	916	940	1324	1326	886	921	995	983	1197	1225	1023	1046	752	717	1203	1191	908	890	1025	1040	1155	1184	911	844	1033	1050	1008	1024	69	46	327	389
492	1017	863	974	967	539	896	601	1020	898	1014	443	679	891	983	887	678	1233	830	187	618	908	848	1012	1158	917	908	836	877	580	1080	980	1159	959	886	781	1190	915	768	610	1026	1055	955	790	917	892	862	1121	1096	948	930	839	1092	842	823	1111	940	1138	658	678	1057	1040	751	660	859	952	1037	693	1062	957	836	871	829	633	1050	1130	1107	967	894	792	720	801	635	1277	876	824	935	1076	911	787	768	789	1146	840	1320	1112	826	819	990	821	864	847	782	791	826	903	288	111	871	591	864	714	737	1139	1109	1151	1057	1039	719	1066	821	718	770	1047	1047	933	980	956	927	1036	1043	974	994	752	723	701	678	911	871	980	980	1032	1009	925	966	1110	1106	666	686	754	742	678	648	765	776	694	679	977	1094	1034	1013	1230	1248	1293	1300	695	695	1055	1088	1020	1128	1006	1020	1335	1287	23	0	963	984	1012	996	908	901	996	1033	1206	1190	974	1010	838	863	971	1024	643	627	998	1119	1063	1020	963	1000	967	978	990	1017	850	810	552	606	746	737	713	760	902	897	968	973	961	940	891	898	1294	1278	915	919	785	828	1052	1040	817	854	1050	997	866	888	952	977	886	904	1032	1037	1200	1184	993	1035	1052	1063	1236	1227	1161	1182	1167	1187	650	634	1013	1036	929	963	1245	1203	1121	1159	988	940	801	823	1172	1159	1156	1132	925	900	1191	1211	996	981	1037	1017	911	895	873	889	763	742	1030	1018	685	690	733	704	900	855	1027	1052	1211	1180	894	906	565	618	1036	1020	562	558	958	988	1262	1342	925	1027	211	167	1019	1003	1065	1049	1091	1100	811	790	800	779	1060	1070	551	565	1167	1143	893	917	1301	1303	863	898	972	960	1174	1202	1000	1023	729	694	1180	1168	885	867	1002	1017	1132	1161	888	821	1010	1027	985	1001	46	23	350	412
804	378	528	545	123	571	553	625	810	189	499	627	425	593	281	518	308	995	187	915	476	569	391	521	528	212	221	735	503	602	567	508	921	250	487	169	670	715	218	451	535	622	450	578	555	58	156	606	583	420	86	395	1028	406	375	425	468	900	466	448	602	611	374	410	460	374	436	374	633	248	709	129	571	497	430	859	512	667	574	242	350	425	499	669	314	418	15	414	131	202	392	544	936	160	641	482	188	491	398	518	159	434	454	463	283	524	1047	839	127	500	652	384	361	901	715	725	570	645	267	672	288	607	555	503	485	669	716	189	218	521	499	501	521	448	469	394	424	204	244	507	508	273	299	192	168	805	811	557	575	353	341	424	454	292	281	400	415	959	856	739	775	715	802	773	854	385	401	817	850	1002	918	533	547	1097	1049	973	996	0	34	468	452	183	157	152	189	968	952	674	710	226	260	499	595	480	496	904	824	825	782	144	95	462	450	281	258	298	320	506	452	345	361	331	284	158	127	539	579	433	424	153	173	615	599	190	162	263	216	623	611	292	255	426	373	128	150	243	218	622	640	638	737	978	974	599	641	658	669	1026	1087	951	944	382	415	508	512	584	607	457	491	799	757	692	751	83	106	430	452	934	921	918	894	416	428	503	532	458	443	398	393	154	125	401	385	422	401	269	259	402	426	360	389	338	383	244	269	1001	1062	574	586	837	890	563	591	584	545	529	559	583	663	824	753	1020	1064	204	220	636	655	697	795	471	450	429	408	440	430	568	554	957	933	377	401	622	615	651	644	444	432	936	964	762	785	500	502	970	958	369	351	219	234	894	923	355	420	512	495	494	478	950	973	1109	1171
783	411	550	567	156	550	575	604	832	213	528	606	422	615	310	540	287	1017	166	894	473	591	413	550	561	236	244	732	525	581	596	530	943	278	509	148	703	712	197	448	564	648	479	575	577	37	135	635	612	449	119	364	1050	428	397	446	490	922	445	445	631	633	353	389	482	403	469	371	655	276	706	108	571	476	463	881	545	689	596	221	329	396	478	702	336	440	48	447	110	181	363	541	958	139	662	515	167	488	427	515	138	456	451	460	280	546	1026	818	106	497	649	381	332	923	737	754	599	667	246	694	285	604	552	532	518	691	738	222	242	550	528	524	544	445	466	391	421	226	241	530	530	306	328	214	201	827	833	554	572	350	338	421	451	289	278	379	394	956	878	761	797	744	831	806	883	364	380	839	872	999	940	556	570	1119	1071	952	975	34	0	497	481	166	136	185	222	990	974	696	732	205	256	521	617	477	493	901	846	847	804	177	128	491	479	309	291	295	317	485	431	342	358	310	263	137	106	561	601	462	446	132	157	636	620	173	141	242	195	645	633	289	252	455	402	107	129	271	251	644	662	660	759	1000	996	621	663	680	691	1048	1109	973	966	403	436	505	509	606	629	479	513	828	786	714	773	116	85	427	449	956	943	940	916	438	450	524	553	487	472	431	422	133	104	423	407	419	398	302	292	399	405	357	386	360	405	277	302	1023	1084	596	608	816	869	586	613	563	524	551	581	604	684	821	775	999	1043	237	253	658	677	719	817	468	447	426	405	473	463	552	551	979	955	399	423	643	636	648	666	473	461	958	986	784	807	497	499	992	980	391	373	252	267	916	945	352	417	541	524	523	507	929	952	1088	1150
1078	101	325	198	363	845	320	899	555	252	63	870	360	342	155	303	582	686	464	1008	421	336	188	118	178	229	238	511	300	557	131	132	666	192	284	409	239	518	492	396	127	186	91	447	300	428	430	170	147	61	350	758	773	203	173	131	120	641	740	383	166	183	648	684	257	78	57	290	243	205	511	407	343	771	70	443	127	412	346	516	624	780	773	319	192	215	421	96	447	476	747	385	681	434	340	132	462	332	38	359	518	231	295	304	226	269	1140	932	363	445	455	329	716	646	307	289	165	304	541	310	221	492	440	67	67	414	461	305	281	85	63	120	140	345	374	339	369	319	344	126	132	215	189	333	350	464	556	475	460	250	262	369	399	309	320	371	362	718	601	484	520	279	366	342	418	388	372	562	595	761	663	152	166	842	794	1003	1026	499	470	0	16	368	393	392	429	713	697	419	420	466	409	267	340	425	441	680	569	570	527	397	439	103	91	212	234	290	330	599	545	266	282	490	443	394	425	284	324	89	110	383	358	314	298	375	411	503	456	195	207	352	327	134	169	402	380	244	268	367	385	383	482	723	719	342	300	317	328	771	832	696	689	240	207	426	442	205	228	185	151	363	321	302	335	449	476	243	265	679	666	663	639	173	196	211	231	55	49	121	101	403	423	198	182	324	315	213	201	347	373	305	334	216	223	266	291	746	807	346	358	1111	1164	182	212	539	500	274	244	282	362	600	498	1113	1147	288	272	258	314	356	454	270	291	242	263	80	90	513	499	702	678	135	158	321	323	424	389	85	73	681	709	507	530	385	420	715	703	167	149	271	256	639	614	288	293	84	67	107	93	980	1003	1202	1264
1094	117	320	182	379	861	304	915	539	268	47	886	355	326	171	287	598	670	480	1024	437	320	201	102	188	245	254	495	295	565	115	116	650	208	279	425	223	502	508	412	111	170	79	435	284	444	446	154	131	73	366	774	757	216	189	141	108	625	756	378	150	167	664	700	252	94	73	306	227	221	495	423	327	787	80	427	137	396	330	532	640	796	789	310	208	210	437	106	463	492	763	373	665	450	350	142	478	327	54	354	534	226	290	299	242	253	1156	948	379	457	439	345	732	630	291	273	149	288	557	294	237	487	435	51	77	398	445	321	297	69	47	104	124	340	369	355	385	335	360	110	116	231	205	349	366	448	540	470	455	266	278	385	415	325	336	387	378	702	585	468	504	263	350	326	402	404	388	546	579	745	647	136	150	826	778	1019	1042	515	486	16	0	384	409	408	445	697	681	403	404	482	425	255	324	441	453	664	553	554	511	413	455	91	79	228	250	306	346	615	561	282	298	506	459	410	441	268	308	102	123	399	374	324	308	391	427	519	472	179	191	368	343	150	185	418	396	260	284	351	369	367	466	707	703	326	284	301	312	755	816	680	673	250	217	421	437	189	212	173	139	347	305	286	319	465	492	259	281	663	650	647	623	177	184	221	241	39	54	137	117	419	439	193	195	333	331	229	217	363	389	321	350	232	239	282	307	730	791	330	342	1127	1180	166	196	555	516	258	228	292	372	584	482	1129	1163	304	288	242	298	340	438	265	286	258	279	90	100	516	502	686	662	151	171	331	333	408	373	73	85	665	693	491	514	380	415	699	687	183	165	287	272	623	598	304	309	68	51	91	77	996	1019	1218	1280
725	320	448	465	136	492	473	546	730	111	426	548	320	513	208	438	229	915	111	836	371	489	311	448	504	134	142	630	423	507	494	428	841	176	407	90	602	610	139	346	462	546	377	473	475	69	77	533	510	347	99	405	948	326	295	422	388	820	387	343	529	531	295	331	380	301	378	269	553	174	604	54	469	418	406	779	488	587	494	163	271	427	420	645	234	338	112	390	94	123	394	439	856	81	654	458	109	386	325	413	165	354	349	358	178	444	968	760	0	395	547	279	363	821	635	652	497	565	188	592	183	502	450	430	430	589	636	169	140	448	426	422	442	343	364	289	319	124	139	428	428	249	226	112	153	725	731	452	470	248	236	319	349	187	176	321	312	854	776	659	695	642	729	705	781	306	322	737	770	897	838	454	468	1017	969	894	917	140	161	395	379	0	30	165	202	888	872	594	630	147	154	419	515	375	391	799	744	745	702	132	177	389	377	207	234	193	215	427	373	240	256	252	205	31	62	459	499	360	344	30	55	628	612	67	48	184	137	543	531	187	150	353	300	49	27	169	194	542	560	558	657	898	894	519	561	578	589	946	1007	871	864	395	428	403	407	504	527	377	411	726	684	612	671	165	117	325	347	854	841	838	814	336	348	516	545	385	370	340	320	40	60	321	305	317	296	247	235	297	323	255	284	258	303	244	269	921	982	494	506	758	811	484	511	489	450	449	479	596	676	719	673	941	985	217	220	556	575	617	715	366	345	324	303	416	406	463	449	877	853	297	321	635	628	546	564	371	359	856	884	682	705	395	397	890	878	289	271	219	234	814	843	250	315	439	422	421	405	871	894	1030	1092
750	295	423	440	111	517	448	571	705	86	401	573	295	488	183	413	254	890	136	843	346	464	286	423	479	109	117	605	398	482	469	403	816	151	382	115	577	585	164	321	437	521	352	448	450	99	102	508	485	322	74	430	923	301	270	397	363	795	412	318	504	506	320	356	355	276	353	244	528	149	579	79	444	443	381	754	463	562	469	188	296	452	445	620	209	313	138	365	119	148	419	414	831	106	629	433	134	361	300	388	190	329	324	333	153	419	975	767	30	370	522	254	388	796	610	627	472	540	213	567	158	477	425	405	405	564	611	144	115	423	401	397	417	318	339	264	294	99	114	403	403	224	201	87	128	700	706	427	445	223	211	294	324	162	151	296	287	829	751	634	670	617	704	680	756	313	297	712	745	872	813	429	443	992	944	901	924	170	187	370	354	30	0	140	177	863	847	569	605	172	129	394	490	350	366	774	719	720	677	107	156	364	352	182	209	168	190	434	380	215	231	259	212	61	92	434	474	335	319	55	30	603	587	37	74	209	162	518	506	162	125	328	275	74	52	144	169	517	535	533	632	873	869	494	536	553	564	921	982	846	839	370	403	378	382	479	502	352	386	701	659	587	646	166	147	300	322	829	816	813	789	311	323	491	520	360	345	315	295	66	90	296	280	292	271	222	210	272	298	230	259	233	278	219	244	896	957	469	481	783	836	459	486	464	425	424	454	571	651	694	648	948	992	192	195	531	550	592	690	341	320	299	278	391	381	438	424	852	828	272	296	610	603	521	539	346	334	831	859	657	680	370	372	865	853	264	246	194	209	789	818	225	290	414	397	396	380	878	901	1037	1099
880	334	501	518	45	647	526	701	783	145	455	703	398	566	237	491	384	968	266	961	449	542	364	477	484	168	177	708	476	585	523	469	894	206	460	245	626	688	294	424	491	578	406	551	528	165	232	562	539	376	66	517	1001	379	348	381	435	873	542	421	558	569	450	486	433	330	392	347	591	204	682	209	544	573	386	817	468	640	547	318	426	547	575	625	287	391	137	370	238	278	514	517	909	236	597	438	264	464	354	491	281	407	427	436	256	497	1093	885	165	473	625	357	483	874	681	681	526	618	343	645	261	580	528	459	441	642	689	145	174	477	455	457	477	421	442	367	397	177	217	463	469	229	255	165	124	778	784	530	548	326	314	397	427	265	254	399	390	932	829	712	748	671	758	729	810	416	400	790	823	975	891	489	503	1070	1022	1019	1042	219	186	424	408	170	195	0	37	941	925	647	683	302	247	472	568	453	469	877	797	798	755	131	155	418	406	237	214	271	293	552	498	318	334	377	330	196	227	512	552	389	380	185	160	571	555	177	213	339	292	581	569	265	228	382	329	204	182	199	174	595	613	611	710	951	947	572	614	631	642	999	1060	924	917	338	371	481	485	542	565	430	464	755	713	650	709	165	213	403	425	907	894	891	867	389	401	459	488	414	399	354	349	205	225	374	358	395	374	225	215	375	401	333	362	311	356	200	225	974	1035	547	559	913	966	519	549	567	528	502	532	539	619	797	726	1066	1110	160	176	595	628	670	768	444	423	402	381	396	386	541	527	930	906	350	374	578	571	624	617	400	388	909	937	735	758	473	475	943	931	342	324	175	190	867	896	328	393	468	451	450	434	996	1019	1155	1217
843	297	464	481	8	610	489	664	746	108	418	666	361	529	200	454	347	931	229	924	412	505	327	440	447	131	140	671	439	548	486	432	857	169	423	208	589	651	257	387	454	541	369	514	491	128	195	525	502	339	29	480	964	342	311	344	398	836	505	384	521	532	413	449	396	293	355	310	554	167	645	172	507	536	349	780	431	603	510	281	389	510	538	588	250	354	100	333	201	241	477	480	872	199	560	401	227	427	317	454	244	370	390	399	219	460	1056	848	128	436	588	320	446	837	644	644	489	581	306	608	224	543	491	422	404	605	652	108	137	440	418	420	440	384	405	330	360	140	180	426	432	192	218	128	87	741	747	493	511	289	277	360	390	228	217	362	353	895	792	675	711	634	721	692	773	379	363	753	786	938	854	452	466	1033	985	982	1005	182	149	387	371	133	158	37	0	904	888	610	646	265	210	435	531	416	432	840	760	761	718	94	118	381	369	200	177	234	256	515	461	281	297	340	293	159	190	475	515	352	343	148	123	534	518	140	176	302	255	544	532	228	191	345	292	167	145	162	137	558	576	574	673	914	910	535	577	594	605	962	1023	887	880	301	334	444	448	505	528	393	427	718	676	613	672	128	176	366	388	870	857	854	830	352	364	422	451	377	362	317	312	168	188	337	321	358	337	188	178	338	364	296	325	274	319	163	188	937	998	510	522	876	929	482	512	530	491	465	495	502	582	760	689	1029	1073	123	139	558	591	633	731	407	386	365	344	359	349	504	490	893	869	313	337	541	534	587	580	363	351	872	900	698	721	436	438	906	894	305	287	138	153	830	859	291	356	431	414	413	397	959	982	1118	1180
1571	744	550	483	880	1338	507	1392	166	774	641	1291	729	455	710	496	1075	239	957	1315	773	491	607	600	764	751	742	402	590	781	592	573	41	747	539	881	642	505	985	799	614	537	612	576	413	921	923	617	608	642	857	1251	172	607	632	779	598	107	1233	707	557	549	1141	1177	557	679	737	735	506	760	426	900	536	1264	718	280	711	269	503	1009	1117	1273	1266	808	664	584	921	744	940	969	1240	582	138	927	913	780	955	635	710	604	1011	572	656	665	698	462	1447	1239	856	765	568	801	1209	97	478	498	586	485	1034	481	693	719	667	689	715	527	574	832	803	663	685	601	581	714	743	787	790	812	816	567	573	770	744	826	867	449	341	707	687	722	734	790	814	781	792	824	810	431	314	269	233	682	595	744	647	841	825	275	308	382	274	557	543	161	113	1197	1220	992	970	681	697	861	886	909	946	0	16	334	370	938	881	629	533	777	761	475	354	283	240	890	939	624	636	767	789	762	802	1060	1006	738	739	957	915	887	918	477	437	659	638	876	851	887	871	868	904	975	928	561	549	824	799	777	724	895	873	786	811	480	498	496	397	42	58	457	481	498	509	110	171	136	140	888	855	729	745	522	545	587	621	592	550	565	506	949	969	683	661	54	41	66	90	583	558	859	867	656	667	764	744	896	916	567	583	707	728	768	756	795	821	777	787	688	695	821	846	145	206	527	515	1604	1657	559	529	849	888	467	497	918	935	515	413	1385	1341	843	827	551	495	537	439	639	660	682	702	728	738	810	796	93	118	620	596	894	917	537	502	642	654	56	28	220	197	688	723	54	66	603	621	826	811	140	167	760	765	637	654	612	628	1174	1197	1509	1571
1587	760	566	499	896	1354	523	1408	182	790	644	1307	745	471	726	512	1091	223	973	1331	789	507	623	616	748	767	758	418	606	797	576	589	57	763	555	897	626	521	1001	815	630	521	628	592	429	937	939	601	592	658	873	1267	188	623	648	782	614	118	1249	723	541	550	1157	1193	573	695	740	751	490	776	442	916	552	1280	721	264	695	285	519	1025	1133	1289	1282	792	680	600	937	747	956	985	1256	598	154	943	897	776	971	651	726	620	1027	588	672	681	714	478	1463	1255	872	781	584	817	1225	113	462	482	594	501	1050	465	709	735	683	692	718	543	590	848	819	666	688	617	597	730	759	803	806	828	832	583	589	786	760	842	883	465	357	723	703	738	750	806	830	797	808	840	826	447	330	285	249	666	579	728	631	857	841	281	314	398	290	573	559	145	97	1213	1236	1008	986	697	713	877	902	925	962	16	0	350	386	954	897	645	549	793	777	491	370	289	256	906	955	640	652	783	805	778	818	1076	1022	754	755	973	931	903	934	493	453	675	654	892	867	871	855	884	920	991	944	562	550	840	815	793	740	911	889	802	827	496	514	512	413	58	74	473	497	501	512	126	187	152	156	891	858	745	761	538	561	603	637	576	534	549	490	965	985	699	677	70	57	82	106	599	574	862	851	672	683	780	760	912	932	583	599	723	744	784	772	811	837	793	803	704	711	837	862	161	222	543	531	1620	1673	575	545	865	904	483	513	902	919	531	429	1401	1357	859	843	567	511	553	455	655	676	698	718	731	741	826	812	109	134	636	612	878	901	553	518	658	670	72	44	236	213	704	739	70	82	619	637	842	827	156	151	776	781	653	670	628	644	1190	1213	1525	1587
1309	475	288	217	618	1076	245	1130	208	512	344	1034	467	193	448	234	813	393	695	1115	511	229	345	303	476	489	480	164	328	524	304	276	319	485	277	619	415	243	723	537	317	267	315	314	151	659	661	346	320	345	595	989	426	345	370	482	312	298	971	445	269	252	879	915	295	407	440	473	274	498	164	638	274	1002	421	290	423	65	241	747	855	1011	1004	581	402	322	659	447	678	707	978	320	334	665	686	483	693	373	413	342	749	310	394	403	436	200	1247	1039	594	503	306	539	947	299	242	284	289	172	772	199	431	457	405	392	418	265	312	570	541	366	388	304	284	452	481	525	528	550	554	270	276	508	482	564	605	136	209	445	425	460	472	528	552	519	530	562	548	371	254	137	173	455	381	518	433	579	563	215	248	414	316	260	246	495	447	997	1020	730	708	384	400	599	624	647	684	366	350	0	36	676	619	367	271	515	499	333	222	223	180	628	677	327	339	505	527	500	540	798	744	476	477	695	653	625	656	215	175	374	376	614	589	660	644	606	642	713	666	264	252	562	537	508	462	633	611	524	549	218	236	234	135	376	372	195	168	185	196	424	485	349	342	591	558	467	483	225	248	325	343	378	336	333	292	687	707	421	399	332	319	316	292	321	296	562	579	359	370	495	475	634	654	305	321	445	466	506	494	533	559	515	525	426	433	559	584	399	460	265	253	1342	1395	262	232	587	626	205	235	630	708	253	151	1185	1141	581	565	238	182	224	126	377	398	420	440	431	441	548	534	355	331	358	334	667	674	275	240	345	357	334	362	160	183	426	461	368	356	341	359	564	549	292	321	498	503	340	357	315	331	974	997	1309	1371
1273	446	252	185	582	1040	209	1094	172	476	343	998	431	157	412	198	777	357	659	1079	475	193	309	302	475	453	444	128	292	488	303	275	283	449	241	583	414	207	687	501	316	266	314	278	115	623	625	345	319	344	559	953	390	309	334	481	300	262	935	409	268	251	843	879	259	381	439	437	273	462	128	602	238	966	420	254	422	29	205	711	819	975	968	580	366	286	623	446	642	671	942	284	298	629	685	482	657	337	412	306	713	274	358	367	400	164	1211	1003	558	467	270	503	911	263	275	317	288	205	736	232	395	421	369	391	417	229	276	534	505	365	387	303	283	416	445	489	492	514	518	269	275	472	446	528	569	172	173	409	389	424	436	492	516	483	494	526	512	335	218	101	137	454	414	517	466	543	527	179	212	378	280	259	245	459	411	961	984	694	672	383	399	563	588	611	648	330	314	36	0	640	583	331	235	479	463	297	186	187	144	592	641	326	338	469	491	464	504	762	708	440	441	659	617	589	620	179	139	361	340	578	553	659	643	570	606	677	630	263	251	526	501	479	426	597	575	488	513	182	200	198	99	340	336	159	201	218	229	388	449	313	306	590	557	431	447	224	247	289	323	411	369	332	325	651	671	385	363	296	283	280	256	285	260	561	578	358	369	466	446	598	618	269	285	409	430	470	458	497	523	479	489	390	397	523	548	363	424	229	217	1306	1359	261	231	551	590	169	199	629	707	217	115	1149	1105	545	529	271	215	257	162	341	362	384	404	430	440	512	498	319	295	322	298	666	673	239	204	344	356	298	326	124	147	390	425	332	320	305	323	528	513	256	285	462	467	339	356	314	330	938	961	1273	1335
776	324	362	433	161	543	410	597	698	115	415	599	225	467	212	389	280	883	183	771	276	422	277	421	508	138	146	535	337	412	483	396	809	180	346	57	591	515	190	251	435	514	350	378	443	162	152	522	499	320	124	490	916	271	252	426	356	788	438	248	516	499	346	382	319	305	382	174	521	178	509	141	374	469	410	747	479	555	408	214	322	478	471	649	202	284	188	394	181	153	445	344	824	116	670	462	141	291	329	318	232	307	254	263	127	412	903	695	97	300	452	184	414	789	603	631	470	533	239	560	132	407	355	419	419	514	561	173	144	437	415	390	410	248	269	194	224	128	88	396	396	253	230	137	178	693	699	357	375	153	141	224	254	92	81	226	217	759	744	627	663	631	718	694	770	241	227	705	738	802	806	422	436	985	937	829	852	233	237	384	368	102	127	190	227	856	840	562	598	0	57	387	483	280	296	704	712	713	670	157	206	362	350	211	238	142	137	362	308	145	161	187	140	128	159	427	467	333	312	117	92	644	628	109	145	151	104	511	499	122	99	357	304	136	114	173	198	467	485	526	625	866	862	487	529	546	557	914	975	839	832	420	453	308	312	472	495	345	379	715	673	580	639	216	210	230	252	822	809	806	782	304	316	538	561	368	353	344	324	137	157	289	273	222	201	251	239	202	228	160	189	226	254	248	273	889	950	408	420	809	862	452	479	394	355	417	447	612	692	624	641	876	920	240	224	524	543	585	683	271	250	229	208	420	410	368	354	845	821	265	289	651	650	451	479	344	332	824	852	650	673	300	302	858	846	257	239	223	238	782	811	199	220	419	403	394	378	806	829	965	1027
719	381	419	490	216	486	467	540	755	172	472	542	282	524	269	446	223	940	126	746	328	479	334	478	565	195	203	592	394	433	540	453	866	237	403	0	648	572	133	303	492	571	407	435	500	111	95	579	556	377	179	433	973	328	309	483	413	845	381	305	573	556	289	325	376	362	439	231	578	235	566	90	431	412	467	804	536	612	465	157	265	421	414	706	259	341	154	451	130	96	388	401	881	59	727	519	84	348	386	375	175	364	311	320	184	469	878	670	90	352	509	235	357	846	660	688	527	590	182	617	189	464	412	476	476	571	618	230	201	494	472	447	467	305	326	251	281	185	145	453	453	310	287	192	233	750	756	414	432	210	198	281	311	149	138	231	246	816	801	684	720	688	775	751	827	216	232	762	795	859	863	479	493	1042	994	804	827	182	203	441	425	145	120	245	282	913	897	619	655	57	0	444	540	332	348	761	769	770	727	212	219	419	407	268	295	199	194	337	283	202	218	162	115	121	116	484	524	390	369	110	135	701	685	152	138	94	47	568	556	179	156	414	361	85	107	230	255	524	542	583	682	923	919	544	586	603	614	971	1032	896	889	475	508	365	364	529	552	402	436	772	730	637	696	207	159	287	309	879	866	863	839	361	373	595	618	425	410	401	381	130	114	346	330	279	258	308	296	259	257	217	246	283	311	305	330	946	1007	465	477	752	805	509	536	415	376	474	504	669	749	681	698	851	895	297	281	581	600	642	740	328	307	286	265	477	467	404	406	902	878	322	346	708	707	508	536	401	389	881	909	707	730	357	359	915	903	314	296	280	295	839	868	256	277	476	460	451	435	781	804	940	1002
1134	307	113	46	443	901	76	955	311	337	204	894	292	98	273	59	638	496	520	1032	368	92	170	163	336	314	305	267	153	454	164	136	422	310	102	444	275	274	548	380	177	127	175	207	56	484	486	206	180	205	420	814	529	170	195	342	161	401	796	302	129	112	704	740	120	242	300	298	134	323	267	463	99	827	281	360	283	168	102	572	680	836	829	441	227	147	484	307	503	532	803	145	437	490	546	343	518	198	273	167	574	135	219	228	261	25	1164	956	419	360	211	364	772	402	216	244	149	146	597	173	256	314	262	252	278	170	217	395	366	226	248	164	144	277	306	350	353	375	379	130	136	333	307	389	430	306	312	302	282	285	297	353	383	344	355	387	373	474	357	240	276	315	341	378	393	404	388	318	351	517	419	120	106	598	550	951	974	555	533	244	260	424	449	472	509	469	453	175	211	501	444	0	96	372	356	436	325	326	283	453	502	187	199	330	352	325	365	623	569	301	302	520	478	450	481	40	80	222	201	439	414	520	504	431	467	538	491	124	112	387	362	340	287	458	436	349	374	123	141	139	238	479	475	100	142	159	170	527	588	452	445	451	418	324	340	85	108	150	184	338	296	193	252	512	532	246	224	435	422	419	395	146	121	422	439	219	230	327	307	459	479	130	146	270	291	331	319	358	384	340	350	251	258	384	409	502	563	102	114	1167	1220	122	92	444	483	30	60	490	568	356	254	1137	1095	406	390	137	156	198	296	202	223	245	265	291	301	405	391	458	434	183	159	527	534	180	145	205	217	437	465	263	286	283	318	471	459	166	184	389	374	395	424	323	328	200	217	175	191	928	951	1226	1288
1038	211	161	142	347	805	172	859	407	241	139	798	196	194	177	151	542	592	424	936	290	188	74	137	286	218	209	363	136	406	205	105	518	214	120	348	315	370	452	284	151	223	80	283	152	388	390	246	221	110	324	718	625	74	99	277	65	497	700	219	225	208	608	644	93	146	228	202	230	227	363	367	195	731	216	456	232	264	198	476	584	740	733	402	131	51	388	242	407	436	707	221	533	394	486	278	422	168	183	195	478	67	131	140	165	121	1068	860	323	298	307	268	676	498	312	340	182	242	501	269	160	328	276	187	213	266	313	299	270	161	183	99	119	181	210	254	257	279	283	105	105	237	211	293	334	402	408	311	296	189	201	257	287	248	259	291	277	570	453	336	372	355	437	418	489	308	292	414	447	613	515	131	145	694	646	898	921	459	437	175	187	328	353	376	413	565	549	271	307	405	348	96	0	294	294	532	421	422	379	357	406	92	104	234	256	229	269	527	473	205	206	424	382	354	385	136	176	126	105	343	318	460	444	335	371	442	395	220	208	291	266	244	191	362	340	253	278	219	237	235	334	575	571	196	238	255	266	623	684	548	541	361	353	262	278	181	204	54	88	434	392	289	348	416	436	150	128	531	518	515	491	50	25	357	377	150	161	231	211	363	383	34	50	174	195	235	223	262	288	244	254	155	162	288	313	598	659	198	210	1071	1124	161	188	396	395	126	156	428	508	452	350	1041	1042	310	294	233	252	294	392	106	127	149	169	226	236	357	343	554	530	87	63	467	469	276	241	110	122	533	561	359	382	221	256	567	555	70	88	293	278	491	520	227	232	135	152	110	126	875	898	1130	1192
895	462	275	386	424	662	308	716	619	343	417	618	98	306	428	299	465	804	383	752	28	320	265	415	564	362	353	362	280	137	483	383	730	404	289	332	593	342	375	54	429	467	358	205	332	440	415	524	499	382	401	652	823	250	268	555	343	709	557	75	469	452	531	501	262	397	482	138	474	402	336	419	241	588	494	682	510	476	306	399	507	614	590	680	321	227	465	520	459	338	581	201	745	391	764	556	377	222	435	233	417	250	185	194	271	315	884	676	375	20	279	202	550	710	524	566	460	454	424	481	266	144	182	465	491	348	395	401	372	439	461	377	397	171	142	146	116	356	316	383	383	477	454	370	411	614	620	92	112	199	187	116	86	210	221	170	155	586	665	548	584	633	663	696	715	187	171	626	659	629	727	409	423	906	858	634	657	511	514	453	441	380	405	453	490	777	761	483	519	389	337	374	436	0	16	531	633	634	591	434	483	370	382	435	462	295	255	365	313	191	182	264	311	406	437	380	388	395	374	395	370	738	722	387	423	336	379	464	452	262	299	495	442	414	392	397	422	301	319	447	546	787	783	408	450	467	478	835	896	760	753	612	631	48	32	425	448	332	366	660	618	533	574	493	488	246	236	743	730	727	703	328	303	635	655	428	426	482	462	415	435	276	292	192	182	475	463	154	166	178	149	345	300	472	497	810	871	306	318	928	981	439	432	127	159	370	400	706	786	451	553	822	778	464	448	477	464	506	604	214	193	245	224	504	514	88	74	766	742	338	332	745	747	278	313	388	394	745	773	571	594	127	92	779	767	312	312	447	462	703	732	333	266	413	430	388	404	611	634	946	1008
879	446	291	402	408	646	324	700	635	327	417	602	82	322	412	315	449	820	367	740	12	336	265	415	564	346	337	378	280	153	483	383	746	388	289	316	593	358	359	38	429	483	358	221	348	424	399	524	499	377	385	636	839	250	252	540	343	725	541	59	485	468	515	485	262	381	466	122	490	386	352	403	257	572	479	698	510	492	322	383	491	598	574	680	305	227	449	505	443	322	565	217	761	375	749	541	361	222	419	249	401	250	185	194	255	331	872	664	359	36	295	186	534	726	540	582	460	470	408	497	250	160	198	465	476	364	411	385	356	439	461	377	397	155	126	130	100	340	300	383	383	461	438	354	395	630	636	108	128	183	171	100	70	194	205	154	139	602	681	564	600	633	679	696	731	171	155	642	675	645	743	409	423	922	874	650	673	495	498	441	425	364	389	437	474	793	777	499	535	373	321	374	452	16	0	547	649	650	607	418	467	370	382	419	446	279	239	349	297	175	166	248	295	390	421	396	404	390	369	379	354	723	707	371	407	320	363	480	468	246	283	479	426	398	376	381	406	317	335	463	562	803	799	424	466	483	494	851	912	776	769	596	616	64	48	441	464	332	366	676	634	549	590	477	472	230	236	759	746	743	719	328	303	620	640	425	410	466	446	399	419	276	292	187	166	459	447	138	150	162	133	329	284	456	481	826	887	322	334	912	965	439	448	143	150	386	416	691	771	467	569	838	794	448	432	493	480	522	620	214	193	229	208	489	499	104	90	782	758	322	332	730	732	294	329	388	389	761	789	587	610	143	108	795	783	312	296	431	446	719	748	317	250	413	430	388	404	627	650	934	996
1338	511	317	250	647	1105	274	1159	107	541	408	1058	496	222	477	263	842	292	724	1139	540	258	374	367	540	518	509	169	357	548	368	340	218	514	306	648	479	272	752	566	381	331	379	343	180	688	690	410	384	409	624	1018	325	374	399	546	365	197	1000	474	333	316	908	944	324	446	504	502	338	527	193	667	303	1031	485	189	487	36	270	776	884	1040	1033	645	431	351	688	511	707	736	1007	349	233	694	750	547	722	402	477	371	778	339	423	432	465	229	1271	1063	623	532	335	568	976	198	322	364	353	252	801	279	460	486	434	456	482	294	341	599	570	430	452	368	348	481	510	554	557	579	583	334	340	537	511	593	634	216	108	474	454	489	501	557	581	548	559	591	577	270	153	36	72	519	461	582	513	608	592	114	147	313	215	324	310	394	346	1021	1044	759	737	448	464	628	653	676	713	265	249	101	137	705	648	396	300	544	528	0	121	122	79	657	706	391	403	534	556	529	569	827	773	505	506	724	682	654	685	244	204	426	405	643	618	724	708	635	671	742	695	328	316	591	566	544	491	662	640	553	578	247	265	263	164	275	271	224	248	265	276	323	384	248	241	655	622	496	512	289	312	354	388	458	416	397	372	716	736	450	428	231	218	215	191	350	325	626	643	423	434	531	511	663	683	334	350	474	495	535	523	562	588	544	554	455	462	588	613	298	359	294	282	1371	1424	326	296	616	655	234	264	694	772	282	180	1209	1165	610	594	318	262	304	206	406	427	449	469	495	505	577	563	254	230	387	363	731	738	304	269	409	421	233	261	59	82	455	490	267	255	370	388	593	578	191	220	527	532	404	421	379	395	998	1021	1333	1395
1284	622	347	361	727	1033	294	1105	219	646	519	937	395	260	588	329	852	413	766	1018	438	282	462	478	651	629	620	48	387	427	479	451	339	625	357	640	590	153	762	464	492	442	490	241	286	743	735	521	495	520	704	1041	413	447	485	657	476	318	946	372	444	427	918	890	382	557	615	428	449	638	74	722	313	977	596	310	598	157	268	786	894	1003	979	756	542	424	768	622	762	725	970	273	345	699	861	658	724	336	588	305	804	408	357	366	550	340	1150	942	678	430	233	520	939	319	443	485	464	373	811	400	545	384	332	567	593	302	349	704	675	541	563	479	459	399	428	480	456	659	619	445	451	648	622	673	714	337	229	372	352	478	466	456	479	513	524	518	503	176	274	157	193	630	582	693	634	535	519	235	268	219	327	435	421	515	467	900	923	814	817	559	575	683	708	756	793	386	370	212	248	697	640	507	411	442	426	121	0	243	200	737	786	502	514	645	667	598	558	754	700	470	454	651	647	709	740	355	315	537	516	698	673	835	819	690	726	723	687	439	427	565	602	655	602	717	695	664	689	255	273	374	275	396	383	335	369	386	397	435	496	360	362	766	733	394	410	400	423	465	499	579	537	508	493	796	791	467	446	352	339	336	312	461	436	737	754	534	545	642	622	718	738	445	461	418	424	646	634	488	514	496	481	566	573	699	724	410	471	292	280	1317	1370	437	407	514	553	345	375	805	883	163	265	1088	1044	721	705	439	383	425	327	424	403	466	445	606	616	475	461	366	342	498	474	842	849	232	267	520	532	354	382	180	203	353	388	379	367	481	499	704	689	312	341	612	545	515	532	490	506	877	900	1212	1274
1374	547	353	286	683	1141	310	1195	71	577	444	1094	532	258	513	299	878	256	760	1118	576	294	410	403	576	554	545	205	393	584	404	376	182	550	342	684	515	308	788	602	417	367	415	379	216	724	726	446	420	445	660	1054	289	410	435	582	401	161	1036	510	369	352	944	980	360	482	540	538	374	563	229	703	339	1067	521	153	523	72	306	812	920	1076	1069	681	467	387	724	547	743	772	1043	385	197	730	786	583	758	438	513	407	814	375	459	468	501	265	1250	1042	659	568	371	604	1012	162	351	371	389	288	837	315	496	522	470	492	518	330	377	635	606	466	488	404	384	517	546	590	593	615	619	370	376	573	547	629	670	252	144	510	490	525	537	593	617	584	595	627	613	234	117	72	36	555	468	617	520	644	628	78	111	277	179	360	346	358	310	1000	1023	795	773	484	500	664	689	712	749	229	213	137	173	741	684	432	336	580	564	278	157	0	43	693	742	427	439	570	592	565	605	863	809	541	542	760	718	690	721	280	240	462	441	679	654	760	744	671	707	778	731	364	352	627	602	580	527	698	676	589	614	283	301	299	200	239	235	260	284	301	312	287	348	212	205	691	658	532	548	325	348	390	424	465	423	433	379	752	772	486	464	195	182	179	155	386	361	662	679	459	470	567	547	699	719	370	386	510	531	571	559	598	624	580	590	491	498	624	649	262	323	330	318	1407	1460	362	332	652	691	270	300	730	808	318	216	1188	1144	646	630	354	298	340	242	442	463	485	505	531	541	613	599	218	194	423	399	767	774	340	305	445	457	197	225	23	46	491	526	231	219	406	424	629	614	155	184	563	568	440	457	415	431	977	1000	1312	1374
1417	590	396	329	726	1184	353	1238	114	620	487	1137	575	301	556	342	921	225	803	1161	619	337	453	446	594	597	588	248	436	627	422	419	221	593	385	727	472	351	831	645	460	367	458	422	259	767	769	447	438	488	703	1097	332	453	478	625	444	180	1079	553	387	395	987	1023	403	525	583	581	336	606	272	746	382	1110	564	110	541	115	349	855	963	1119	1112	638	510	430	767	590	786	815	1086	428	240	773	743	622	801	481	556	450	857	418	502	511	544	308	1293	1085	702	611	414	647	1055	205	308	328	432	331	880	311	539	565	513	535	561	373	420	678	649	509	531	447	427	560	589	633	636	658	662	413	419	616	590	672	713	295	187	553	533	568	580	636	660	627	638	670	656	277	160	115	79	512	425	574	477	687	671	35	68	320	222	403	389	391	343	1043	1066	838	816	527	543	707	732	755	792	262	256	180	216	784	727	475	379	623	607	321	200	43	0	736	785	470	482	613	635	608	648	906	852	584	585	803	761	733	764	323	283	505	484	722	697	717	701	714	750	821	774	407	395	670	645	623	570	741	719	632	657	326	344	342	243	282	278	303	327	344	355	330	391	255	248	734	701	575	591	368	391	433	467	422	380	395	336	795	815	529	507	234	225	222	198	429	404	705	697	502	513	610	590	742	762	413	429	553	574	614	602	641	667	623	633	534	541	667	692	305	366	373	361	1450	1503	405	375	695	734	313	343	748	765	361	259	1231	1187	689	673	397	341	383	285	485	506	528	548	574	584	656	642	261	237	466	442	724	747	383	348	488	500	240	268	66	89	534	569	274	262	449	467	672	657	182	153	606	611	483	500	458	474	1020	1043	1355	1417
805	332	482	499	77	572	507	626	764	143	453	628	379	547	235	472	309	949	191	916	430	523	345	475	482	166	175	689	457	566	521	462	875	204	441	170	624	669	219	405	489	576	404	532	509	59	157	560	537	374	40	411	982	360	329	379	422	854	467	402	556	565	375	411	414	328	390	328	587	202	663	130	525	498	384	813	466	621	528	243	351	441	500	623	268	372	31	368	132	203	408	498	890	161	595	436	189	445	352	472	175	388	408	417	237	478	1048	840	128	454	606	338	377	855	669	679	524	599	268	626	242	561	509	457	439	623	670	143	172	475	453	455	475	402	423	348	378	158	198	461	462	227	253	146	122	759	765	511	529	307	295	378	408	246	235	380	371	913	810	693	729	669	756	727	808	386	381	771	804	956	872	487	501	1051	1003	974	997	113	80	422	406	137	158	106	143	922	906	628	664	227	214	453	549	434	450	858	778	779	736	0	49	416	404	235	212	252	274	507	453	299	315	332	285	159	128	493	533	387	378	152	127	569	553	144	163	264	217	577	565	246	209	380	327	129	149	197	172	576	594	592	691	932	928	553	595	612	623	980	1041	905	898	336	369	462	466	538	561	411	445	753	711	646	705	59	107	384	406	888	875	872	848	370	382	457	486	412	397	352	347	155	126	355	339	376	355	223	213	356	382	314	343	292	337	198	223	955	1016	528	540	838	891	517	545	548	509	483	513	537	617	778	707	1021	1065	158	174	590	609	651	749	425	404	383	362	394	384	522	508	911	887	331	355	576	569	605	598	398	386	890	918	716	739	454	456	924	912	323	305	173	188	848	877	309	374	466	449	448	432	951	974	1110	1172
798	305	433	450	53	565	458	619	715	96	411	621	330	498	193	423	302	900	184	879	381	474	296	433	458	119	127	640	408	517	479	413	826	161	392	163	587	620	212	356	447	531	362	483	460	108	150	518	495	332	16	460	933	311	280	355	373	805	460	353	514	516	368	404	365	286	363	279	538	159	614	127	476	491	360	764	442	572	479	236	344	490	493	599	219	323	80	344	167	196	457	449	841	154	571	412	182	396	310	423	224	339	359	368	188	429	1011	803	83	405	557	289	426	806	620	637	482	550	261	577	193	512	460	415	415	574	621	119	125	433	411	407	427	353	374	299	329	109	149	413	413	203	211	97	98	710	716	462	480	258	246	329	359	197	186	331	322	864	761	644	680	627	714	690	766	348	332	722	755	907	823	439	453	1002	954	937	960	162	129	380	364	88	113	82	119	873	857	579	615	220	165	404	500	385	401	809	729	730	687	49	0	374	362	192	188	203	225	470	416	250	266	295	248	114	145	444	484	345	329	103	78	545	529	95	131	257	210	528	516	197	160	338	285	122	100	154	148	527	545	543	642	883	879	504	546	563	574	931	992	856	849	312	345	413	417	489	512	362	396	711	669	597	656	108	156	335	357	839	826	823	799	321	333	433	462	370	355	325	305	123	143	306	290	327	306	199	189	307	333	265	294	243	288	174	199	906	967	479	491	831	884	469	496	499	460	434	464	513	593	729	658	984	1028	134	150	541	560	602	700	376	355	334	313	370	360	473	459	862	838	282	306	552	545	556	549	356	344	841	869	667	690	405	407	875	863	274	256	149	164	799	828	260	325	424	407	406	390	914	937	1073	1135
1080	148	253	141	365	847	263	901	498	254	97	856	288	285	157	243	584	666	466	994	382	279	146	95	244	231	240	454	228	498	163	75	609	194	212	395	273	461	494	376	109	190	12	375	243	430	432	204	179	18	352	760	716	161	159	208	41	588	742	311	192	175	650	686	185	80	136	276	197	207	454	409	286	773	147	423	190	355	289	518	626	782	775	360	178	143	423	173	449	478	749	313	624	436	417	209	464	260	103	287	520	159	223	232	212	212	1126	918	365	390	398	315	718	589	287	307	144	247	543	274	207	420	368	118	144	357	404	307	283	119	114	63	83	273	302	325	349	321	330	69	75	217	191	335	352	407	499	403	388	236	248	349	379	295	306	357	348	661	544	427	463	313	400	376	452	374	358	505	538	704	606	95	109	785	737	989	1012	501	472	83	95	370	395	394	431	656	640	362	363	452	395	188	283	386	386	623	512	513	470	399	441	0	12	214	236	276	316	585	531	252	268	476	429	396	427	227	267	47	68	385	360	391	375	377	413	489	442	187	175	338	313	181	171	404	382	246	270	310	328	326	425	666	662	285	243	260	271	714	775	639	632	304	284	354	370	148	171	106	72	397	355	256	315	451	478	229	220	622	609	606	582	110	117	288	308	58	69	168	148	405	425	126	140	266	287	215	203	333	359	291	320	202	209	268	293	689	750	289	301	1113	1166	125	155	488	486	217	187	359	439	543	441	1099	1133	290	274	201	257	299	397	198	219	228	249	157	167	449	435	645	621	121	116	398	400	367	332	18	30	624	652	450	473	313	348	658	646	142	135	273	258	582	594	274	279	93	77	68	52	966	989	1188	1250
1092	160	241	129	377	859	251	913	486	266	91	868	276	273	169	231	596	654	478	1006	370	267	135	89	238	243	252	442	216	486	157	63	597	206	200	407	267	449	506	364	103	178	0	363	231	442	444	198	173	30	364	772	704	150	160	220	29	576	754	299	180	163	662	698	173	92	148	282	185	219	442	421	274	785	159	411	184	343	277	530	638	794	787	354	190	131	435	185	461	490	761	301	612	448	429	221	476	248	115	275	532	147	211	220	224	200	1138	930	377	378	386	327	730	577	275	295	134	235	555	262	219	408	356	130	156	345	392	319	295	113	126	51	71	261	290	334	337	333	342	57	63	229	203	347	364	395	487	391	376	248	260	337	367	307	318	369	357	649	532	415	451	307	392	370	444	386	370	493	526	692	594	83	97	773	725	978	1001	513	484	95	107	382	407	406	443	644	628	350	351	464	407	176	271	374	374	611	500	501	458	411	453	12	0	226	248	288	328	597	543	264	280	488	441	408	439	215	255	59	80	397	372	403	387	389	425	501	454	175	163	350	325	193	183	416	394	258	282	298	316	314	413	654	650	273	231	248	259	702	763	627	620	316	296	342	358	136	159	94	60	389	347	244	303	463	490	230	208	610	597	594	570	98	105	300	320	70	81	180	160	417	437	114	129	254	275	227	215	342	368	303	332	214	221	280	305	677	738	277	289	1125	1178	113	143	476	475	205	175	371	451	531	429	1111	1122	302	286	189	245	287	385	186	207	229	249	169	179	437	423	633	609	133	111	410	412	355	320	30	42	612	640	438	461	301	336	646	634	131	147	285	270	570	582	286	291	87	89	62	64	955	978	1200	1262
921	148	380	349	157	688	400	742	635	95	269	744	379	422	51	370	425	820	307	981	430	416	243	291	298	72	81	591	355	566	337	283	746	41	339	267	440	598	335	405	305	392	220	502	380	243	273	376	353	190	144	595	853	258	227	216	249	725	583	402	372	383	491	527	312	144	206	328	405	49	591	250	423	614	200	631	282	492	426	359	467	623	616	439	201	270	215	184	290	319	590	440	761	277	460	252	305	387	168	414	359	286	350	359	192	349	1113	905	206	454	535	338	559	726	495	495	340	455	384	482	197	547	495	273	255	494	541	99	124	291	269	271	291	400	423	348	378	162	202	277	283	43	69	176	144	615	636	511	515	288	295	378	408	246	239	380	371	798	681	564	600	485	572	543	624	397	381	642	675	841	743	303	317	922	874	1012	1035	297	264	238	222	211	236	186	223	793	777	499	535	324	267	324	420	434	450	760	649	650	607	209	233	232	220	0	28	219	259	572	518	299	315	397	350	237	268	364	404	203	194	226	201	434	418	218	254	361	314	395	383	250	213	196	143	245	223	87	62	447	465	463	562	803	799	424	451	468	479	851	912	776	769	210	243	462	466	356	379	279	280	569	527	464	523	243	291	297	319	759	746	743	719	228	253	328	351	228	213	168	163	246	266	253	237	376	355	41	29	356	382	314	343	225	270	83	108	826	887	426	438	954	1007	333	363	548	509	354	384	402	482	680	578	1086	1130	104	88	409	465	507	605	325	346	296	317	210	200	522	508	782	758	189	213	441	440	504	469	214	202	761	789	587	610	440	456	795	783	221	203	87	73	719	748	264	331	282	265	264	248	989	1012	1175	1237
894	141	358	327	180	661	378	715	613	68	247	717	352	400	29	348	398	798	280	954	403	394	221	269	326	45	54	569	333	539	315	261	724	13	317	240	423	576	308	378	283	370	198	480	358	244	246	354	331	168	167	574	831	236	205	244	227	703	556	375	350	361	464	500	290	122	199	301	383	21	569	223	401	587	228	609	310	470	404	332	440	596	589	467	174	248	238	212	263	292	563	418	739	250	488	280	278	365	146	392	334	264	328	337	165	327	1086	878	179	427	513	311	532	704	473	473	318	433	357	460	170	525	473	251	251	472	519	122	97	269	247	249	269	375	396	321	351	135	175	255	261	71	47	149	167	593	614	484	493	261	268	351	381	219	212	353	344	776	659	542	578	463	550	526	602	370	354	620	653	819	721	281	295	900	852	985	1008	315	287	216	200	184	209	209	246	771	755	477	513	297	240	302	398	407	423	738	627	628	585	213	256	210	198	28	0	192	232	545	491	272	288	370	323	210	241	342	382	181	172	199	174	462	446	191	227	334	287	373	361	223	186	174	121	218	196	60	85	425	443	441	540	781	777	402	429	446	457	829	890	754	747	238	271	435	439	334	357	257	258	547	505	442	501	266	292	275	297	737	724	721	697	206	231	356	379	206	191	161	141	219	239	231	215	349	328	69	57	329	355	287	316	198	243	111	136	804	865	404	416	927	980	311	341	521	482	332	362	430	510	658	556	1059	1103	127	111	387	443	485	583	303	324	274	295	238	228	495	481	760	736	167	191	469	468	482	447	192	180	739	767	565	588	418	429	773	761	199	181	110	101	697	726	237	304	260	243	242	226	962	985	1148	1210
873	327	297	371	224	640	345	694	636	143	353	654	160	402	221	324	377	821	276	792	211	357	212	359	468	147	138	470	272	347	421	334	747	189	281	154	529	450	287	186	373	452	288	313	381	240	242	460	437	258	201	570	854	206	187	421	294	726	535	183	454	437	443	479	254	262	347	109	459	187	444	219	309	566	360	685	417	493	343	311	419	575	568	609	140	219	265	386	259	250	542	279	762	213	630	422	238	226	300	253	329	242	189	198	65	349	924	716	175	235	387	119	511	727	541	569	408	471	336	498	70	342	290	357	357	449	496	201	172	375	353	328	348	183	204	129	159	156	116	334	334	262	239	170	211	631	637	292	310	88	76	159	189	27	38	161	152	694	682	565	601	569	656	632	708	178	162	643	676	737	744	360	374	923	875	793	816	311	314	322	306	180	205	253	290	794	778	500	536	211	154	325	421	215	231	639	650	651	608	234	283	300	288	220	247	0	40	383	329	80	96	208	161	206	237	365	405	271	250	195	170	604	588	187	223	248	201	449	437	62	99	360	307	214	192	182	207	402	420	464	563	804	800	425	467	484	495	852	913	777	770	429	462	243	247	410	433	283	317	653	611	518	577	293	288	165	187	760	747	744	720	242	254	501	521	306	291	347	327	215	235	227	211	157	136	260	248	137	163	95	124	164	189	257	282	827	888	343	355	906	959	390	417	329	290	355	385	572	652	559	579	897	937	249	233	462	481	523	621	206	185	164	143	370	380	303	289	783	759	203	227	611	613	386	414	282	270	762	790	588	611	235	237	796	784	195	177	232	247	720	749	137	155	357	341	332	316	770	793	986	1048
868	287	314	331	202	635	339	689	596	121	313	691	200	379	181	304	372	781	254	832	251	355	177	319	428	107	98	510	289	387	381	294	707	149	273	159	489	490	282	226	333	412	248	353	341	218	220	420	397	218	179	548	814	192	161	381	254	686	530	223	414	397	438	474	246	222	307	149	419	147	484	197	349	561	320	645	377	453	360	306	414	570	563	569	100	204	243	346	237	255	537	319	722	218	590	382	243	266	260	293	308	220	229	238	25	310	964	756	153	275	427	159	506	687	501	529	368	431	331	458	30	382	330	317	317	455	502	179	150	335	313	288	308	223	244	169	199	134	94	294	294	222	199	148	189	591	597	332	350	121	116	199	229	67	78	201	192	734	642	525	561	529	616	592	668	218	202	603	636	777	704	320	334	883	835	833	856	289	292	282	266	158	183	231	268	754	738	460	496	216	159	285	381	255	271	679	610	611	568	212	261	260	248	180	207	40	0	423	369	120	136	248	201	184	215	325	365	231	210	173	148	564	548	165	201	253	206	409	397	102	77	320	267	192	170	142	167	408	426	424	523	764	760	385	427	444	455	812	873	737	730	389	422	283	287	370	393	243	277	613	571	478	537	271	266	205	227	720	707	704	680	202	214	461	481	266	251	307	287	193	213	187	171	197	176	220	208	177	203	135	164	124	169	217	242	787	848	360	372	901	954	350	377	369	330	315	345	532	612	599	539	937	977	209	193	422	441	483	581	246	225	204	183	330	340	343	329	743	719	163	187	571	573	426	430	242	230	722	750	548	571	275	277	756	744	155	137	192	207	680	709	97	164	317	301	292	276	810	833	1026	1088
638	528	446	561	415	405	494	459	826	369	554	379	257	542	466	473	234	1011	280	517	255	506	372	556	669	392	400	598	421	360	622	524	937	434	430	229	730	578	272	230	570	642	489	441	568	340	312	661	638	459	378	395	1044	366	347	622	484	916	300	280	644	627	307	244	403	463	548	218	649	432	572	319	446	331	561	875	618	683	492	296	276	357	333	810	387	368	383	587	359	235	324	416	952	288	831	623	274	363	501	390	314	391	326	335	337	498	649	441	319	279	515	162	293	917	731	759	601	661	275	688	332	403	418	558	558	584	631	427	398	576	554	518	538	306	301	226	256	382	342	524	524	507	484	391	432	821	827	351	371	265	253	256	245	270	259	158	173	822	872	755	791	770	856	833	908	143	159	833	866	865	934	550	564	1113	1065	575	598	411	432	523	507	356	349	444	481	984	968	690	726	286	311	515	611	259	275	767	840	841	798	411	448	501	489	465	492	355	315	0	54	257	256	161	208	350	345	555	595	472	451	339	346	805	789	363	367	233	276	639	627	300	337	561	508	314	336	427	452	537	555	654	753	994	990	615	657	674	685	1042	1103	967	960	674	698	307	291	600	623	473	507	853	811	708	767	436	388	325	347	950	937	934	910	443	444	702	722	507	492	548	528	359	343	417	412	287	266	505	493	210	184	244	223	411	366	502	527	1017	1078	492	504	671	724	580	607	342	303	545	575	773	853	687	769	622	666	494	478	652	671	713	811	355	334	324	303	571	581	331	333	973	949	404	428	812	814	514	549	483	471	952	980	778	801	363	334	986	974	396	378	477	492	910	939	399	332	554	542	529	517	552	575	711	773
584	582	500	615	469	351	548	405	880	423	608	325	311	596	520	527	180	1065	332	463	307	560	426	610	723	446	454	652	475	353	676	578	991	488	484	283	784	632	270	282	624	696	543	495	622	394	364	715	692	513	432	341	1098	420	401	676	538	970	246	332	698	681	253	190	457	517	602	272	703	486	626	373	500	277	615	929	672	737	546	294	222	303	279	864	441	422	437	641	413	289	270	470	1006	342	885	677	328	417	555	444	366	445	380	389	391	552	595	387	373	331	569	216	239	971	785	813	655	715	221	742	386	455	472	612	612	638	685	481	452	630	608	572	592	360	355	280	310	436	396	578	578	561	538	445	486	875	881	403	423	319	307	310	297	324	313	212	227	876	926	809	845	824	910	887	962	197	213	887	920	919	988	604	618	1167	1119	521	544	465	486	577	561	410	403	498	535	1038	1022	744	780	340	365	569	665	311	327	821	894	895	852	465	502	555	543	519	546	409	369	54	0	311	310	215	262	404	399	609	649	526	505	393	400	859	843	417	421	287	330	693	681	354	391	615	562	368	390	481	506	591	609	708	807	1048	1044	669	711	728	739	1096	1157	1021	1014	728	752	359	343	654	677	527	561	907	865	762	821	490	442	379	401	1004	991	988	964	497	498	756	776	561	546	602	582	413	397	471	466	341	320	559	547	264	238	298	277	465	420	556	581	1071	1132	546	558	617	670	634	661	335	331	599	629	827	907	741	823	568	612	548	532	706	725	767	865	409	388	378	357	625	635	324	338	1027	1003	458	482	866	868	568	603	537	525	1006	1034	832	855	417	386	1040	1028	450	432	531	546	964	993	453	386	608	596	583	571	498	521	657	719
878	303	217	332	289	645	265	699	597	208	329	619	111	322	269	244	425	782	328	757	162	277	132	327	444	227	218	390	192	298	395	295	708	269	201	202	505	370	335	137	341	413	264	233	342	305	297	436	411	234	266	635	815	126	107	397	255	687	540	134	415	398	491	484	174	238	323	29	420	267	364	284	229	571	336	646	393	454	263	359	467	597	573	585	162	139	330	362	324	298	564	199	723	261	606	398	286	146	276	173	377	162	109	118	112	269	889	681	240	186	307	95	533	688	502	530	372	432	384	459	107	262	210	333	333	369	416	266	237	351	329	289	309	103	132	80	110	221	181	295	295	329	303	235	276	592	598	243	230	40	28	110	140	75	86	112	103	614	643	526	562	545	627	608	679	129	113	604	637	657	705	321	335	884	836	744	767	376	379	298	282	245	270	318	355	755	739	461	497	259	202	286	382	166	182	559	611	612	569	299	348	276	264	300	327	160	120	348	294	0	16	245	209	271	302	326	366	247	226	260	235	580	564	252	288	296	249	410	398	127	164	336	283	279	257	262	287	322	340	425	524	765	761	386	428	445	456	813	874	738	731	453	473	194	198	371	394	244	278	624	582	479	538	358	353	85	107	721	708	705	681	218	215	477	497	282	267	323	303	280	300	188	187	77	56	327	315	88	114	71	75	186	141	337	362	788	849	263	275	911	964	351	378	280	241	316	346	548	628	479	540	862	888	329	313	423	442	484	582	126	105	84	63	346	356	254	240	744	720	179	203	587	589	306	334	258	246	723	751	549	572	155	188	757	745	171	153	312	327	681	710	174	107	325	317	300	292	721	744	951	1013
879	287	233	331	273	646	281	700	596	192	313	620	120	338	253	260	409	781	312	758	171	293	148	319	428	211	202	406	208	307	381	294	707	253	217	186	489	386	319	146	333	412	248	249	341	289	281	420	397	218	250	619	814	142	123	381	254	686	541	143	414	397	475	485	190	222	307	45	419	251	380	268	245	572	320	645	377	453	279	343	451	598	574	569	146	155	314	346	308	282	565	215	722	245	590	382	270	162	260	189	361	178	125	134	96	285	890	682	224	195	323	79	534	687	501	529	368	431	368	458	91	278	226	317	317	385	432	250	221	335	313	288	308	119	148	89	119	205	165	294	294	313	287	219	260	591	597	252	246	24	12	119	149	59	70	121	112	630	642	525	561	529	616	592	668	138	122	603	636	673	704	320	334	883	835	753	776	360	363	282	266	229	254	302	339	754	738	460	496	243	186	285	381	175	191	575	610	611	568	283	332	260	248	284	311	144	104	349	295	16	0	240	193	255	286	325	365	231	210	244	219	564	548	236	272	280	233	409	397	111	148	320	267	263	241	246	271	338	356	424	523	764	760	385	427	444	455	812	873	737	730	437	457	203	207	370	393	243	277	613	571	478	537	342	337	101	123	720	707	704	680	202	214	461	481	266	251	307	287	264	284	187	171	93	72	311	299	97	123	55	84	170	125	321	346	787	848	279	291	912	965	350	377	289	250	315	345	532	612	495	539	863	897	313	297	422	441	483	581	142	121	100	79	330	340	263	249	743	719	163	187	571	573	322	350	242	230	722	750	548	571	171	197	756	744	155	137	296	311	680	709	158	91	317	301	292	276	730	753	952	1014
787	417	379	477	254	554	427	608	742	208	459	540	242	484	305	406	291	927	194	678	260	439	294	465	574	231	239	552	354	365	527	440	853	273	363	68	635	532	201	235	479	558	394	395	487	179	163	566	543	364	217	501	960	288	269	519	400	832	449	265	560	543	357	393	336	368	453	191	565	271	526	158	391	480	466	791	523	599	425	225	333	489	482	715	254	301	222	487	198	164	456	361	868	127	736	528	152	308	406	335	243	324	271	280	179	431	810	602	158	284	469	167	425	833	647	675	514	577	250	604	184	408	372	463	463	531	578	266	237	481	459	434	454	265	286	211	241	221	181	440	440	346	323	230	271	737	743	356	376	170	158	241	250	109	98	163	178	776	788	671	707	675	762	738	814	148	164	749	782	819	850	466	480	1029	981	736	759	250	271	428	412	195	188	283	320	900	884	606	642	125	150	431	527	264	280	721	756	757	714	250	287	406	394	304	331	194	154	269	215	162	178	0	47	189	184	471	511	377	356	178	185	710	694	202	206	162	115	555	543	139	176	450	397	153	175	266	291	484	502	570	669	910	906	531	573	590	601	958	1019	883	876	513	546	312	296	516	539	389	423	759	717	624	683	275	227	247	269	866	853	850	826	348	360	607	627	412	397	437	417	198	182	333	317	239	218	344	332	215	189	177	206	278	271	341	366	933	994	425	437	820	873	496	523	347	308	461	491	678	758	641	685	783	827	333	317	568	587	629	727	288	267	246	225	476	486	336	338	889	865	309	333	717	719	468	496	388	376	868	896	694	717	317	319	902	890	301	283	316	331	826	855	251	237	463	447	438	422	713	736	872	934
744	464	404	519	301	511	452	565	784	255	506	493	215	500	352	431	248	969	166	631	213	464	330	512	621	278	286	556	379	318	574	482	895	320	388	115	682	536	158	188	526	600	441	399	526	226	198	613	590	411	264	458	1002	324	305	566	442	874	406	238	602	585	314	350	361	415	500	176	607	318	530	205	404	437	513	833	570	641	450	182	290	446	439	762	301	326	269	534	245	121	413	374	910	174	783	575	160	321	453	348	200	349	284	293	226	456	763	555	205	237	473	120	382	875	689	717	559	619	207	646	231	361	376	510	510	542	589	313	284	528	506	476	496	264	259	184	214	268	228	482	482	393	370	277	318	779	785	309	329	217	205	214	203	156	145	116	131	780	830	713	749	722	809	785	861	101	117	791	824	823	892	508	522	1071	1023	689	712	297	318	475	459	242	235	330	367	942	926	648	684	172	197	473	569	217	233	725	798	799	756	297	334	453	441	351	378	241	201	222	168	209	214	47	0	236	231	513	553	424	403	225	232	757	741	249	253	119	162	597	585	186	223	497	444	200	222	313	338	495	513	612	711	952	948	573	615	632	643	1000	1061	925	918	560	593	265	249	558	581	431	465	806	764	666	725	322	274	283	305	908	895	892	868	395	402	654	674	459	444	484	464	245	229	375	364	245	224	391	379	168	142	202	181	325	318	388	413	975	1036	450	462	777	830	538	565	300	261	503	533	725	805	645	727	736	780	380	364	610	629	671	769	313	292	282	261	523	533	289	291	931	907	356	380	764	766	472	507	435	423	910	938	736	759	321	292	944	932	348	330	363	378	868	897	298	284	510	494	485	469	666	689	825	887
720	351	479	496	167	487	504	541	761	142	457	543	351	544	239	469	224	946	106	831	402	520	342	479	535	165	173	661	454	518	525	459	872	207	438	85	633	641	134	377	493	577	408	504	506	38	72	564	541	378	130	384	979	357	326	453	419	851	382	374	560	562	290	326	411	332	409	300	584	205	635	49	500	413	437	810	519	618	525	158	266	414	415	676	265	369	81	421	73	118	381	470	887	76	685	489	104	417	356	444	148	385	380	389	209	475	963	755	31	426	578	310	350	852	666	683	528	596	183	623	214	533	481	461	461	620	667	200	171	479	457	453	473	374	395	320	350	155	170	459	459	280	257	143	184	756	762	483	501	279	267	350	380	218	207	316	331	885	807	690	726	673	760	736	812	301	317	768	801	928	869	485	499	1048	1000	889	912	109	130	426	410	91	61	196	233	919	903	625	661	142	185	450	546	406	422	830	775	776	733	163	146	420	408	238	265	224	246	422	368	271	287	247	200	0	31	490	530	391	375	61	86	659	643	98	66	179	132	574	562	218	181	384	331	44	58	200	225	573	591	589	688	929	925	550	592	609	620	977	1038	902	895	426	459	434	438	535	558	408	442	757	715	643	702	134	86	356	378	885	872	869	845	367	379	547	576	416	401	371	351	58	29	352	336	348	327	278	266	328	342	286	315	289	334	275	300	952	1013	525	537	753	806	515	542	500	461	480	510	627	707	750	704	936	980	248	251	587	606	648	746	397	376	355	334	447	437	489	480	908	884	328	352	666	659	577	595	402	390	887	915	713	736	426	428	921	909	320	302	250	265	845	874	281	346	470	453	452	436	866	889	1025	1087
725	320	448	465	136	492	473	546	730	111	426	548	320	513	208	438	229	915	111	836	371	489	311	448	504	134	142	630	423	507	494	428	841	176	407	90	602	610	139	346	462	546	377	473	475	69	77	533	510	347	99	405	948	326	295	422	388	820	387	343	529	531	295	331	380	301	378	269	553	174	604	54	469	418	406	779	488	587	494	163	271	427	420	645	234	338	112	390	94	123	394	439	856	81	654	458	109	386	325	413	165	354	349	358	178	444	968	760	0	395	547	279	363	821	635	652	497	565	188	592	183	502	450	430	430	589	636	169	140	448	426	422	442	343	364	289	319	124	139	428	428	249	226	112	153	725	731	452	470	248	236	319	349	187	176	321	312	854	776	659	695	642	729	705	781	306	322	737	770	897	838	454	468	1017	969	894	917	140	161	395	379	60	30	165	202	888	872	594	630	147	154	419	515	375	391	799	744	745	702	132	177	389	377	207	234	193	215	427	373	240	256	252	205	31	0	459	499	360	344	30	55	628	612	67	48	184	137	543	531	187	150	353	300	49	27	169	194	542	560	558	657	898	894	519	561	578	589	946	1007	871	864	395	428	403	407	504	527	377	411	726	684	612	671	165	117	325	347	854	841	838	814	336	348	516	545	385	370	340	320	40	60	321	305	317	296	247	235	297	323	255	284	258	303	244	269	921	982	494	506	758	811	484	511	489	450	449	479	596	676	719	673	941	985	217	220	556	575	617	715	366	345	324	303	416	406	463	449	877	853	297	321	635	628	546	564	371	359	856	884	682	705	395	397	890	878	289	271	219	234	814	843	250	315	439	422	421	405	871	894	1030	1092
1174	347	153	86	483	941	110	995	271	377	244	934	332	58	313	99	678	456	560	1072	376	94	210	203	376	354	345	227	193	444	204	176	382	350	142	484	315	234	588	402	217	167	215	179	16	524	526	246	220	245	460	854	489	210	235	382	201	361	836	310	169	152	744	780	160	282	340	338	174	363	227	503	139	867	321	334	323	128	106	612	720	876	869	481	267	187	524	347	543	572	843	185	397	530	586	383	558	238	313	207	614	175	259	268	301	65	1204	996	459	368	171	404	812	362	176	218	189	106	637	133	296	322	270	292	318	130	177	435	406	266	288	204	184	317	346	390	393	415	419	170	176	373	347	429	470	266	272	310	290	325	337	393	417	384	395	427	413	434	317	200	236	355	315	418	367	444	428	278	311	477	379	160	146	558	510	956	979	595	573	284	300	464	489	512	549	429	413	135	171	541	484	232	136	380	364	396	285	286	243	493	542	227	239	370	392	365	405	663	609	341	342	560	518	490	521	0	40	262	241	479	454	560	544	471	507	578	531	164	152	427	402	380	327	498	476	389	414	83	101	99	198	439	435	60	102	119	130	487	548	412	405	491	458	332	348	125	148	190	224	312	270	233	226	552	572	286	264	395	382	379	355	186	161	462	479	259	270	367	347	499	519	170	186	310	331	371	359	398	424	380	390	291	298	424	449	462	523	130	118	1207	1260	162	132	452	491	70	100	530	608	316	214	1144	1100	446	430	172	116	158	256	242	263	285	305	331	341	413	399	418	394	223	199	567	574	140	105	245	257	397	425	223	246	291	326	431	419	206	224	429	414	355	384	363	368	240	257	215	231	933	956	1266	1328
1134	307	113	46	443	901	76	955	311	337	204	894	292	98	273	59	638	496	520	1032	368	92	170	163	336	314	305	267	153	454	164	136	422	310	102	444	275	274	548	380	177	127	175	207	56	484	486	206	180	205	420	814	529	170	195	342	161	401	796	302	129	112	704	740	120	242	300	298	134	323	267	463	99	827	281	360	283	168	102	572	680	836	829	441	227	147	484	307	503	532	803	145	437	490	546	343	518	198	273	167	574	135	219	228	261	25	1164	956	419	360	211	364	772	402	216	244	149	146	597	173	256	314	262	252	278	170	217	395	366	226	248	164	144	277	306	350	353	375	379	130	136	333	307	389	430	306	312	302	282	285	297	353	383	344	355	387	373	474	357	240	276	315	341	378	393	404	388	318	351	517	419	120	106	598	550	951	974	555	533	244	260	424	449	472	509	469	453	175	211	501	444	192	96	372	356	436	325	326	283	453	502	187	199	330	352	325	365	623	569	301	302	520	478	450	481	40	0	222	201	439	414	520	504	431	467	538	491	124	112	387	362	340	287	458	436	349	374	123	141	139	238	479	475	100	142	159	170	527	588	452	445	451	418	324	340	85	108	150	184	338	296	193	252	512	532	246	224	435	422	419	395	146	121	422	439	219	230	327	307	459	479	130	146	270	291	331	319	358	384	340	350	251	258	384	409	502	563	102	114	1167	1220	122	92	444	483	30	60	490	568	356	254	1137	1095	406	390	137	156	198	296	202	223	245	265	291	301	405	391	458	434	183	159	527	534	180	145	205	217	437	465	263	286	283	318	471	459	166	184	389	374	395	424	323	328	200	217	175	191	928	951	1226	1288
1038	143	236	188	330	805	256	859	491	219	132	809	271	278	122	226	542	676	424	947	360	272	99	130	267	196	205	447	211	481	198	122	602	159	195	348	308	454	452	335	144	237	59	358	236	388	390	239	214	29	317	718	709	114	112	220	88	581	700	294	232	222	608	644	168	75	146	229	244	172	447	367	279	731	159	470	216	348	282	476	584	740	733	395	131	126	388	185	407	436	707	296	617	394	429	221	422	243	99	270	478	142	206	215	165	205	1079	871	323	373	391	268	676	582	334	354	179	294	501	321	160	403	351	153	156	350	397	272	248	154	149	110	130	256	285	278	308	279	283	116	122	182	156	293	317	454	492	386	371	189	201	308	338	248	259	310	301	654	537	420	456	348	435	411	487	327	311	498	531	697	599	142	156	778	730	942	965	459	437	118	105	328	353	359	396	649	633	355	391	405	348	180	276	364	369	616	505	506	463	357	406	71	59	179	201	229	269	538	484	205	221	429	382	354	385	220	260	0	21	343	318	403	387	335	371	442	395	234	222	291	266	176	136	362	340	211	235	303	321	319	418	659	655	280	290	307	318	707	768	632	625	299	296	337	353	195	218	135	119	432	390	303	362	416	436	182	203	615	602	599	575	84	109	300	320	93	90	163	143	363	383	109	93	249	254	180	168	286	312	244	273	155	162	233	258	682	743	282	294	1071	1124	172	202	471	439	210	234	371	451	536	434	1052	1086	255	239	248	304	346	444	181	202	181	202	169	179	432	418	638	614	74	69	410	412	360	325	53	41	617	645	443	466	296	331	651	639	95	88	238	223	575	604	227	232	128	112	103	87	919	942	1141	1203
1054	122	257	167	339	821	277	875	512	228	111	830	292	299	131	247	558	692	440	968	381	293	120	109	246	205	214	468	232	502	177	101	623	168	216	369	287	475	468	356	123	216	38	379	257	404	406	218	193	8	326	734	730	135	133	199	67	602	716	315	211	201	624	660	189	54	125	250	223	181	468	383	300	747	138	449	195	369	303	492	600	756	749	374	152	147	397	164	423	452	723	317	638	410	408	200	438	264	78	291	494	163	227	236	186	226	1100	892	339	394	412	289	692	603	313	333	158	273	517	300	181	424	372	132	135	371	418	281	257	133	128	89	109	277	306	299	329	295	304	95	101	191	165	309	326	433	513	407	392	210	222	329	359	269	280	331	322	675	558	441	477	327	414	390	466	348	332	519	552	718	620	121	135	799	751	963	986	475	446	97	84	344	369	368	405	670	654	376	389	426	369	201	297	385	390	637	526	527	484	373	415	50	38	188	210	250	290	559	505	226	242	450	403	370	401	241	281	21	0	359	334	382	366	351	387	463	416	213	201	312	287	155	145	378	356	220	244	324	342	340	439	680	676	301	269	286	297	728	789	653	646	278	275	358	374	174	197	132	98	411	369	282	341	425	452	203	224	636	623	620	596	105	130	279	299	72	69	142	122	379	399	130	114	270	275	189	177	307	333	265	294	176	183	242	267	703	764	303	315	1087	1140	151	181	492	460	231	213	350	430	557	455	1073	1107	264	248	227	283	325	423	202	223	202	223	148	158	453	439	659	635	95	90	389	391	381	346	32	20	638	666	464	487	317	352	672	660	116	109	247	232	596	620	248	253	107	91	82	66	940	963	1162	1224
745	290	418	435	106	512	443	566	700	81	396	568	290	483	178	408	249	885	131	838	341	459	281	418	474	104	112	600	393	477	464	398	811	146	377	110	572	580	159	316	432	516	347	443	445	95	97	503	480	317	69	425	918	296	265	392	358	790	407	313	499	501	315	351	350	271	348	239	523	144	574	74	439	438	376	749	458	557	464	183	291	447	440	615	204	308	133	360	114	143	414	409	826	101	624	428	129	356	295	383	185	324	319	328	148	414	970	762	30	365	517	249	383	791	605	622	467	535	208	562	153	472	420	400	400	559	606	139	110	418	396	392	412	313	334	259	289	94	109	398	398	219	196	82	123	695	701	422	440	218	206	289	319	157	146	291	282	824	746	629	665	612	699	675	751	308	292	707	740	867	808	424	438	987	939	896	919	166	182	365	349	35	60	135	172	858	842	564	600	167	124	389	485	345	361	769	714	715	672	102	151	359	347	177	204	163	185	429	375	210	226	254	207	61	92	429	469	330	314	0	25	598	582	42	78	204	157	513	501	157	120	323	270	69	47	139	164	512	530	528	627	868	864	489	531	548	559	916	977	841	834	365	398	373	377	474	497	347	381	696	654	582	641	161	143	295	317	824	811	808	784	306	318	486	515	355	340	310	290	70	90	291	275	287	266	217	205	267	293	225	254	228	273	214	239	891	952	464	476	778	831	454	481	459	420	419	449	566	646	689	643	943	987	187	190	526	545	587	685	336	315	294	273	386	376	433	419	847	823	267	291	605	598	516	534	341	329	826	854	652	675	365	367	860	848	259	241	189	204	784	813	220	285	409	392	391	375	873	896	1032	1094
720	315	443	460	131	487	468	541	725	106	421	543	315	508	203	433	224	910	106	831	366	484	306	443	499	129	137	625	418	502	489	423	836	171	402	85	597	605	134	341	457	541	372	468	470	70	72	528	505	342	94	400	943	321	290	417	383	815	382	338	524	526	290	326	375	296	373	264	548	169	599	49	464	413	401	774	483	582	489	158	266	422	415	640	229	333	113	385	89	118	389	434	851	76	649	453	104	381	320	408	160	349	344	353	173	439	963	755	5	390	542	274	358	816	630	647	492	560	183	587	178	497	445	425	425	584	631	164	135	443	421	417	437	338	359	284	314	119	134	423	423	244	221	107	148	720	726	447	465	243	231	314	344	182	171	316	307	849	771	654	690	637	724	700	776	301	317	732	765	892	833	449	463	1012	964	889	912	141	162	390	374	60	35	160	197	883	867	589	625	142	149	414	510	370	386	794	739	740	697	127	176	384	372	202	229	188	210	422	368	235	251	247	200	36	67	454	494	355	339	25	0	623	607	67	53	179	132	538	526	182	145	348	295	44	22	164	189	537	555	553	652	893	889	514	556	573	584	941	1002	866	859	390	423	398	402	499	522	372	406	721	679	607	666	166	118	320	342	849	836	833	809	331	343	511	540	380	365	335	315	45	65	316	300	312	291	242	230	292	318	250	279	253	298	239	264	916	977	489	501	753	806	479	506	484	445	444	474	591	671	714	668	936	980	212	215	551	570	612	710	361	340	319	298	411	401	458	444	872	848	292	316	630	623	541	559	366	354	851	879	677	700	390	392	885	873	284	266	214	229	809	838	245	310	434	417	416	400	866	889	1025	1087
1311	308	589	442	510	1078	564	1132	799	497	289	1134	624	586	419	547	815	818	697	1290	703	580	470	337	154	474	483	755	564	834	324	381	814	443	548	669	213	762	725	678	323	379	371	695	544	596	663	282	308	343	497	912	1010	485	455	192	377	773	973	647	359	376	881	917	521	360	289	572	436	451	755	640	587	1004	270	575	212	656	590	749	857	944	1006	134	474	479	568	296	669	709	911	633	921	667	58	150	695	596	320	623	712	495	559	568	508	513	1422	1214	596	726	699	611	880	822	439	357	358	503	774	442	503	756	704	293	267	658	705	501	526	311	289	369	389	609	638	621	651	564	604	375	381	411	437	578	546	708	800	739	724	532	544	651	681	591	602	653	644	962	845	728	764	347	434	316	413	670	654	720	753	1005	907	401	415	984	936	1285	1308	638	617	308	298	601	626	539	576	855	871	663	664	726	669	524	584	707	722	924	813	728	771	562	586	383	371	458	430	572	612	881	827	548	564	772	725	627	658	528	568	371	392	616	591	0	16	608	644	763	716	388	400	634	609	381	434	635	613	489	464	611	629	627	726	897	913	586	544	478	489	965	1026	908	865	267	234	690	706	449	426	442	408	358	389	495	467	596	644	525	547	827	840	839	815	455	453	138	109	331	331	328	348	636	656	462	464	602	597	409	397	629	655	587	616	498	505	457	482	983	1044	590	602	1344	1397	431	456	821	782	518	488	160	80	844	742	1395	1429	417	433	502	558	600	698	534	555	524	545	280	290	785	771	915	890	417	440	39	62	668	633	365	355	855	883	751	774	649	684	909	916	449	431	432	447	775	746	570	575	327	343	350	366	1262	1285	1484	1546
1327	324	605	458	526	1094	580	1148	815	513	305	1150	640	602	435	563	831	834	713	1306	719	596	486	353	170	490	499	771	580	850	340	397	830	459	564	685	229	778	741	694	339	395	387	711	560	612	679	298	324	359	513	928	1026	501	471	208	393	789	989	663	375	392	897	933	537	376	305	588	452	467	771	656	603	1020	286	591	228	672	606	765	873	960	1022	150	490	495	584	312	685	725	927	649	937	683	42	166	711	612	336	639	728	511	575	584	524	529	1438	1230	612	742	715	627	896	838	455	373	374	519	790	458	519	772	720	309	283	674	721	517	542	327	305	385	405	625	654	637	667	580	620	391	397	427	453	594	562	724	816	755	740	548	560	667	697	607	618	669	660	978	861	744	780	363	450	332	429	686	670	736	769	1021	923	417	431	1000	952	1301	1324	654	633	324	314	617	642	555	592	871	887	679	680	742	685	540	600	723	738	940	829	744	787	578	602	399	387	474	446	588	628	897	843	564	580	788	741	643	674	544	584	387	408	632	607	16	0	624	660	779	732	404	416	650	625	397	450	651	629	505	480	627	645	643	742	913	929	602	560	494	505	981	1042	924	881	283	250	706	722	465	442	458	424	374	405	511	483	612	660	541	563	843	856	855	831	471	469	154	125	347	347	344	364	652	672	478	480	618	613	425	413	645	671	603	632	514	521	473	498	999	1060	606	618	1360	1413	447	472	837	798	534	504	176	96	860	758	1411	1445	433	449	518	574	616	714	550	571	540	561	296	306	801	787	931	906	433	456	23	46	684	649	381	371	871	899	767	790	665	700	925	932	465	447	448	463	791	762	586	591	343	359	366	382	1278	1301	1500	1562
736	331	459	476	147	503	484	557	741	122	437	559	331	524	219	449	240	926	122	847	382	500	322	459	515	145	153	641	434	518	505	439	852	187	418	101	613	621	150	357	473	557	388	484	486	67	88	544	521	358	110	413	959	337	306	433	399	831	398	354	540	542	306	342	391	312	389	280	564	185	615	65	480	429	417	790	499	598	505	174	282	438	431	656	245	349	110	401	102	134	405	450	867	92	665	469	120	397	336	424	176	365	360	369	189	455	979	771	11	406	558	290	374	832	646	663	508	576	199	603	194	513	461	441	441	600	647	180	151	459	437	433	453	354	375	300	330	135	150	439	439	260	237	123	164	736	742	463	481	259	247	330	360	198	187	332	323	865	787	670	706	653	740	716	792	317	333	748	781	908	849	465	479	1028	980	905	928	138	159	406	390	67	41	176	213	899	883	605	641	158	165	430	526	386	402	810	755	756	713	143	175	400	388	218	245	204	226	438	384	251	267	263	216	42	60	470	510	371	355	41	66	639	623	0	37	195	148	554	542	198	161	364	311	60	38	180	205	553	571	569	668	909	905	530	572	589	600	957	1018	882	875	406	439	414	418	515	538	388	422	737	695	623	682	163	115	336	358	865	852	849	825	347	359	527	556	396	381	351	331	29	58	332	316	328	307	258	246	308	334	266	295	269	314	255	280	932	993	505	517	769	822	495	522	500	461	460	490	607	687	730	684	952	996	228	231	567	586	628	726	377	356	335	314	427	417	474	460	888	864	308	332	646	639	557	575	382	370	867	895	693	716	406	408	901	889	300	282	230	245	825	854	261	326	450	433	432	416	882	905	1041	1103
750	295	423	440	111	517	448	571	705	86	401	573	295	488	183	413	254	890	136	843	346	464	286	423	479	109	117	605	398	482	469	403	816	151	382	115	577	585	164	321	437	521	352	448	450	99	102	508	485	322	74	430	923	301	270	397	363	795	412	318	504	506	320	356	355	276	353	244	528	149	579	79	444	443	381	754	463	562	469	188	296	452	445	620	209	313	138	365	119	148	419	414	831	106	629	433	134	361	300	388	190	329	324	333	153	419	975	767	30	370	522	254	388	796	610	627	472	540	213	567	158	477	425	405	405	564	611	144	115	423	401	397	417	318	339	264	294	99	114	403	403	224	201	87	128	700	706	427	445	223	211	294	324	162	151	296	287	829	751	634	670	617	704	680	756	313	297	712	745	872	813	429	443	992	944	901	924	170	187	370	354	30	60	140	177	863	847	569	605	172	129	394	490	350	366	774	719	720	677	107	156	364	352	182	209	168	190	434	380	215	231	259	212	61	92	434	474	335	319	55	30	603	587	37	0	209	162	518	506	162	125	328	275	74	52	144	169	517	535	533	632	873	869	494	536	553	564	921	982	846	839	370	403	378	382	479	502	352	386	701	659	587	646	166	147	300	322	829	816	813	789	311	323	491	520	360	345	315	295	66	90	296	280	292	271	222	210	272	298	230	259	233	278	219	244	896	957	469	481	783	836	459	486	464	425	424	454	571	651	694	648	948	992	192	195	531	550	592	690	341	320	299	278	391	381	438	424	852	828	272	296	610	603	521	539	346	334	831	859	657	680	370	372	865	853	264	246	194	209	789	818	225	290	414	397	396	380	878	901	1037	1099
719	381	419	490	216	486	467	540	755	172	472	542	282	524	269	446	223	940	126	746	328	479	334	478	565	195	203	592	394	433	540	453	866	237	403	0	648	572	133	303	492	571	407	435	500	111	95	579	556	377	179	433	973	328	309	483	413	845	381	305	573	556	289	325	376	362	439	231	578	235	566	90	431	412	467	804	536	612	465	157	265	421	414	706	259	341	154	451	130	96	388	401	881	59	727	519	84	348	386	375	175	364	311	320	184	469	878	670	90	352	509	235	357	846	660	688	527	590	182	617	189	464	412	476	476	571	618	230	201	494	472	447	467	305	326	251	281	185	145	453	453	310	287	192	233	750	756	414	432	210	198	281	311	149	138	231	246	816	801	684	720	688	775	751	827	216	232	762	795	859	863	479	493	1042	994	804	827	182	203	441	425	145	120	245	282	913	897	619	655	57	114	444	540	332	348	761	769	770	727	212	219	419	407	268	295	199	194	337	283	202	218	162	115	121	116	484	524	390	369	110	135	701	685	152	138	0	47	568	556	179	156	414	361	85	107	230	255	524	542	583	682	923	919	544	586	603	614	971	1032	896	889	475	508	365	364	529	552	402	436	772	730	637	696	207	159	287	309	879	866	863	839	361	373	595	618	425	410	401	381	130	114	346	330	279	258	308	296	259	257	217	246	283	311	305	330	946	1007	465	477	752	805	509	536	415	376	474	504	669	749	681	698	851	895	297	281	581	600	642	740	328	307	286	265	477	467	404	406	902	878	322	346	708	707	508	536	401	389	881	909	707	730	357	359	915	903	314	296	280	295	839	868	256	277	476	460	451	435	781	804	940	1002
672	428	466	537	263	439	514	493	802	219	519	495	287	571	316	493	176	987	94	703	285	526	381	525	612	242	250	628	441	390	587	500	913	284	450	47	695	608	86	260	539	618	454	471	547	158	126	626	603	424	226	386	1020	375	356	530	460	892	334	310	620	603	242	278	423	409	486	248	625	282	602	137	476	365	514	851	583	659	512	110	218	374	367	753	306	388	201	498	177	49	341	446	928	106	774	566	88	393	433	420	128	411	356	365	231	516	835	627	137	309	545	192	310	893	707	735	574	637	135	664	236	433	448	523	523	614	661	277	248	541	519	494	514	336	331	256	286	232	192	500	500	357	334	239	280	797	803	381	401	257	245	286	275	196	185	188	203	852	848	731	767	735	822	798	874	173	189	809	842	895	910	526	540	1089	1041	761	784	229	250	488	472	192	167	292	329	960	944	666	702	104	161	491	587	289	305	797	816	817	774	259	266	466	454	315	342	246	241	294	240	249	265	119	162	168	163	531	571	437	416	157	182	748	732	199	185	47	0	615	603	226	203	461	408	132	154	277	302	567	585	630	729	970	966	591	633	650	661	1018	1079	943	936	522	555	337	321	576	599	449	483	819	777	684	743	254	206	334	356	926	913	910	886	408	420	642	665	472	457	448	428	177	161	393	377	317	296	355	343	240	214	264	253	330	358	352	377	993	1054	512	524	705	758	556	583	372	333	521	551	716	796	717	745	808	852	344	328	628	647	689	787	375	354	333	312	524	514	361	363	949	925	369	393	755	754	544	579	448	436	928	956	754	777	393	364	962	950	361	343	327	342	886	915	303	324	523	507	498	482	738	761	897	959
1234	286	213	54	528	1001	176	1055	411	417	132	994	392	198	320	159	738	517	620	1132	468	192	270	131	236	394	403	367	253	554	64	112	513	357	202	544	175	374	648	480	118	41	151	307	156	584	586	106	80	181	515	914	629	270	295	270	148	472	896	402	29	12	804	840	220	243	228	398	48	370	367	563	199	927	209	274	183	268	202	672	780	936	929	341	327	247	584	235	603	632	903	245	537	590	446	264	618	298	233	267	674	235	319	328	361	125	1264	1056	519	460	311	464	872	502	138	158	82	160	697	141	356	414	362	180	206	270	317	470	446	154	176	140	120	377	406	450	453	475	479	106	112	380	354	489	515	320	412	402	382	385	397	453	483	444	455	487	473	574	457	340	376	215	255	278	307	504	488	418	451	617	519	96	82	683	635	1051	1074	655	633	195	211	524	549	557	594	554	553	275	276	601	544	292	196	472	456	536	425	426	383	553	602	163	175	377	399	425	465	723	669	401	402	620	578	550	581	140	180	210	231	539	514	420	404	531	567	638	591	0	12	487	462	329	334	558	536	409	433	223	241	239	338	579	575	198	156	173	184	627	688	552	545	379	346	424	440	61	38	213	179	252	210	107	166	612	632	346	324	526	522	519	495	246	221	350	339	195	206	306	296	559	579	230	246	370	391	378	366	458	484	440	450	351	358	431	456	602	663	202	214	1267	1320	98	68	544	583	130	100	390	468	456	354	1237	1195	453	437	114	170	212	310	302	323	345	365	219	229	505	491	558	534	283	259	427	450	280	245	181	193	537	565	363	386	383	418	571	559	266	284	436	421	474	445	423	428	170	187	151	167	1028	1051	1326	1388
1246	274	225	66	540	1013	188	1067	423	429	120	1006	404	210	332	171	750	529	632	1144	480	204	282	119	224	406	415	379	265	566	52	124	525	369	214	556	163	386	660	492	106	37	163	319	168	596	598	94	68	193	527	926	641	282	307	258	160	484	908	414	17	0	816	852	232	255	216	410	60	382	379	575	211	939	197	286	171	280	214	684	792	948	941	329	339	259	596	223	615	644	915	257	549	602	434	252	630	310	221	279	686	247	331	340	373	137	1276	1068	531	472	323	476	884	514	150	170	70	172	709	153	368	426	374	168	194	282	329	482	458	142	164	152	132	389	418	462	465	487	491	118	124	392	366	501	527	332	424	414	394	397	409	465	495	456	467	499	485	586	469	352	388	203	267	266	319	516	500	430	463	629	531	108	94	695	647	1063	1086	667	645	183	199	536	561	569	606	566	565	287	288	613	556	304	208	484	468	548	437	438	395	565	614	175	187	389	411	437	477	735	681	413	414	632	590	562	593	152	192	222	243	551	526	408	392	543	579	650	603	12	0	499	474	317	346	570	548	421	445	235	253	251	350	591	587	210	168	185	196	639	700	564	557	367	334	436	452	73	50	225	191	264	222	119	178	624	644	358	336	538	534	531	507	258	233	338	327	206	218	294	284	571	591	242	258	382	403	390	378	470	496	452	462	363	370	443	468	614	675	214	226	1279	1332	110	80	556	595	142	112	378	456	468	366	1249	1207	465	449	126	182	224	322	314	335	357	377	207	217	517	503	570	546	295	271	415	438	292	257	193	205	549	577	375	398	395	430	583	571	278	296	448	433	486	457	435	440	158	175	163	179	1040	1063	1338	1400
828	290	344	371	162	595	379	649	636	81	353	651	207	419	178	344	332	821	214	817	258	395	217	359	468	104	112	517	319	394	421	334	747	146	313	119	529	497	242	233	373	452	288	360	381	178	180	460	437	258	139	508	854	232	201	392	294	726	490	230	454	437	398	434	286	262	347	156	459	144	491	157	356	521	360	685	417	493	390	266	374	530	523	609	140	244	203	360	197	215	497	326	762	178	630	422	203	273	295	300	268	260	236	245	65	350	949	741	113	282	434	166	466	727	541	569	408	471	291	498	70	389	337	357	357	495	542	139	110	375	353	328	348	230	251	176	206	94	54	334	334	219	196	108	149	631	637	339	357	135	123	206	236	74	63	208	199	741	682	565	601	569	656	632	708	225	209	643	676	784	744	360	374	923	875	840	863	249	252	322	306	118	143	191	228	794	778	500	536	176	119	325	421	262	278	686	650	651	608	172	221	300	288	177	204	80	102	408	354	127	143	233	186	144	175	365	405	271	250	133	108	604	588	125	161	213	166	449	437	0	37	323	270	152	130	139	164	448	466	464	563	804	800	425	467	484	495	852	913	777	770	386	419	290	294	410	433	283	317	653	611	518	577	231	226	212	234	760	747	744	720	242	254	501	521	306	291	310	290	153	173	227	211	204	183	217	205	184	210	142	171	164	209	214	239	827	888	390	402	861	914	390	417	376	337	355	385	572	652	606	579	922	966	206	190	462	481	523	621	253	232	211	190	370	376	350	336	783	759	203	227	611	613	433	461	282	270	762	790	588	611	282	284	796	784	195	177	189	204	720	749	137	202	357	341	332	316	817	840	1011	1073
861	327	307	396	199	628	355	682	661	118	378	642	170	412	215	334	365	846	251	780	221	367	222	384	493	141	149	480	282	357	446	359	772	183	291	142	554	460	275	196	398	477	313	323	406	215	217	485	462	283	176	545	879	216	197	429	319	751	523	193	479	462	431	467	264	287	372	119	484	181	454	194	319	554	385	710	442	518	353	299	407	563	556	634	165	229	240	397	234	238	530	289	787	201	655	447	226	236	325	263	305	252	199	208	90	359	912	704	150	245	397	129	499	752	566	594	433	496	324	523	95	352	300	382	382	459	506	176	147	400	378	353	373	193	214	139	169	131	91	359	359	256	233	145	186	656	662	302	320	98	86	169	199	37	26	171	162	704	707	590	626	594	681	657	733	188	172	668	701	747	769	385	399	948	900	803	826	286	289	347	331	155	180	228	265	819	803	525	561	199	142	350	446	225	241	649	675	676	633	209	258	325	313	214	241	105	65	371	317	90	106	196	149	181	212	390	430	296	275	170	145	629	613	162	198	236	189	474	462	37	0	360	307	189	167	176	201	412	430	489	588	829	825	450	492	509	520	877	938	802	795	423	456	253	257	435	458	308	342	678	636	543	602	268	263	175	197	785	772	769	745	267	279	526	546	331	316	347	327	190	210	252	236	167	146	254	242	147	173	105	134	189	199	251	276	852	913	353	365	894	947	415	442	339	300	380	410	597	677	569	604	885	929	243	227	487	506	548	646	216	195	174	153	395	405	313	299	808	784	228	252	636	638	396	424	307	295	787	815	613	636	245	247	821	809	220	202	226	241	745	774	162	165	382	366	357	341	780	803	974	1036
962	73	290	259	247	729	310	783	545	136	179	785	325	332	39	280	466	730	348	972	385	326	153	201	277	113	122	501	265	521	247	193	656	76	249	308	355	508	376	360	215	302	130	412	290	312	314	286	263	100	234	642	763	168	137	195	159	635	624	348	282	293	532	568	222	54	131	254	315	89	501	291	333	655	179	541	243	402	336	400	508	664	657	418	156	180	305	163	331	360	631	350	671	318	439	231	346	297	78	324	402	196	260	269	190	259	1104	896	247	409	445	293	600	636	405	405	250	365	425	392	185	457	405	183	183	404	451	189	165	201	179	181	201	310	339	303	333	203	243	187	193	99	73	217	234	525	546	440	425	214	226	333	363	273	280	335	326	708	591	474	510	395	482	458	534	352	336	552	585	751	653	213	227	832	784	967	990	383	354	148	132	252	277	276	313	703	687	409	445	365	308	234	330	389	405	670	559	560	517	281	323	142	130	96	118	254	294	563	509	230	246	438	391	278	309	274	314	113	104	267	242	413	397	259	295	402	355	305	293	291	254	0	53	286	264	128	152	357	375	373	472	713	709	334	361	378	389	761	822	686	679	223	256	391	407	266	289	189	190	479	437	374	433	333	360	207	229	669	656	653	629	138	163	307	330	138	123	93	73	287	307	163	147	288	279	97	85	311	337	269	298	180	187	150	175	736	797	336	348	995	1048	243	273	503	464	264	294	381	461	590	488	1077	1111	172	156	319	375	417	515	235	256	206	227	189	179	477	463	692	668	99	123	420	419	414	379	124	112	671	699	497	520	350	385	705	693	131	113	155	140	629	658	252	257	192	175	174	158	944	967	1166	1228
1015	20	343	269	300	782	363	836	598	189	144	838	378	385	92	333	519	767	401	1025	438	379	206	199	224	166	175	554	318	574	212	203	709	129	302	361	320	561	429	413	208	267	140	465	343	365	367	251	228	110	287	695	816	221	190	142	169	688	677	401	247	264	585	621	275	64	78	307	324	142	554	344	386	708	126	524	208	455	389	453	561	717	710	365	209	233	358	110	384	413	684	403	724	371	386	178	399	350	76	377	455	249	313	322	243	312	1157	949	300	462	498	346	653	689	388	370	246	375	478	391	238	510	458	148	148	457	504	242	218	166	144	191	211	363	392	356	386	256	296	197	203	152	126	270	287	535	599	493	478	267	279	386	416	326	333	388	379	761	644	527	563	360	447	423	499	405	389	605	638	804	706	223	237	885	837	1020	1043	436	407	113	97	305	330	329	366	756	740	462	491	418	361	287	383	442	458	723	612	613	570	334	376	152	140	149	171	307	347	616	562	283	299	491	444	331	362	327	367	123	144	320	295	360	344	312	348	455	408	276	288	344	307	53	0	339	317	181	205	410	428	426	525	766	762	387	371	388	399	814	875	739	732	176	209	444	460	276	299	234	200	444	402	383	416	386	413	260	282	722	709	706	682	191	216	254	277	136	130	40	20	340	360	216	200	341	332	150	138	364	390	322	351	233	240	203	228	789	850	389	401	1048	1101	253	283	556	517	317	315	328	408	643	541	1130	1164	225	209	329	385	427	525	288	309	259	280	136	126	530	516	745	721	152	176	367	366	467	432	134	122	724	752	550	573	403	438	758	746	184	166	208	193	682	695	305	310	165	148	184	168	997	1020	1219	1281
720	315	443	460	131	487	468	541	725	106	421	543	315	508	203	433	224	910	106	831	366	484	306	443	499	129	137	625	418	502	489	423	836	171	402	85	597	605	134	341	457	541	372	468	470	70	72	528	505	342	94	400	943	321	290	417	383	815	382	338	524	526	290	326	375	296	373	264	548	169	599	49	464	413	401	774	483	582	489	158	266	422	415	640	229	333	113	385	89	118	389	434	851	76	649	453	104	381	320	408	160	349	344	353	173	439	963	755	5	390	542	274	358	816	630	647	492	560	183	587	178	497	445	425	425	584	631	164	135	443	421	417	437	338	359	284	314	119	134	423	423	244	221	107	148	720	726	447	465	243	231	314	344	182	171	316	307	849	771	654	690	637	724	700	776	301	317	732	765	892	833	449	463	1012	964	889	912	141	162	390	374	60	35	160	197	883	867	589	625	142	149	414	510	370	386	794	739	740	697	127	176	384	372	202	229	188	210	422	368	235	251	247	200	36	67	454	494	355	339	25	50	623	607	67	53	179	132	538	526	182	145	348	295	0	22	164	189	537	555	553	652	893	889	514	556	573	584	941	1002	866	859	390	423	398	402	499	522	372	406	721	679	607	666	166	118	320	342	849	836	833	809	331	343	511	540	380	365	335	315	45	65	316	300	312	291	242	230	292	318	250	279	253	298	239	264	916	977	489	501	753	806	479	506	484	445	444	474	591	671	714	668	936	980	212	215	551	570	612	710	361	340	319	298	411	401	458	444	872	848	292	316	630	623	541	559	366	354	851	879	677	700	390	392	885	873	284	266	214	229	809	838	245	310	434	417	416	400	866	889	1025	1087
698	337	465	482	153	465	490	519	747	128	443	521	337	530	225	455	202	932	84	809	388	506	328	465	521	151	159	647	440	496	511	445	858	193	424	63	619	627	112	363	479	563	394	490	492	48	50	550	527	364	116	378	965	343	312	439	405	837	360	360	546	548	268	304	397	318	395	286	570	191	621	27	486	391	423	796	505	604	511	136	244	400	393	662	251	355	91	407	67	96	367	456	873	54	671	475	82	403	342	430	138	371	366	375	195	461	941	733	27	412	564	296	336	838	652	669	514	582	161	609	200	519	467	447	447	606	653	186	157	465	443	439	459	360	381	306	336	141	156	445	445	266	243	129	170	742	748	469	487	265	253	336	366	204	193	294	309	871	793	676	712	659	746	722	798	279	295	754	787	914	855	471	485	1034	986	867	890	119	140	412	396	82	57	182	219	905	889	611	647	120	171	436	532	392	408	816	761	762	719	149	156	406	394	224	251	210	232	400	346	257	273	225	178	58	53	476	516	377	361	47	72	645	629	89	75	157	110	560	548	204	167	370	317	22	0	186	211	559	577	575	674	915	911	536	578	595	606	963	1024	888	881	412	445	420	424	521	544	394	428	743	701	629	688	144	96	342	364	871	858	855	831	353	365	533	562	402	387	357	337	67	51	338	322	334	313	264	252	314	320	272	301	275	320	261	286	938	999	511	523	731	784	501	528	478	439	466	496	613	693	736	690	914	958	234	237	573	592	634	732	383	362	341	320	433	423	467	466	894	870	314	338	652	645	563	581	388	376	873	901	699	722	412	414	907	895	306	288	236	251	831	860	267	332	456	439	438	422	844	867	1003	1065
884	185	378	386	120	651	403	705	660	58	306	707	342	443	88	368	388	845	270	944	393	419	241	328	335	35	44	616	353	529	374	320	771	57	337	230	477	623	298	368	342	429	257	495	405	206	236	413	390	227	107	558	878	256	225	253	286	750	546	365	409	420	454	490	310	181	243	291	442	55	616	213	421	577	237	668	319	517	424	322	430	586	579	476	164	268	178	221	253	282	553	438	786	240	497	289	268	385	205	412	322	284	348	357	155	374	1076	868	169	417	560	301	522	751	532	532	377	492	347	519	160	524	472	310	292	519	566	62	87	328	306	308	328	365	386	311	341	125	165	314	320	80	106	139	107	652	661	474	492	251	258	341	371	209	202	343	334	823	706	589	625	522	609	580	661	360	344	667	700	866	768	340	354	947	899	975	998	260	227	275	259	174	199	149	186	818	802	524	560	287	230	349	445	397	413	785	674	675	632	172	196	269	257	88	65	182	222	535	481	262	278	360	313	200	231	389	429	240	231	189	164	471	455	181	217	324	277	432	420	213	176	233	180	208	186	0	25	472	490	488	587	828	824	449	488	505	516	876	937	801	794	247	280	425	429	393	416	307	317	606	564	501	560	206	254	295	317	784	771	768	744	265	278	365	388	265	250	205	200	209	229	251	235	339	318	78	66	319	345	277	306	188	233	75	100	851	912	424	436	917	970	370	400	511	472	379	409	439	519	705	603	1049	1093	67	51	446	502	544	642	323	344	294	315	247	237	485	471	807	783	226	250	478	477	529	494	251	239	786	814	612	635	417	419	820	808	219	201	50	65	744	773	227	294	319	302	301	285	952	975	1138	1200
859	176	353	362	145	626	378	680	635	33	282	682	317	418	64	343	363	820	245	919	368	394	216	304	360	10	19	591	328	504	350	296	746	32	312	205	458	598	273	343	318	405	233	470	380	209	211	389	366	203	132	539	853	231	200	278	262	725	521	340	385	396	429	465	285	157	234	266	418	30	591	188	396	552	262	644	344	492	399	297	405	561	554	501	139	243	203	246	228	257	528	413	761	215	522	314	243	360	181	387	299	259	323	332	130	349	1051	843	144	392	535	276	497	726	508	508	353	468	322	495	135	499	447	286	286	494	541	87	62	304	282	284	304	340	361	286	316	100	140	290	296	105	82	114	132	628	636	449	467	226	233	316	346	184	177	318	309	798	681	564	600	498	585	561	637	335	319	642	675	841	743	316	330	922	874	950	973	280	252	251	235	149	174	174	211	793	777	499	535	262	205	324	420	372	388	760	649	650	607	178	221	245	233	63	90	157	197	510	456	237	253	335	288	175	206	364	404	216	207	164	139	496	480	156	192	299	252	408	396	188	151	209	156	183	161	25	0	447	465	463	562	803	799	424	464	481	492	851	912	776	769	272	305	400	404	369	392	282	293	582	540	477	536	231	257	270	292	759	746	743	719	241	253	390	413	241	226	196	176	184	204	226	210	314	293	103	91	294	320	252	281	163	208	100	125	826	887	399	411	892	945	346	376	486	447	354	384	464	544	680	578	1024	1068	92	76	422	478	520	618	298	319	269	290	272	262	460	446	782	758	202	226	503	502	504	469	227	215	761	789	587	610	392	394	795	783	194	176	75	90	719	748	202	269	295	278	277	261	927	950	1113	1175
1175	430	138	169	566	942	85	996	354	460	327	902	286	41	396	120	743	539	643	1027	329	73	253	286	459	437	428	207	178	397	287	259	465	433	148	524	398	187	653	355	300	250	298	132	67	607	609	329	303	328	543	932	572	238	276	465	284	444	837	263	252	235	809	781	173	365	423	319	257	446	181	586	124	868	404	417	406	211	59	677	785	894	870	564	350	215	607	430	626	616	861	164	480	583	669	466	608	223	396	192	695	199	244	253	384	132	1159	951	542	321	124	411	830	445	259	301	272	189	702	216	379	275	223	375	401	47	94	518	489	349	371	287	267	290	319	371	347	498	502	253	259	456	430	512	553	349	355	263	243	362	350	347	370	397	408	409	394	431	400	283	319	438	398	501	450	426	410	361	394	474	462	243	229	641	593	909	932	678	656	367	383	547	572	595	632	512	496	218	254	581	524	315	219	333	317	376	368	369	326	576	625	310	322	453	475	448	442	645	591	354	338	542	531	573	604	163	123	345	324	562	537	643	627	554	590	614	571	247	235	449	485	463	410	581	559	472	497	0	18	182	281	522	518	143	185	202	213	570	631	495	488	574	541	285	301	208	231	273	307	395	353	316	309	635	655	282	260	478	465	462	438	269	244	545	562	342	353	450	430	582	602	253	269	306	315	454	442	379	405	387	372	374	381	507	532	545	606	83	71	1208	1261	245	215	405	444	153	183	613	691	296	297	1097	1053	529	513	255	199	241	339	238	259	281	301	414	424	366	352	501	477	306	282	650	657	93	58	328	340	480	508	306	329	244	279	514	502	289	307	512	497	438	467	446	429	323	340	298	314	886	909	1221	1283
1157	412	120	151	548	924	67	978	336	442	309	884	268	23	378	102	725	521	625	1009	311	55	235	268	441	419	410	189	160	379	269	241	447	415	130	506	380	169	635	337	282	232	280	114	49	589	591	311	285	310	525	914	554	220	258	447	266	426	819	245	234	217	791	763	155	347	405	301	239	428	163	568	106	850	386	399	388	193	41	659	767	876	852	546	332	197	589	412	608	598	843	146	462	565	651	448	590	205	378	174	677	181	226	235	366	114	1141	933	524	303	106	393	812	427	241	283	254	171	684	198	361	257	205	357	383	65	112	500	471	331	353	269	249	272	301	353	329	480	484	235	241	438	412	494	535	331	337	245	225	344	332	329	352	379	390	391	376	413	382	265	301	420	380	483	432	408	392	343	376	456	444	225	211	623	575	891	914	660	638	349	365	529	554	577	614	494	478	200	236	563	506	297	201	315	299	358	350	351	308	558	607	292	304	435	457	430	424	627	573	336	320	524	513	555	586	145	105	327	306	544	519	625	609	536	572	596	553	229	217	431	467	445	392	563	541	454	479	18	0	164	263	504	500	125	167	184	195	552	613	477	470	556	523	267	283	190	213	255	289	377	335	298	291	617	637	264	242	460	447	444	420	251	226	527	544	324	335	432	412	564	584	235	251	288	297	436	424	361	387	369	354	356	363	489	514	527	588	65	53	1190	1243	227	197	387	426	135	165	595	673	278	279	1079	1035	511	495	237	181	223	321	220	241	263	283	396	406	348	334	483	459	288	264	632	639	75	40	310	322	462	490	288	311	226	261	496	484	271	289	494	479	420	449	428	411	305	322	280	296	868	891	1203	1265
1273	446	252	185	582	1040	209	1094	172	476	343	998	431	157	412	198	777	357	659	1079	475	193	309	302	475	453	444	128	292	488	303	275	283	449	241	583	414	207	687	501	316	266	314	278	115	623	625	345	319	344	559	953	390	309	334	481	300	262	935	409	268	251	843	879	259	381	439	437	273	462	128	602	238	966	420	254	422	29	205	711	819	975	968	580	366	286	623	446	642	671	942	284	298	629	685	482	657	337	412	306	713	274	358	367	400	164	1211	1003	558	467	270	503	911	263	275	317	288	205	736	232	395	421	369	391	417	229	276	534	505	365	387	303	283	416	445	489	492	514	518	269	275	472	446	528	569	172	173	409	389	424	436	492	516	483	494	526	512	335	218	101	137	454	414	517	466	543	527	179	212	378	280	259	245	459	411	961	984	694	672	383	399	563	588	611	648	330	314	36	72	640	583	331	235	479	463	297	186	187	144	592	641	326	338	469	491	464	504	762	708	440	441	659	617	589	620	179	139	361	340	578	553	659	643	570	606	677	630	263	251	526	501	479	426	597	575	488	513	182	200	0	99	340	336	159	201	218	229	388	449	313	306	590	557	431	447	224	247	289	323	411	369	332	325	651	671	385	363	296	283	280	256	285	260	561	578	358	369	466	446	598	618	269	285	409	430	470	458	497	523	479	489	390	397	523	548	363	424	229	217	1306	1359	261	231	551	590	169	199	629	707	217	115	1149	1105	545	529	271	215	257	162	341	362	384	404	430	440	512	498	319	295	322	298	666	673	239	204	344	356	298	326	124	147	390	425	332	320	305	323	528	513	256	285	462	467	339	356	314	330	938	961	1273	1335
1174	347	153	86	483	941	110	995	271	377	244	934	332	58	313	99	678	456	560	1072	376	94	210	203	376	354	345	227	193	444	204	176	382	350	142	484	315	234	588	402	217	167	215	179	16	524	526	246	220	245	460	854	489	210	235	382	201	361	836	310	169	152	744	780	160	282	340	338	174	363	227	503	139	867	321	334	323	128	106	612	720	876	869	481	267	187	524	347	543	572	843	185	397	530	586	383	558	238	313	207	614	175	259	268	301	65	1204	996	459	368	171	404	812	362	176	218	189	106	637	133	296	322	270	292	318	130	177	435	406	266	288	204	184	317	346	390	393	415	419	170	176	373	347	429	470	266	272	310	290	325	337	393	417	384	395	427	413	434	317	200	236	355	315	418	367	444	428	278	311	477	379	160	146	558	510	956	979	595	573	284	300	464	489	512	549	429	413	135	171	541	484	232	136	380	364	396	285	286	243	493	542	227	239	370	392	365	405	663	609	341	342	560	518	490	521	80	40	262	241	479	454	560	544	471	507	578	531	164	152	427	402	380	327	498	476	389	414	83	101	99	0	439	435	60	102	119	130	487	548	412	405	491	458	332	348	125	148	190	224	312	270	233	226	552	572	286	264	395	382	379	355	186	161	462	479	259	270	367	347	499	519	170	186	310	331	371	359	398	424	380	390	291	298	424	449	462	523	130	118	1207	1260	162	132	452	491	70	100	530	608	316	214	1144	1100	446	430	172	116	158	256	242	263	285	305	331	341	413	399	418	394	223	199	567	574	140	105	245	257	397	425	223	246	291	326	431	419	206	224	429	414	355	384	363	368	240	257	215	231	933	956	1266	1328
1593	766	572	505	902	1360	529	1414	148	796	663	1301	751	477	732	518	1097	281	979	1309	795	513	629	622	795	773	764	415	612	791	623	595	83	769	561	903	684	520	1007	821	636	579	634	598	435	943	945	659	639	664	879	1273	130	629	654	801	620	149	1255	729	588	571	1163	1199	579	701	759	757	548	782	441	922	558	1286	740	322	742	291	525	1031	1139	1295	1288	850	686	606	943	766	962	991	1262	604	96	949	955	802	977	657	732	626	1033	594	678	687	720	484	1441	1233	878	787	590	823	1231	94	520	540	608	507	1056	523	715	741	689	711	737	549	596	854	825	685	707	623	603	736	765	809	812	834	838	589	595	792	766	848	889	471	363	729	709	744	756	812	836	803	814	846	832	425	336	291	255	724	637	786	689	863	847	297	330	364	256	579	565	203	155	1191	1214	1014	992	703	719	883	908	931	968	74	58	356	392	960	903	651	555	799	783	488	376	305	262	912	961	646	658	789	811	784	824	1082	1028	760	761	979	937	909	940	499	459	681	660	898	873	929	913	890	926	997	950	583	571	846	821	799	746	917	895	808	833	502	520	518	419	0	16	479	503	520	531	68	129	94	137	910	877	751	767	544	567	609	643	634	592	607	548	971	991	705	683	96	83	108	132	605	580	881	898	678	689	786	766	918	938	589	605	729	750	790	778	817	843	799	809	710	717	843	868	103	164	549	537	1626	1679	581	551	871	910	489	519	949	977	530	435	1379	1335	865	849	573	517	559	461	661	682	704	724	750	760	832	818	51	76	642	618	936	959	559	524	664	676	98	70	242	219	710	745	12	24	625	643	848	833	182	209	782	787	659	676	634	650	1168	1191	1503	1565
1597	770	576	509	906	1364	533	1418	164	800	667	1317	755	481	736	522	1101	265	983	1325	799	517	633	626	790	777	768	428	616	807	618	599	67	773	565	907	668	531	1011	825	640	563	638	602	439	947	949	643	634	668	883	1277	146	633	658	805	624	133	1259	733	583	575	1167	1203	583	705	763	761	532	786	452	926	562	1290	744	306	737	295	529	1035	1143	1299	1292	834	690	610	947	770	966	995	1266	608	112	953	939	806	981	661	736	630	1037	598	682	691	724	488	1457	1249	882	791	594	827	1235	110	504	524	612	511	1060	507	719	745	693	715	741	553	600	858	829	689	711	627	607	740	769	813	816	838	842	593	599	796	770	852	893	475	367	733	713	748	760	816	840	807	818	850	836	441	340	295	259	708	621	770	673	867	851	301	334	380	272	583	569	187	139	1207	1230	1018	996	707	723	887	912	935	972	58	42	360	396	964	907	655	559	803	787	501	380	309	266	916	965	650	662	793	815	788	828	1086	1032	764	765	983	941	913	944	503	463	685	664	902	877	913	897	894	930	1001	954	587	575	850	825	803	750	921	899	812	837	506	524	522	423	16	0	483	507	524	535	84	145	110	153	914	881	755	771	548	571	613	647	618	576	591	532	975	995	709	687	80	67	92	116	609	584	885	893	682	693	790	770	922	942	593	609	733	754	794	782	821	847	803	813	714	721	847	872	119	180	553	541	1630	1683	585	555	875	914	493	523	944	961	541	439	1395	1351	869	853	577	521	563	465	665	686	708	728	754	764	836	822	67	92	646	622	920	943	563	528	668	680	82	54	246	223	714	749	28	40	629	647	852	837	166	193	786	791	663	680	638	654	1184	1207	1519	1581
1234	349	213	91	543	1001	170	1055	313	437	218	994	392	118	358	159	738	498	620	1132	436	154	270	177	350	414	405	287	253	504	178	150	424	395	202	544	289	294	648	462	191	141	189	239	76	584	586	220	194	219	520	914	531	270	295	356	186	403	896	370	143	126	804	840	220	281	314	398	148	408	287	563	199	927	295	274	297	188	166	672	780	936	929	455	327	247	584	321	603	632	903	245	439	590	560	357	618	298	287	267	674	235	319	328	361	125	1264	1056	519	428	231	464	872	404	116	158	163	46	697	73	356	382	330	266	292	190	237	495	466	240	262	178	158	377	406	450	453	475	479	144	150	418	392	489	530	206	314	370	350	385	397	453	477	444	455	487	473	476	359	242	278	329	255	392	307	504	488	320	353	519	421	134	120	600	552	1016	1039	655	633	258	274	524	549	572	609	471	455	195	162	601	544	292	196	440	424	448	327	328	285	553	602	201	213	415	437	425	465	723	669	401	402	620	578	550	581	140	100	248	269	539	514	534	518	531	567	638	591	138	126	487	462	382	372	558	536	447	471	143	161	159	258	481	477	0	42	59	70	529	590	454	447	465	432	392	408	99	122	250	217	252	210	207	166	612	632	346	324	437	424	421	397	246	221	436	453	233	244	369	349	559	579	230	246	370	391	416	404	458	484	440	450	351	358	469	494	504	565	190	178	1267	1320	136	106	512	551	130	137	504	582	376	274	1204	1160	491	475	112	56	98	196	302	323	345	365	305	315	473	459	460	436	283	259	541	548	200	165	219	231	439	467	265	288	351	386	473	461	266	284	474	459	397	426	423	428	214	231	189	205	993	1016	1326	1388
1192	365	171	104	501	959	128	1013	289	395	260	952	350	76	331	117	696	474	578	1090	394	112	228	219	392	372	363	245	211	462	220	192	400	368	160	502	331	252	606	420	233	183	231	197	34	542	544	262	236	261	478	872	507	228	253	398	219	379	854	328	185	168	762	798	178	300	356	356	190	381	245	521	157	885	337	316	339	146	124	630	738	894	887	497	285	205	542	363	561	590	861	203	415	548	602	399	576	256	329	225	632	193	277	286	319	83	1222	1014	477	386	189	422	830	380	158	200	205	88	655	115	314	340	288	308	334	148	195	453	424	282	304	220	200	335	364	408	411	433	437	186	192	391	365	447	488	248	290	328	308	343	355	411	435	402	413	445	431	452	335	218	254	371	297	434	349	462	446	296	329	495	397	176	162	576	528	974	997	613	591	300	316	482	507	530	567	447	431	153	189	559	502	250	154	398	382	414	303	304	261	511	560	243	255	388	410	383	423	681	627	359	360	578	536	508	539	98	58	280	259	497	472	576	560	489	525	596	549	180	168	445	420	398	345	516	494	407	432	101	119	117	216	457	453	42	0	101	112	505	566	430	423	507	474	350	366	141	164	208	242	294	252	249	208	570	590	304	282	413	400	397	373	204	179	478	495	275	286	385	365	517	537	188	204	328	349	389	377	416	442	398	408	309	316	442	467	480	541	148	136	1225	1278	178	148	470	509	88	118	546	624	334	232	1162	1118	464	448	154	98	140	238	260	281	303	323	347	357	431	417	436	412	241	217	583	590	158	123	261	273	415	443	241	264	309	344	449	437	224	242	447	432	373	402	381	386	256	273	231	247	951	974	1284	1346
1293	408	272	150	602	1060	229	1114	372	496	277	1053	451	177	417	218	797	480	679	1191	495	213	329	236	387	473	464	346	312	563	215	209	476	454	261	603	265	353	707	521	250	160	248	298	135	643	645	240	231	278	579	973	590	329	354	415	245	435	955	429	180	185	863	899	279	340	373	457	129	467	346	622	258	986	354	237	334	247	225	731	839	995	988	431	386	306	643	380	662	691	962	304	498	649	536	415	677	357	346	326	733	294	378	387	420	184	1323	1115	578	487	290	523	931	463	79	121	222	25	756	36	415	441	389	325	351	249	296	554	525	299	321	237	217	436	465	509	512	534	538	203	209	477	451	548	589	265	373	429	409	444	456	512	536	503	514	546	532	535	418	301	337	305	218	367	270	563	547	379	412	578	480	193	179	646	598	1075	1098	714	692	317	333	583	608	631	668	517	514	254	221	660	603	351	255	499	483	507	386	387	344	612	661	260	272	474	496	484	524	782	728	460	461	679	637	609	640	199	159	307	328	598	573	510	494	590	626	697	650	197	185	546	521	441	431	617	595	506	530	202	220	218	317	540	536	143	101	0	11	588	649	513	506	524	491	451	467	158	181	309	276	215	173	188	129	671	691	405	383	489	483	480	456	305	280	495	490	292	303	428	408	618	638	289	305	429	450	475	463	517	543	499	509	410	417	528	553	563	624	249	237	1326	1379	195	165	571	610	189	196	541	558	435	333	1263	1219	550	534	171	115	157	255	361	382	404	424	364	374	532	518	519	495	342	318	517	540	259	224	278	290	498	526	324	347	410	445	532	520	325	343	533	518	437	408	482	487	273	290	248	264	1052	1075	1385	1447
1282	397	261	139	591	1049	218	1103	361	485	266	1042	440	166	406	207	786	469	668	1180	484	202	318	225	376	462	453	335	301	552	204	198	465	443	250	592	254	342	696	510	239	149	237	287	124	632	634	229	220	267	568	962	579	318	343	404	234	424	944	418	169	174	852	888	268	329	362	446	118	456	335	611	247	975	343	226	323	236	214	720	828	984	977	420	375	295	632	369	651	680	951	293	487	638	525	404	666	346	335	315	722	283	367	376	409	173	1312	1104	567	476	279	512	920	452	68	110	211	36	745	25	404	430	378	314	340	238	285	543	514	288	310	226	206	425	454	498	501	523	527	192	198	466	440	537	578	254	362	418	398	433	445	501	525	492	503	535	521	524	407	290	326	294	207	356	259	552	536	368	401	567	469	182	168	635	587	1064	1087	703	681	306	322	572	597	620	657	506	503	243	210	649	592	340	244	488	472	496	375	376	333	601	650	249	261	463	485	473	513	771	717	449	450	668	626	598	629	188	148	296	317	587	562	499	483	579	615	686	639	186	174	535	510	430	420	606	584	495	519	191	209	207	306	529	525	132	90	11	0	577	638	502	495	513	480	440	456	147	170	298	265	204	162	177	118	660	680	394	372	478	472	469	445	294	269	484	479	281	292	417	397	607	627	278	294	418	439	464	452	506	532	488	498	399	406	517	542	552	613	238	226	1315	1368	184	154	560	599	178	185	530	547	424	322	1252	1208	539	523	160	104	146	244	350	371	393	413	353	363	521	507	508	484	331	307	506	529	248	213	267	279	487	515	313	336	399	434	521	509	314	332	522	507	426	397	471	476	262	279	237	253	1041	1064	1374	1436
1658	834	640	573	970	1428	597	1482	216	864	731	1369	819	545	800	586	1165	349	1047	1307	863	581	697	690	863	841	832	483	680	859	691	663	151	837	629	971	752	588	1075	889	704	647	702	666	503	1011	1013	727	707	732	947	1341	74	697	722	869	688	217	1323	797	656	639	1231	1267	647	769	827	825	616	850	509	990	626	1354	808	390	810	359	593	1099	1207	1363	1356	918	754	674	1011	834	1030	1059	1330	672	164	1017	1023	870	1045	725	800	694	1101	662	746	755	788	552	1439	1231	946	855	658	891	1299	162	588	608	676	575	1124	591	783	809	757	779	805	617	664	922	893	753	775	691	671	804	833	877	880	902	906	657	663	860	834	916	957	539	431	797	777	812	824	880	904	871	882	914	900	493	404	359	323	792	705	854	757	931	915	365	398	432	324	647	633	237	189	1189	1212	1082	1060	771	787	951	976	999	1036	142	126	424	460	1028	971	719	623	867	851	556	444	373	330	980	1029	714	726	857	879	852	892	1150	1096	828	829	1047	1005	977	1008	567	527	749	728	966	941	997	981	958	994	1065	1018	651	639	914	889	867	814	985	963	876	901	570	588	586	487	100	84	547	571	588	599	0	61	162	205	978	945	819	835	612	635	677	711	702	660	675	616	1039	1059	773	751	164	151	176	200	673	648	949	966	746	757	854	834	986	1006	657	673	797	818	858	846	885	911	867	877	778	785	911	936	167	122	617	605	1694	1747	649	619	939	978	557	587	1017	1045	598	503	1377	1333	933	917	641	585	627	529	729	750	772	792	818	828	900	886	119	144	710	686	1004	1027	627	592	732	744	166	138	310	287	778	813	80	92	693	711	916	901	250	277	850	855	727	744	702	718	1166	1189	1501	1563
1600	773	579	512	909	1367	536	1421	155	803	670	1308	758	484	739	525	1104	288	986	1316	802	520	636	629	802	780	771	422	619	798	630	602	90	776	568	910	691	527	1014	828	643	586	641	605	442	950	952	666	646	671	886	1280	133	636	661	808	627	156	1262	736	595	578	1170	1206	586	708	766	764	555	789	448	929	565	1293	747	329	749	298	532	1038	1146	1302	1295	857	693	613	950	773	969	998	1269	611	103	956	962	809	984	664	739	633	1040	601	685	694	727	491	1448	1240	885	794	597	830	1238	101	527	547	615	514	1063	530	722	748	696	718	744	556	603	861	832	692	714	630	610	743	772	816	819	841	845	596	602	799	773	855	896	478	370	736	716	751	763	819	843	810	821	853	839	432	343	298	262	731	644	793	696	870	854	304	337	371	263	586	572	210	162	1198	1221	1021	999	710	726	890	915	938	975	81	65	363	399	967	910	658	562	806	790	495	383	312	269	919	968	653	665	796	818	791	831	1089	1035	767	768	986	944	916	947	506	466	688	667	905	880	936	920	897	933	1004	957	590	578	853	828	806	753	924	902	815	840	509	527	525	426	39	23	486	510	527	538	61	0	101	144	917	884	758	774	551	574	616	650	641	599	614	555	978	998	712	690	103	90	115	139	612	587	888	905	685	696	793	773	925	945	596	612	736	757	797	785	824	850	806	816	717	724	850	875	106	167	556	544	1633	1686	588	558	878	917	496	526	956	984	537	442	1386	1342	872	856	580	524	566	468	668	689	711	731	757	767	839	825	58	83	649	625	943	966	566	531	671	683	105	77	249	226	717	752	19	31	632	650	855	840	189	216	789	794	666	683	641	657	1175	1198	1510	1572
1536	709	515	448	845	1303	472	1357	131	739	606	1256	694	420	675	461	1040	206	922	1280	738	456	572	565	731	716	707	367	555	746	559	538	82	712	504	846	609	470	950	764	579	504	577	541	378	886	888	584	575	607	822	1216	188	572	597	744	563	111	1198	672	524	514	1106	1142	522	644	702	700	473	725	391	865	501	1229	683	247	678	234	468	974	1082	1238	1231	775	629	549	886	709	905	934	1205	547	99	892	880	745	920	600	675	569	976	537	621	630	663	427	1412	1204	821	730	533	766	1174	0	445	465	551	450	999	448	658	684	632	654	680	492	539	797	768	628	650	566	546	679	708	752	755	777	781	532	538	735	709	791	832	414	306	672	652	687	699	755	779	746	757	789	775	396	279	234	198	649	562	711	614	806	790	240	273	347	239	522	508	258	210	1162	1185	957	935	646	662	826	851	874	911	129	113	299	335	903	846	594	498	742	726	440	319	248	205	855	904	589	601	732	754	727	767	1025	971	703	704	922	880	852	883	442	402	624	603	841	816	854	838	833	869	940	893	526	514	789	764	742	689	860	838	751	776	445	463	461	362	126	110	422	446	463	474	162	223	0	43	853	820	694	710	487	510	552	586	559	517	532	473	914	934	648	626	95	82	79	55	548	523	824	834	621	632	729	709	861	881	532	548	672	693	733	721	760	786	742	752	653	660	786	811	161	222	492	480	1569	1622	524	494	814	853	432	462	885	902	480	378	1350	1306	808	792	516	460	502	404	604	625	647	667	693	703	775	761	93	68	585	561	861	884	502	467	607	619	97	125	185	162	653	688	106	94	568	586	791	776	105	134	725	730	602	619	577	593	1139	1162	1474	1536
1543	716	522	455	852	1310	479	1364	98	746	613	1251	701	427	682	468	1047	249	929	1259	745	463	579	572	745	723	714	365	562	741	573	545	125	719	511	853	652	470	957	771	586	536	584	548	385	893	895	615	589	614	829	1223	145	579	604	751	570	154	1205	679	538	521	1113	1149	529	651	709	707	516	732	391	872	508	1236	690	290	692	241	475	981	1089	1245	1238	818	636	556	893	716	912	941	1212	554	56	899	923	752	927	607	682	576	983	544	628	637	670	434	1391	1183	828	737	540	773	1181	43	488	508	558	457	1006	484	665	691	639	661	687	499	546	804	775	635	657	573	553	686	715	759	762	784	788	539	545	742	716	798	839	421	313	679	659	694	706	762	786	753	764	796	782	375	286	241	205	692	605	754	657	813	797	247	280	314	206	529	515	254	206	1141	1164	964	942	653	669	833	858	881	918	125	109	306	342	910	853	601	505	749	733	438	326	255	212	862	911	596	608	739	761	734	774	1032	978	710	711	929	887	859	890	449	409	631	610	848	823	897	881	840	876	947	900	533	521	796	771	749	696	867	845	758	783	452	470	468	369	83	67	429	453	470	481	119	180	43	0	860	827	701	717	494	517	559	593	602	560	575	516	921	941	655	633	138	125	122	98	555	530	831	848	628	639	736	716	868	888	539	555	679	700	740	728	767	793	749	759	660	667	793	818	118	179	499	487	1576	1629	531	501	821	860	439	469	899	945	480	385	1329	1285	815	799	523	467	509	411	611	632	654	674	700	710	782	768	50	25	592	568	904	927	509	474	614	626	140	121	192	169	660	695	63	51	575	593	798	783	148	177	732	737	609	626	584	600	1118	1141	1453	1515
1110	156	481	339	309	877	461	931	696	305	181	933	516	483	227	444	614	804	496	1182	595	477	362	253	177	282	291	652	456	726	249	273	800	251	440	475	319	659	524	570	245	304	263	592	441	395	462	282	265	235	296	711	914	377	347	43	269	759	772	539	284	301	680	716	413	240	181	464	361	259	652	439	484	803	162	561	161	553	487	548	656	743	805	318	366	371	367	153	468	508	710	530	822	466	259	131	494	488	212	515	511	387	451	460	400	410	1314	1106	395	618	596	503	679	787	425	401	283	445	573	428	395	648	596	185	159	555	602	309	334	203	181	261	281	501	530	513	543	372	412	267	273	219	245	386	354	605	697	631	616	424	436	543	573	456	449	545	536	859	742	625	661	391	478	422	519	562	546	703	736	902	804	293	307	970	922	1177	1200	437	416	200	190	400	425	338	375	841	838	560	561	532	477	416	481	599	614	821	710	711	668	361	385	275	263	266	238	429	469	773	719	440	456	607	560	426	457	425	465	263	284	415	390	233	217	407	443	569	522	313	325	460	423	229	276	434	412	297	272	508	526	524	623	864	860	483	441	458	469	912	973	837	830	0	33	582	598	346	351	334	300	464	433	420	453	395	443	417	439	813	807	804	780	347	345	121	150	223	223	176	196	435	455	354	356	494	489	217	205	521	547	479	508	390	397	256	281	887	948	487	499	1143	1196	323	353	713	674	415	385	201	281	741	639	1287	1321	216	232	399	455	497	595	426	447	416	437	172	169	677	663	843	819	309	332	240	233	565	530	257	247	822	850	648	671	541	576	856	844	341	323	231	246	761	732	462	467	219	235	242	258	1154	1177	1376	1438
1077	123	480	372	276	844	494	898	729	272	214	900	515	516	194	470	581	837	463	1158	575	510	343	286	210	249	258	685	455	711	282	306	833	218	439	442	352	692	491	550	278	337	283	602	474	362	429	315	298	253	263	678	947	358	327	76	302	792	739	538	317	334	647	683	412	207	181	444	394	226	685	406	517	770	175	594	194	586	520	515	623	710	772	351	346	370	334	159	435	475	677	540	855	433	292	164	461	487	219	514	478	386	450	459	369	443	1290	1082	362	599	629	483	646	820	458	434	316	478	540	461	374	647	595	218	192	588	635	276	301	236	214	294	314	500	529	493	523	339	379	300	306	186	212	353	321	638	730	630	615	404	416	523	553	423	416	525	516	892	775	658	694	424	511	455	552	542	526	736	769	935	837	326	340	1003	955	1157	1180	404	383	233	223	367	392	305	342	874	871	593	594	499	444	424	514	579	595	854	743	744	701	328	352	295	283	233	205	396	436	749	695	420	436	574	527	393	424	458	498	266	287	382	357	266	250	374	410	536	489	346	358	427	390	196	243	401	379	264	239	541	559	557	656	897	893	516	474	491	502	945	1006	870	863	33	0	581	597	379	384	367	333	497	466	453	486	362	410	397	419	846	840	837	813	328	353	154	183	256	256	143	163	402	422	353	337	478	469	184	172	501	527	459	488	370	377	223	248	920	981	520	532	1110	1163	356	386	693	654	448	418	234	314	774	672	1263	1301	183	199	432	488	530	628	425	446	396	417	185	175	667	653	876	852	289	313	273	266	598	563	277	265	855	883	681	704	540	575	889	877	321	303	198	213	794	765	441	447	252	268	275	291	1134	1157	1352	1414
911	464	259	370	440	678	292	732	603	359	401	634	83	290	430	283	481	788	399	759	44	304	249	399	548	378	369	346	264	144	467	367	714	420	273	348	577	326	391	70	413	451	342	189	316	456	431	508	483	366	417	668	807	234	272	539	327	693	573	60	453	436	547	517	246	399	483	154	458	418	320	435	225	604	478	666	494	460	290	415	523	630	606	664	337	211	481	504	475	354	597	185	729	407	748	540	393	206	436	217	433	234	169	178	287	299	891	683	391	36	263	218	566	694	508	550	444	438	440	465	282	128	166	449	475	332	379	417	388	423	445	361	381	156	127	162	132	372	332	367	367	490	464	386	427	598	604	76	96	215	203	132	102	226	237	186	171	570	649	532	568	617	647	680	699	203	187	610	643	613	711	393	407	890	842	641	664	527	530	437	442	396	421	469	506	761	745	467	503	405	353	358	420	48	32	515	617	618	575	450	499	354	366	451	478	311	271	381	329	207	198	280	327	422	453	364	372	379	358	411	386	722	706	403	439	352	395	448	436	278	315	497	444	430	408	413	438	285	303	431	530	771	767	392	434	451	462	819	880	744	737	614	615	0	16	409	432	316	350	644	602	517	558	509	504	241	220	727	714	711	687	312	287	619	639	412	423	484	464	431	451	260	276	176	182	488	476	170	182	194	165	361	316	488	513	794	855	290	302	944	997	423	416	134	173	354	384	690	770	435	537	829	785	480	464	461	448	490	588	198	177	240	219	488	498	95	81	750	726	340	316	729	731	262	297	372	378	729	757	555	578	111	76	763	751	296	314	463	478	687	716	349	282	397	414	372	388	618	641	953	1015
927	448	243	354	436	694	276	748	587	355	385	650	67	274	414	267	497	772	415	775	60	288	233	383	532	374	365	330	248	160	451	351	698	416	257	349	561	310	407	86	397	435	326	173	300	452	444	492	467	350	413	684	791	218	256	523	311	677	589	44	437	420	563	533	230	383	467	150	442	414	304	431	209	620	462	650	478	444	274	431	539	646	622	648	333	195	477	488	471	370	613	169	713	408	732	524	409	190	420	201	449	218	153	162	283	283	907	699	387	52	247	214	582	678	492	534	428	422	456	449	278	144	150	433	459	316	363	413	384	407	429	345	365	140	111	158	128	368	328	351	351	474	448	382	423	582	588	92	112	211	199	128	118	222	233	196	181	554	633	516	552	601	631	664	683	213	197	594	627	597	695	377	391	874	826	657	680	523	526	421	426	392	417	465	502	745	729	451	487	406	349	342	404	64	48	499	601	602	559	446	495	338	350	447	474	307	267	397	345	203	194	296	343	418	449	348	356	363	342	407	382	706	690	399	435	368	396	432	420	274	311	481	428	426	404	409	434	269	287	415	514	755	751	376	418	435	446	803	864	728	721	598	599	16	0	393	416	300	334	628	586	501	542	505	500	225	204	711	698	695	671	296	271	603	623	396	407	468	448	427	447	244	260	160	166	472	460	166	192	190	161	357	312	484	509	778	839	274	286	960	1013	407	400	150	189	338	368	674	754	419	521	845	801	476	460	445	432	474	572	182	161	224	203	472	482	111	97	734	710	324	300	713	715	246	281	356	362	713	741	539	562	95	60	747	735	280	298	459	474	671	700	345	278	381	398	356	372	634	657	969	1031
1219	296	198	39	513	986	161	1040	396	402	147	979	377	183	305	144	723	518	605	1117	453	177	255	124	251	379	388	352	238	539	79	97	507	342	187	529	190	359	633	465	133	42	136	292	141	569	571	121	95	166	500	899	614	255	280	285	133	473	881	387	44	27	789	825	205	228	243	383	49	355	352	548	184	912	224	275	198	253	187	657	765	921	914	356	312	232	569	250	588	617	888	230	522	575	461	279	603	283	234	252	659	220	304	313	346	110	1249	1041	504	445	296	449	857	487	139	159	97	145	682	142	341	399	347	195	221	255	302	455	431	169	191	125	105	362	391	435	438	460	464	91	97	365	339	474	500	305	397	387	367	370	382	438	468	429	440	472	458	559	442	325	361	230	256	293	308	489	473	403	436	602	504	81	67	683	635	1036	1059	640	618	205	221	509	534	542	579	554	538	260	261	586	529	277	181	457	441	521	410	411	368	538	587	148	160	362	384	410	450	708	654	386	387	605	563	535	566	125	165	195	216	524	499	435	419	516	552	623	576	39	27	472	447	329	319	543	521	394	418	208	226	224	323	564	560	183	141	158	169	612	673	537	530	394	361	409	425	0	23	198	164	253	211	108	167	597	617	331	309	520	507	504	480	231	206	365	354	180	191	316	296	544	564	215	231	355	376	363	351	443	469	425	435	336	343	416	441	587	648	187	199	1252	1305	83	53	529	568	115	85	405	483	441	339	1222	1180	438	422	99	155	197	295	287	308	330	350	234	244	490	476	543	519	268	244	442	465	265	230	166	178	522	550	348	371	368	403	556	544	251	269	421	406	475	446	408	413	161	178	136	152	1013	1036	1311	1373
1196	273	175	16	490	963	138	1017	373	379	142	956	354	160	282	121	700	541	582	1094	430	154	232	101	274	356	365	329	215	516	102	74	484	319	164	506	213	336	610	442	115	65	113	269	118	546	548	144	118	143	477	876	591	232	257	280	110	463	858	364	67	50	766	802	182	205	238	360	72	332	329	525	161	889	219	298	221	230	164	634	742	898	891	379	289	209	546	245	565	594	865	207	499	552	484	281	580	260	211	229	636	197	281	290	323	87	1226	1018	481	422	273	426	834	464	162	182	87	122	659	149	318	376	324	190	216	232	279	432	408	164	186	102	82	339	368	412	415	437	441	68	74	342	316	451	477	282	374	364	344	347	359	415	445	406	417	449	435	536	419	302	338	253	279	316	331	466	450	380	413	579	481	58	44	660	612	1013	1036	617	595	182	198	486	511	519	556	531	515	237	238	563	506	254	158	434	418	498	387	388	345	515	564	125	137	339	361	387	427	685	631	363	364	582	540	512	543	102	142	172	193	501	476	458	442	493	529	600	553	62	50	449	424	306	296	520	498	371	395	185	203	201	300	541	537	160	118	135	146	589	650	514	507	389	356	386	402	23	0	175	141	276	234	131	190	574	594	308	286	497	484	481	457	208	183	360	377	157	168	293	273	521	541	192	208	332	353	340	328	420	446	402	412	313	320	393	418	564	625	164	176	1229	1282	60	30	506	545	92	62	428	506	418	316	1199	1157	415	399	76	132	174	272	264	285	307	327	229	239	467	453	520	496	245	221	465	472	242	207	143	155	499	527	325	348	345	380	533	521	228	246	398	383	457	469	385	390	138	155	113	129	990	1013	1288	1350
1092	186	215	123	401	859	226	913	461	292	85	852	250	248	195	205	596	646	478	990	344	242	128	83	232	269	263	417	190	460	151	51	572	232	174	402	261	424	506	338	97	172	26	337	206	442	444	192	167	56	378	772	679	128	153	223	11	551	754	273	174	157	662	698	147	118	174	256	179	245	417	421	249	785	162	405	178	318	252	530	638	794	787	348	185	105	442	188	461	490	761	275	587	448	432	224	476	222	141	249	532	121	185	194	219	175	1122	914	377	352	361	322	730	552	269	289	128	229	555	256	214	382	330	133	159	320	367	345	321	107	129	45	65	235	264	308	311	333	337	51	51	255	229	347	388	389	462	365	350	243	255	311	341	302	313	345	331	624	507	390	426	301	386	364	438	362	346	468	501	667	569	77	91	748	700	952	975	513	491	121	133	382	407	430	467	619	603	325	345	459	402	150	246	348	348	586	475	476	433	411	460	38	50	252	274	283	323	581	527	259	260	478	436	408	439	190	230	85	106	397	372	406	390	389	425	496	449	169	157	345	320	219	209	416	394	284	308	273	291	289	388	629	625	250	225	242	253	677	738	602	595	332	299	316	332	130	153	0	34	383	341	238	297	470	490	204	182	585	572	569	545	101	79	303	323	96	107	206	186	417	437	88	104	228	249	253	241	316	342	298	308	209	216	306	331	652	713	252	264	1125	1178	107	137	450	449	180	169	374	454	506	404	1095	1096	328	312	183	239	281	379	160	181	203	223	172	182	411	397	608	584	138	114	413	415	330	295	56	68	587	615	413	436	275	310	621	609	124	142	311	296	545	574	281	286	81	98	56	72	929	952	1184	1246
1058	220	181	157	367	825	192	879	427	261	119	818	216	214	194	171	562	612	444	956	310	208	94	117	266	238	229	383	156	426	185	85	538	231	140	368	295	390	472	304	131	206	60	303	172	408	410	226	201	90	344	738	645	94	119	257	45	517	720	239	208	191	628	664	113	152	208	222	213	244	383	387	215	751	196	439	212	284	218	496	604	760	753	382	151	71	408	222	427	456	727	241	553	414	466	258	442	188	175	215	498	87	151	160	185	141	1088	880	343	318	327	288	696	518	303	323	162	262	521	289	180	348	296	167	193	286	333	319	290	141	163	79	99	201	230	274	277	299	303	85	85	254	228	313	354	422	428	331	316	209	221	277	307	268	279	311	297	590	473	356	392	335	420	398	472	328	312	434	467	633	535	111	125	714	666	918	941	479	457	155	167	348	373	396	433	585	569	291	327	425	368	116	212	314	314	552	441	442	399	377	426	72	84	251	273	249	289	547	493	225	226	444	402	374	405	156	196	119	122	363	338	440	424	355	391	462	415	203	191	311	286	253	208	382	360	273	298	239	257	255	354	595	591	216	258	275	286	643	704	568	561	366	333	282	298	164	187	34	0	417	375	272	331	436	456	170	148	551	538	535	511	67	45	337	357	130	141	240	220	383	403	54	70	194	215	252	240	282	308	264	274	175	182	305	330	618	679	218	230	1091	1144	141	171	416	415	146	176	408	488	472	370	1061	1062	327	311	217	272	314	412	126	147	169	189	206	216	377	363	574	550	104	80	447	449	296	261	90	102	553	581	379	402	241	276	587	575	90	108	310	295	511	540	247	252	115	132	90	106	895	918	1150	1212
1357	370	367	208	642	1124	330	1178	452	531	216	1148	546	286	434	313	861	471	743	1286	604	322	424	219	278	508	517	455	407	672	151	266	467	471	356	688	134	462	771	630	205	151	305	407	244	707	709	109	135	319	629	1037	663	424	449	348	302	426	1019	538	171	180	927	963	374	357	312	552	120	484	455	686	353	1050	293	228	260	356	334	795	903	1059	1052	300	471	401	700	319	726	755	1026	399	574	713	405	324	741	452	317	421	797	389	473	482	505	279	1418	1210	642	596	399	608	995	475	92	10	185	156	820	95	500	550	498	264	290	358	405	584	560	238	260	294	274	531	560	604	607	598	623	260	266	494	468	612	629	374	482	538	518	529	541	607	637	588	599	641	627	615	498	410	417	174	87	236	139	658	642	373	406	658	560	250	236	637	589	1184	1207	778	749	279	295	647	672	671	708	508	524	363	330	745	688	446	350	608	592	616	495	381	424	676	718	317	325	491	513	569	609	877	823	545	556	769	722	673	704	294	268	348	369	662	637	379	363	654	690	782	735	192	180	631	606	413	448	681	659	523	547	311	329	327	426	550	566	252	210	131	142	618	679	561	518	457	424	560	576	215	192	367	333	0	42	179	120	728	755	500	478	480	493	492	468	400	375	410	381	302	317	390	380	682	702	384	400	524	545	492	480	612	638	584	604	495	502	545	570	636	697	356	346	1390	1443	252	222	680	719	284	254	432	427	544	442	1372	1328	567	551	268	224	266	364	456	477	499	519	303	313	641	627	568	543	414	413	386	409	368	333	319	331	508	536	404	427	519	554	562	569	420	428	550	535	428	399	567	572	254	271	277	293	1161	1184	1480	1542
1399	412	409	250	684	1166	372	1220	494	573	258	1190	588	328	476	355	903	513	785	1328	646	364	466	261	247	550	559	497	449	714	193	308	509	513	398	730	103	504	813	672	247	193	347	449	286	749	751	151	177	361	671	1079	705	466	491	379	344	468	1061	580	213	222	969	1005	416	399	354	594	162	526	497	728	395	1092	335	270	261	398	376	837	945	1101	1094	269	513	443	742	361	768	797	1068	441	616	755	374	293	783	494	359	463	839	431	515	524	547	321	1460	1252	684	638	441	650	1037	517	134	52	227	198	862	137	542	592	540	306	332	400	447	626	602	280	302	336	316	573	602	646	649	640	665	302	308	536	510	654	671	416	524	580	560	571	583	649	679	630	641	683	669	657	540	452	459	216	129	194	97	700	684	415	448	700	602	292	278	679	631	1226	1249	820	791	321	337	689	714	713	750	550	566	405	372	787	730	488	392	650	634	658	537	423	466	718	760	359	367	533	555	611	651	919	865	587	598	811	764	715	746	336	310	390	411	704	679	348	332	696	732	824	777	234	222	673	648	455	490	723	701	565	589	353	371	369	468	592	608	294	252	173	184	660	721	603	560	488	455	602	618	257	234	409	375	42	0	221	162	770	797	542	520	522	535	534	510	442	417	379	350	344	359	432	422	724	744	426	442	566	587	534	522	654	680	626	646	537	544	587	612	678	739	398	388	1432	1485	294	264	722	761	326	296	401	396	586	484	1414	1370	609	593	310	266	308	406	498	519	541	561	345	355	683	669	610	585	456	455	355	378	410	375	361	373	550	578	446	469	561	596	604	611	462	470	592	577	470	441	609	614	296	313	319	335	1203	1226	1522	1584
1327	367	306	147	621	1094	269	1148	391	510	213	1087	485	225	413	252	831	410	713	1225	543	261	363	212	317	487	496	394	346	611	145	205	406	450	295	637	195	401	741	569	199	90	244	346	183	677	679	170	161	274	608	1007	602	363	388	351	241	365	989	477	110	119	897	933	313	336	309	491	59	463	394	656	292	1020	290	167	264	295	273	765	873	1029	1022	361	420	340	677	316	696	725	996	338	513	683	466	345	711	391	314	360	767	328	412	421	454	218	1357	1149	612	535	338	557	965	414	31	51	163	95	790	34	449	489	437	261	287	297	344	563	539	235	257	233	213	470	499	543	546	568	572	199	205	473	447	582	608	313	421	477	457	478	490	546	576	537	548	580	566	554	437	349	356	235	148	297	200	597	581	312	345	597	499	189	175	576	528	1123	1146	748	726	276	292	617	642	650	687	447	463	302	269	694	637	385	289	547	531	555	434	320	363	646	695	256	268	470	492	518	558	816	762	494	495	713	671	643	674	233	207	303	324	632	607	440	424	624	660	731	684	131	119	580	555	410	427	651	629	502	526	250	268	266	365	489	505	191	149	70	81	557	618	500	457	460	427	499	515	154	131	306	272	145	103	0	59	705	725	439	417	419	432	431	407	339	314	431	420	288	299	387	377	652	672	323	339	463	484	471	459	551	577	533	543	444	451	524	549	575	636	295	285	1360	1413	191	161	619	658	223	193	471	488	483	381	1311	1267	546	530	207	163	205	303	395	416	438	458	300	310	580	566	507	482	376	352	447	470	307	272	274	286	447	475	343	366	458	493	501	508	359	377	529	514	367	338	516	521	251	268	244	260	1100	1123	1419	1481
1268	334	247	88	562	1035	210	1089	445	451	180	1028	426	232	354	193	772	469	654	1166	502	226	304	173	284	428	437	401	287	588	112	146	465	391	236	578	223	408	682	514	166	75	185	341	190	618	620	154	128	215	549	948	661	304	329	318	182	424	930	436	77	60	838	874	254	277	276	432	0	404	401	597	233	961	257	226	231	302	236	706	814	970	963	389	361	281	618	283	637	666	937	279	571	624	494	312	652	332	281	301	708	269	353	362	395	159	1298	1090	553	494	345	498	906	473	90	110	130	154	731	93	390	448	396	228	254	304	351	504	480	202	224	174	154	411	440	484	487	509	513	140	146	414	388	523	549	354	446	436	416	419	431	487	517	478	489	521	507	608	491	374	410	263	207	326	259	538	522	371	404	651	553	130	116	635	587	1085	1108	689	667	243	259	558	583	591	628	506	522	309	310	635	578	326	230	506	490	570	459	379	417	587	636	197	209	411	433	459	499	757	703	435	436	654	612	584	615	174	214	244	265	573	548	468	452	565	601	672	625	72	60	521	496	377	368	592	570	443	467	257	275	273	372	548	564	232	190	129	140	616	677	559	516	427	394	458	474	95	72	247	213	204	162	59	0	646	666	380	358	478	491	490	466	280	255	398	387	229	240	354	344	593	613	264	280	404	425	412	400	492	518	474	484	385	392	465	490	634	695	236	248	1301	1354	132	102	578	617	164	134	438	516	490	388	1271	1229	487	471	148	204	246	344	336	357	379	399	267	277	539	525	566	541	317	293	475	498	314	279	215	227	506	534	397	420	417	452	560	567	300	318	470	455	426	397	457	462	210	227	185	201	1062	1085	1360	1422
746	385	513	530	136	513	538	567	795	176	491	569	385	578	273	503	250	980	132	857	436	554	376	513	541	199	207	695	488	544	559	493	906	241	472	111	667	675	160	411	527	611	442	538	540	0	98	598	575	412	99	369	1013	391	360	438	453	885	408	408	594	596	316	352	445	366	443	334	618	239	669	71	534	439	443	844	525	652	559	184	292	399	441	682	299	403	43	427	73	144	366	504	921	102	654	495	130	451	390	478	133	419	414	423	243	509	989	781	69	460	612	344	335	886	700	717	562	630	209	657	248	567	515	495	495	654	701	202	205	513	491	487	507	408	429	354	384	189	204	493	493	286	291	177	181	790	796	517	535	313	301	384	414	252	241	342	357	919	841	724	760	707	794	770	846	327	343	802	835	962	903	519	533	1082	1034	915	938	71	92	460	444	129	99	165	202	953	937	659	695	168	219	484	580	440	456	864	809	810	767	157	108	454	442	272	271	258	280	448	394	305	321	273	226	100	69	524	564	425	409	95	120	628	612	136	104	205	158	608	596	252	215	418	365	70	92	234	231	607	625	623	722	963	959	584	626	643	654	1011	1072	936	929	395	428	468	472	569	592	442	476	791	749	677	736	0	48	390	412	919	906	903	879	401	413	516	545	450	435	405	385	96	67	386	370	382	361	282	272	362	368	320	349	323	368	257	282	986	1047	559	571	779	832	549	576	526	487	514	544	596	676	784	738	962	1006	217	233	621	640	682	780	431	410	389	368	453	443	515	514	942	918	362	386	635	628	611	629	436	424	921	949	747	770	460	462	955	943	354	336	232	247	879	908	315	380	504	487	486	470	892	915	1051	1113
794	343	493	510	88	561	518	615	775	154	464	617	390	558	246	483	298	960	180	905	441	534	356	486	493	177	186	700	468	577	532	473	886	215	452	159	635	680	208	416	500	587	415	543	520	48	146	571	548	385	51	400	993	371	340	390	433	865	456	413	567	576	364	400	425	339	401	339	598	213	674	119	536	487	395	824	477	632	539	232	340	430	489	634	279	383	20	379	121	192	397	509	901	150	606	447	178	456	363	483	164	399	419	428	248	489	1037	829	117	465	617	349	366	866	680	690	535	610	257	637	253	572	520	468	450	634	681	154	183	486	464	466	486	413	434	359	389	169	209	472	473	238	264	157	133	770	776	522	540	318	306	389	419	257	246	390	382	924	821	704	740	680	767	738	819	375	391	782	815	967	883	498	512	1062	1014	963	986	102	69	433	417	148	147	117	154	933	917	639	675	216	225	464	560	445	461	869	789	790	747	109	60	427	415	246	223	263	285	496	442	310	326	321	274	148	117	504	544	398	389	143	138	580	564	155	152	253	206	588	576	257	220	391	338	118	140	208	183	587	605	603	702	943	939	564	606	623	634	991	1052	916	909	347	380	473	477	549	572	422	456	764	722	657	716	48	0	395	417	899	886	883	859	381	393	468	497	423	408	363	358	144	115	366	350	387	366	234	224	367	393	325	354	303	348	209	234	966	1027	539	551	827	880	528	556	559	520	494	524	548	628	789	718	1010	1054	169	185	601	620	662	760	436	415	394	373	405	395	533	519	922	898	342	366	587	580	616	609	409	397	901	929	727	750	465	467	935	923	334	316	184	199	859	888	320	385	477	460	459	443	940	963	1099	1161
963	280	133	248	374	730	181	784	513	283	245	704	132	238	246	160	510	698	413	842	226	193	93	243	392	260	251	376	108	342	311	211	624	283	117	287	421	356	420	217	257	329	186	219	258	390	382	352	327	210	351	720	731	78	75	374	171	603	625	155	331	314	576	569	90	215	300	108	336	296	350	369	176	656	313	562	338	370	179	444	552	682	658	508	173	55	415	339	409	383	649	157	639	346	583	375	371	104	253	131	462	78	67	76	197	185	974	766	325	234	293	180	618	604	418	446	288	348	469	375	192	264	212	293	310	285	332	341	312	267	289	205	225	117	146	160	190	306	266	211	211	306	280	320	361	508	514	247	232	125	113	190	220	160	171	197	183	600	559	442	478	461	543	524	595	214	198	520	553	643	621	237	251	800	752	824	847	461	464	275	259	330	355	403	440	671	655	377	413	344	287	202	298	230	230	545	527	528	485	384	433	198	210	303	325	245	205	433	379	117	101	330	294	356	387	242	282	223	202	345	320	557	541	337	373	381	334	326	314	212	249	313	260	364	342	295	320	238	256	341	440	681	677	302	344	361	372	729	790	654	647	430	450	198	214	287	310	160	194	540	498	395	454	443	438	0	22	637	624	621	597	156	131	454	474	256	244	300	280	365	385	104	120	110	116	304	292	168	194	156	160	197	204	357	382	704	765	179	191	996	1049	267	294	332	321	232	262	525	605	465	456	947	968	362	346	339	358	400	498	42	63	43	64	323	333	293	279	660	636	156	160	564	566	285	250	216	222	639	667	465	488	157	192	673	661	140	130	345	347	597	626	259	192	241	258	216	232	801	824	1036	1098
941	258	155	270	352	708	203	762	535	261	267	682	153	260	224	182	488	720	391	820	220	215	78	265	399	238	229	397	130	356	333	233	646	261	139	265	443	377	398	195	279	351	208	240	280	368	360	374	349	189	329	698	753	63	53	352	193	625	603	176	353	336	554	547	112	193	278	86	358	274	371	347	198	634	291	584	348	392	201	422	530	660	636	530	151	77	393	317	387	361	627	178	661	324	561	353	349	125	231	152	440	100	88	97	175	207	952	744	303	244	314	158	596	626	440	468	310	370	447	397	170	285	233	288	288	307	354	319	290	289	284	227	247	138	167	138	168	284	244	233	233	284	258	298	339	530	536	268	253	103	91	168	198	138	149	175	161	621	581	464	500	483	565	546	617	192	176	542	575	664	643	259	273	822	774	802	825	439	442	253	237	308	333	381	418	693	677	399	435	322	265	224	320	224	240	566	549	550	507	362	411	220	219	281	303	223	183	411	357	95	79	308	272	334	365	264	304	202	181	323	298	535	519	315	351	359	312	348	336	190	227	291	238	342	320	273	298	260	278	363	462	703	699	324	366	383	394	751	812	676	669	408	428	219	235	309	332	182	216	562	520	417	476	421	416	22	0	659	646	643	619	165	153	432	452	237	222	278	258	343	363	126	134	103	94	282	270	146	172	134	138	175	182	335	360	726	787	201	213	974	1027	289	316	338	299	254	284	503	583	486	478	925	946	340	324	361	380	422	520	64	84	21	42	301	311	312	298	682	658	134	156	542	544	307	272	213	201	661	689	487	510	178	213	695	683	126	108	323	325	619	648	237	170	263	272	238	247	779	802	1014	1076
1543	716	522	455	852	1310	479	1364	138	746	613	1263	701	427	682	468	1047	211	929	1287	745	463	579	572	736	723	714	374	562	753	564	545	13	719	511	853	614	477	957	771	586	509	584	548	385	893	895	589	580	614	829	1223	200	579	604	751	570	79	1205	679	529	521	1113	1149	529	651	709	707	478	732	398	872	508	1236	690	252	683	241	475	981	1089	1245	1238	780	636	556	893	716	912	941	1212	554	166	899	885	752	927	607	682	576	983	544	628	637	670	434	1419	1211	828	737	540	773	1181	69	450	470	558	457	1006	453	665	691	639	661	687	499	546	804	775	635	657	573	553	686	715	759	762	784	788	539	545	742	716	798	839	421	313	679	659	694	706	762	786	753	764	796	782	403	286	241	205	654	567	716	619	813	797	247	280	354	246	529	515	189	141	1169	1192	964	942	653	669	833	858	881	918	60	44	306	342	910	853	601	505	749	733	447	326	255	212	862	911	596	608	739	761	734	774	1032	978	710	711	929	887	859	890	449	409	631	610	848	823	859	843	840	876	947	900	533	521	796	771	749	696	867	845	758	783	452	470	468	369	70	86	429	453	470	481	138	199	155	112	860	827	701	717	494	517	559	593	564	522	537	478	921	941	655	633	0	13	38	62	555	530	831	839	628	639	736	716	868	888	539	555	679	700	740	728	767	793	749	759	660	667	793	818	173	234	499	487	1576	1629	531	501	821	860	439	469	890	907	487	385	1357	1313	815	799	523	467	509	411	611	632	654	674	700	710	782	768	121	137	592	568	866	889	509	474	614	626	28	56	192	169	660	695	82	94	575	593	798	783	112	139	732	737	609	626	584	600	1146	1169	1481	1543
1556	729	535	468	865	1323	492	1377	151	759	619	1276	714	440	695	481	1060	198	942	1300	758	476	592	585	723	736	727	387	575	766	551	558	0	732	524	866	601	490	970	784	599	496	597	561	398	906	908	576	567	627	842	1236	213	592	617	757	583	66	1218	692	516	525	1126	1162	542	664	715	720	465	745	411	885	521	1249	696	239	670	254	488	994	1102	1258	1251	767	649	569	906	722	925	954	1225	567	179	912	872	751	940	620	695	589	996	557	641	650	683	447	1432	1224	841	750	553	786	1194	82	437	457	569	470	1019	440	678	704	652	667	693	512	559	817	788	641	663	586	566	699	728	772	775	797	801	552	558	755	729	811	852	434	326	692	672	707	719	775	799	766	777	809	795	416	299	254	218	641	554	703	606	826	810	256	289	367	259	542	528	202	154	1182	1205	977	955	666	682	846	871	894	931	73	57	319	355	923	866	614	518	762	746	460	339	264	225	875	924	609	621	752	774	747	787	1045	991	723	724	942	900	872	903	462	422	644	623	861	836	846	830	853	889	960	913	537	525	809	784	762	709	880	858	771	796	465	483	481	382	83	99	442	466	476	487	151	212	168	125	866	833	714	730	507	530	572	606	551	509	524	465	934	954	668	646	13	0	51	75	568	543	837	826	641	652	749	729	881	901	552	568	692	713	753	741	780	806	762	772	673	680	806	831	186	247	512	500	1589	1642	544	514	834	873	452	482	877	894	500	398	1370	1326	828	812	536	480	522	424	624	645	667	687	706	716	795	781	134	150	605	581	853	876	522	487	627	639	41	69	205	182	673	708	95	107	588	606	811	796	125	126	745	750	622	639	597	613	1159	1182	1494	1556
1505	678	484	417	814	1272	441	1326	100	708	575	1225	663	389	644	430	1009	175	891	1249	707	425	541	534	700	685	676	336	524	715	528	507	51	681	473	815	578	439	919	733	548	473	546	510	347	855	857	553	544	576	791	1185	219	541	566	713	532	80	1167	641	493	483	1075	1111	491	613	671	669	442	694	360	834	470	1198	652	216	647	203	437	943	1051	1207	1200	744	598	518	855	678	874	903	1174	516	130	861	849	714	889	569	644	538	945	506	590	599	632	396	1381	1173	790	699	502	735	1143	31	414	434	520	419	968	417	627	653	601	623	649	461	508	766	737	597	619	535	515	648	677	721	724	746	750	501	507	704	678	760	801	383	275	641	621	656	668	724	748	715	726	758	744	365	248	203	167	618	531	680	583	775	759	209	242	316	208	491	477	227	179	1131	1154	926	904	615	631	795	820	843	880	98	82	268	304	872	815	563	467	711	695	409	288	217	174	824	873	558	570	701	723	696	736	994	940	672	673	891	849	821	852	411	371	593	572	810	785	823	807	802	838	909	862	495	483	758	733	711	658	829	807	720	745	414	432	430	331	108	124	391	415	432	443	176	237	117	74	822	789	663	679	456	479	521	555	528	486	501	442	883	903	617	595	64	51	0	24	517	492	793	803	590	601	698	678	830	850	501	517	641	662	702	690	729	755	711	721	622	629	755	780	192	253	461	449	1538	1591	493	463	783	822	401	431	854	871	449	347	1319	1275	777	761	485	429	471	373	573	594	616	636	662	672	744	730	124	99	554	530	830	853	471	436	576	588	66	94	154	131	622	657	120	125	537	555	760	745	74	103	694	699	571	588	546	562	1108	1131	1443	1505
1529	702	508	441	838	1296	465	1350	124	732	599	1249	687	413	668	454	1033	199	915	1273	731	449	565	558	724	709	700	360	548	739	552	531	27	705	497	839	602	463	943	757	572	497	570	534	371	879	881	577	568	600	815	1209	214	565	590	737	556	93	1191	665	517	507	1099	1135	515	637	695	693	466	718	384	858	494	1222	676	240	671	227	461	967	1075	1231	1224	768	622	542	879	702	898	927	1198	540	154	885	873	738	913	593	668	562	969	530	614	623	656	420	1405	1197	814	723	526	759	1167	55	438	458	544	443	992	441	651	677	625	647	673	485	532	790	761	621	643	559	539	672	701	745	748	770	774	525	531	728	702	784	825	407	299	665	645	680	692	748	772	739	750	782	768	389	272	227	191	642	555	704	607	799	783	233	266	340	232	515	501	203	155	1155	1178	950	928	639	655	819	844	867	904	74	58	292	328	896	839	587	491	735	719	433	312	241	198	848	897	582	594	725	747	720	760	1018	964	696	697	915	873	845	876	435	395	617	596	834	809	847	831	826	862	933	886	519	507	782	757	735	682	853	831	744	769	438	456	454	355	84	100	415	439	456	467	152	213	141	98	846	813	687	703	480	503	545	579	552	510	525	466	907	927	641	619	40	27	24	0	541	516	817	827	614	625	722	702	854	874	525	541	665	686	726	714	753	779	735	745	646	653	779	804	187	248	485	473	1562	1615	517	487	807	846	425	455	878	895	473	371	1343	1299	801	785	509	453	495	397	597	618	640	660	686	696	768	754	135	123	578	554	854	877	495	460	600	612	42	70	178	155	646	681	96	108	561	579	784	769	98	127	718	723	595	612	570	586	1132	1155	1467	1529
1038	211	161	142	347	805	172	859	407	241	139	798	196	194	177	151	542	592	424	936	290	188	74	137	286	218	209	363	136	406	205	105	518	214	120	348	315	370	452	284	151	223	80	283	152	388	390	246	221	110	324	718	625	74	99	277	65	497	700	219	225	208	608	644	93	146	228	202	230	227	363	367	195	731	216	456	232	264	198	476	584	740	733	402	131	51	388	242	407	436	707	221	533	394	486	278	422	168	183	195	478	67	131	140	165	121	1068	860	323	298	307	268	676	498	312	340	182	242	501	269	160	328	276	187	213	266	313	299	270	161	183	99	119	181	210	254	257	279	283	105	105	237	211	293	334	402	408	311	296	189	201	257	287	248	259	291	277	570	453	336	372	355	437	418	489	308	292	414	447	613	515	131	145	694	646	898	921	459	437	175	187	328	353	376	413	565	549	271	307	405	348	96	192	294	294	532	421	422	379	357	406	92	104	234	256	229	269	527	473	205	206	424	382	354	385	136	176	126	105	343	318	460	444	335	371	442	395	220	208	291	266	244	191	362	340	253	278	219	237	235	334	575	571	196	238	255	266	623	684	548	541	361	353	262	278	181	204	54	88	434	392	289	348	416	436	150	128	531	518	515	491	0	25	357	377	150	161	231	211	363	383	34	50	174	195	235	223	262	288	244	254	155	162	288	313	598	659	198	210	1071	1124	161	188	396	395	126	156	428	508	452	350	1041	1042	310	294	233	252	294	392	106	127	149	169	226	236	357	343	554	530	87	63	467	469	276	241	110	122	533	561	359	382	221	256	567	555	70	88	293	278	491	520	227	232	135	152	110	126	875	898	1130	1192
1026	186	186	167	335	793	197	847	432	229	161	797	221	219	152	176	530	617	412	935	315	213	62	159	308	206	197	388	161	431	227	127	543	189	145	336	337	395	440	309	173	248	73	308	177	376	378	268	243	88	312	706	650	77	87	279	87	522	688	244	250	233	596	632	118	121	205	217	255	202	388	355	220	719	218	481	254	289	223	464	572	728	721	424	119	76	376	244	395	424	695	246	558	382	488	280	410	193	158	220	466	92	156	165	153	146	1067	859	311	323	332	256	664	523	337	365	204	267	489	294	148	353	301	203	215	291	338	287	258	183	199	121	141	206	235	266	282	267	271	127	127	212	186	281	322	427	433	336	321	177	189	282	312	236	247	298	289	595	478	361	397	377	462	440	514	315	299	439	472	638	540	153	167	719	671	923	946	447	425	168	164	316	341	364	401	590	574	296	332	393	336	121	217	319	319	557	446	447	404	345	394	85	97	209	231	217	257	526	472	193	209	417	370	342	373	161	201	101	80	331	306	462	446	323	359	430	383	245	233	279	254	219	166	350	328	241	265	244	262	260	359	600	596	221	263	280	291	648	709	573	566	336	355	287	303	206	229	76	110	459	417	314	373	404	424	162	153	556	543	540	516	25	0	359	379	143	149	206	186	351	371	59	56	199	220	210	198	274	300	232	261	143	150	263	288	623	684	223	235	1059	1112	183	213	421	420	151	181	430	510	477	375	1040	1067	285	269	258	277	319	417	131	152	161	182	228	238	382	368	579	555	62	38	469	471	301	266	103	100	558	586	384	407	246	281	592	580	58	76	268	253	516	545	215	220	157	162	132	137	900	923	1129	1191
1231	228	509	364	430	998	486	1052	721	417	209	1054	544	508	339	469	735	801	617	1210	623	502	390	257	74	394	403	677	484	754	246	301	797	363	468	589	218	684	645	598	243	301	291	617	466	516	583	269	252	263	417	832	939	405	375	112	297	756	893	567	281	298	801	837	441	280	209	492	358	371	677	560	509	924	190	558	132	578	512	669	777	864	926	214	394	399	488	216	589	629	831	555	847	587	138	70	615	516	240	543	632	415	479	488	428	435	1342	1134	516	646	621	531	800	805	422	362	280	470	694	425	423	676	624	213	187	580	627	421	446	231	209	289	309	529	558	541	571	484	524	295	301	331	357	498	466	630	722	659	644	452	464	571	601	511	522	573	564	884	767	650	686	352	439	321	418	590	574	703	736	927	829	321	335	967	919	1205	1228	558	537	228	218	521	546	459	496	838	854	585	586	646	589	444	506	627	642	846	735	711	693	482	506	303	291	378	350	492	532	801	747	468	484	692	645	547	578	450	490	291	312	536	511	112	96	528	564	683	636	310	322	554	529	301	354	555	533	409	384	533	551	549	648	880	885	508	466	461	472	937	998	862	848	187	154	610	626	371	348	362	328	363	394	417	450	516	564	445	467	810	823	822	798	375	373	0	29	251	251	248	268	556	576	382	384	522	517	329	317	549	575	507	536	418	425	377	402	912	973	512	524	1264	1317	351	378	741	702	440	410	80	160	766	664	1315	1349	337	353	424	480	522	620	454	475	444	465	200	210	705	691	868	844	337	360	119	142	590	555	285	275	838	866	673	696	569	604	881	869	369	351	352	367	758	729	490	495	247	263	270	286	1182	1205	1404	1466
1202	205	489	347	401	969	469	1023	704	394	189	1025	524	491	316	452	706	812	588	1190	603	485	370	261	103	371	380	660	464	734	257	281	808	340	448	566	247	667	616	578	253	312	271	600	449	487	554	290	273	243	388	803	922	385	355	83	277	767	864	547	292	309	772	808	421	260	189	472	369	348	660	531	492	895	170	569	161	561	495	640	748	835	897	243	374	379	459	193	560	600	802	538	830	558	167	99	586	496	220	523	603	395	459	468	408	418	1322	1114	487	626	604	511	771	795	433	391	291	453	665	436	403	656	604	193	167	563	610	398	423	211	189	269	289	509	538	521	551	461	501	275	281	308	334	475	443	613	705	639	624	432	444	551	581	491	502	553	544	867	750	633	669	381	468	350	447	570	554	711	744	910	812	301	315	978	930	1185	1208	529	508	208	198	492	517	430	467	849	846	568	569	623	566	424	489	607	622	829	718	719	676	453	477	283	271	355	327	472	512	781	727	448	464	672	625	518	549	433	473	271	292	507	482	141	125	499	535	660	613	321	333	534	509	278	331	526	504	386	361	516	534	532	631	872	868	491	449	466	477	920	981	845	838	158	125	590	606	354	359	342	308	392	423	428	461	487	535	425	447	821	815	812	788	355	353	29	0	231	231	225	245	527	547	362	364	502	497	306	294	529	555	487	516	398	405	348	373	895	956	495	507	1235	1288	331	361	721	682	423	393	109	189	749	647	1295	1329	308	324	407	463	505	603	434	455	424	445	180	190	685	671	851	827	317	340	148	141	573	538	265	255	830	858	656	679	549	584	864	852	349	331	323	338	769	740	470	475	227	243	250	266	1162	1185	1384	1446
1070	135	307	169	355	837	291	891	526	244	86	856	342	313	147	274	574	694	456	994	407	307	174	107	212	221	230	482	282	543	154	103	637	184	266	395	262	489	484	382	121	209	66	422	271	420	422	193	170	47	342	750	744	189	159	165	95	616	732	365	189	203	640	676	239	70	91	276	225	197	482	399	314	763	104	451	161	383	317	508	616	772	765	349	178	197	413	130	439	468	739	360	652	426	374	166	454	314	58	341	510	213	277	286	212	240	1126	918	355	431	426	315	708	617	315	312	156	275	533	302	207	474	422	90	101	385	432	297	273	108	86	91	111	327	356	325	355	311	330	97	103	207	181	325	342	435	527	457	442	236	248	355	385	295	306	357	348	689	572	455	491	302	389	365	441	374	358	533	566	732	634	123	137	813	765	989	1012	491	462	55	50	360	385	384	421	684	668	390	391	452	395	242	311	411	427	651	540	541	498	389	431	78	66	204	226	276	316	585	531	252	268	476	429	386	417	255	295	75	96	375	350	348	332	367	403	489	442	215	203	338	313	168	161	394	372	236	260	338	356	354	453	694	690	313	271	288	299	742	803	667	660	274	241	408	424	176	199	160	126	386	344	284	343	441	468	229	251	650	637	634	610	159	171	245	265	0	15	155	135	395	415	180	168	310	301	205	193	333	359	291	320	202	209	258	283	717	778	317	329	1103	1156	153	183	525	486	245	215	316	396	571	469	1099	1133	280	264	229	285	327	425	252	273	228	249	114	124	499	485	673	649	121	144	355	357	395	360	60	59	652	680	478	501	367	402	686	674	153	135	263	248	610	622	274	279	84	67	80	64	966	989	1188	1250
1085	141	296	158	370	852	280	906	515	259	71	871	331	302	162	263	589	683	471	1009	422	296	177	96	212	236	245	471	271	541	139	92	626	199	255	410	247	478	499	397	110	194	55	411	260	435	437	178	155	49	357	765	733	192	174	165	84	605	747	354	174	191	655	691	228	85	97	291	214	212	471	414	303	778	104	440	161	372	306	523	631	787	780	334	193	186	428	130	454	483	754	349	641	441	374	166	469	303	73	330	525	202	266	275	227	229	1141	933	370	433	415	330	723	606	304	297	145	264	548	291	222	463	411	75	101	374	421	312	288	93	71	80	100	316	345	340	370	326	345	86	92	222	196	340	357	424	516	446	431	251	263	370	400	310	321	372	363	678	561	444	480	287	374	350	426	389	373	522	555	721	623	112	126	802	754	1004	1027	506	477	40	56	375	400	399	436	673	657	379	380	467	410	231	300	426	429	640	529	530	487	404	446	67	55	219	241	291	331	600	546	267	283	491	444	401	432	244	284	78	99	390	365	348	332	382	418	504	457	203	192	353	328	174	176	409	387	251	275	327	345	343	442	683	679	302	260	277	288	731	792	656	649	274	241	397	413	165	188	149	115	371	329	273	332	456	483	244	263	639	626	623	599	153	160	245	265	15	0	161	141	410	430	169	171	309	316	220	208	348	374	306	335	217	224	273	298	706	767	306	318	1118	1171	142	172	531	501	234	204	316	396	560	458	1114	1148	295	279	218	274	316	414	241	262	243	264	114	124	492	478	662	638	136	147	355	357	384	349	49	61	641	669	467	490	356	391	675	663	168	150	278	263	599	611	289	294	69	52	69	53	981	1004	1203	1265
1015	20	343	269	300	782	363	836	598	189	144	838	378	385	92	333	519	767	401	1025	438	379	206	199	224	166	175	554	318	574	212	203	709	129	302	361	320	561	429	413	208	267	140	465	343	365	367	251	228	110	287	695	816	221	190	142	169	688	677	401	247	264	585	621	275	64	78	307	324	142	554	344	386	708	126	524	208	455	389	453	561	717	710	365	209	233	358	110	384	413	684	403	724	371	386	178	399	350	76	377	455	249	313	322	243	312	1157	949	300	462	498	346	653	689	388	370	246	375	478	391	238	510	458	148	148	457	504	242	218	166	144	191	211	363	392	356	386	256	296	197	203	152	126	270	287	535	599	493	478	267	279	386	416	326	333	388	379	761	644	527	563	360	447	423	499	405	389	605	638	804	706	223	237	885	837	1020	1043	436	407	113	97	305	330	329	366	756	740	462	491	418	361	287	383	442	458	723	612	613	570	334	376	152	140	149	171	307	347	616	562	283	299	491	444	331	362	327	367	123	144	320	295	360	344	312	348	455	408	276	288	344	307	53	106	339	317	181	205	410	428	426	525	766	762	387	371	388	399	814	875	739	732	176	209	444	460	276	299	234	200	444	402	383	416	386	413	260	282	722	709	706	682	191	216	254	277	136	130	0	20	340	360	216	200	341	332	150	138	364	390	322	351	233	240	203	228	789	850	389	401	1048	1101	253	283	556	517	317	315	328	408	643	541	1130	1164	225	209	329	385	427	525	288	309	259	280	136	126	530	516	745	721	152	176	367	366	467	432	134	122	724	752	550	573	403	438	758	746	184	166	208	193	682	695	305	310	165	148	184	168	997	1020	1219	1281
1035	0	363	289	305	802	383	856	618	209	154	858	398	405	112	353	539	777	421	1045	458	399	226	219	204	186	195	574	338	594	222	223	729	149	322	381	330	581	449	433	218	277	160	485	363	385	387	261	238	130	292	715	836	241	210	122	189	708	697	421	257	274	605	641	295	84	58	327	334	162	574	364	406	728	106	534	188	475	409	473	581	737	730	345	229	253	363	90	404	433	704	423	744	391	366	158	419	370	96	397	475	269	333	342	263	332	1177	969	320	482	518	366	673	709	398	380	256	395	498	401	258	530	478	158	132	477	524	247	238	176	154	211	231	383	412	376	406	276	316	217	223	157	146	290	292	555	619	513	498	287	299	406	436	346	353	408	399	781	664	547	583	370	457	433	509	425	409	625	658	824	726	243	257	905	857	1040	1063	445	412	133	117	325	350	334	371	776	760	482	511	438	381	307	403	462	478	743	632	633	590	354	381	172	160	169	176	327	367	636	582	303	319	511	464	351	382	347	387	143	164	340	315	340	324	332	368	475	428	286	298	364	327	73	126	359	337	201	210	430	448	446	545	786	782	407	391	408	419	834	895	759	752	156	189	464	480	296	319	254	220	454	412	393	426	391	433	280	302	742	729	726	702	211	236	234	257	156	150	20	0	360	380	236	220	361	352	155	143	384	410	342	371	253	260	208	233	809	870	409	421	1068	1121	273	303	576	537	337	335	308	388	663	561	1150	1184	230	214	349	405	447	545	308	329	279	300	116	106	550	536	765	741	172	196	347	346	487	452	154	142	744	772	570	593	423	458	778	766	204	186	213	198	702	705	325	330	185	168	204	188	1017	1040	1239	1301
720	351	479	496	167	487	504	541	761	142	457	543	351	544	239	469	224	946	106	831	402	520	342	479	535	165	173	661	454	518	525	459	872	207	438	85	633	641	134	377	493	577	408	504	506	38	72	564	541	378	130	384	979	357	326	453	419	851	382	374	560	562	290	326	411	332	409	300	584	205	635	49	500	413	437	810	519	618	525	158	266	414	415	676	265	369	81	421	73	118	381	470	887	76	685	489	104	417	356	444	148	385	380	389	209	475	963	755	31	426	578	310	350	852	666	683	528	596	183	623	214	533	481	461	461	620	667	200	171	479	457	453	473	374	395	320	350	155	170	459	459	280	257	143	184	756	762	483	501	279	267	350	380	218	207	316	331	885	807	690	726	673	760	736	812	301	317	768	801	928	869	485	499	1048	1000	889	912	109	130	426	410	91	61	196	233	919	903	625	661	142	185	450	546	406	422	830	775	776	733	163	146	420	408	238	265	224	246	422	368	271	287	247	200	62	31	490	530	391	375	61	86	659	643	98	66	179	132	574	562	218	181	384	331	44	58	200	225	573	591	589	688	929	925	550	592	609	620	977	1038	902	895	426	459	434	438	535	558	408	442	757	715	643	702	134	86	356	378	885	872	869	845	367	379	547	576	416	401	371	351	0	29	352	336	348	327	278	266	328	342	286	315	289	334	275	300	952	1013	525	537	753	806	515	542	500	461	480	510	627	707	750	704	936	980	248	251	587	606	648	746	397	376	355	334	447	437	489	480	908	884	328	352	666	659	577	595	402	390	887	915	713	736	426	428	921	909	320	302	250	265	845	874	281	346	470	453	452	436	866	889	1025	1087
736	331	459	476	147	503	484	557	741	122	437	559	331	524	219	449	240	926	122	847	382	500	322	459	515	145	153	641	434	518	505	439	852	187	418	101	613	621	150	357	473	557	388	484	486	67	88	544	521	358	110	413	959	337	306	433	399	831	398	354	540	542	306	342	391	312	389	280	564	185	615	65	480	429	417	790	499	598	505	174	282	438	431	656	245	349	110	401	102	134	405	450	867	92	665	469	120	397	336	424	176	365	360	369	189	455	979	771	11	406	558	290	374	832	646	663	508	576	199	603	194	513	461	441	441	600	647	180	151	459	437	433	453	354	375	300	330	135	150	439	439	260	237	123	164	736	742	463	481	259	247	330	360	198	187	332	323	865	787	670	706	653	740	716	792	317	333	748	781	908	849	465	479	1028	980	905	928	138	159	406	390	67	41	176	213	899	883	605	641	158	165	430	526	386	402	810	755	756	713	143	175	400	388	218	245	204	226	438	384	251	267	263	216	42	60	470	510	371	355	41	66	639	623	74	37	195	148	554	542	198	161	364	311	60	38	180	205	553	571	569	668	909	905	530	572	589	600	957	1018	882	875	406	439	414	418	515	538	388	422	737	695	623	682	163	115	336	358	865	852	849	825	347	359	527	556	396	381	351	331	29	0	332	316	328	307	258	246	308	334	266	295	269	314	255	280	932	993	505	517	769	822	495	522	500	461	460	490	607	687	730	684	952	996	228	231	567	586	628	726	377	356	335	314	427	417	474	460	888	864	308	332	646	639	557	575	382	370	867	895	693	716	406	408	901	889	300	282	230	245	825	854	261	326	450	433	432	416	882	905	1041	1103
1004	204	159	176	313	771	184	825	441	207	173	775	194	224	170	149	508	626	390	913	288	200	40	171	320	184	175	397	134	404	239	139	552	207	118	314	349	404	418	282	185	257	113	281	186	354	356	280	255	106	290	684	659	55	65	297	99	531	666	217	259	242	574	610	91	139	223	195	264	220	397	333	202	697	236	490	266	298	205	442	550	706	699	436	97	49	354	262	373	402	673	219	567	360	506	298	388	166	176	193	444	65	129	138	131	155	1045	837	289	296	341	234	642	532	346	374	216	276	467	303	126	326	274	221	233	300	347	265	236	195	217	133	153	179	208	244	255	245	249	139	139	230	204	259	300	436	442	309	294	155	167	255	285	214	225	276	267	604	487	370	406	389	471	452	523	293	277	448	481	647	549	165	179	728	680	896	919	425	403	195	182	294	319	342	379	599	583	305	341	371	314	130	226	292	292	566	455	456	413	323	372	125	136	227	249	195	235	504	450	171	187	395	348	320	351	170	210	119	98	309	284	480	464	301	337	408	361	254	242	257	232	237	184	328	306	219	244	253	271	269	368	609	605	230	272	289	300	657	718	582	575	354	373	260	276	215	238	88	122	468	426	323	382	382	402	140	126	565	552	549	525	65	59	377	397	170	167	224	204	329	349	0	16	172	193	228	216	252	278	210	239	121	128	281	306	632	693	205	217	1037	1090	195	222	394	393	160	190	448	528	486	384	1018	1040	286	270	267	286	328	426	104	125	139	160	246	256	355	341	588	564	80	56	487	489	310	275	130	118	567	595	393	416	219	254	601	589	36	54	269	271	525	554	193	198	169	186	144	160	873	896	1107	1169
1020	220	143	160	329	787	168	841	425	223	157	780	178	208	186	133	524	610	406	918	272	184	56	155	304	200	191	381	118	388	223	123	536	223	102	330	333	388	434	266	169	241	98	265	170	370	372	264	239	122	306	700	643	56	81	295	83	515	682	201	243	226	590	626	75	155	239	184	248	236	381	349	186	713	234	474	250	282	189	458	566	722	715	420	113	33	370	260	389	418	689	203	551	376	504	296	404	150	192	177	460	49	113	122	147	139	1050	842	305	280	325	250	658	516	330	358	200	260	483	287	142	310	258	205	231	284	331	281	252	179	201	117	137	163	192	236	239	261	265	123	123	246	220	275	316	420	426	293	278	171	183	239	269	230	241	273	259	588	471	354	390	373	455	436	507	290	274	432	465	631	533	149	163	712	664	880	903	441	419	193	198	310	335	358	395	583	567	289	325	387	330	114	210	276	276	550	439	440	397	339	388	110	122	243	265	211	251	509	455	187	188	406	364	336	367	154	194	135	114	325	300	478	462	317	353	424	377	238	226	273	248	253	200	344	322	235	260	237	255	253	352	593	589	214	256	273	284	641	702	566	559	370	371	244	260	199	222	72	106	452	410	307	366	398	418	132	110	549	536	533	509	68	43	375	395	168	179	240	220	345	365	16	0	156	177	244	232	244	270	226	236	137	144	297	322	616	677	189	201	1053	1106	179	206	378	377	144	174	446	526	470	368	1023	1024	302	286	251	270	312	410	88	109	131	151	244	254	339	325	572	548	96	72	485	487	294	259	128	134	551	579	377	400	203	238	585	573	52	70	285	287	509	538	209	214	153	170	128	144	857	880	1112	1174
883	331	201	316	324	650	249	704	581	243	313	624	83	299	297	228	451	766	363	762	157	261	151	311	460	262	253	355	176	298	379	279	692	304	185	237	489	335	361	132	325	397	254	198	325	340	332	420	395	262	301	640	799	136	126	425	239	671	545	106	399	382	517	489	158	266	351	28	404	302	329	319	201	576	364	630	406	438	247	385	493	602	578	576	197	123	365	390	359	324	569	171	707	296	634	426	321	118	304	145	403	146	81	90	147	253	894	686	275	181	272	117	538	672	486	514	356	416	410	443	142	227	175	361	361	341	388	301	272	335	357	273	293	68	97	80	105	256	216	279	279	357	331	270	311	576	582	210	195	75	63	105	135	110	121	117	103	579	627	510	546	529	611	592	663	134	118	588	621	622	689	305	319	868	820	744	767	411	414	326	310	280	305	353	390	739	723	445	481	294	237	270	366	161	177	524	595	596	553	334	383	266	278	335	362	195	155	353	299	67	51	250	244	306	337	310	350	275	254	295	270	608	592	287	323	322	284	394	382	162	199	364	311	314	292	297	322	294	312	409	508	749	745	370	412	429	440	797	858	722	715	481	501	161	177	355	378	228	262	608	566	463	522	393	388	95	117	705	692	689	665	224	199	505	525	310	295	351	331	315	335	172	188	0	21	355	343	88	114	93	80	221	176	372	397	772	833	247	259	916	969	335	362	280	241	300	330	576	656	444	524	867	888	364	348	407	426	468	566	110	89	94	73	374	384	249	235	728	704	207	228	615	617	271	306	284	274	707	735	533	556	120	155	741	729	199	181	347	362	665	694	209	142	309	326	284	300	721	744	956	1018
904	340	180	295	345	671	228	725	560	264	292	645	89	285	306	207	472	745	384	783	178	240	140	290	439	283	274	349	155	299	358	258	671	325	164	258	468	329	382	153	304	376	233	192	305	361	353	399	374	257	322	661	778	125	135	430	218	650	566	112	378	361	538	510	137	275	360	49	383	323	323	340	180	597	369	609	385	417	226	406	514	623	599	555	218	102	386	395	380	345	590	150	686	317	639	431	342	97	313	124	424	125	60	69	168	232	915	707	296	191	266	138	559	651	465	493	335	395	431	422	163	221	169	340	366	332	379	322	293	314	336	252	272	74	103	101	126	277	237	258	258	366	340	291	332	555	561	204	189	96	84	126	156	131	142	138	124	573	606	489	525	508	590	571	642	155	139	567	600	616	668	284	298	847	799	765	788	432	435	328	319	301	326	374	411	718	702	424	460	315	258	249	345	182	187	518	574	575	532	355	404	245	257	356	383	216	176	374	320	88	72	271	265	327	358	289	329	270	249	316	291	613	597	308	344	343	305	373	361	183	220	373	320	335	313	318	343	285	303	388	487	728	724	349	391	408	419	776	837	701	694	490	506	155	171	334	357	207	241	587	545	442	501	414	409	104	111	684	671	668	644	203	178	510	530	303	304	360	340	336	356	151	167	21	0	364	352	109	135	114	101	242	197	393	418	751	812	226	238	937	990	314	341	289	262	279	309	581	661	438	503	888	909	385	369	386	405	447	545	89	68	103	82	379	389	250	236	707	683	216	207	620	622	265	297	263	269	686	714	512	535	114	149	720	708	187	190	368	383	644	673	230	163	288	305	263	279	742	765	977	1039
938	131	363	332	174	705	383	759	618	112	252	761	396	405	34	353	442	803	324	998	447	399	226	274	281	89	98	574	338	583	320	266	729	58	322	284	423	581	352	422	288	375	203	485	363	260	290	359	336	173	161	612	836	241	210	199	232	708	600	419	355	366	508	544	295	127	189	327	388	66	574	267	406	631	183	614	265	475	409	376	484	640	633	422	218	253	232	167	307	336	607	423	744	294	443	235	322	370	151	397	376	269	333	342	209	332	1130	922	223	471	518	355	576	709	478	478	323	438	401	465	214	530	478	256	238	477	524	116	141	274	252	254	274	383	412	365	395	179	219	260	266	26	52	193	161	598	619	513	498	287	299	395	425	263	256	397	388	781	664	547	583	468	555	526	607	414	398	625	658	824	726	286	300	905	857	1029	1052	314	281	221	205	228	253	203	240	776	760	482	518	341	284	307	403	451	467	743	632	633	590	226	250	215	203	73	45	236	276	589	535	303	319	414	367	254	285	347	387	186	177	243	218	417	401	235	271	378	331	378	366	267	230	179	126	262	240	104	79	430	448	446	545	786	782	407	434	451	462	834	895	759	752	193	226	464	480	339	362	262	263	552	510	447	506	260	308	280	302	742	729	726	702	211	236	311	334	211	196	151	146	263	283	236	220	361	352	0	12	373	399	331	360	242	260	77	102	809	870	409	421	971	1024	316	346	565	526	337	367	385	465	663	561	1103	1147	99	83	392	448	490	588	308	329	279	300	193	183	539	525	765	741	172	196	424	423	487	452	197	185	744	772	570	593	423	458	778	766	204	186	82	67	702	731	281	330	265	248	247	231	1006	1029	1192	1254
950	143	375	344	184	717	395	771	630	124	264	773	408	417	46	365	454	815	336	1010	459	411	238	286	293	101	110	586	350	595	332	278	741	70	334	296	435	593	364	434	300	387	215	497	375	270	302	371	348	185	171	614	848	253	222	211	244	720	612	431	367	378	520	556	307	139	201	339	400	78	586	279	418	643	195	626	277	487	421	388	496	646	645	434	230	265	242	179	319	348	613	435	756	306	455	247	334	382	163	409	386	281	345	354	221	344	1142	934	235	483	530	367	582	721	490	490	335	450	413	477	226	542	490	268	250	489	536	128	153	286	264	266	286	395	424	377	407	191	231	272	278	38	64	205	173	610	631	525	510	299	311	407	437	275	268	409	400	793	676	559	595	480	567	538	619	426	410	637	670	836	738	298	312	917	869	1041	1064	324	291	233	217	240	265	213	250	788	772	494	530	353	296	319	415	463	479	755	644	645	602	236	260	227	215	85	57	248	288	601	547	315	331	426	379	266	297	359	399	198	189	255	230	429	413	247	283	390	343	390	378	279	242	191	138	274	252	116	91	442	460	458	557	798	794	419	446	463	474	846	907	771	764	205	238	476	492	351	374	274	275	564	522	459	518	270	318	292	314	754	741	738	714	223	248	323	346	223	208	163	158	275	295	248	232	373	364	12	0	385	411	343	372	254	272	65	90	821	882	421	433	983	1036	328	358	577	538	349	379	397	477	675	573	1115	1159	87	71	404	460	502	600	320	341	291	312	205	195	551	537	777	753	184	208	436	435	499	464	209	197	756	784	582	605	435	470	790	778	216	198	70	55	714	743	293	342	277	260	259	243	1018	1041	1204	1266
796	384	289	404	346	563	337	617	669	265	401	537	99	384	350	316	364	854	282	675	136	349	215	399	525	284	275	440	264	241	467	367	780	326	273	231	577	420	274	111	413	485	342	283	410	342	314	508	483	315	323	553	887	209	190	478	327	759	458	122	487	470	430	402	246	319	404	60	492	324	414	321	289	489	417	718	474	526	335	298	406	515	491	664	243	211	385	443	361	237	482	259	795	290	687	479	276	206	357	233	316	234	169	178	193	341	807	599	297	160	357	76	451	760	574	602	444	504	323	531	188	283	260	414	414	426	473	323	294	423	410	361	381	148	143	68	98	278	238	367	367	399	376	292	333	664	670	231	251	121	109	98	126	132	143	30	15	664	715	598	634	617	699	680	751	47	31	676	709	707	777	393	407	956	908	687	710	413	434	379	363	302	327	375	412	827	811	533	569	288	259	358	454	140	156	609	683	684	641	356	405	354	345	357	384	217	177	266	212	113	104	163	210	328	347	398	438	328	307	317	292	661	645	309	345	235	278	482	470	184	221	417	364	316	314	319	344	379	397	497	596	837	833	458	500	517	528	885	946	810	803	534	554	182	172	443	466	316	350	696	654	551	610	415	390	168	190	793	780	777	753	299	287	558	578	363	348	404	384	337	345	260	268	130	109	397	385	0	26	100	71	267	222	394	419	860	921	335	347	829	882	423	450	223	184	388	418	629	709	529	612	780	824	386	370	495	514	556	654	198	177	167	146	427	437	212	214	816	792	260	284	668	670	356	391	339	327	795	823	621	644	205	176	829	817	252	234	369	384	753	782	255	188	397	398	372	373	664	687	869	931
822	358	263	378	320	589	311	643	643	239	375	563	73	358	324	290	390	828	308	701	124	323	189	373	499	258	249	414	238	236	441	341	754	300	247	233	551	394	300	99	387	459	316	257	384	336	328	482	457	289	297	579	861	183	164	452	301	733	484	96	461	444	456	428	220	293	378	34	466	298	388	315	263	515	391	692	448	500	309	324	432	541	517	638	217	185	361	417	355	263	508	233	769	292	661	453	302	180	331	207	342	208	143	152	167	315	833	625	271	148	331	98	477	734	548	576	418	478	349	505	162	257	234	388	388	400	447	297	268	397	384	335	355	122	117	42	72	252	212	341	341	373	350	266	307	638	644	205	225	95	83	72	102	106	117	56	41	638	689	572	608	591	673	654	725	73	57	650	683	681	751	367	381	930	882	682	705	407	410	353	337	276	301	349	386	801	785	507	543	290	233	332	428	128	144	583	657	658	615	330	379	328	319	331	358	191	151	292	238	87	78	189	236	302	333	372	412	302	281	291	266	635	619	283	319	261	280	456	444	158	195	391	338	310	288	293	318	353	371	471	570	811	807	432	474	491	502	859	920	784	777	508	528	156	160	417	440	290	324	670	628	525	584	389	384	142	164	767	754	751	727	273	261	532	552	337	322	378	358	311	331	234	242	104	83	371	359	26	0	74	45	241	196	368	393	834	895	309	321	855	908	397	424	218	179	362	392	603	683	503	586	806	826	360	344	469	488	530	628	172	151	141	120	401	411	207	202	790	766	234	258	642	644	330	365	313	301	769	797	595	618	179	150	803	791	226	208	343	358	727	756	229	162	371	372	346	347	659	682	895	957
832	342	252	367	304	599	300	653	632	223	364	573	65	348	308	279	400	817	318	711	116	312	178	362	483	242	233	404	227	252	430	330	743	284	236	217	540	384	310	91	376	448	303	247	374	320	312	471	446	273	281	589	850	172	153	436	290	722	494	88	450	433	466	438	209	277	362	24	455	282	378	299	252	525	375	681	432	489	298	334	442	551	527	624	201	174	345	401	339	273	518	222	758	276	645	437	301	169	315	196	352	197	132	141	151	304	843	635	255	140	321	82	487	723	537	565	407	467	359	494	146	249	224	372	372	390	437	281	252	386	368	324	344	112	109	34	64	236	196	330	330	357	334	250	291	627	633	197	217	79	67	64	94	90	101	66	57	628	678	561	597	580	662	643	714	83	67	639	672	671	740	356	370	919	871	698	721	391	394	337	321	260	285	333	370	790	774	496	532	274	217	321	417	120	136	573	646	647	604	314	363	315	303	315	342	175	135	302	248	71	62	199	224	286	317	361	401	286	265	275	250	619	603	267	303	271	264	445	433	142	179	375	322	294	272	277	302	343	361	460	559	800	796	421	463	480	491	848	909	773	766	492	512	148	152	406	429	279	313	659	617	514	573	373	368	131	153	756	743	740	716	257	250	516	536	321	306	362	342	295	315	223	226	93	72	355	343	42	68	0	29	225	180	352	377	823	884	298	310	865	918	386	413	234	195	351	381	587	667	493	575	816	842	344	328	458	477	519	617	161	140	130	109	385	395	208	194	779	755	218	242	626	628	320	355	297	285	758	786	584	607	169	142	792	780	210	192	327	342	716	745	213	146	360	356	335	331	675	698	905	967
853	313	259	357	275	620	307	674	622	194	339	594	94	363	279	286	411	807	314	732	145	319	174	345	454	213	204	419	234	281	407	320	733	255	243	188	515	399	321	120	359	438	274	262	367	291	283	446	423	244	252	610	840	168	149	407	280	712	515	117	440	423	477	459	216	248	333	53	445	253	393	270	265	546	346	671	403	479	305	345	453	572	548	595	172	181	316	372	310	284	539	235	748	247	616	408	272	182	286	209	363	204	145	154	122	311	864	656	226	169	336	53	508	713	527	555	394	457	370	484	117	278	239	343	343	405	452	252	223	361	339	314	334	132	138	63	93	207	167	320	320	328	305	221	262	617	623	226	246	50	38	93	123	61	72	95	86	643	668	551	587	555	642	618	694	112	96	629	662	686	730	346	360	909	861	727	750	362	365	308	292	231	256	304	341	780	764	486	522	245	188	311	407	149	165	588	636	637	594	285	334	286	274	286	313	146	106	323	269	42	58	220	195	257	288	351	391	257	236	246	221	590	574	238	274	282	235	435	423	113	150	346	293	265	243	248	273	358	376	450	549	790	786	411	453	470	481	838	899	763	756	463	483	177	181	396	419	269	303	639	597	504	563	344	339	127	149	746	733	730	706	228	240	487	507	292	277	333	313	266	286	213	197	106	85	326	314	71	97	29	0	196	151	323	348	813	874	305	317	886	939	376	403	263	224	341	371	558	638	508	565	837	871	315	299	448	467	509	607	168	147	126	105	356	366	237	223	769	745	189	213	597	599	335	370	268	256	748	776	574	597	184	171	782	770	181	163	298	313	706	735	184	117	343	327	318	302	704	727	926	988
959	215	242	259	282	726	267	780	524	176	241	700	200	307	181	232	477	709	359	838	251	283	105	247	356	153	144	480	217	387	309	222	635	195	201	266	417	466	387	226	261	340	176	329	269	323	325	348	325	146	259	653	742	120	89	309	182	614	621	223	342	325	543	565	174	150	235	125	347	193	460	302	285	652	248	573	305	381	288	411	519	675	654	497	66	132	323	274	342	362	642	295	650	325	518	310	350	242	188	269	413	148	205	214	100	238	970	762	258	275	403	159	611	615	429	457	296	359	436	386	95	358	306	245	245	383	430	234	205	263	241	216	236	199	228	169	199	214	218	222	222	241	215	228	269	519	525	332	326	80	92	199	229	139	150	201	192	687	570	453	489	457	544	520	596	218	202	531	564	730	632	248	262	811	763	833	856	394	372	210	194	263	288	311	348	682	666	388	424	323	266	213	309	255	271	649	538	539	496	292	341	188	176	226	253	164	184	429	375	96	112	320	273	289	320	253	293	159	138	278	253	492	476	270	306	360	313	337	325	191	201	248	195	297	275	188	213	336	354	352	451	692	688	313	355	372	383	740	801	665	658	365	385	283	287	298	321	171	205	541	499	406	465	351	371	159	181	648	635	632	608	130	142	389	409	194	179	235	215	298	318	115	99	173	152	239	227	177	203	135	164	0	45	263	288	715	776	288	300	992	1045	278	305	369	330	243	273	460	540	569	467	943	977	255	239	350	369	411	509	187	201	158	159	258	268	343	329	671	647	91	115	499	501	393	358	170	158	650	678	476	499	251	277	684	672	83	65	238	253	608	637	162	123	245	229	220	204	810	833	1032	1094
928	208	235	252	237	695	260	749	517	131	234	745	245	300	174	225	432	702	314	883	296	276	98	240	349	108	99	473	210	432	302	215	628	150	194	238	410	480	342	271	254	333	169	357	262	278	280	341	318	139	214	608	735	113	82	302	175	607	590	268	335	318	498	534	167	143	228	170	340	148	473	257	278	621	241	566	298	374	281	366	474	630	623	490	21	125	278	267	297	326	597	295	643	284	511	303	312	242	181	269	368	141	205	214	55	231	1015	807	213	320	417	204	566	608	422	450	289	352	391	379	50	402	350	238	238	376	423	189	160	256	234	209	229	244	273	214	244	169	173	215	215	223	200	183	224	512	518	377	370	125	137	244	274	146	157	246	237	680	563	446	482	450	537	513	589	263	247	524	557	723	625	241	255	804	756	878	901	349	327	203	187	218	243	266	303	675	659	381	417	295	238	206	302	300	316	642	531	532	489	247	296	181	169	181	208	119	159	474	420	141	157	327	280	244	275	246	286	152	131	233	208	485	469	225	261	332	285	330	318	181	156	241	188	252	230	143	168	329	347	345	444	685	681	306	348	365	376	733	794	658	651	358	378	328	332	291	314	164	198	534	492	399	458	306	326	152	174	641	628	625	601	123	135	382	402	187	172	228	208	253	273	108	92	218	197	221	209	222	248	180	209	45	0	218	243	708	769	281	293	961	1014	271	298	414	375	236	266	453	533	562	460	988	1022	210	194	343	362	404	502	180	201	151	172	251	261	388	374	664	640	84	108	492	494	386	351	163	151	643	671	469	492	295	322	677	665	76	58	193	208	601	630	117	168	238	222	213	197	855	878	1077	1139
959	208	440	409	171	726	460	780	695	133	329	782	417	482	111	430	463	880	345	1019	468	476	303	351	358	110	119	651	415	604	397	343	806	124	399	305	500	658	373	443	365	452	280	562	440	257	311	436	413	250	158	599	913	318	287	276	309	785	621	440	432	443	529	565	372	204	266	366	465	130	651	288	483	652	260	691	342	552	486	397	505	631	654	499	239	330	229	244	328	357	598	500	821	315	515	312	343	447	228	474	373	346	410	419	230	409	1151	943	244	492	595	376	567	786	555	555	400	515	422	542	235	599	547	333	315	554	601	137	162	351	329	331	351	440	461	386	416	200	240	337	343	103	129	214	182	675	696	549	567	326	333	416	446	284	277	418	409	858	741	624	660	545	632	603	684	435	419	702	735	901	803	363	377	982	934	1050	1073	311	278	298	282	249	274	200	237	853	837	559	595	362	305	384	480	472	488	820	709	710	667	223	247	292	280	139	111	257	297	610	556	337	353	435	388	275	306	424	464	263	254	264	239	489	473	256	292	399	352	455	443	288	251	256	203	283	261	125	100	507	525	523	622	863	859	484	511	528	539	911	972	836	829	256	289	500	504	416	439	339	340	629	587	524	583	257	305	357	379	819	806	803	779	288	313	377	406	288	273	228	223	284	304	313	297	414	393	77	89	394	420	352	381	263	308	0	25	886	947	486	498	992	1045	393	423	586	547	414	444	457	537	740	638	1124	1168	72	56	469	525	567	665	385	406	356	377	270	260	560	546	842	818	249	273	496	489	564	529	274	262	821	849	647	670	492	494	855	843	281	263	55	40	779	808	302	369	342	325	324	308	1027	1050	1213	1275
934	183	415	384	146	701	435	755	670	108	304	757	392	457	86	405	438	855	320	994	443	451	278	326	333	85	94	626	390	579	372	318	781	99	374	280	475	633	348	418	340	427	255	537	415	232	286	411	388	225	133	574	888	293	262	251	284	760	596	415	407	418	504	540	347	179	241	341	440	105	626	263	458	627	235	666	317	527	461	372	480	606	629	474	214	305	204	219	303	332	573	475	796	290	490	287	318	422	203	449	348	321	385	394	205	384	1126	918	219	467	570	351	542	761	530	530	375	490	397	517	210	574	522	308	290	529	576	112	137	326	304	306	326	415	436	361	391	175	215	312	318	78	104	189	157	650	671	524	542	301	308	391	421	259	252	393	384	833	716	599	635	520	607	578	659	410	394	677	710	876	778	338	352	957	909	1025	1048	286	253	273	257	224	249	175	212	828	812	534	570	337	280	359	455	447	463	795	684	685	642	198	222	267	255	114	86	232	272	585	531	312	328	410	363	250	281	399	439	238	229	239	214	464	448	231	267	374	327	430	418	263	226	231	178	258	236	100	75	482	500	498	597	838	834	459	486	503	514	886	947	811	804	231	264	475	479	391	414	314	315	604	562	499	558	232	280	332	354	794	781	778	754	263	288	352	381	263	248	203	198	259	279	288	272	389	368	52	64	369	395	327	356	238	283	25	0	861	922	461	473	967	1020	368	398	561	522	389	419	432	512	715	613	1099	1143	47	31	444	500	542	640	360	381	331	352	245	235	535	521	817	793	224	248	471	464	539	504	249	237	796	824	622	645	467	469	830	818	256	238	30	15	754	783	277	344	317	300	299	283	1002	1025	1188	1250
1611	809	615	548	945	1403	572	1457	191	839	706	1344	794	520	775	561	1140	367	1022	1260	838	556	672	665	838	816	807	458	655	834	666	638	186	812	604	946	770	563	1050	864	679	629	677	641	478	986	988	708	682	707	922	1316	27	672	697	844	663	252	1298	772	631	614	1206	1242	622	744	802	800	634	825	484	965	601	1329	783	408	785	334	568	1074	1182	1338	1331	936	729	649	986	809	1005	1034	1305	647	139	992	1041	845	1020	700	775	669	1076	637	721	730	763	527	1392	1184	921	830	633	866	1274	161	606	626	651	550	1099	577	758	784	732	754	780	592	639	897	868	728	750	666	646	779	808	852	855	877	881	632	638	835	809	891	932	514	406	772	752	787	799	855	879	846	857	889	875	468	379	334	298	810	723	872	775	906	890	340	373	407	299	622	608	280	232	1142	1165	1057	1035	746	762	926	951	974	1011	177	161	399	435	1003	946	694	598	842	826	531	419	348	305	955	1004	689	701	832	854	827	867	1125	1071	803	804	1022	980	952	983	542	502	724	703	941	916	1015	999	933	969	1040	993	626	614	889	864	842	789	960	938	851	876	545	563	561	462	135	119	522	546	563	574	167	122	161	204	953	920	794	810	587	610	652	686	720	678	693	634	1014	1034	748	726	199	186	211	216	648	623	924	941	721	732	829	809	961	981	632	648	772	793	833	821	860	886	842	852	753	760	886	911	0	61	592	580	1669	1722	624	594	914	953	532	562	992	1063	573	478	1330	1286	908	892	616	560	602	504	704	725	747	767	793	803	875	861	118	143	685	661	1022	1036	602	567	707	719	201	173	285	262	753	788	115	103	668	686	891	876	266	295	825	830	702	719	677	693	1119	1142	1454	1516
1575	748	554	487	884	1342	511	1396	130	778	645	1283	733	459	714	500	1079	306	961	1291	777	495	611	604	777	755	746	397	594	773	605	577	125	751	543	885	709	502	989	803	618	568	616	580	417	925	927	647	621	646	861	1255	88	611	636	783	602	191	1237	711	570	553	1145	1181	561	683	741	739	573	764	423	904	540	1268	722	347	724	273	507	1013	1121	1277	1270	875	668	588	925	748	944	973	1244	586	78	931	980	784	959	639	714	608	1015	576	660	669	702	466	1423	1215	860	769	572	805	1213	100	545	565	590	489	1038	516	697	723	671	693	719	531	578	836	807	667	689	605	585	718	747	791	794	816	820	571	577	774	748	830	871	453	345	711	691	726	738	794	818	785	796	828	814	407	318	273	237	749	662	811	714	845	829	279	312	346	238	561	547	245	197	1173	1196	996	974	685	701	865	890	913	950	116	100	338	374	942	885	633	537	781	765	470	358	287	244	894	943	628	640	771	793	766	806	1064	1010	742	743	961	919	891	922	481	441	663	642	880	855	954	938	872	908	979	932	565	553	828	803	781	728	899	877	790	815	484	502	500	401	74	58	461	485	502	513	106	167	100	143	892	859	733	749	526	549	591	625	659	617	632	573	953	973	687	665	138	125	150	155	587	562	863	880	660	671	768	748	900	920	571	587	711	732	772	760	799	825	781	791	692	699	825	850	61	0	531	519	1608	1661	563	533	853	892	471	501	931	1002	512	417	1361	1317	847	831	555	499	541	443	643	664	686	706	732	742	814	800	57	82	624	600	961	975	541	506	646	658	140	112	224	201	692	727	54	42	607	625	830	815	205	234	764	769	641	658	616	632	1150	1173	1485	1547
1130	409	79	148	518	897	26	951	377	412	306	871	269	59	375	61	688	562	591	1009	334	14	194	265	438	389	380	220	119	410	266	238	488	412	89	465	377	200	598	357	279	229	277	145	90	559	560	308	282	307	495	887	595	179	217	444	263	467	792	268	231	214	754	736	114	344	402	275	236	425	194	538	65	823	383	440	385	234	0	622	730	849	825	543	302	156	559	409	578	561	816	111	503	524	648	445	549	164	375	133	640	140	185	194	336	77	1141	933	494	326	137	358	785	468	282	324	251	212	647	239	331	280	228	354	380	106	153	470	441	328	350	266	246	254	283	327	330	450	444	232	238	435	409	464	505	372	378	268	248	303	291	330	360	338	349	364	350	444	423	306	342	417	421	480	473	381	365	384	417	487	485	222	208	664	616	917	940	630	608	346	362	499	524	547	584	535	519	241	277	522	465	294	198	338	322	389	391	392	349	528	577	289	301	432	454	400	383	600	546	295	279	497	472	525	556	142	146	324	303	514	489	622	606	506	542	559	512	226	214	390	427	442	389	533	511	424	449	59	77	205	304	545	541	166	208	225	236	593	654	518	511	553	520	290	306	187	210	252	286	418	376	295	332	587	607	223	201	501	488	485	461	248	223	524	541	321	332	429	409	534	554	205	221	247	268	433	421	335	361	334	327	326	333	486	511	568	629	0	12	1163	1216	224	194	410	449	132	162	592	670	309	320	1105	1061	491	475	239	222	264	362	179	200	222	242	393	403	371	357	524	500	285	261	629	636	106	71	307	319	503	531	329	352	249	284	537	525	241	259	474	476	461	490	398	370	302	319	277	293	894	917	1203	1265
1118	397	67	136	506	885	14	939	389	400	294	859	257	71	363	49	676	574	579	997	322	26	182	253	426	377	368	232	107	408	254	226	500	400	77	453	365	212	586	345	267	217	265	157	102	547	548	296	270	295	483	875	607	167	205	432	251	479	780	256	219	202	742	724	102	332	390	263	224	413	206	526	53	811	371	450	373	246	12	610	718	837	813	531	290	144	547	397	566	549	804	99	515	512	636	433	537	152	363	121	628	128	173	182	324	65	1129	921	482	314	149	346	773	480	294	334	239	224	635	251	319	268	216	342	368	118	165	458	429	316	338	254	234	242	271	315	318	438	432	220	226	423	397	452	493	384	390	256	236	291	279	318	348	326	337	352	338	456	435	318	354	405	431	468	483	369	353	396	429	499	497	210	196	676	628	905	928	618	596	334	350	487	512	535	572	547	531	253	289	510	453	282	186	326	310	401	403	404	361	516	565	277	289	420	442	388	371	588	534	283	267	485	460	513	544	130	158	312	291	502	477	610	594	494	530	547	500	214	202	378	415	430	377	521	499	412	437	71	89	217	316	557	553	178	220	237	248	605	666	530	523	541	508	278	294	175	198	240	274	428	386	283	342	575	595	211	189	513	500	497	473	236	211	512	529	309	320	417	397	522	542	193	209	235	256	421	409	323	349	322	315	314	321	474	499	580	641	12	0	1151	1204	212	182	398	437	120	150	580	658	321	332	1093	1049	479	463	227	234	276	374	167	188	210	230	381	391	359	345	536	512	273	249	617	624	118	83	295	307	515	543	341	364	237	272	549	537	229	247	462	464	473	502	386	358	290	307	265	281	882	905	1191	1253
73	1068	1117	1213	884	388	1165	352	1478	859	1174	444	928	1213	956	1144	529	1663	681	459	924	1177	1043	1196	1252	882	890	1269	1092	970	1242	1176	1589	924	1101	752	1350	1249	619	899	1210	1294	1125	1112	1223	779	713	1281	1258	1095	847	535	1657	1037	1018	1170	1136	1568	425	949	1277	1279	602	427	1074	1049	1126	889	1301	922	1243	734	1117	400	1154	1527	1236	1335	1163	643	571	652	402	1393	982	1039	822	1138	764	674	619	1087	1604	717	1402	1206	689	1034	1073	1061	715	1062	997	1006	926	1169	327	535	758	948	1186	833	588	1569	1383	1400	1245	1313	570	1340	931	1072	1089	1178	1178	1255	1302	917	888	1196	1174	1170	1190	977	972	897	927	872	887	1176	1176	997	974	860	901	1473	1479	1020	1040	936	924	927	914	901	890	829	844	1493	1524	1407	1443	1390	1477	1453	1529	814	830	1485	1518	1536	1586	1202	1216	1765	1717	588	565	850	871	1143	1127	813	788	913	950	1636	1620	1342	1378	809	866	1167	1263	928	944	1438	1492	1493	1450	880	887	1137	1125	955	982	941	946	671	725	928	927	824	867	789	784	1207	1247	1108	1092	778	803	1376	1360	820	806	752	799	1291	1279	931	898	1101	1048	753	775	917	942	1208	1226	1306	1405	1646	1642	1267	1309	1326	1337	1694	1755	1619	1612	1143	1176	976	960	1252	1275	1125	1159	1474	1432	1360	1419	875	827	996	1018	1602	1589	1586	1562	1084	1096	1264	1293	1133	1118	1088	1068	798	782	1069	1053	958	937	995	983	881	855	915	894	1006	1037	992	1017	1669	1730	1163	1175	0	53	1232	1259	952	948	1197	1227	1344	1424	1358	1421	446	486	965	968	1304	1323	1365	1463	1026	1005	995	974	1164	1154	941	955	1625	1601	1045	1069	1383	1376	1185	1220	1119	1107	1604	1632	1430	1453	1034	1003	1638	1626	1037	1019	967	982	1562	1591	998	1003	1187	1170	1169	1153	611	588	389	451
20	1015	1064	1160	831	335	1112	299	1425	806	1121	391	875	1160	903	1091	476	1610	628	406	871	1124	990	1143	1199	829	837	1216	1039	917	1189	1123	1536	871	1048	699	1297	1196	566	846	1157	1241	1072	1059	1170	726	660	1228	1205	1042	794	588	1604	984	965	1117	1083	1515	372	896	1224	1226	549	374	1021	996	1073	836	1248	869	1190	681	1064	347	1101	1474	1183	1282	1110	590	518	599	349	1340	929	986	769	1085	711	621	566	1034	1551	664	1349	1153	636	981	1020	1008	662	1009	944	953	873	1116	274	482	705	895	1133	780	535	1516	1330	1347	1192	1260	517	1287	878	1019	1036	1125	1125	1202	1249	864	835	1143	1121	1117	1137	924	919	844	874	819	834	1123	1123	944	921	807	848	1420	1426	967	987	883	871	874	861	848	837	776	791	1440	1471	1354	1390	1337	1424	1400	1476	761	777	1432	1465	1483	1533	1149	1163	1712	1664	535	512	797	818	1090	1074	760	735	860	897	1583	1567	1289	1325	756	813	1114	1210	875	891	1385	1439	1440	1397	827	834	1084	1072	902	929	888	893	618	672	875	874	771	814	736	731	1154	1194	1055	1039	725	750	1323	1307	767	753	699	746	1238	1226	878	845	1048	995	700	722	864	889	1155	1173	1253	1352	1593	1589	1214	1256	1273	1284	1641	1702	1566	1559	1090	1123	923	907	1199	1222	1072	1106	1421	1379	1307	1366	822	774	943	965	1549	1536	1533	1509	1031	1043	1211	1240	1080	1065	1035	1015	745	729	1016	1000	905	884	942	930	828	802	862	841	953	984	939	964	1616	1677	1110	1122	53	0	1179	1206	899	895	1144	1174	1291	1371	1305	1368	393	433	912	915	1251	1270	1312	1410	973	952	942	921	1111	1101	888	902	1572	1548	992	1016	1330	1323	1132	1167	1066	1054	1551	1579	1377	1400	981	950	1585	1573	984	966	914	929	1509	1538	945	950	1134	1117	1116	1100	558	535	336	398
1196	273	175	16	490	963	138	1017	373	379	142	956	354	160	282	121	700	541	582	1094	430	154	232	101	274	356	365	329	215	516	102	74	484	319	164	506	213	336	610	442	115	65	113	269	118	546	548	144	118	143	477	876	591	232	257	280	110	463	858	364	67	50	766	802	182	205	238	360	72	332	329	525	161	889	219	298	221	230	164	634	742	898	891	379	289	209	546	245	565	594	865	207	499	552	484	281	580	260	211	229	636	197	281	290	323	87	1226	1018	481	422	273	426	834	464	162	182	87	122	659	149	318	376	324	190	216	232	279	432	408	164	186	102	82	339	368	412	415	437	441	68	74	342	316	451	477	282	374	364	344	347	359	415	445	406	417	449	435	536	419	302	338	253	279	316	331	466	450	380	413	579	481	58	44	660	612	1013	1036	617	595	182	198	486	511	519	556	531	515	237	238	563	506	254	158	434	418	498	387	388	345	515	564	125	137	339	361	387	427	685	631	363	364	582	540	512	543	102	142	172	193	501	476	458	442	493	529	600	553	62	50	449	424	306	296	520	498	371	395	185	203	201	300	541	537	160	118	135	146	589	650	514	507	389	356	386	402	23	46	175	141	276	234	131	190	574	594	308	286	497	484	481	457	208	183	360	377	157	168	293	273	521	541	192	208	332	353	340	328	420	446	402	412	313	320	393	418	564	625	164	176	1229	1282	0	30	506	545	92	62	428	506	418	316	1199	1157	415	399	76	132	174	272	264	285	307	327	229	239	467	453	520	496	245	221	465	472	242	207	143	155	499	527	325	348	345	380	533	521	228	246	398	383	457	469	385	390	138	155	113	129	990	1013	1288	1350
1169	243	205	46	460	936	168	990	403	349	112	929	327	190	252	151	673	571	555	1067	421	184	205	71	254	326	335	359	245	537	91	44	514	289	194	479	202	366	583	415	85	95	83	299	148	519	521	133	107	113	447	849	621	205	230	250	80	493	831	350	97	80	739	775	212	175	208	333	102	302	359	498	191	862	189	328	200	260	194	607	715	871	864	368	262	182	518	215	538	567	838	237	529	525	459	251	553	290	181	259	609	198	262	271	296	117	1199	991	454	429	303	399	807	494	192	212	57	152	632	179	291	406	354	160	186	262	309	402	378	134	156	72	52	312	341	385	388	410	414	38	44	312	286	424	447	312	404	394	374	320	332	388	418	379	390	422	408	566	449	332	368	242	309	305	361	439	423	410	443	609	511	28	14	690	642	1029	1052	590	567	152	168	459	484	489	526	561	545	267	268	536	479	227	188	425	425	528	417	418	375	488	536	95	107	309	331	360	400	658	604	336	337	555	513	485	516	132	172	142	163	474	449	433	417	466	502	573	526	92	80	422	397	276	266	493	471	341	365	215	233	231	330	571	567	190	148	165	176	619	680	544	537	359	326	393	409	53	76	145	111	306	264	161	220	546	567	281	259	527	514	511	487	178	156	330	350	127	138	263	243	494	514	165	181	305	326	310	298	393	419	375	385	286	293	363	388	594	655	194	206	1202	1255	30	0	527	526	122	92	401	481	448	346	1172	1173	385	369	106	162	204	302	237	258	280	300	199	209	488	474	550	526	215	191	440	442	272	237	113	125	529	557	355	378	352	387	563	551	201	219	368	353	487	499	358	363	108	125	83	99	1006	1029	1261	1323
876	498	379	490	460	643	412	697	723	379	495	579	160	410	464	403	470	908	388	660	99	424	329	493	639	398	389	466	358	96	561	461	834	440	367	337	671	446	380	91	507	571	436	309	436	448	420	602	577	429	437	633	927	323	304	592	421	813	538	164	573	556	536	482	340	433	518	174	578	438	440	427	345	569	531	786	588	580	410	404	512	595	571	758	357	305	491	557	467	343	562	305	849	396	801	593	382	300	471	327	422	328	263	272	307	419	792	584	411	107	383	221	531	814	628	670	538	558	429	585	302	234	286	528	528	452	499	437	408	517	524	455	475	233	204	182	159	392	352	461	461	513	490	406	447	718	724	182	202	235	223	159	129	246	257	175	160	690	769	652	688	711	767	774	819	192	176	730	763	733	831	487	501	1010	962	542	565	519	540	493	477	416	441	489	526	881	865	587	623	394	373	452	540	127	136	635	737	738	695	470	519	448	459	471	498	331	291	346	318	227	218	269	316	442	453	484	492	442	421	431	406	775	759	423	459	341	384	568	556	298	335	531	478	422	428	433	458	405	423	551	650	891	887	512	554	571	582	939	1000	864	857	648	668	166	150	529	552	410	444	764	722	637	678	529	496	282	304	847	834	831	807	406	381	672	692	477	462	518	498	451	451	354	370	244	223	511	499	166	171	214	185	381	336	508	533	914	975	410	422	909	962	517	536	0	39	474	504	743	823	555	657	730	686	500	484	581	568	610	708	292	271	281	260	541	551	67	81	870	846	374	398	782	784	382	417	453	441	849	877	675	698	245	210	883	871	366	348	483	498	807	836	369	302	491	508	466	482	519	542	854	916
880	537	340	451	499	647	373	701	684	418	496	583	178	371	503	364	476	869	427	664	116	385	344	494	643	437	428	427	359	57	562	462	795	479	368	376	672	407	419	130	508	532	437	270	397	487	459	603	578	461	476	637	888	329	343	631	422	774	542	155	534	517	549	486	341	472	557	213	539	477	401	466	306	573	570	747	589	541	371	443	518	599	575	759	396	306	530	596	506	382	566	266	810	435	840	632	421	301	510	298	461	329	264	273	346	380	796	588	450	68	344	260	535	775	589	631	539	519	468	546	341	195	247	544	567	413	460	476	447	518	540	456	476	251	222	221	198	431	391	462	462	552	529	445	486	679	685	143	163	274	262	198	168	285	296	214	199	651	730	613	649	712	728	775	780	231	215	691	724	694	792	488	502	971	923	546	569	558	579	532	516	455	480	528	565	842	826	548	584	433	412	453	501	120	104	596	698	699	656	509	558	449	461	510	537	370	330	350	357	266	257	308	355	481	492	445	453	474	453	470	445	814	798	462	498	380	423	529	517	337	374	570	517	461	467	472	497	366	384	512	611	852	848	473	515	532	543	900	961	825	818	687	707	127	111	490	513	411	445	725	683	598	639	568	535	321	315	808	795	792	768	407	382	711	731	507	501	557	537	490	490	355	371	271	262	550	538	205	210	253	224	420	375	547	572	875	936	371	383	913	966	518	497	39	0	435	465	782	862	516	618	734	690	539	523	542	529	571	669	293	272	320	299	580	590	28	42	831	807	413	411	821	823	343	378	467	473	810	838	636	659	206	171	844	832	391	387	522	537	768	797	408	341	492	509	467	483	523	546	858	920
1164	305	143	16	473	931	106	985	341	367	174	924	322	128	303	89	668	526	550	1062	398	122	200	133	306	344	335	297	183	484	134	106	452	340	132	474	245	304	578	410	147	97	145	237	86	514	516	176	150	175	450	844	559	200	225	312	142	431	826	332	99	82	734	770	150	237	270	328	104	353	297	493	129	857	251	330	253	198	132	602	710	866	859	411	257	177	514	277	533	562	833	175	467	520	516	313	548	228	243	197	604	165	249	258	291	55	1194	986	449	390	241	394	802	432	194	214	119	153	627	180	286	344	292	222	248	200	247	425	396	196	218	134	114	307	336	380	383	405	409	100	106	363	337	419	460	313	342	332	312	315	327	383	413	374	385	417	403	504	387	270	306	285	311	348	363	434	418	348	381	547	449	90	76	628	580	981	1004	585	563	214	230	454	479	502	539	499	483	205	241	531	474	222	126	402	386	466	355	356	313	483	532	157	169	360	382	355	395	653	599	331	332	550	508	480	511	70	110	204	225	469	444	490	474	461	497	568	521	94	82	417	392	338	317	488	466	379	404	153	171	169	268	509	505	130	149	166	177	557	618	482	475	421	388	354	370	55	78	180	173	308	266	163	222	542	562	276	254	465	452	449	425	176	151	392	409	189	200	325	305	489	509	160	176	300	321	361	349	388	414	370	380	281	288	414	439	532	593	132	144	1197	1250	92	62	474	513	0	30	460	538	386	284	1167	1125	436	420	107	163	205	303	232	253	275	295	261	271	435	421	488	464	213	189	497	504	210	175	175	187	467	495	293	316	313	348	501	489	196	214	419	404	425	454	353	358	170	187	145	161	958	981	1256	1318
1134	307	113	46	443	901	76	955	311	337	204	894	292	98	273	59	638	496	520	1032	368	92	170	163	336	314	305	267	153	454	164	136	422	310	102	444	275	274	548	380	177	127	175	207	56	484	486	206	180	205	420	814	529	170	195	342	161	401	796	302	129	112	704	740	120	242	300	298	134	323	267	463	99	827	281	360	283	168	102	572	680	836	829	441	227	147	484	307	503	532	803	145	437	490	546	343	518	198	273	167	574	135	219	228	261	25	1164	956	419	360	211	364	772	402	216	244	149	146	597	173	256	314	262	252	278	170	217	395	366	226	248	164	144	277	306	350	353	375	379	130	136	333	307	389	430	306	312	302	282	285	297	353	383	344	355	387	373	474	357	240	276	315	341	378	393	404	388	318	351	517	419	120	106	598	550	951	974	555	533	244	260	424	449	472	509	469	453	175	211	501	444	192	96	372	356	436	325	326	283	453	502	187	199	330	352	325	365	623	569	301	302	520	478	450	481	40	80	222	201	439	414	520	504	431	467	538	491	124	112	387	362	340	287	458	436	349	374	123	141	139	238	479	475	100	142	159	170	527	588	452	445	451	418	324	340	85	108	150	184	338	296	193	252	512	532	246	224	435	422	419	395	146	121	422	439	219	230	327	307	459	479	130	146	270	291	331	319	358	384	340	350	251	258	384	409	502	563	102	114	1167	1220	122	92	444	483	30	0	490	568	356	254	1137	1095	406	390	137	156	198	296	202	223	245	265	291	301	405	391	458	434	183	159	527	534	180	145	205	217	437	465	263	286	283	318	471	459	166	184	389	374	395	424	323	328	200	217	175	191	928	951	1226	1288
1311	308	589	442	510	1078	564	1132	799	497	289	1134	624	586	419	547	815	818	697	1290	703	580	470	337	154	474	483	755	564	834	324	381	814	443	548	669	213	762	725	678	323	379	371	695	544	596	663	282	308	343	497	912	1010	485	455	192	377	773	973	647	359	376	881	917	521	360	289	572	436	451	755	640	587	1004	270	575	212	656	590	749	857	944	1006	134	474	479	568	296	669	709	911	633	921	667	58	150	695	596	320	623	712	495	559	568	508	513	1422	1214	596	726	699	611	880	822	439	357	358	503	774	442	503	756	704	293	267	658	705	501	526	311	289	369	389	609	638	621	651	564	604	375	381	411	437	578	546	708	800	739	724	532	544	651	681	591	602	653	644	962	845	728	764	347	434	316	413	670	654	720	753	1005	907	401	415	984	936	1285	1308	638	617	308	298	601	626	539	576	855	871	663	664	726	669	524	584	707	722	924	813	728	771	562	586	383	371	458	430	572	612	881	827	548	564	772	725	627	658	528	568	371	392	616	591	32	16	608	644	763	716	388	400	634	609	381	434	635	613	489	464	611	629	627	726	897	913	586	544	478	489	965	1026	908	865	267	234	690	706	449	426	442	408	358	389	495	467	596	644	525	547	827	840	839	815	455	453	138	109	331	331	328	348	636	656	462	464	602	597	409	397	629	655	587	616	498	505	457	482	983	1044	590	602	1344	1397	431	456	821	782	518	488	0	80	844	742	1395	1429	417	433	502	558	600	698	534	555	524	545	280	290	785	771	915	890	417	440	39	62	668	633	365	355	855	883	751	774	649	684	909	916	449	431	432	447	775	746	570	575	327	343	350	366	1262	1285	1484	1546
1231	228	509	364	430	998	486	1052	721	417	209	1054	544	508	339	469	735	801	617	1210	623	502	390	257	74	394	403	677	484	754	246	301	797	363	468	589	218	684	645	598	243	301	291	617	466	516	583	269	252	263	417	832	939	405	375	112	297	756	893	567	281	298	801	837	441	280	209	492	358	371	677	560	509	924	190	558	132	578	512	669	777	864	926	214	394	399	488	216	589	629	831	555	847	587	138	70	615	516	240	543	632	415	479	488	428	435	1342	1134	516	646	621	531	800	805	422	362	280	470	694	425	423	676	624	213	187	580	627	421	446	231	209	289	309	529	558	541	571	484	524	295	301	331	357	498	466	630	722	659	644	452	464	571	601	511	522	573	564	884	767	650	686	352	439	321	418	590	574	703	736	927	829	321	335	967	919	1205	1228	558	537	228	218	521	546	459	496	838	854	585	586	646	589	444	506	627	642	846	735	711	693	482	506	303	291	378	350	492	532	801	747	468	484	692	645	547	578	450	490	291	312	536	511	112	96	528	564	683	636	310	322	554	529	301	354	555	533	409	384	533	551	549	648	880	885	508	466	461	472	937	998	862	848	187	154	610	626	371	348	362	328	363	394	417	450	516	564	445	467	810	823	822	798	375	373	58	29	251	251	248	268	556	576	382	384	522	517	329	317	549	575	507	536	418	425	377	402	912	973	512	524	1264	1317	351	378	741	702	440	410	80	0	766	664	1315	1349	337	353	424	480	522	620	454	475	444	465	200	210	705	691	868	844	337	360	119	142	590	555	285	275	838	866	673	696	569	604	881	869	369	351	352	367	758	729	490	495	247	263	270	286	1182	1205	1404	1466
1286	459	265	198	595	1053	222	1107	185	489	356	985	436	170	425	211	790	370	672	1066	479	206	322	315	488	466	457	115	305	475	316	288	296	462	254	596	427	194	700	505	329	279	327	282	128	636	638	358	332	357	572	966	403	322	347	494	313	275	948	413	281	264	856	892	272	394	452	450	286	475	115	615	251	979	433	267	435	42	218	724	832	988	981	593	379	299	636	459	655	684	955	297	311	642	698	495	670	350	425	319	726	287	371	380	413	177	1198	990	571	471	274	516	924	276	288	330	301	218	749	245	408	425	373	404	430	242	289	547	518	378	400	316	296	429	458	502	497	527	531	282	288	485	459	541	582	185	186	413	393	437	449	497	520	496	507	539	525	339	231	114	150	467	427	530	479	556	540	192	225	382	293	272	258	472	424	948	971	707	685	396	412	576	601	624	661	343	327	49	85	653	596	344	248	483	467	284	199	200	157	605	654	339	351	482	504	477	517	775	721	453	454	672	630	602	633	192	152	374	353	591	566	672	656	583	619	690	643	276	264	539	514	492	439	610	588	501	526	195	213	211	112	353	349	172	214	231	242	401	462	326	319	603	570	435	451	237	260	302	336	424	382	345	338	664	684	398	376	309	296	293	269	298	273	574	591	371	382	479	459	611	631	282	298	422	443	483	471	510	536	492	502	403	410	536	561	376	437	242	230	1319	1372	274	244	555	594	182	212	642	720	0	102	1136	1092	558	542	284	228	270	175	354	375	397	417	443	453	516	502	332	308	335	311	679	686	252	217	357	369	311	339	137	160	394	429	345	333	318	336	541	526	269	298	475	480	352	369	327	343	925	948	1260	1322
1223	561	286	300	666	979	233	1044	280	585	458	883	334	199	527	268	791	472	705	964	377	221	401	417	590	568	559	13	326	373	418	390	398	564	296	579	529	92	701	403	431	381	429	180	225	682	674	460	434	459	643	980	474	386	424	596	415	377	885	311	383	366	857	829	321	496	554	367	388	577	13	661	252	916	535	369	537	144	207	725	833	942	918	695	481	363	707	561	701	664	909	212	406	638	800	597	663	275	527	244	743	347	296	305	489	279	1096	888	617	369	172	459	878	378	390	432	403	320	750	347	484	323	271	506	532	241	288	643	614	480	502	418	398	338	367	419	395	598	558	384	390	587	561	612	653	287	288	311	291	417	405	395	418	452	463	457	442	237	333	216	252	569	529	632	581	474	458	294	327	280	388	374	360	574	526	846	869	753	756	498	514	622	647	695	732	445	429	151	187	636	579	446	350	381	365	182	301	302	259	676	725	441	453	584	606	537	497	693	639	409	393	590	586	648	679	294	254	476	455	637	612	774	758	629	665	662	626	378	366	504	541	594	541	656	634	603	628	194	212	313	214	455	444	274	316	333	344	496	557	421	421	705	672	333	349	339	362	404	438	526	484	447	440	735	730	406	385	411	398	395	371	400	375	676	693	473	484	581	561	657	677	384	400	357	363	585	573	427	453	435	420	505	512	638	663	471	532	231	219	1256	1309	376	346	453	492	284	314	744	822	102	0	1034	990	660	644	386	330	372	277	363	342	405	384	545	555	414	400	427	403	437	413	781	788	171	206	459	471	413	441	239	262	292	327	440	428	420	438	643	628	371	400	551	484	454	471	429	445	823	846	1158	1220
369	1140	986	1097	1037	592	1019	556	1143	991	1137	513	802	1014	1088	1010	733	1356	885	105	741	1031	971	1135	1281	1014	1022	959	1000	703	1203	1103	1282	1056	1009	851	1313	1038	823	733	1149	1178	1078	913	1040	962	917	1244	1219	1071	1000	894	1215	965	946	1234	1063	1261	629	801	1180	1163	806	631	982	1075	1160	816	1185	1054	959	938	952	604	1173	1253	1230	1090	1017	847	775	856	606	1400	999	947	1005	1199	968	857	823	912	1269	910	1443	1235	893	942	1113	944	919	970	905	914	949	1026	165	181	941	714	987	784	792	1262	1232	1274	1180	1162	774	1189	944	841	893	1170	1170	1056	1103	1049	1020	1159	1166	1097	1117	875	846	824	801	1004	964	1103	1103	1129	1106	1013	1054	1233	1229	789	809	877	865	801	771	888	881	780	795	1100	1217	1157	1136	1353	1371	1416	1423	765	781	1178	1211	1143	1251	1129	1143	1458	1410	146	123	1033	1054	1135	1119	978	971	1066	1103	1329	1313	1097	1133	908	933	1094	1147	766	750	1121	1242	1186	1143	1033	1070	1090	1101	1087	1114	973	933	622	676	869	860	783	830	972	967	1091	1096	1084	1063	961	968	1417	1401	985	989	855	898	1175	1163	922	959	1173	1120	936	958	1049	1074	1009	1027	1155	1160	1323	1307	1116	1158	1175	1186	1359	1350	1284	1305	1290	1310	773	757	1136	1159	1052	1086	1368	1326	1244	1282	1058	1010	924	946	1295	1282	1279	1255	1048	1023	1314	1334	1119	1104	1160	1140	981	965	996	1012	886	865	1127	1115	808	806	856	827	1023	978	1124	1149	1334	1303	1017	1029	442	495	1159	1143	685	681	1081	1111	1385	1465	1048	1150	0	44	1116	1100	1188	1172	1214	1223	934	913	923	902	1183	1193	674	688	1290	1266	1016	1040	1424	1426	986	1021	1095	1083	1297	1325	1123	1146	852	817	1303	1291	1008	990	1099	1114	1255	1284	1011	944	1133	1150	1108	1124	169	146	227	289
329	1106	1024	1139	993	548	1063	512	1187	947	1132	469	834	1058	1044	1051	689	1400	841	61	785	1075	950	1134	1247	970	978	1003	999	747	1200	1102	1326	1012	1008	807	1308	1082	779	777	1148	1220	1067	957	1084	918	873	1239	1216	1037	956	850	1259	944	925	1200	1062	1305	585	838	1222	1205	762	587	981	1041	1126	796	1227	1010	1003	894	996	560	1139	1297	1196	1134	1061	803	731	812	562	1388	965	946	961	1165	924	813	779	956	1313	866	1409	1201	849	941	1079	968	875	969	904	913	915	1070	121	137	897	758	1031	740	748	1306	1276	1318	1179	1206	730	1233	910	885	937	1136	1136	1100	1147	1005	976	1154	1132	1096	1116	884	878	804	833	960	920	1102	1102	1085	1062	969	1010	1277	1273	833	853	843	831	833	803	848	837	736	751	1144	1261	1201	1180	1348	1415	1411	1467	721	737	1222	1255	1187	1295	1128	1142	1502	1454	190	167	989	1010	1101	1085	934	927	1022	1059	1373	1357	1141	1177	864	889	1093	1189	810	794	1165	1286	1230	1187	989	1026	1079	1067	1043	1070	933	893	578	632	835	834	739	786	928	923	1133	1140	1050	1029	917	924	1383	1367	941	945	811	854	1217	1205	878	915	1139	1086	892	914	1005	1030	1053	1071	1199	1204	1367	1351	1160	1202	1219	1230	1403	1394	1328	1349	1252	1276	817	801	1178	1201	1051	1085	1412	1370	1286	1326	1014	966	903	925	1339	1326	1323	1299	1021	1022	1280	1300	1085	1070	1126	1106	937	921	995	990	865	844	1083	1071	788	762	822	801	989	944	1080	1105	1378	1347	1061	1073	402	455	1158	1185	729	725	1123	1153	1351	1431	1092	1194	44	0	1072	1056	1230	1216	1258	1267	933	912	902	881	1149	1159	718	732	1334	1310	982	1006	1390	1392	1030	1065	1061	1049	1341	1369	1167	1190	896	861	1347	1335	974	956	1055	1070	1299	1328	977	910	1132	1120	1107	1095	213	190	183	245
919	198	413	399	131	686	438	740	685	93	319	742	377	472	101	403	423	870	305	979	428	454	276	341	348	70	79	641	388	564	387	333	796	92	372	265	490	648	333	403	355	442	270	530	430	217	271	426	403	240	118	559	903	291	260	259	299	775	581	400	422	433	489	525	345	194	256	326	455	90	641	248	456	612	250	681	332	542	459	357	465	591	614	489	199	303	189	234	288	317	558	473	811	275	475	302	303	420	218	447	333	319	383	392	190	399	1111	903	204	452	585	336	527	776	545	545	390	505	382	532	195	559	507	323	305	544	591	97	122	341	319	321	341	400	421	346	376	160	200	327	333	93	119	174	142	665	686	509	527	286	293	376	406	244	237	378	369	848	731	614	650	535	622	593	674	395	379	692	725	891	793	353	367	972	924	1010	1033	271	238	288	272	209	234	160	197	843	827	549	585	322	265	374	470	432	448	810	699	700	657	183	207	282	270	123	100	217	257	570	516	297	313	395	348	235	266	414	454	253	244	224	199	449	433	216	252	359	312	445	433	248	211	246	193	243	221	85	60	497	515	513	612	853	849	474	501	518	529	901	962	826	819	216	249	460	464	406	429	329	330	619	577	514	573	217	265	330	352	809	796	793	769	278	303	337	366	278	263	218	213	244	264	286	270	374	353	67	79	354	380	312	341	223	268	40	65	876	937	459	471	952	1005	383	413	546	507	404	434	417	497	730	628	1084	1128	0	16	459	515	557	655	358	379	329	350	260	250	520	506	832	808	239	263	456	449	554	519	264	252	811	839	637	660	452	454	845	833	254	236	15	30	769	798	262	329	332	315	314	298	987	1010	1173	1235
916	214	429	415	115	683	454	737	701	109	335	739	393	488	117	419	420	886	302	995	444	470	292	357	364	86	95	657	404	580	403	349	812	108	388	281	506	664	330	419	371	458	286	546	446	201	268	442	419	256	102	543	919	307	276	243	315	791	578	416	438	449	486	522	361	210	272	342	471	106	657	245	472	609	266	697	348	558	475	354	462	575	611	505	215	319	173	250	274	314	542	489	827	272	459	318	300	436	234	463	317	335	399	408	206	415	1127	919	201	468	601	352	511	792	561	561	406	521	379	548	211	575	523	339	321	560	607	113	138	357	335	337	357	416	437	362	392	176	216	343	349	109	135	190	158	681	702	525	543	302	309	392	422	260	253	394	385	864	747	630	666	551	638	609	690	411	395	708	741	907	809	369	383	988	940	1026	1049	255	222	304	288	206	231	144	181	859	843	565	601	338	281	390	486	448	464	826	715	716	673	167	191	298	286	139	116	233	273	586	532	313	329	411	364	232	263	430	470	269	260	221	196	433	417	213	249	375	328	461	449	264	227	262	209	240	218	101	76	513	531	529	628	869	865	490	517	534	545	917	978	842	835	200	233	476	480	422	445	345	346	635	593	530	589	201	249	346	368	825	812	809	785	294	319	321	350	294	279	234	229	241	261	302	286	390	369	83	95	370	396	328	357	239	284	56	81	892	953	475	487	949	1002	399	429	562	523	420	450	401	481	746	644	1100	1144	16	0	475	531	573	671	374	395	345	366	276	266	536	522	848	824	255	279	440	433	570	535	280	268	827	855	653	676	468	470	861	849	270	252	31	46	785	814	278	345	348	331	330	314	1003	1026	1189	1251
1234	349	213	91	543	1001	170	1055	313	437	218	994	392	118	358	159	738	498	620	1132	436	154	270	177	350	414	405	287	253	504	178	150	424	395	202	544	289	294	648	462	191	141	189	239	76	584	586	220	194	219	520	914	531	270	295	356	186	403	896	370	143	126	804	840	220	281	314	398	148	408	287	563	199	927	295	274	297	188	166	672	780	936	929	455	327	247	584	321	603	632	903	245	439	590	560	357	618	298	287	267	674	235	319	328	361	125	1264	1056	519	428	231	464	872	404	116	158	163	46	697	73	356	382	330	266	292	190	237	495	466	240	262	178	158	377	406	450	453	475	479	144	150	418	392	489	530	206	314	370	350	385	397	453	477	444	455	487	473	476	359	242	278	329	255	392	307	504	488	320	353	519	421	134	120	600	552	1016	1039	655	633	258	274	524	549	572	609	471	455	195	162	601	544	292	196	440	424	448	327	328	285	553	602	201	213	415	437	425	465	723	669	401	402	620	578	550	581	140	100	248	269	539	514	534	518	531	567	638	591	138	126	487	462	382	372	558	536	447	471	143	161	159	258	481	477	84	42	59	70	529	590	454	447	465	432	392	408	99	122	250	217	252	210	207	166	612	632	346	324	437	424	421	397	246	221	436	453	233	244	369	349	559	579	230	246	370	391	416	404	458	484	440	450	351	358	469	494	504	565	190	178	1267	1320	136	106	512	551	130	137	504	582	376	274	1204	1160	491	475	0	56	98	196	302	323	345	365	305	315	473	459	460	436	283	259	541	548	200	165	219	231	439	467	265	288	351	386	473	461	266	284	474	459	397	426	423	428	214	231	189	205	993	1016	1326	1388
1215	293	194	35	510	982	157	1036	369	399	162	975	373	174	302	140	719	554	601	1113	449	173	251	121	294	376	385	343	234	535	122	94	480	339	183	525	233	350	629	461	135	85	133	288	132	565	567	164	138	163	497	895	587	251	276	300	130	459	877	383	87	70	785	821	201	225	258	379	92	352	343	544	180	908	239	318	241	244	183	653	761	917	910	399	308	228	565	265	584	613	884	226	495	571	504	301	599	279	231	248	655	216	300	309	342	106	1245	1037	500	441	287	445	853	460	172	202	107	102	678	129	337	395	343	210	236	246	293	452	428	184	206	122	102	358	387	431	434	456	460	88	94	362	336	470	497	262	370	383	363	366	378	434	464	425	436	468	454	532	415	298	334	273	299	336	351	485	469	376	409	575	477	78	64	656	608	1032	1055	636	614	202	218	505	530	539	576	527	511	251	218	582	525	273	177	453	437	504	383	384	341	534	583	145	157	359	381	406	446	704	650	382	383	601	559	531	562	121	156	192	213	520	495	478	462	512	548	619	572	82	70	468	443	326	316	539	517	391	415	199	217	215	314	537	533	140	98	115	126	585	646	510	503	409	376	405	421	43	66	195	161	296	254	151	210	593	613	327	305	493	480	477	453	227	202	380	397	177	188	313	293	540	560	211	227	351	372	360	348	439	465	421	431	332	339	413	438	560	621	183	195	1248	1301	80	50	525	564	111	81	448	526	432	330	1218	1176	435	419	56	0	154	252	283	304	326	346	249	259	486	472	516	492	264	240	485	492	256	221	163	175	495	523	321	344	364	399	529	517	247	265	418	403	453	482	404	409	158	175	133	149	1009	1032	1307	1369
1332	447	311	189	641	1099	268	1153	215	535	316	1062	490	216	456	257	836	400	718	1143	534	252	368	275	448	512	503	192	351	552	276	248	326	493	300	642	387	271	746	560	289	239	287	337	174	682	684	318	292	317	618	1012	433	368	393	454	284	305	994	468	241	224	902	938	318	379	412	496	246	506	192	661	297	1025	393	297	395	93	264	770	878	1034	1027	553	425	345	682	419	701	730	1001	343	341	688	658	455	716	396	385	365	772	333	417	426	459	223	1275	1067	617	526	329	562	970	306	214	256	261	144	795	171	454	480	428	364	390	288	335	593	564	338	360	276	256	475	504	548	551	573	577	242	248	516	490	587	628	108	216	468	448	483	495	551	575	542	553	585	571	378	261	144	180	427	353	490	405	602	586	222	255	421	323	232	218	502	454	1025	1048	753	731	356	372	622	647	670	707	373	357	100	64	699	642	390	294	538	522	350	229	230	187	651	700	299	311	513	535	523	563	821	767	499	500	718	676	648	679	238	198	346	367	637	612	632	616	629	665	736	689	236	224	585	560	480	470	656	634	545	569	241	259	257	163	383	379	182	140	157	168	431	492	356	349	563	530	490	506	197	220	348	315	350	308	305	264	710	730	444	422	339	326	323	299	344	319	534	551	331	342	467	447	657	677	328	344	468	489	514	502	556	582	538	548	449	456	567	592	406	467	288	276	1365	1418	234	204	610	649	228	235	602	680	281	179	1213	1169	589	573	210	154	0	98	400	421	443	463	403	413	571	557	362	338	381	357	639	646	298	263	317	329	341	369	167	190	449	484	375	363	364	382	572	557	299	328	521	526	312	329	287	303	1002	1025	1337	1399
1234	349	213	91	543	1001	170	1055	313	437	218	994	392	118	358	159	738	498	620	1132	436	154	270	177	350	414	405	287	253	504	178	150	424	395	202	544	289	294	648	462	191	141	189	239	76	584	586	220	194	219	520	914	531	270	295	356	186	403	896	370	143	126	804	840	220	281	314	398	148	408	287	563	199	927	295	274	297	188	166	672	780	936	929	455	327	247	584	321	603	632	903	245	439	590	560	357	618	298	287	267	674	235	319	328	361	125	1264	1056	519	428	231	464	872	404	116	158	163	46	697	73	356	382	330	266	292	190	237	495	466	240	262	178	158	377	406	450	453	475	479	144	150	418	392	489	530	206	314	370	350	385	397	453	477	444	455	487	473	476	359	242	278	329	255	392	307	504	488	320	353	519	421	134	120	600	552	1016	1039	655	633	258	274	524	549	572	609	471	455	195	162	601	544	292	196	440	424	448	327	328	285	553	602	201	213	415	437	425	465	723	669	401	402	620	578	550	581	140	100	248	269	539	514	534	518	531	567	638	591	138	126	487	462	382	372	558	536	447	471	143	161	159	258	481	477	84	42	59	70	529	590	454	447	465	432	392	408	99	122	250	217	252	210	207	166	612	632	346	324	437	424	421	397	246	221	436	453	233	244	369	349	559	579	230	246	370	391	416	404	458	484	440	450	351	358	469	494	504	565	190	178	1267	1320	136	106	512	551	130	137	504	582	376	274	1204	1160	491	475	112	56	98	0	302	323	345	365	305	315	473	459	460	436	283	259	541	548	200	165	219	231	439	467	265	288	351	386	473	461	266	284	474	459	397	426	423	428	214	231	189	205	993	1016	1326	1388
951	308	133	248	373	718	181	772	513	292	245	692	90	238	274	160	509	698	412	830	184	193	93	243	392	288	279	334	108	300	311	211	624	311	117	286	421	314	419	178	257	329	186	177	258	389	381	352	327	210	350	708	731	78	116	383	171	603	613	113	331	314	575	557	90	243	327	96	336	324	308	368	145	644	322	562	338	370	179	443	551	670	646	508	201	55	414	348	408	382	637	115	639	345	592	384	370	62	280	89	461	78	25	34	196	185	962	754	324	192	251	179	606	604	418	446	288	348	468	375	191	222	170	293	319	285	332	350	321	267	289	205	225	75	104	148	151	305	265	211	211	334	308	319	360	508	514	205	190	124	112	151	181	159	170	185	171	558	559	442	478	461	543	524	595	202	186	520	553	601	621	237	251	800	752	792	815	460	463	281	286	329	354	402	439	671	655	377	413	343	286	202	298	188	188	503	527	528	485	383	432	198	210	331	353	244	204	421	367	116	100	318	293	355	386	242	282	223	202	344	319	566	550	336	372	380	333	326	314	211	248	341	288	363	341	323	348	238	256	341	440	681	677	302	344	361	372	729	790	654	647	458	459	156	172	287	310	160	194	540	498	395	454	442	437	85	64	637	624	621	597	156	131	463	483	256	267	328	308	364	384	104	120	68	89	332	320	156	182	155	148	225	225	385	410	704	765	179	191	984	1037	267	294	290	289	232	262	534	614	423	456	935	936	390	374	339	358	400	498	0	21	84	63	332	342	251	237	660	636	184	160	573	575	250	250	216	222	639	667	465	488	115	150	673	661	140	158	373	375	597	626	258	191	241	258	216	232	769	792	1024	1086
972	287	112	227	394	739	160	793	492	290	224	713	111	217	253	139	530	677	433	851	205	172	72	222	371	267	258	355	87	321	290	190	603	290	96	307	400	335	440	199	236	308	165	198	237	410	402	331	306	189	371	729	710	57	95	362	150	582	634	134	310	293	596	578	69	222	306	117	315	303	329	389	155	665	301	541	317	349	158	464	572	691	667	487	180	34	435	327	429	403	658	136	618	366	571	363	391	83	259	110	482	57	46	55	214	164	983	775	345	213	272	200	627	583	397	425	267	327	489	354	209	243	191	272	298	264	311	348	319	246	268	184	204	96	125	169	172	326	286	190	190	313	287	340	381	487	493	226	211	145	133	172	202	180	191	206	192	579	538	421	457	440	522	503	574	223	207	499	532	622	600	216	230	779	731	813	836	481	484	260	265	350	375	423	460	650	634	356	392	364	307	181	277	209	209	524	506	507	464	404	453	177	189	310	332	265	225	442	388	137	121	339	314	376	407	221	261	202	181	365	340	545	529	357	393	401	354	305	293	232	269	320	267	384	362	302	327	217	235	320	419	660	656	281	323	340	351	708	769	633	626	437	438	177	193	266	289	139	173	519	477	374	433	463	458	65	43	616	603	600	576	135	110	442	462	235	246	307	287	385	405	83	99	89	110	311	299	177	203	176	169	204	211	364	389	683	744	158	170	1005	1058	246	273	311	310	211	241	513	593	444	435	956	957	369	353	318	337	379	477	21	0	64	84	311	321	272	258	639	615	163	139	552	554	264	229	195	201	618	646	444	467	136	171	652	640	119	137	352	354	576	605	276	212	220	237	195	211	790	813	1045	1107
920	279	175	290	331	687	223	741	555	250	287	661	132	280	245	202	467	740	370	799	199	235	99	285	420	259	250	376	150	335	353	253	666	282	159	244	463	356	377	174	299	371	228	219	300	347	339	394	369	210	308	677	773	84	74	373	213	645	582	155	373	356	533	526	132	214	299	65	378	295	350	326	187	613	312	604	369	412	221	401	509	639	615	550	172	97	372	338	366	340	606	157	681	303	582	374	328	104	252	131	419	120	67	76	154	227	931	723	282	223	293	137	575	646	460	488	330	390	426	417	149	264	212	309	309	327	374	308	279	309	305	247	267	117	146	117	147	263	223	253	253	305	279	277	318	550	556	247	232	82	70	147	177	117	128	154	140	600	601	484	520	503	585	566	637	171	155	562	595	643	663	279	293	842	794	781	804	418	421	274	258	287	312	360	397	713	697	419	455	301	244	244	340	203	219	545	569	570	527	341	390	240	240	302	324	202	162	390	336	74	58	287	251	313	344	284	324	223	202	302	277	556	540	294	330	338	291	368	356	169	206	312	259	321	299	294	319	280	298	383	482	723	719	344	386	403	414	771	832	696	689	429	449	198	214	329	352	202	236	582	540	437	496	400	395	43	65	679	666	663	639	186	173	453	473	258	243	299	279	322	342	146	155	82	73	303	291	125	151	113	117	196	183	356	381	746	807	221	233	953	1006	309	336	317	278	274	304	524	604	465	498	904	925	361	345	381	400	442	540	84	63	0	21	322	332	291	277	702	678	155	177	563	565	292	292	234	222	681	709	507	530	157	192	715	703	147	129	344	346	639	668	216	149	283	293	258	268	758	781	993	1055
941	258	155	270	352	708	203	762	535	261	267	682	153	260	224	182	488	720	391	820	220	215	78	265	399	238	229	397	130	356	333	233	646	261	139	265	443	377	398	195	279	351	208	240	280	368	360	374	349	189	329	698	753	63	53	352	193	625	603	176	353	336	554	547	112	193	278	86	358	274	371	347	198	634	291	584	348	392	201	422	530	660	636	530	151	77	393	317	387	361	627	178	661	324	561	353	349	125	231	152	440	100	88	97	175	207	952	744	303	244	314	158	596	626	440	468	310	370	447	397	170	285	233	288	288	307	354	319	290	289	284	227	247	138	167	138	168	284	244	233	233	284	258	298	339	530	536	268	253	103	91	168	198	138	149	175	161	621	581	464	500	483	565	546	617	192	176	542	575	664	643	259	273	822	774	802	825	439	442	253	237	308	333	381	418	693	677	399	435	322	265	224	320	224	240	566	549	550	507	362	411	220	219	281	303	223	183	411	357	95	79	308	272	334	365	264	304	202	181	323	298	535	519	315	351	359	312	348	336	190	227	291	238	342	320	273	298	260	278	363	462	703	699	324	366	383	394	751	812	676	669	408	428	219	235	309	332	182	216	562	520	417	476	421	416	22	44	659	646	643	619	165	153	432	452	237	222	278	258	343	363	126	134	103	94	282	270	146	172	134	138	175	182	335	360	726	787	201	213	974	1027	289	316	338	299	254	284	503	583	486	478	925	946	340	324	361	380	422	520	64	84	21	0	301	311	312	298	682	658	134	156	542	544	307	272	213	201	661	689	487	510	178	213	695	683	126	108	323	325	619	648	237	170	263	272	238	247	779	802	1014	1076
1111	96	387	245	347	878	367	932	602	285	87	934	422	389	207	350	615	710	497	1088	501	383	268	159	176	262	271	558	362	632	155	179	706	231	346	457	263	565	525	476	151	210	169	498	347	433	463	194	171	141	334	785	820	283	253	116	175	665	773	445	190	207	681	717	319	158	87	370	267	239	558	440	390	804	10	467	125	459	393	549	657	813	806	317	272	277	405	16	480	509	780	436	728	467	338	130	495	394	118	421	549	293	357	366	306	316	1220	1012	396	524	502	409	749	693	331	313	189	351	574	334	301	554	502	91	65	461	508	289	314	109	87	167	187	407	436	419	449	352	392	173	179	199	225	366	334	511	603	537	522	330	342	449	479	389	400	451	442	765	648	531	567	303	390	366	442	468	452	609	642	808	710	199	213	876	828	1083	1106	487	454	106	96	401	426	376	413	747	744	466	467	514	457	322	387	505	520	727	616	617	574	399	423	181	169	246	218	370	410	679	625	346	362	570	523	427	458	331	371	169	190	416	391	312	296	408	444	551	504	219	231	432	403	169	222	435	413	277	252	414	432	430	529	770	766	389	347	364	375	818	879	743	736	198	192	488	504	252	257	240	206	387	345	326	359	433	481	323	345	719	713	710	686	253	251	209	229	129	129	116	136	436	456	260	262	400	395	197	185	427	453	385	414	296	303	250	275	793	854	393	405	1144	1197	229	259	619	580	321	291	280	360	647	545	1193	1227	272	256	305	361	403	501	332	353	322	343	0	10	583	569	749	725	215	238	319	321	471	436	163	153	728	756	554	577	447	482	762	750	247	229	255	240	667	638	368	373	125	141	148	164	1060	1083	1282	1344
1121	106	377	235	357	888	357	942	592	295	77	940	412	379	217	340	625	700	507	1078	491	373	258	149	166	272	281	548	352	622	145	169	696	241	336	467	253	555	535	466	141	200	159	488	337	443	473	184	161	131	344	795	810	273	243	119	165	655	783	435	180	197	691	727	309	148	77	360	257	249	548	450	380	814	0	457	115	449	383	559	667	823	816	307	262	267	415	26	490	519	790	426	718	477	328	120	505	384	108	411	559	283	347	356	296	306	1210	1002	406	514	492	399	759	683	321	303	179	341	584	324	291	544	492	81	55	451	498	299	324	99	77	157	177	397	426	409	439	362	402	163	169	209	235	376	344	501	593	527	512	320	332	439	469	379	390	441	432	755	638	521	557	293	380	356	432	458	442	599	632	798	700	189	203	866	818	1073	1096	497	464	96	86	411	436	386	423	737	734	456	457	524	467	312	377	495	510	717	606	607	564	409	433	171	159	256	228	360	400	669	615	336	352	560	513	437	468	321	361	159	180	426	401	302	286	418	454	561	514	209	221	422	397	179	232	445	423	287	262	404	422	420	519	760	756	379	337	354	365	808	869	733	726	208	195	478	494	242	247	230	196	377	335	316	349	443	491	313	335	709	703	700	676	243	241	199	219	119	119	126	146	446	466	250	252	390	385	207	195	417	443	375	404	286	293	260	285	783	844	383	395	1154	1207	219	249	609	570	311	281	270	350	637	535	1183	1217	282	266	295	351	393	491	322	343	312	333	10	0	573	559	739	715	205	228	309	311	461	426	153	143	718	746	544	567	437	472	752	740	237	219	265	250	657	628	358	363	115	131	138	154	1050	1073	1272	1334
908	522	312	423	484	675	345	729	656	403	468	611	150	343	488	336	504	841	443	692	88	357	316	466	615	422	413	399	331	85	534	434	767	464	340	392	644	379	435	114	480	504	409	242	369	500	475	575	550	433	461	665	860	301	328	606	394	746	570	127	506	489	577	514	313	457	542	198	511	462	373	479	278	601	545	719	561	513	343	459	546	627	603	731	381	278	525	571	519	398	594	238	782	451	815	607	437	273	495	270	477	301	236	245	331	352	824	616	435	40	316	262	563	747	561	603	511	491	484	518	326	167	219	516	542	385	432	461	432	490	512	428	448	223	194	206	176	416	376	434	434	537	514	430	471	651	657	115	135	259	247	176	146	270	281	230	215	623	702	585	621	684	700	747	752	247	231	663	696	666	764	460	474	943	895	574	597	571	574	504	501	440	465	513	550	814	798	520	556	449	397	425	473	92	76	568	670	671	628	494	543	421	433	495	522	355	315	378	373	251	242	324	371	466	497	417	425	446	425	455	430	789	773	447	483	396	439	501	489	322	359	555	502	474	452	457	482	338	356	484	583	824	820	445	487	504	515	872	933	797	790	672	682	99	83	462	485	383	417	697	655	570	611	553	548	306	287	780	767	764	740	379	354	686	706	479	486	542	522	475	495	327	343	243	242	535	523	214	226	238	209	405	360	532	557	847	908	343	355	941	994	490	469	67	106	407	437	757	837	488	590	762	718	524	508	514	501	543	641	265	244	305	284	555	565	0	14	803	779	398	383	796	798	315	350	439	445	782	810	608	631	178	143	816	804	363	372	507	522	740	769	393	326	464	481	439	455	551	574	886	948
894	536	326	437	498	661	359	715	670	417	482	597	164	357	502	350	490	855	441	678	102	371	330	480	629	436	427	413	345	71	548	448	781	478	354	390	658	393	433	128	494	518	423	256	383	501	473	589	564	447	475	651	874	315	342	620	408	760	556	141	520	503	563	500	327	471	556	212	525	476	387	480	292	587	559	733	575	527	357	457	532	613	589	745	395	292	539	585	520	396	580	252	796	449	829	621	435	287	509	284	475	315	250	259	345	366	810	602	449	54	330	274	549	761	575	617	525	505	482	532	340	181	233	530	556	399	446	475	446	504	526	442	462	237	208	220	190	430	390	448	448	551	528	444	485	665	671	129	149	273	261	190	160	284	295	228	213	637	716	599	635	698	714	761	766	245	229	677	710	680	778	474	488	957	909	560	583	572	588	518	515	454	479	527	564	828	812	534	570	447	411	439	487	106	90	582	684	685	642	508	557	435	447	509	536	369	329	364	371	265	256	322	369	480	506	431	439	460	439	469	444	803	787	461	497	394	437	515	503	336	373	569	516	475	466	471	496	352	370	498	597	838	834	459	501	518	529	886	947	811	804	686	696	113	97	476	499	397	431	711	669	584	625	567	549	320	301	794	781	778	754	393	368	700	720	493	500	556	536	489	504	341	357	257	256	549	537	219	224	252	223	419	374	546	571	861	922	357	369	927	980	504	483	53	92	421	451	771	851	502	604	748	704	538	522	528	515	557	655	279	258	319	298	569	579	14	0	817	793	412	397	810	812	329	364	453	459	796	824	622	645	192	157	830	818	377	386	521	536	754	783	407	340	478	495	453	469	537	560	872	934
1543	716	522	455	852	1310	479	1364	98	746	613	1251	701	427	682	468	1047	249	929	1259	745	463	579	572	745	723	714	365	562	741	573	545	125	719	511	853	652	470	957	771	586	536	584	548	385	893	895	615	589	614	829	1223	145	579	604	751	570	154	1205	679	538	521	1113	1149	529	651	709	707	516	732	391	872	508	1236	690	290	692	241	475	981	1089	1245	1238	818	636	556	893	716	912	941	1212	554	56	899	923	752	927	607	682	576	983	544	628	637	670	434	1391	1183	828	737	540	773	1181	43	488	508	558	457	1006	484	665	691	639	661	687	499	546	804	775	635	657	573	553	686	715	759	762	784	788	539	545	742	716	798	839	421	313	679	659	694	706	762	786	753	764	796	782	375	286	241	205	692	605	754	657	813	797	247	280	314	206	529	515	254	206	1141	1164	964	942	653	669	833	858	881	918	125	109	306	342	910	853	601	505	749	733	438	326	255	212	862	911	596	608	739	761	734	774	1032	978	710	711	929	887	859	890	449	409	631	610	848	823	897	881	840	876	947	900	533	521	796	771	749	696	867	845	758	783	452	470	468	369	83	67	429	453	470	481	119	180	43	86	860	827	701	717	494	517	559	593	602	560	575	516	921	941	655	633	138	125	122	98	555	530	831	848	628	639	736	716	868	888	539	555	679	700	740	728	767	793	749	759	660	667	793	818	118	179	499	487	1576	1629	531	501	821	860	439	469	899	945	480	385	1329	1285	815	799	523	467	509	411	611	632	654	674	700	710	782	768	0	25	592	568	904	927	509	474	614	626	140	121	192	169	660	695	63	51	575	593	798	783	148	177	732	737	609	626	584	600	1118	1141	1453	1515
1567	740	546	479	876	1334	503	1388	122	770	637	1275	725	451	706	492	1071	274	953	1283	769	487	603	596	769	747	738	389	586	765	597	569	109	743	535	877	677	494	981	795	610	560	608	572	409	917	919	639	613	638	853	1247	120	603	628	775	594	175	1229	703	562	545	1137	1173	553	675	733	731	541	756	415	896	532	1260	714	315	716	265	499	1005	1113	1269	1262	843	660	580	917	740	936	965	1236	578	70	923	948	776	951	631	706	600	1007	568	652	661	694	458	1415	1207	852	761	564	797	1205	68	513	533	582	481	1030	508	689	715	663	685	711	523	570	828	799	659	681	597	577	710	739	783	786	808	812	563	569	766	740	822	863	445	337	703	683	718	730	786	810	777	788	820	806	399	310	265	229	717	630	779	682	837	821	271	304	338	230	553	539	229	181	1165	1188	988	966	677	693	857	882	905	942	100	84	330	366	934	877	625	529	773	757	462	350	279	236	886	935	620	632	763	785	758	798	1056	1002	734	735	953	911	883	914	473	433	655	634	872	847	922	906	864	900	971	924	557	545	820	795	773	720	891	869	782	807	476	494	492	393	58	42	453	477	494	505	94	155	68	111	884	851	725	741	518	541	583	617	627	585	600	541	945	965	679	657	122	109	134	123	579	554	855	872	652	663	760	740	892	912	563	579	703	724	764	752	791	817	773	783	684	691	817	842	93	154	523	511	1600	1653	555	525	845	884	463	493	923	970	504	409	1353	1309	839	823	547	491	533	435	635	656	678	698	724	734	806	792	25	0	616	592	929	952	533	498	638	650	124	96	216	193	684	719	38	26	599	617	822	807	173	202	756	761	633	650	608	624	1142	1165	1477	1539
1012	172	191	181	321	779	211	833	446	215	175	783	226	233	138	181	516	631	398	921	320	227	54	173	312	192	183	402	166	436	241	141	557	175	150	322	351	409	426	309	187	262	87	313	191	362	364	282	257	74	298	692	664	69	79	265	101	536	674	249	264	247	582	618	123	107	191	203	269	188	402	341	234	705	204	495	261	303	237	450	558	714	707	438	105	81	362	230	381	410	681	251	572	368	474	266	396	198	144	225	452	97	161	170	139	160	1053	845	297	328	346	242	650	537	351	379	218	281	475	308	134	358	306	198	201	305	352	273	244	197	194	135	155	211	240	252	282	253	257	141	141	198	172	267	308	441	447	341	326	163	175	282	312	222	233	284	275	609	492	375	411	391	476	454	528	301	285	453	486	652	554	167	181	733	685	916	939	433	411	163	150	302	327	350	387	604	588	310	346	379	322	135	231	324	324	571	460	461	418	331	380	99	104	195	217	203	243	512	458	179	195	403	356	328	359	175	215	87	66	317	292	448	432	309	345	416	369	259	247	265	240	205	152	336	314	227	251	258	276	274	373	614	610	235	277	294	305	662	723	587	580	322	341	292	308	220	243	90	124	473	431	328	387	390	410	154	158	570	557	554	530	39	64	345	365	138	135	192	172	337	357	64	48	204	225	196	184	260	286	218	247	129	136	249	274	637	698	237	249	1045	1098	197	227	426	413	165	195	416	496	491	389	1026	1060	271	255	272	291	333	431	136	157	153	174	214	224	387	373	593	569	0	24	455	457	315	280	98	86	572	600	398	421	251	286	606	594	50	62	254	239	530	559	201	206	171	157	146	132	893	916	1115	1177
988	148	215	205	297	755	235	809	470	191	174	759	250	257	114	205	492	655	374	897	310	251	78	180	289	168	159	426	190	446	242	165	581	151	174	298	350	433	402	285	194	286	109	337	215	338	340	281	258	79	274	668	688	93	62	242	125	560	650	273	277	271	558	594	147	83	168	179	293	164	426	317	258	681	181	519	238	327	261	426	534	690	683	430	81	105	338	207	357	386	657	275	596	344	451	243	372	222	121	249	428	121	185	194	115	184	1029	821	273	334	370	218	626	561	375	400	229	305	451	332	110	382	330	178	178	329	376	249	220	196	174	159	179	235	264	228	258	229	233	165	165	174	148	243	284	465	471	365	350	139	151	258	288	198	209	260	251	633	516	399	435	390	477	453	529	277	261	477	510	676	578	191	205	757	709	892	915	409	387	143	127	278	303	326	363	628	612	334	370	355	298	159	255	314	330	595	484	485	442	307	356	121	109	171	193	179	219	488	434	155	171	379	332	304	335	199	239	92	71	293	268	425	409	285	321	392	345	283	271	241	216	181	128	312	290	203	227	282	300	298	397	638	634	259	301	318	329	686	747	611	604	298	318	316	332	244	267	114	148	474	432	352	411	366	386	132	154	594	581	578	554	63	88	322	342	127	112	168	148	313	333	88	72	213	204	172	160	236	262	194	223	105	112	225	250	661	722	261	273	1021	1074	221	251	428	389	189	219	393	473	515	413	1002	1036	247	231	296	315	357	455	160	181	131	152	191	201	402	388	617	593	24	0	432	434	339	304	103	91	596	624	422	445	275	310	630	618	56	38	230	215	554	583	177	182	178	162	153	137	869	892	1091	1153
1320	323	607	465	519	1087	587	1141	822	512	307	1143	642	609	434	570	824	857	706	1308	721	603	488	376	193	489	498	778	582	852	363	399	853	458	566	684	252	785	734	696	362	418	389	718	567	605	672	321	347	361	506	921	1040	503	473	201	395	812	982	665	398	415	890	926	539	378	307	590	475	466	778	649	610	1013	288	614	251	679	613	758	866	953	1015	173	492	497	577	311	678	718	920	656	948	676	65	189	704	614	338	641	721	513	577	586	526	536	1440	1232	605	744	722	629	889	861	478	396	397	542	783	481	521	774	722	311	285	681	728	516	541	329	307	387	407	627	656	639	669	579	619	393	399	426	452	593	561	731	823	757	742	550	562	669	699	609	620	671	662	985	868	751	787	386	473	355	452	688	672	759	792	1028	930	419	433	1023	975	1303	1326	647	626	326	316	610	635	548	585	894	910	686	687	741	684	542	607	725	740	947	836	767	794	571	595	401	389	473	445	590	630	899	845	566	582	790	743	636	667	551	591	389	410	625	600	39	55	617	653	778	731	427	439	652	627	396	449	644	622	504	479	634	652	650	749	936	952	609	567	517	528	1004	1065	947	904	276	243	708	724	472	465	460	426	397	428	534	506	605	653	543	565	866	879	878	854	473	471	147	148	349	349	343	363	645	665	480	482	620	615	424	412	647	673	605	634	516	523	466	491	1013	1074	613	625	1353	1406	449	479	839	800	541	511	199	119	867	765	1413	1447	426	442	525	581	623	721	552	573	542	563	298	308	803	789	954	929	435	458	0	23	691	656	383	373	894	922	774	797	667	702	948	955	467	449	441	456	814	785	588	593	345	361	368	384	1280	1303	1502	1564
1327	324	605	458	526	1094	580	1148	815	513	305	1150	640	602	435	563	831	834	713	1306	719	596	486	353	170	490	499	771	580	850	340	397	830	459	564	685	229	778	741	694	339	395	387	711	560	612	679	298	324	359	513	928	1026	501	471	208	393	789	989	663	375	392	897	933	537	376	305	588	452	467	771	656	603	1020	286	591	228	672	606	765	873	960	1022	150	490	495	584	312	685	725	927	649	937	683	42	166	711	612	336	639	728	511	575	584	524	529	1438	1230	612	742	715	627	896	838	455	373	374	519	790	458	519	772	720	309	283	674	721	517	542	327	305	385	405	625	654	637	667	580	620	391	397	427	453	594	562	724	816	755	740	548	560	667	697	607	618	669	660	978	861	744	780	363	450	332	429	686	670	736	769	1021	923	417	431	1000	952	1301	1324	654	633	324	314	617	642	555	592	871	887	679	680	742	685	540	600	723	738	940	829	744	787	578	602	399	387	474	446	588	628	897	843	564	580	788	741	643	674	544	584	387	408	632	607	16	32	624	660	779	732	404	416	650	625	397	450	651	629	505	480	627	645	643	742	913	929	602	560	494	505	981	1042	924	881	283	250	706	722	465	442	458	424	374	405	511	483	612	660	541	563	843	856	855	831	471	469	154	125	347	347	344	364	652	672	478	480	618	613	425	413	645	671	603	632	514	521	473	498	999	1060	606	618	1360	1413	447	472	837	798	534	504	176	96	860	758	1411	1445	433	449	518	574	616	714	550	571	540	561	296	306	801	787	931	906	433	456	23	0	684	649	381	371	871	899	767	790	665	700	925	932	465	447	448	463	791	762	586	591	343	359	366	382	1278	1301	1500	1562
1152	417	115	156	553	919	62	973	341	447	314	879	263	28	383	97	720	526	627	1004	306	50	230	273	446	424	415	184	155	374	274	246	452	420	125	501	385	164	630	332	287	237	285	109	54	594	596	316	290	315	530	909	559	215	253	452	271	431	814	240	239	222	786	758	150	352	410	296	244	433	158	573	101	845	391	404	393	198	36	654	762	871	847	551	337	192	594	417	613	593	838	141	467	560	656	453	585	200	383	169	672	176	221	230	371	113	1136	928	529	298	101	388	807	432	246	288	259	176	679	203	366	252	200	362	388	70	117	505	476	336	358	274	254	267	296	348	324	485	480	240	246	443	417	499	540	336	342	240	220	339	327	324	347	374	385	386	371	408	387	270	306	425	385	488	437	403	387	348	381	451	449	230	216	628	580	886	909	665	643	354	370	534	559	582	619	499	483	205	241	558	501	302	206	310	294	353	355	356	313	563	612	297	309	440	462	435	419	622	568	331	315	519	508	560	591	150	110	332	311	549	524	630	614	541	577	591	548	234	222	426	463	450	397	568	546	459	484	23	41	169	268	509	505	130	172	189	200	557	618	482	475	561	528	262	278	195	218	260	294	382	340	303	296	622	642	259	237	465	452	449	425	256	231	532	549	329	340	437	417	569	589	240	256	283	292	441	429	356	382	364	349	361	368	494	519	532	593	60	48	1185	1238	232	202	382	421	140	170	600	678	273	284	1074	1030	516	500	242	186	228	326	215	236	258	278	401	411	343	329	488	464	293	269	637	644	0	35	315	327	467	495	293	316	221	256	501	489	276	294	499	484	425	454	433	406	310	327	285	301	863	886	1198	1260
1117	452	150	191	560	884	97	938	376	479	349	844	228	63	418	132	685	561	599	969	271	85	265	308	481	459	450	149	190	339	309	281	487	455	160	473	420	129	595	297	322	272	320	74	89	576	568	351	325	350	537	874	594	250	288	487	306	466	779	205	274	257	751	723	185	387	445	261	279	468	123	555	136	810	426	439	428	233	71	619	727	836	812	586	372	227	601	452	595	558	803	106	502	532	691	488	557	169	418	138	637	211	190	199	383	148	1101	893	511	263	66	353	772	467	281	323	294	211	644	238	378	217	165	397	423	105	152	537	508	371	393	309	289	232	261	313	289	492	452	275	281	478	452	506	547	371	377	205	185	311	299	289	312	346	357	351	336	373	422	305	341	460	420	523	472	368	352	383	416	416	484	265	251	663	615	851	874	647	650	389	405	516	541	589	626	534	518	240	276	530	473	337	241	275	259	318	390	391	348	570	619	332	344	475	497	431	391	587	533	303	287	484	480	542	573	185	145	367	346	531	506	665	649	523	559	556	520	269	257	398	435	485	432	550	528	494	519	58	76	204	303	544	540	165	207	224	235	592	653	517	510	596	563	227	243	230	253	295	329	417	375	338	331	629	624	294	272	500	487	484	460	291	266	567	584	364	375	472	452	551	571	275	291	251	257	476	464	321	347	329	314	396	403	529	554	567	628	95	83	1150	1203	267	237	347	386	175	205	635	713	238	319	1039	995	551	535	277	221	263	361	250	236	293	278	436	446	308	294	523	499	328	304	672	679	35	0	350	362	502	530	328	351	186	221	536	524	311	329	534	519	460	489	445	378	345	362	320	336	828	851	1163	1225
1062	130	265	159	347	829	281	883	516	236	103	838	300	303	139	255	566	684	448	976	389	297	128	101	239	213	222	472	240	510	169	93	627	176	224	377	279	479	476	364	115	208	30	387	261	412	414	210	185	0	334	742	734	143	141	192	59	606	724	323	203	193	632	668	197	62	118	258	215	189	472	391	304	755	131	441	188	373	307	500	608	764	757	366	160	155	405	157	431	460	731	325	642	418	401	193	446	272	85	299	502	171	235	244	194	230	1108	900	347	402	416	297	700	607	305	325	150	265	525	292	189	432	380	124	128	375	422	289	265	125	120	81	101	285	314	307	337	303	312	87	93	199	173	317	334	425	517	415	400	218	230	337	367	277	288	339	330	679	562	445	481	319	406	382	458	356	340	523	556	722	624	113	127	803	755	971	994	483	454	89	77	352	377	376	413	674	658	380	381	434	377	206	301	393	398	641	530	531	488	381	423	42	30	196	218	258	298	567	513	234	250	458	411	378	409	245	285	29	50	367	342	375	359	359	395	471	424	205	193	320	295	163	153	386	364	228	252	328	346	344	443	684	680	303	261	278	289	732	793	657	650	286	268	366	382	166	189	124	90	403	361	274	333	433	460	211	232	640	627	624	600	113	135	272	292	64	62	150	130	387	407	138	122	278	283	197	185	315	341	273	302	184	191	250	275	707	768	307	319	1095	1148	143	173	500	468	235	205	343	423	561	459	1081	1115	272	256	219	275	317	415	210	231	210	231	141	151	461	447	663	639	103	98	382	384	385	350	0	12	642	670	468	491	325	360	676	664	124	117	255	240	600	612	256	261	99	83	74	58	948	971	1170	1232
1074	142	259	147	359	841	269	895	504	248	91	850	294	291	151	249	578	672	460	988	388	285	140	89	238	225	234	460	234	504	157	81	615	188	218	389	267	467	488	376	103	196	18	381	249	424	426	198	173	12	346	754	722	155	153	202	47	594	736	317	191	181	644	680	191	74	130	270	203	201	460	403	292	767	141	429	184	361	295	512	620	776	769	354	172	149	417	167	443	472	743	319	630	430	411	203	458	266	97	293	514	165	229	238	206	218	1120	912	359	396	404	309	712	595	293	313	138	253	537	280	201	426	374	112	138	363	410	301	277	113	108	69	89	279	308	319	349	315	324	75	81	211	185	329	346	413	505	409	394	230	242	349	379	289	300	351	342	667	550	433	469	307	394	370	446	368	352	511	544	710	612	101	115	791	743	983	1006	495	466	77	89	364	389	388	425	662	646	368	369	446	389	194	289	392	392	629	518	519	476	393	435	30	18	208	230	270	310	579	525	246	262	470	423	390	421	233	273	41	62	379	354	385	369	371	407	483	436	193	181	332	307	175	165	398	376	240	264	316	334	332	431	672	668	291	249	266	277	720	781	645	638	298	278	360	376	154	177	112	78	391	349	262	321	445	472	223	226	628	615	612	588	116	123	282	302	52	63	162	142	399	419	132	134	272	293	209	197	327	353	285	314	196	203	262	287	695	756	295	307	1107	1160	131	161	494	480	223	193	353	433	549	447	1093	1127	284	268	207	263	305	403	204	225	222	243	151	161	455	441	651	627	115	110	392	394	373	338	12	0	630	658	456	479	319	354	664	652	136	129	267	252	588	600	268	273	87	71	62	46	960	983	1182	1244
1571	744	550	483	880	1338	507	1392	166	774	641	1291	729	455	710	496	1075	239	957	1315	773	491	607	600	764	751	742	402	590	781	592	573	41	747	539	881	642	505	985	799	614	537	612	576	413	921	923	617	608	642	857	1251	172	607	632	779	598	107	1233	707	557	549	1141	1177	557	679	737	735	506	760	426	900	536	1264	718	280	711	269	503	1009	1117	1273	1266	808	664	584	921	744	940	969	1240	582	138	927	913	780	955	635	710	604	1011	572	656	665	698	462	1447	1239	856	765	568	801	1209	97	478	498	586	485	1034	481	693	719	667	689	715	527	574	832	803	663	685	601	581	714	743	787	790	812	816	567	573	770	744	826	867	449	341	707	687	722	734	790	814	781	792	824	810	431	314	269	233	682	595	744	647	841	825	275	308	382	274	557	543	161	113	1197	1220	992	970	681	697	861	886	909	946	32	16	334	370	938	881	629	533	777	761	475	354	283	240	890	939	624	636	767	789	762	802	1060	1006	738	739	957	915	887	918	477	437	659	638	876	851	887	871	868	904	975	928	561	549	824	799	777	724	895	873	786	811	480	498	496	397	42	58	457	481	498	509	110	171	136	140	888	855	729	745	522	545	587	621	592	550	565	506	949	969	683	661	54	41	66	90	583	558	859	867	656	667	764	744	896	916	567	583	707	728	768	756	795	821	777	787	688	695	821	846	145	206	527	515	1604	1657	559	529	849	888	467	497	918	935	515	413	1385	1341	843	827	551	495	537	439	639	660	682	702	728	738	810	796	93	118	620	596	894	917	537	502	642	654	0	28	220	197	688	723	54	66	603	621	826	811	140	167	760	765	637	654	612	628	1174	1197	1509	1571
1543	716	522	455	852	1310	479	1364	138	746	613	1263	701	427	682	468	1047	211	929	1287	745	463	579	572	736	723	714	374	562	753	564	545	13	719	511	853	614	477	957	771	586	509	584	548	385	893	895	589	580	614	829	1223	200	579	604	751	570	79	1205	679	529	521	1113	1149	529	651	709	707	478	732	398	872	508	1236	690	252	683	241	475	981	1089	1245	1238	780	636	556	893	716	912	941	1212	554	166	899	885	752	927	607	682	576	983	544	628	637	670	434	1419	1211	828	737	540	773	1181	69	450	470	558	457	1006	453	665	691	639	661	687	499	546	804	775	635	657	573	553	686	715	759	762	784	788	539	545	742	716	798	839	421	313	679	659	694	706	762	786	753	764	796	782	403	286	241	205	654	567	716	619	813	797	247	280	354	246	529	515	189	141	1169	1192	964	942	653	669	833	858	881	918	60	44	306	342	910	853	601	505	749	733	447	326	255	212	862	911	596	608	739	761	734	774	1032	978	710	711	929	887	859	890	449	409	631	610	848	823	859	843	840	876	947	900	533	521	796	771	749	696	867	845	758	783	452	470	468	369	70	86	429	453	470	481	138	199	155	112	860	827	701	717	494	517	559	593	564	522	537	478	921	941	655	633	26	13	38	62	555	530	831	839	628	639	736	716	868	888	539	555	679	700	740	728	767	793	749	759	660	667	793	818	173	234	499	487	1576	1629	531	501	821	860	439	469	890	907	487	385	1357	1313	815	799	523	467	509	411	611	632	654	674	700	710	782	768	121	137	592	568	866	889	509	474	614	626	28	0	192	169	660	695	82	94	575	593	798	783	112	139	732	737	609	626	584	600	1146	1169	1481	1543
1397	570	376	309	706	1164	333	1218	48	600	467	1117	555	281	536	322	901	233	783	1141	599	317	433	426	599	577	568	228	416	607	427	399	159	573	365	707	538	331	811	625	440	390	438	402	239	747	749	469	443	468	683	1077	266	433	458	605	424	138	1059	533	392	375	967	1003	383	505	563	561	397	586	252	726	362	1090	544	176	546	95	329	835	943	1099	1092	704	490	410	747	570	766	795	1066	408	174	753	809	606	781	461	536	430	837	398	482	491	524	288	1273	1065	682	591	394	627	1035	139	374	394	412	311	860	338	519	545	493	515	541	353	400	658	629	489	511	427	407	540	569	613	616	638	642	393	399	596	570	652	693	275	167	533	513	548	560	616	640	607	618	650	636	257	140	95	59	578	491	640	543	667	651	101	134	264	156	383	369	335	287	1023	1046	818	796	507	523	687	712	735	772	206	190	160	196	764	707	455	359	603	587	301	180	109	66	716	765	450	462	593	615	588	628	886	832	564	565	783	741	713	744	303	263	485	464	702	677	783	767	694	730	801	754	387	375	650	625	603	550	721	699	612	637	306	324	322	223	216	212	283	307	324	335	264	325	189	182	714	681	555	571	348	371	413	447	488	446	456	402	775	795	509	487	172	159	156	132	409	384	685	702	482	493	590	570	722	742	393	409	533	554	594	582	621	647	603	613	514	521	647	672	239	300	353	341	1430	1483	385	355	675	714	293	323	753	831	341	239	1211	1167	669	653	377	321	363	265	465	486	508	528	554	564	636	622	195	171	446	422	790	797	363	328	468	480	174	202	0	23	514	549	208	196	429	447	652	637	132	161	586	591	463	480	438	454	1000	1023	1335	1397
1374	547	353	286	683	1141	310	1195	71	577	444	1094	532	258	513	299	878	256	760	1118	576	294	410	403	576	554	545	205	393	584	404	376	182	550	342	684	515	308	788	602	417	367	415	379	216	724	726	446	420	445	660	1054	289	410	435	582	401	161	1036	510	369	352	944	980	360	482	540	538	374	563	229	703	339	1067	521	153	523	72	306	812	920	1076	1069	681	467	387	724	547	743	772	1043	385	197	730	786	583	758	438	513	407	814	375	459	468	501	265	1250	1042	659	568	371	604	1012	162	351	371	389	288	837	315	496	522	470	492	518	330	377	635	606	466	488	404	384	517	546	590	593	615	619	370	376	573	547	629	670	252	144	510	490	525	537	593	617	584	595	627	613	234	117	72	36	555	468	617	520	644	628	78	111	277	179	360	346	358	310	1000	1023	795	773	484	500	664	689	712	749	229	213	137	173	741	684	432	336	580	564	278	157	86	43	693	742	427	439	570	592	565	605	863	809	541	542	760	718	690	721	280	240	462	441	679	654	760	744	671	707	778	731	364	352	627	602	580	527	698	676	589	614	283	301	299	200	239	235	260	284	301	312	287	348	212	205	691	658	532	548	325	348	390	424	465	423	433	379	752	772	486	464	195	182	179	155	386	361	662	679	459	470	567	547	699	719	370	386	510	531	571	559	598	624	580	590	491	498	624	649	262	323	330	318	1407	1460	362	332	652	691	270	300	730	808	318	216	1188	1144	646	630	354	298	340	242	442	463	485	505	531	541	613	599	218	194	423	399	767	774	340	305	445	457	197	225	23	0	491	526	231	219	406	424	629	614	155	184	563	568	440	457	415	431	977	1000	1312	1374
935	423	218	329	411	702	251	756	562	330	360	658	42	249	389	242	505	747	423	796	85	263	208	358	507	349	340	305	223	185	426	326	673	391	232	324	536	285	415	111	372	410	301	148	275	427	419	467	442	325	388	692	766	193	231	498	286	652	597	19	412	395	571	541	205	358	442	125	417	389	279	406	184	628	437	625	453	419	249	439	547	654	630	623	308	170	452	463	446	378	621	144	688	383	707	499	408	165	395	176	457	193	128	137	258	258	928	720	362	77	222	189	590	653	467	509	403	397	464	424	253	142	125	408	434	291	338	388	359	382	404	320	340	115	86	133	103	343	303	326	326	449	423	357	398	557	563	90	110	186	174	103	126	197	208	171	156	529	608	491	527	576	606	639	658	188	172	569	602	572	670	352	366	849	801	682	705	498	501	396	401	367	392	440	477	720	704	426	462	381	324	317	379	89	73	474	576	577	534	421	470	313	325	422	449	282	242	405	353	178	169	304	331	393	424	323	331	338	317	382	357	681	665	374	410	376	371	407	395	249	286	456	403	401	379	384	409	244	262	390	489	730	726	351	393	410	421	778	839	703	696	573	574	41	57	368	391	275	309	603	561	476	517	480	475	200	179	686	673	670	646	271	246	578	598	371	382	443	423	402	422	219	235	135	141	447	435	141	167	165	136	332	287	459	484	753	814	249	261	968	1021	382	375	175	214	313	343	649	729	394	496	870	826	451	435	420	407	449	547	157	136	199	178	447	457	136	122	709	685	299	275	688	690	221	256	331	337	688	716	514	537	0	35	722	710	255	273	434	449	646	675	320	253	356	373	331	347	659	682	990	1052
966	388	183	294	409	733	216	787	527	328	325	693	77	214	354	207	534	712	448	831	120	228	173	323	472	347	338	270	188	220	391	291	638	389	197	322	501	250	444	146	337	375	266	113	240	425	417	432	407	290	386	723	731	158	196	463	251	617	628	54	377	360	600	572	170	323	407	110	382	387	244	404	149	659	402	590	418	384	214	468	576	685	661	588	281	135	450	428	444	407	652	109	653	381	672	464	406	130	360	141	486	158	93	102	232	223	963	755	360	112	187	202	621	618	432	474	368	362	493	389	227	142	90	373	399	256	303	386	357	347	369	285	305	81	110	162	138	341	301	291	291	414	388	355	396	522	528	125	110	160	148	138	161	195	206	200	185	494	573	456	492	541	571	604	623	217	201	534	567	537	635	317	331	814	766	717	740	496	499	361	366	365	390	438	475	685	669	391	427	379	322	282	344	124	108	439	541	542	499	419	468	278	290	411	433	280	240	436	382	152	136	333	329	391	422	288	296	303	282	380	355	646	630	372	408	405	369	372	360	247	284	421	368	399	377	382	407	209	227	355	454	695	691	316	358	375	386	743	804	668	661	538	539	76	92	333	356	240	274	568	526	441	482	478	473	165	144	651	638	635	611	236	211	543	563	336	347	408	388	400	420	184	200	100	106	412	400	170	196	178	163	305	261	457	482	718	779	214	226	999	1052	347	340	210	249	278	308	614	694	359	461	905	861	449	433	385	372	414	512	122	101	164	143	412	422	171	157	674	650	264	240	653	655	186	221	296	302	653	681	479	502	35	0	687	675	220	238	432	447	611	640	294	227	321	338	296	312	694	717	1025	1087
1581	754	560	493	890	1348	517	1402	136	784	651	1289	739	465	720	506	1085	288	967	1297	783	501	617	610	783	761	752	403	600	779	611	583	95	757	549	891	691	508	995	809	624	574	622	586	423	931	933	653	627	652	867	1261	118	617	642	789	608	161	1243	717	576	559	1151	1187	567	689	747	745	555	770	429	910	546	1274	728	329	730	279	513	1019	1127	1283	1276	857	674	594	931	754	950	979	1250	592	84	937	962	790	965	645	720	614	1021	582	666	675	708	472	1429	1221	866	775	578	811	1219	82	527	547	596	495	1044	522	703	729	677	699	725	537	584	842	813	673	695	611	591	724	753	797	800	822	826	577	583	780	754	836	877	459	351	717	697	732	744	800	824	791	802	834	820	413	324	279	243	731	644	793	696	851	835	285	318	352	244	567	553	215	167	1179	1202	1002	980	691	707	871	896	919	956	86	70	344	380	948	891	639	543	787	771	476	364	293	250	900	949	634	646	777	799	772	812	1070	1016	748	749	967	925	897	928	487	447	669	648	886	861	936	920	878	914	985	938	571	559	834	809	787	734	905	883	796	821	490	508	506	407	44	28	467	491	508	519	80	141	82	125	898	865	739	755	532	555	597	631	641	599	614	555	959	979	693	671	108	95	120	137	593	568	869	886	666	677	774	754	906	926	577	593	717	738	778	766	805	831	787	797	698	705	831	856	91	152	537	525	1614	1667	569	539	859	898	477	507	937	984	518	423	1367	1323	853	837	561	505	547	449	649	670	692	712	738	748	820	806	39	64	630	606	943	966	547	512	652	664	110	82	230	207	698	733	0	12	613	631	836	821	187	216	770	775	647	664	622	638	1156	1179	1491	1553
1593	766	572	505	902	1360	529	1414	148	796	663	1301	751	477	732	518	1097	281	979	1309	795	513	629	622	795	773	764	415	612	791	623	595	83	769	561	903	684	520	1007	821	636	579	634	598	435	943	945	659	639	664	879	1273	130	629	654	801	620	149	1255	729	588	571	1163	1199	579	701	759	757	548	782	441	922	558	1286	740	322	742	291	525	1031	1139	1295	1288	850	686	606	943	766	962	991	1262	604	96	949	955	802	977	657	732	626	1033	594	678	687	720	484	1441	1233	878	787	590	823	1231	94	520	540	608	507	1056	523	715	741	689	711	737	549	596	854	825	685	707	623	603	736	765	809	812	834	838	589	595	792	766	848	889	471	363	729	709	744	756	812	836	803	814	846	832	425	336	291	255	724	637	786	689	863	847	297	330	364	256	579	565	203	155	1191	1214	1014	992	703	719	883	908	931	968	74	58	356	392	960	903	651	555	799	783	488	376	305	262	912	961	646	658	789	811	784	824	1082	1028	760	761	979	937	909	940	499	459	681	660	898	873	929	913	890	926	997	950	583	571	846	821	799	746	917	895	808	833	502	520	518	419	32	16	479	503	520	531	68	129	94	137	910	877	751	767	544	567	609	643	634	592	607	548	971	991	705	683	96	83	108	132	605	580	881	898	678	689	786	766	918	938	589	605	729	750	790	778	817	843	799	809	710	717	843	868	103	164	549	537	1626	1679	581	551	871	910	489	519	949	977	530	435	1379	1335	865	849	573	517	559	461	661	682	704	724	750	760	832	818	51	76	642	618	936	959	559	524	664	676	98	70	242	219	710	745	12	0	625	643	848	833	182	209	782	787	659	676	634	650	1168	1191	1503	1565
968	168	195	212	277	735	220	789	477	171	194	739	230	260	134	185	472	662	354	877	290	236	58	200	309	148	139	433	170	426	262	175	588	171	154	278	370	440	382	265	214	293	129	317	222	318	320	301	278	99	254	648	695	73	42	262	135	567	630	253	295	278	538	574	127	103	188	159	300	184	433	297	238	661	201	526	258	334	241	406	514	670	663	450	61	85	318	227	337	366	637	255	603	324	471	263	352	202	141	229	408	101	165	174	95	191	1009	801	253	314	377	198	606	568	382	410	249	312	431	339	90	362	310	198	198	336	383	229	200	216	194	169	189	215	244	208	238	209	213	175	175	194	168	223	264	472	478	345	330	119	131	238	268	178	189	240	231	640	523	406	442	410	497	473	549	257	241	484	517	683	585	201	215	764	716	872	895	389	367	163	147	258	283	306	343	635	619	341	377	335	278	166	262	294	310	602	491	492	449	287	336	141	129	191	213	159	199	468	414	135	151	359	312	284	315	206	246	112	91	273	248	445	429	265	301	372	325	290	278	221	196	201	148	292	270	183	208	289	307	305	404	645	641	266	308	325	336	693	754	618	611	318	338	296	312	251	274	124	158	494	452	359	418	346	366	112	134	601	588	585	561	83	95	342	362	147	132	188	168	293	313	68	52	193	184	192	180	216	242	174	203	85	92	245	270	668	729	241	253	1001	1054	231	258	408	369	196	226	413	493	522	420	982	1016	250	234	303	322	364	462	140	161	111	132	211	221	382	368	624	600	44	68	452	454	346	311	123	111	603	631	429	452	255	290	637	625	0	18	233	235	561	590	157	162	198	182	173	157	849	872	1071	1133
986	186	177	194	295	753	202	807	459	189	191	757	212	242	152	167	490	644	372	895	306	218	40	189	327	166	157	415	152	422	257	157	570	189	136	296	367	422	400	283	203	275	113	299	204	336	338	298	273	106	272	666	677	55	60	280	117	549	648	235	277	260	556	592	109	121	206	177	282	202	415	315	220	679	219	508	276	316	223	424	532	688	681	454	79	67	336	245	355	384	655	237	585	342	489	281	370	184	159	211	426	83	147	156	113	173	1027	819	271	314	359	216	624	550	364	392	234	294	449	321	108	344	292	216	216	318	365	247	218	213	212	151	171	197	226	226	256	227	231	157	157	212	186	241	282	454	460	327	312	137	149	256	286	196	207	258	249	622	505	388	424	407	489	470	541	275	259	466	499	665	567	183	197	746	698	890	913	407	385	181	165	276	301	324	361	617	601	323	359	353	296	148	244	310	310	584	473	474	431	305	354	125	136	209	231	177	217	486	432	153	169	377	330	302	333	188	228	119	98	291	266	463	447	283	319	390	343	272	260	239	214	219	166	310	288	201	226	271	289	287	386	627	623	248	290	307	318	675	736	600	593	336	356	278	294	233	256	106	140	486	444	341	400	364	384	130	144	583	570	567	543	65	77	360	380	165	150	206	186	311	331	50	34	190	202	210	198	234	260	192	221	103	110	263	288	650	711	223	235	1019	1072	213	240	412	387	178	208	431	511	504	402	1000	1034	268	252	285	304	346	444	122	143	129	150	229	239	373	359	606	582	62	56	470	472	328	293	130	118	585	613	411	434	237	272	619	607	18	0	251	253	543	572	175	180	187	189	162	164	867	890	1089	1151
934	183	415	384	146	701	435	755	670	108	304	757	392	457	86	405	438	855	320	994	443	451	278	326	333	85	94	626	390	579	372	318	781	99	374	280	475	633	348	418	340	427	255	537	415	232	286	411	388	225	133	574	888	293	262	251	284	760	596	415	407	418	504	540	347	179	241	341	440	105	626	263	458	627	235	666	317	527	461	372	480	606	629	474	214	305	204	219	303	332	573	475	796	290	490	287	318	422	203	449	348	321	385	394	205	384	1126	918	219	467	570	351	542	761	530	530	375	490	397	517	210	574	522	308	290	529	576	112	137	326	304	306	326	415	436	361	391	175	215	312	318	78	104	189	157	650	671	524	542	301	308	391	421	259	252	393	384	833	716	599	635	520	607	578	659	410	394	677	710	876	778	338	352	957	909	1025	1048	286	253	273	257	224	249	175	212	828	812	534	570	337	280	359	455	447	463	795	684	685	642	198	222	267	255	114	86	232	272	585	531	312	328	410	363	250	281	399	439	238	229	239	214	464	448	231	267	374	327	430	418	263	226	231	178	258	236	100	75	482	500	498	597	838	834	459	486	503	514	886	947	811	804	231	264	475	479	391	414	314	315	604	562	499	558	232	280	332	354	794	781	778	754	263	288	352	381	263	248	203	198	259	279	288	272	389	368	52	64	369	395	327	356	238	283	25	50	861	922	461	473	967	1020	368	398	561	522	389	419	432	512	715	613	1099	1143	47	31	444	500	542	640	360	381	331	352	245	235	535	521	817	793	224	248	471	464	539	504	249	237	796	824	622	645	467	469	830	818	256	238	0	15	754	783	277	344	317	300	299	283	1002	1025	1188	1250
919	198	413	399	131	686	438	740	685	93	319	742	377	472	101	403	423	870	305	979	428	454	276	341	348	70	79	641	388	564	387	333	796	92	372	265	490	648	333	403	355	442	270	530	430	217	271	426	403	240	118	559	903	291	260	259	299	775	581	400	422	433	489	525	345	194	256	326	455	90	641	248	456	612	250	681	332	542	459	357	465	591	614	489	199	303	189	234	288	317	558	473	811	275	475	302	303	420	218	447	333	319	383	392	190	399	1111	903	204	452	585	336	527	776	545	545	390	505	382	532	195	559	507	323	305	544	591	97	122	341	319	321	341	400	421	346	376	160	200	327	333	93	119	174	142	665	686	509	527	286	293	376	406	244	237	378	369	848	731	614	650	535	622	593	674	395	379	692	725	891	793	353	367	972	924	1010	1033	271	238	288	272	209	234	160	197	843	827	549	585	322	265	374	470	432	448	810	699	700	657	183	207	282	270	123	100	217	257	570	516	297	313	395	348	235	266	414	454	253	244	224	199	449	433	216	252	359	312	445	433	248	211	246	193	243	221	85	60	497	515	513	612	853	849	474	501	518	529	901	962	826	819	216	249	460	464	406	429	329	330	619	577	514	573	217	265	330	352	809	796	793	769	278	303	337	366	278	263	218	213	244	264	286	270	374	353	67	79	354	380	312	341	223	268	40	65	876	937	459	471	952	1005	383	413	546	507	404	434	417	497	730	628	1084	1128	32	16	459	515	557	655	358	379	329	350	260	250	520	506	832	808	239	263	456	449	554	519	264	252	811	839	637	660	452	454	845	833	254	236	15	0	769	798	262	329	332	315	314	298	987	1010	1173	1235
1529	676	508	441	838	1296	465	1350	124	732	522	1249	687	413	668	454	1033	101	915	1273	731	449	565	521	626	709	700	360	548	739	454	514	97	705	497	839	504	463	943	757	508	399	553	534	371	879	881	479	470	583	815	1209	293	565	590	660	550	56	1191	665	419	428	1099	1135	515	637	618	693	368	718	384	858	494	1222	599	142	573	227	461	967	1075	1231	1224	670	622	542	879	625	898	927	1198	540	204	885	775	654	913	593	623	562	969	530	614	623	656	420	1405	1197	814	723	526	759	1167	105	340	360	472	404	992	343	651	677	625	570	596	485	532	790	761	544	566	542	522	672	701	745	748	770	774	508	514	728	702	784	825	407	299	665	645	680	692	748	772	739	750	782	768	389	272	227	191	544	457	606	509	799	783	159	192	340	232	498	484	267	219	1155	1178	950	928	585	601	819	844	867	904	138	154	292	328	896	839	587	491	735	719	433	312	167	198	848	897	565	577	725	747	720	760	1018	964	696	697	915	873	845	876	435	395	612	596	834	809	749	733	826	862	933	886	440	428	782	757	719	682	853	831	744	769	438	456	454	355	180	196	415	439	379	390	248	309	191	148	769	736	687	703	463	440	545	579	454	412	427	368	907	927	641	619	110	123	122	98	541	516	740	729	597	608	696	686	854	874	525	541	665	686	726	714	753	779	735	745	646	653	779	804	266	327	485	473	1562	1615	500	470	807	846	425	455	780	797	473	371	1343	1299	801	785	509	453	495	397	597	618	640	660	609	619	768	754	198	173	578	554	756	779	495	460	583	595	138	166	178	155	646	681	192	199	561	579	784	769	0	29	718	723	560	577	553	569	1132	1155	1467	1529
1500	673	479	412	809	1267	436	1321	95	703	551	1220	658	384	639	425	1004	130	886	1244	702	420	536	529	655	680	671	331	519	710	483	502	96	676	468	810	533	434	914	728	537	428	541	505	342	850	852	508	499	571	786	1180	264	536	561	689	527	35	1162	636	448	457	1070	1106	486	608	647	664	397	689	355	829	465	1193	628	171	602	198	432	938	1046	1202	1195	699	593	513	850	654	869	898	1169	511	175	856	804	683	884	564	639	533	940	501	585	594	627	391	1376	1168	785	694	497	730	1138	76	369	389	501	414	963	372	622	648	596	599	625	456	503	761	732	573	595	530	510	643	672	716	719	741	745	496	502	699	673	755	796	378	270	636	616	651	663	719	743	710	721	753	739	360	243	198	162	573	486	635	538	770	754	188	221	311	203	486	472	272	224	1126	1149	921	899	610	626	790	815	838	875	143	127	263	299	867	810	558	462	706	690	404	283	196	169	819	868	553	565	696	718	691	731	989	935	667	668	886	844	816	847	406	366	588	567	805	780	778	762	797	833	904	857	469	457	753	728	706	653	824	802	715	740	409	427	425	326	153	169	386	410	408	419	221	282	162	119	798	765	658	674	451	469	516	550	483	441	456	397	878	898	612	590	109	96	93	69	512	487	769	758	585	596	693	673	825	845	496	512	636	657	697	685	724	750	706	716	617	624	750	775	237	298	456	444	1533	1586	488	458	778	817	396	426	809	826	444	342	1314	1270	772	756	480	424	466	368	568	589	611	631	638	648	739	725	169	144	549	525	785	808	466	431	571	583	111	139	149	126	617	652	165	170	532	550	755	740	29	0	689	694	566	583	541	557	1103	1126	1438	1500
903	263	257	307	297	670	305	724	572	215	289	644	144	355	229	280	433	757	336	782	195	317	153	295	404	192	183	430	232	331	357	270	683	234	241	210	465	410	343	170	309	388	224	273	317	313	305	396	373	194	274	643	790	166	137	357	230	662	565	167	390	373	499	509	214	198	283	69	395	232	404	292	269	596	296	621	353	429	303	367	475	622	598	545	122	179	338	322	332	306	589	239	698	269	566	358	294	186	236	213	385	196	149	158	72	286	914	706	248	219	347	103	558	663	477	505	344	407	392	434	67	302	250	293	293	409	456	273	244	311	289	264	284	143	172	113	143	229	189	270	270	289	263	243	284	567	573	276	270	24	36	143	173	83	94	145	136	654	618	501	537	505	592	568	644	162	146	579	612	697	680	296	310	859	811	777	800	384	387	258	242	253	278	326	363	730	714	436	472	267	210	261	357	199	215	599	586	587	544	307	356	236	224	265	292	137	128	373	319	40	56	264	217	279	310	301	341	207	186	268	243	540	524	260	296	304	257	385	373	135	172	296	243	287	265	227	252	362	380	400	499	740	736	361	403	420	431	788	849	713	706	413	433	227	231	346	369	219	253	589	547	454	513	366	361	125	147	696	683	680	656	178	190	437	457	242	227	283	263	288	308	163	147	117	96	287	275	121	147	79	108	146	101	302	327	763	824	303	315	936	989	326	353	313	274	291	321	508	588	519	515	887	921	294	278	398	417	459	557	166	145	124	103	306	316	287	273	719	695	139	163	547	549	346	374	218	206	698	726	524	547	195	221	732	720	131	113	277	292	656	685	0	67	293	277	268	252	754	777	976	1038
898	258	285	302	232	665	310	719	567	148	284	711	211	350	199	275	402	752	284	849	262	326	148	290	399	125	116	497	260	398	352	265	678	167	244	189	460	477	312	237	304	383	219	340	312	248	250	391	368	189	209	578	785	163	132	352	225	657	560	234	385	368	468	504	217	193	278	136	390	165	471	227	328	591	291	616	348	424	331	336	444	600	593	540	71	175	273	317	267	285	567	306	693	248	561	353	273	253	231	280	338	191	216	225	5	281	981	773	183	286	414	170	536	658	472	500	339	402	361	429	0	369	317	288	288	426	473	206	177	306	284	259	279	210	239	180	210	164	124	265	265	240	217	178	219	562	568	343	337	91	103	210	240	97	108	212	203	721	613	496	532	500	587	563	639	229	213	574	607	764	675	291	305	854	806	844	867	319	322	253	237	188	213	261	298	725	709	431	467	246	189	256	352	266	282	666	581	582	539	242	291	231	219	198	225	70	110	440	386	107	123	278	231	214	245	296	336	202	181	203	178	535	519	195	231	283	236	380	368	132	107	291	238	222	200	160	185	379	397	395	494	735	731	356	398	415	426	783	844	708	701	407	428	294	298	341	364	214	248	584	542	449	508	301	296	192	214	691	678	675	651	173	185	432	452	237	222	278	258	223	243	158	142	184	163	238	226	188	214	146	175	95	140	235	260	758	819	331	343	931	984	321	348	380	341	286	316	503	583	586	510	954	988	227	211	393	412	454	552	230	212	191	170	301	311	354	340	714	690	134	158	542	544	413	401	213	201	693	721	519	542	262	288	727	715	126	108	210	225	651	680	67	0	288	272	263	247	821	844	1043	1105
1120	151	296	154	405	887	276	941	511	294	38	904	331	298	197	259	624	661	506	1042	425	292	194	68	185	271	280	467	271	541	106	88	622	234	255	443	214	474	534	419	82	161	72	407	256	470	472	145	122	66	392	800	729	209	207	175	84	601	782	354	141	158	690	726	228	120	107	324	210	247	467	449	299	813	114	418	131	368	302	558	666	822	815	301	226	186	463	140	489	518	789	345	637	476	384	176	504	303	88	330	560	202	266	275	260	225	1174	966	405	433	411	363	758	602	282	264	117	260	583	285	255	463	411	85	111	370	417	347	323	60	81	76	96	316	345	373	392	361	378	82	88	257	231	375	392	420	512	446	431	284	296	392	422	343	354	405	396	674	557	440	476	254	341	317	393	422	406	518	551	717	619	108	122	798	750	1033	1056	541	512	50	66	410	435	434	471	669	653	375	376	500	443	231	296	429	429	636	525	526	483	439	481	84	72	254	276	324	364	633	579	300	316	524	477	436	467	240	280	95	116	425	400	358	342	417	453	537	490	170	182	386	361	184	211	444	422	286	310	323	341	339	438	679	675	298	256	273	284	727	788	652	645	284	251	397	413	161	184	149	115	338	296	269	310	491	518	277	263	635	622	619	595	170	160	255	275	50	65	171	151	445	465	169	185	309	330	255	243	381	407	339	368	250	257	308	333	702	763	302	314	1153	1206	138	168	531	530	230	200	326	406	556	454	1147	1177	330	314	214	270	312	410	241	262	276	297	124	134	492	478	658	634	169	164	365	367	380	345	66	78	637	665	463	486	356	391	671	659	190	183	313	298	595	589	322	327	0	17	57	56	1010	1033	1236	1298
1137	168	279	137	422	904	259	958	494	311	21	916	314	281	214	242	641	644	523	1054	408	275	192	51	168	288	297	450	254	524	89	71	605	251	238	459	197	457	551	402	65	144	70	390	239	487	489	128	105	82	409	817	712	192	217	159	67	584	799	337	124	141	707	743	211	137	117	320	193	264	450	466	282	830	98	401	114	351	285	575	683	839	832	284	242	169	480	124	506	535	806	328	620	493	368	160	521	286	105	313	577	185	249	258	276	208	1186	978	422	416	394	379	775	585	265	247	100	243	600	268	271	446	394	69	95	353	400	364	340	43	65	59	79	299	328	372	375	378	394	65	71	274	248	392	409	403	495	429	414	300	312	375	405	359	370	409	395	657	540	423	459	237	324	300	376	426	410	501	534	700	602	91	105	781	733	1016	1039	558	529	67	83	427	452	451	488	652	636	358	359	516	459	214	279	412	412	619	508	509	466	456	498	82	88	271	293	340	380	645	591	316	324	540	493	453	484	223	263	111	132	442	417	342	326	434	470	553	506	153	165	402	377	201	228	461	439	303	327	306	324	322	421	662	658	281	239	256	267	710	771	635	628	268	235	380	396	144	167	132	98	321	279	252	293	508	535	268	246	618	605	602	578	165	143	239	259	67	82	188	168	462	482	152	168	292	313	272	260	380	406	355	372	266	273	325	350	685	746	285	297	1170	1223	121	151	514	513	213	183	310	390	539	437	1159	1160	347	331	197	253	295	393	224	245	267	287	108	118	475	461	641	617	185	178	349	351	363	328	82	94	620	648	446	469	339	374	654	642	188	199	330	315	578	572	338	343	17	0	40	56	993	1016	1248	1310
1104	172	271	129	389	871	251	925	486	278	61	880	306	273	181	234	608	654	490	1018	400	267	170	59	208	255	264	442	246	516	127	63	597	218	230	419	237	449	518	394	73	178	48	382	231	454	456	168	143	42	376	784	704	184	183	199	59	576	766	329	161	163	674	710	203	104	134	300	185	231	442	433	274	797	138	411	154	343	277	542	650	806	799	324	202	161	447	164	473	502	773	320	612	460	408	200	488	278	106	305	544	177	241	250	236	200	1150	942	389	408	386	339	742	577	275	287	108	235	567	262	231	438	386	109	135	345	392	331	307	83	105	51	71	291	320	349	367	345	354	57	63	241	215	359	376	395	487	421	406	260	272	367	397	319	330	381	372	649	532	415	451	277	364	340	416	398	382	493	526	692	594	83	97	773	725	1008	1031	525	496	77	93	394	419	418	455	644	628	350	351	476	419	206	271	404	404	611	500	501	458	423	465	60	48	238	260	300	340	609	555	276	292	500	453	420	451	215	255	71	92	409	384	382	366	401	437	513	466	175	163	362	337	205	195	428	406	270	294	298	316	314	413	654	650	273	231	248	259	702	763	627	620	308	275	372	388	136	159	124	90	361	319	244	303	475	502	253	238	610	597	594	570	146	135	279	299	52	63	192	172	429	449	144	160	284	305	239	227	357	383	315	344	226	233	292	317	677	738	277	289	1137	1190	113	143	506	505	205	175	350	430	531	429	1123	1152	314	298	189	245	287	385	216	237	252	273	148	158	467	453	633	609	145	140	389	391	355	320	42	54	612	640	438	461	331	366	646	634	166	159	297	282	570	582	298	303	57	57	0	16	985	1008	1212	1274
1120	188	255	113	405	887	235	941	470	294	45	892	290	257	197	218	624	638	506	1030	384	251	168	43	192	271	280	426	230	500	111	47	581	234	214	435	221	433	534	378	57	162	46	366	215	470	472	152	127	58	392	800	688	168	193	183	43	560	782	313	145	147	690	726	187	120	141	296	169	247	426	449	258	813	122	395	138	327	261	558	666	822	815	308	218	145	463	148	489	518	789	304	596	476	392	184	504	262	122	289	560	161	225	234	252	184	1162	954	405	392	370	355	758	561	259	271	92	219	583	246	247	422	370	93	119	329	376	347	323	67	89	35	55	275	304	348	351	361	370	41	47	257	231	375	392	379	471	405	390	276	288	351	381	335	346	385	371	633	516	399	435	261	348	324	400	402	386	477	510	676	578	67	81	757	709	992	1015	541	512	91	107	410	435	434	471	628	612	334	335	492	435	190	255	388	388	595	484	485	442	439	481	58	64	254	276	316	356	621	567	292	300	516	469	436	467	199	239	87	108	425	400	366	350	417	453	529	482	159	147	378	353	221	211	444	422	286	310	282	300	298	397	638	634	257	215	232	243	686	747	611	604	292	259	356	372	120	143	108	74	345	303	228	287	491	518	244	222	594	581	578	554	141	119	263	283	68	79	208	188	445	465	128	144	268	289	255	243	356	382	331	348	242	249	308	333	661	722	261	273	1153	1206	97	127	490	489	189	159	334	414	515	413	1135	1136	330	314	173	229	271	369	200	221	243	263	132	142	451	437	617	593	161	154	373	375	339	304	58	70	596	624	422	445	315	350	630	618	164	175	313	298	554	566	314	319	41	58	16	0	969	992	1224	1286
492	1017	863	974	967	539	896	601	1020	898	1014	443	679	891	983	887	678	1233	830	187	618	908	848	1012	1158	917	908	836	877	580	1080	980	1159	959	886	781	1190	915	768	610	1026	1055	955	790	917	892	862	1121	1096	948	930	839	1092	842	823	1111	940	1138	658	678	1057	1040	751	660	859	952	1037	693	1062	957	836	871	829	633	1050	1130	1107	967	894	792	720	801	635	1277	876	824	935	1076	911	787	768	789	1146	840	1320	1112	826	819	990	821	864	847	782	791	826	903	288	111	871	591	864	714	737	1139	1109	1151	1057	1039	719	1066	821	718	770	1047	1047	933	980	956	927	1036	1043	974	994	752	723	701	678	911	871	980	980	1032	1009	925	966	1110	1106	666	686	754	742	678	648	765	776	694	679	977	1094	1034	1013	1230	1248	1293	1300	695	695	1055	1088	1020	1128	1006	1020	1335	1287	23	46	963	984	1012	996	908	901	996	1033	1206	1190	974	1010	838	863	971	1024	643	627	998	1119	1063	1020	963	1000	967	978	990	1017	850	810	552	606	746	737	713	760	902	897	968	973	961	940	891	898	1294	1278	915	919	785	828	1052	1040	817	854	1050	997	866	888	952	977	886	904	1032	1037	1200	1184	993	1035	1052	1063	1236	1227	1161	1182	1167	1187	650	634	1013	1036	929	963	1245	1203	1121	1159	988	940	801	823	1172	1159	1156	1132	925	900	1191	1211	996	981	1037	1017	911	895	873	889	763	742	1030	1018	685	690	733	704	900	855	1027	1052	1211	1180	894	906	565	618	1036	1020	562	558	958	988	1262	1342	925	1027	211	167	1019	1003	1065	1049	1091	1100	811	790	800	779	1060	1070	551	565	1167	1143	893	917	1301	1303	863	898	972	960	1174	1202	1000	1023	729	694	1180	1168	885	867	1002	1017	1132	1161	888	821	1010	1027	985	1001	0	23	350	412
515	994	840	951	944	516	873	578	997	875	991	420	656	868	960	864	655	1210	807	164	595	885	825	989	1135	894	885	813	854	557	1057	957	1136	936	863	758	1167	892	745	587	1003	1032	932	767	894	869	839	1098	1073	925	907	816	1069	819	800	1088	917	1115	635	655	1034	1017	728	637	836	929	1014	670	1039	934	813	848	806	610	1027	1107	1084	944	871	769	697	778	612	1254	853	801	912	1053	888	764	745	766	1123	817	1297	1089	803	796	967	798	841	824	759	768	803	880	296	88	848	568	841	691	714	1116	1086	1128	1034	1016	696	1043	798	695	747	1024	1024	910	957	933	904	1013	1020	951	971	729	700	678	655	888	848	957	957	1009	986	902	943	1087	1083	643	663	731	719	655	625	742	753	671	656	954	1071	1011	990	1207	1225	1270	1277	672	672	1032	1065	997	1105	983	997	1312	1264	46	69	940	961	989	973	885	878	973	1010	1183	1167	951	987	815	840	948	1001	620	604	975	1096	1040	997	940	977	944	955	967	994	827	787	529	583	723	714	690	737	879	874	945	950	938	917	868	875	1271	1255	892	896	762	805	1029	1017	794	831	1027	974	843	865	929	954	863	881	1009	1014	1177	1161	970	1012	1029	1040	1213	1204	1138	1159	1144	1164	627	611	990	1013	906	940	1222	1180	1098	1136	965	917	778	800	1149	1136	1133	1109	902	877	1168	1188	973	958	1014	994	888	872	850	866	740	719	1007	995	662	667	710	681	877	832	1004	1029	1188	1157	871	883	588	641	1013	997	539	535	935	965	1239	1319	902	1004	234	190	996	980	1042	1026	1068	1077	788	767	777	756	1037	1047	528	542	1144	1120	870	894	1278	1280	840	875	949	937	1151	1179	977	1000	706	671	1157	1145	862	844	979	994	1109	1138	865	798	987	1004	962	978	23	0	358	420
316	1239	1157	1272	1126	671	1205	635	1355	1080	1265	602	967	1226	1177	1184	812	1568	964	194	946	1217	1083	1267	1380	1103	1111	1171	1132	915	1333	1235	1494	1145	1141	940	1441	1250	902	921	1281	1353	1200	1125	1252	1051	996	1372	1349	1170	1089	916	1427	1077	1058	1333	1195	1473	708	971	1355	1338	885	710	1114	1174	1259	929	1360	1143	1171	1017	1157	683	1272	1465	1329	1302	1203	926	854	935	685	1521	1098	1079	1094	1298	1047	946	902	1124	1481	999	1542	1334	972	1074	1212	1101	998	1102	1037	1046	1048	1209	62	270	1030	926	1199	873	871	1474	1442	1470	1312	1372	853	1399	1043	1053	1105	1269	1269	1268	1315	1138	1109	1287	1265	1229	1249	1017	1011	937	966	1093	1053	1235	1235	1218	1195	1102	1143	1445	1441	1001	1021	976	964	966	936	981	970	869	884	1312	1429	1369	1348	1481	1567	1544	1619	854	870	1390	1423	1355	1463	1261	1275	1670	1622	373	350	1122	1143	1234	1218	1067	1060	1155	1192	1541	1525	1309	1345	997	1022	1226	1322	950	962	1333	1454	1398	1355	1122	1159	1212	1200	1176	1203	1066	1026	711	765	968	967	872	919	1061	1056	1266	1306	1183	1162	1050	1057	1516	1500	1074	1078	944	987	1350	1338	1011	1048	1272	1219	1025	1047	1138	1163	1221	1239	1365	1372	1535	1519	1326	1368	1385	1396	1571	1562	1496	1517	1385	1409	985	969	1311	1334	1184	1218	1564	1522	1419	1478	1147	1099	1036	1058	1507	1494	1491	1467	1154	1155	1413	1433	1218	1203	1259	1239	1070	1054	1128	1123	998	977	1216	1204	921	895	955	934	1122	1077	1213	1238	1546	1515	1203	1215	389	442	1291	1318	897	893	1256	1286	1484	1564	1260	1362	227	271	1205	1189	1363	1382	1424	1435	1066	1045	1035	1014	1282	1292	886	900	1502	1478	1115	1139	1523	1525	1198	1233	1194	1182	1509	1537	1335	1358	1060	1025	1515	1503	1107	1089	1188	1203	1467	1496	1110	1043	1265	1253	1240	1228	381	373	0	62
254	1177	1095	1210	1064	609	1143	573	1293	1018	1203	540	905	1164	1115	1122	750	1506	902	132	884	1155	1021	1205	1318	1041	1049	1109	1070	853	1271	1173	1432	1083	1079	878	1379	1188	840	859	1219	1291	1138	1063	1190	989	934	1310	1287	1108	1027	854	1365	1015	996	1271	1133	1411	646	909	1293	1276	823	648	1052	1112	1197	867	1298	1081	1109	955	1095	621	1210	1403	1267	1240	1141	864	792	873	623	1459	1036	1017	1032	1236	985	884	840	1062	1419	937	1480	1272	910	1012	1150	1039	936	1040	975	984	986	1147	0	208	968	864	1137	811	809	1412	1380	1408	1250	1310	791	1337	981	991	1043	1207	1207	1206	1253	1076	1047	1225	1203	1167	1187	955	949	875	904	1031	991	1173	1173	1156	1133	1040	1081	1383	1379	939	959	914	902	904	874	919	908	807	822	1250	1367	1307	1286	1419	1505	1482	1557	792	808	1328	1361	1293	1401	1199	1213	1608	1560	311	288	1060	1081	1172	1156	1005	998	1093	1130	1479	1463	1247	1283	935	960	1164	1260	888	900	1271	1392	1336	1293	1060	1097	1150	1138	1114	1141	1004	964	649	703	906	905	810	857	999	994	1204	1244	1121	1100	988	995	1454	1438	1012	1016	882	925	1288	1276	949	986	1210	1157	963	985	1076	1101	1159	1177	1303	1310	1473	1457	1264	1306	1323	1334	1509	1500	1434	1455	1323	1347	923	907	1249	1272	1122	1156	1502	1460	1357	1416	1085	1037	974	996	1445	1432	1429	1405	1092	1093	1351	1371	1156	1141	1197	1177	1008	992	1066	1061	936	915	1154	1142	859	833	893	872	1060	1015	1151	1176	1484	1453	1141	1153	327	380	1229	1256	835	831	1194	1224	1422	1502	1198	1300	165	209	1143	1127	1301	1320	1362	1373	1004	983	973	952	1220	1230	824	838	1440	1416	1053	1077	1461	1463	1136	1171	1132	1120	1447	1475	1273	1296	998	963	1453	1441	1045	1027	1126	1141	1405	1434	1048	981	1203	1191	1178	1166	319	311	62	0
DEMAND_SECTION
1	0
2	37
3	62
4	31
5	1
6	1
7	26
8	1
9	1
10	83
11	11
12	62
13	57
14	57
15	46
16	9
17	1
18	37
19	1
20	11
21	6
22	1
23	26
24	45
25	1
26	31
27	31
28	7
29	73
30	1
31	1
32	7
33	60
34	1
35	6
36	1
37	14
38	133
39	13
40	1
41	42
42	7
43	51
44	97
45	7
46	12
47	26
48	1
49	7
50	57
51	7
52	1
53	1
54	51
55	1
56	1
57	1
58	57
59	1
60	26
61	1
62	1
63	1
64	1
65	62
66	215
67	204
68	1
69	7
70	6
71	1
72	30
73	118
74	53
75	22
76	22
77	1
78	7
79	7
80	1
81	1
82	12
83	1
84	7
85	1
86	46
87	40
88	7
89	40
90	76
91	1
92	57
93	12
94	1
95	1
96	1
97	44
98	124
99	259
100	124
101	6
102	57
103	93
104	82
105	68
106	7
107	47
108	152
109	18
110	19
111	6
112	96
113	11
114	89
115	38
116	28
117	48
118	39
119	13
120	39
121	79
122	177
123	177
124	60
125	60
126	116
127	116
128	40
129	40
130	1
131	1
132	37
133	37
134	53
135	53
136	46
137	46
138	142
139	142
140	42
141	42
142	95
143	95
144	98
145	98
146	78
147	78
148	32
149	32
150	48
151	48
152	86
153	86
154	97
155	97
156	12
157	12
158	120
159	120
160	21
161	21
162	52
163	52
164	48
165	48
166	77
167	77
168	38
169	38
170	48
171	48
172	80
173	80
174	65
175	65
176	316
177	316
178	93
179	93
180	136
181	136
182	23
183	23
184	90
185	90
186	31
187	31
188	22
189	22
190	26
191	26
192	60
193	60
194	46
195	46
196	127
197	127
198	23
199	23
200	81
201	81
202	106
203	106
204	34
205	34
206	50
207	50
208	21
209	21
210	83
211	83
212	16
213	16
214	31
215	31
216	35
217	35
218	126
219	126
220	7
221	7
222	7
223	7
224	4
225	4
226	24
227	24
228	74
229	74
230	123
231	123
232	143
233	143
234	7
235	7
236	104
237	104
238	7
239	7
240	74
241	74
242	86
243	86
244	13
245	13
246	17
247	17
248	45
249	45
250	189
251	189
252	118
253	118
254	51
255	51
256	35
257	35
258	139
259	139
260	7
261	7
262	30
263	30
264	68
265	68
266	75
267	75
268	32
269	32
270	63
271	63
272	100
273	100
274	1
275	1
276	120
277	120
278	145
279	145
280	7
281	7
282	65
283	65
284	31
285	31
286	111
287	111
288	63
289	63
290	105
291	105
292	143
293	143
294	207
295	207
296	58
297	58
298	7
299	7
300	704
301	704
302	102
303	102
304	51
305	51
306	16
307	16
308	153
309	153
310	89
311	89
312	69
313	69
314	172
315	172
316	150
317	150
318	82
319	82
320	69
321	69
322	46
323	46
324	126
325	126
326	1
327	1
328	26
329	26
330	92
331	92
332	6
333	6
334	47
335	47
336	117
337	117
338	35
339	35
340	12
341	12
342	4
343	4
344	62
345	62
346	37
347	37
348	190
349	190
350	37
351	37
352	235
353	235
354	31
355	31
356	134
357	134
358	328
359	328
360	70
361	70
MUTUALLY_EXCLUSIVE_GROUP_SECTION
1	122	123
2	124	125
3	126	127
4	128	129
5	130	131
6	132	133
7	134	135
8	136	137
9	138	139
10	140	141
11	142	143
12	144	145
13	146	147
14	148	149
15	150	151
16	152	153
17	154	155
18	156	157
19	158	159
20	160	161
21	162	163
22	164	165
23	166	167
24	168	169
25	170	171
26	172	173
27	174	175
28	176	177
29	178	179
30	180	181
31	182	183
32	184	185
33	186	187
34	188	189
35	190	191
36	192	193
37	194	195
38	196	197
39	198	199
40	200	201
41	202	203
42	204	205
43	206	207
44	208	209
45	210	211
46	212	213
47	214	215
48	216	217
49	218	219
50	220	221
51	222	223
52	224	225
53	226	227
54	228	229
55	230	231
56	232	233
57	234	235
58	236	237
59	238	239
60	240	241
61	242	243
62	244	245
63	246	247
64	248	249
65	250	251
66	252	253
67	254	255
68	256	257
69	258	259
70	260	261
71	262	263
72	264	265
73	266	267
74	268	269
75	270	271
76	272	273
77	274	275
78	276	277
79	278	279
80	280	281
81	282	283
82	284	285
83	286	287
84	288	289
85	290	291
86	292	293
87	294	295
88	296	297
89	298	299
90	300	301
91	302	303
92	304	305
93	306	307
94	308	309
95	310	311
96	312	313
97	314	315
98	316	317
99	318	319
100	320	321
101	322	323
102	324	325
103	326	327
104	328	329
105	330	331
106	332	333
107	334	335
108	336	337
109	338	339
110	340	341
111	342	343
112	344	345
113	346	347
114	348	349
115	350	351
116	352	353
117	354	355
118	356	357
119	358	359
120	360	361
DEPOT_SECTION
1
EOF
