NAME: lc1_10_10
TYPE: PDPTW
COMMENT: Li & Lim PDPTW benchmark converted from SINTEF format
DIMENSION: 1047
VEHICLES: 250
CAPACITY: 200
EDGE_WEIGHT_TYPE: EUC_2D
NODE_COORD_SECTION
1 250 250
2 387 297
3 5 297
4 355 177
5 78 346
6 286 159
7 322 465
8 393 408
9 89 216
10 76 345
11 410 285
12 472 189
13 270 49
14 219 325
15 437 12
16 418 218
17 20 488
18 77 347
19 73 346
20 480 455
21 129 292
22 337 257
23 237 254
24 131 220
25 417 417
26 287 143
27 379 80
28 87 285
29 374 489
30 440 247
31 281 137
32 379 196
33 297 102
34 39 76
35 35 306
36 435 68
37 245 251
38 409 88
39 273 55
40 163 340
41 129 223
42 371 200
43 357 26
44 470 473
45 77 344
46 478 461
47 128 291
48 111 113
49 164 21
50 21 485
51 108 26
52 424 286
53 200 270
54 7 300
55 433 31
56 420 295
57 451 367
58 118 157
59 489 101
60 200 261
61 476 483
62 30 302
63 8 300
64 275 45
65 238 46
66 152 206
67 99 218
68 393 410
69 480 460
70 337 256
71 389 300
72 90 237
73 321 280
74 417 218
75 64 108
76 57 432
77 356 24
78 143 207
79 221 325
80 22 483
81 24 65
82 141 431
83 202 9
84 20 48
85 457 163
86 470 290
87 268 400
88 337 251
89 366 20
90 72 344
91 149 203
92 55 428
93 189 7
94 397 18
95 481 122
96 20 73
97 54 430
98 74 350
99 202 8
100 406 285
101 460 2
102 441 244
103 1 293
104 115 465
105 422 420
106 75 347
107 141 428
108 404 264
109 398 23
110 148 211
111 362 22
112 479 127
113 443 246
114 22 37
115 65 100
116 404 447
117 102 264
118 444 271
119 325 466
120 124 219
121 335 243
122 26 42
123 113 106
124 399 450
125 146 439
126 162 336
127 2 295
128 122 35
129 346 60
130 93 213
131 218 316
132 116 156
133 419 422
134 467 141
135 187 491
136 433 25
137 286 137
138 370 82
139 132 290
140 435 11
141 206 261
142 428 291
143 95 384
144 205 223
145 463 140
146 343 47
147 435 62
148 387 488
149 121 157
150 182 463
151 92 216
152 370 83
153 444 242
154 90 285
155 446 64
156 312 264
157 208 11
158 442 247
159 140 431
160 118 153
161 134 428
162 91 235
163 406 257
164 377 76
165 474 96
166 346 57
167 393 301
168 412 214
169 210 398
170 346 150
171 62 453
172 437 61
173 87 96
174 367 83
175 91 268
176 459 145
177 63 444
178 433 27
179 60 454
180 478 99
181 485 454
182 6 292
183 398 20
184 248 251
185 433 15
186 64 426
187 154 207
188 481 456
189 380 498
190 88 286
191 111 23
192 199 187
193 269 48
194 367 178
195 452 163
196 431 28
197 8 116
198 233 47
199 237 43
200 320 262
201 188 4
202 180 6
203 328 466
204 393 12
205 409 90
206 406 87
207 394 407
208 358 183
209 186 461
210 38 72
211 323 471
212 224 192
213 278 46
214 272 403
215 232 42
216 18 63
217 58 458
218 416 417
219 205 230
220 65 453
221 421 294
222 434 245
223 2 116
224 411 421
225 315 260
226 136 288
227 173 490
228 90 232
229 402 265
230 361 14
231 348 147
232 385 295
233 394 23
234 466 295
235 71 103
236 125 29
237 25 65
238 58 449
239 246 398
240 423 294
241 59 459
242 348 145
243 477 97
244 307 102
245 169 31
246 381 495
247 95 234
248 22 33
249 435 268
250 135 293
251 439 266
252 269 402
253 267 400
254 473 196
255 445 237
256 461 284
257 167 339
258 26 43
259 101 386
260 342 54
261 243 399
262 288 44
263 274 48
264 360 184
265 23 67
266 6 296
267 249 258
268 421 415
269 319 468
270 50 438
271 440 61
272 17 65
273 323 118
274 402 281
275 71 153
276 52 432
277 378 199
278 238 204
279 208 184
280 376 195
281 473 475
282 215 395
283 123 222
284 436 241
285 70 100
286 73 328
287 241 205
288 250 405
289 483 14
290 466 287
291 467 114
292 120 159
293 408 84
294 413 217
295 338 142
296 483 457
297 479 169
298 95 224
299 122 216
300 477 179
301 406 99
302 44 47
303 487 450
304 172 488
305 460 374
306 279 138
307 338 147
308 395 295
309 195 185
310 463 194
311 30 72
312 244 254
313 317 261
314 67 108
315 442 310
316 63 336
317 109 107
318 100 387
319 494 94
320 343 49
321 40 52
322 319 124
323 94 97
324 476 94
325 283 47
326 398 325
327 460 13
328 305 107
329 188 12
330 136 290
331 439 268
332 112 467
333 181 469
334 358 18
335 459 10
336 199 268
337 436 237
338 318 280
339 64 99
340 394 333
341 366 93
342 95 391
343 391 425
344 344 146
345 198 12
346 186 472
347 390 408
348 19 43
349 307 108
350 59 457
351 49 451
352 125 39
353 61 147
354 317 123
355 392 426
356 237 213
357 71 333
358 304 97
359 196 462
360 224 191
361 37 51
362 491 25
363 270 401
364 474 461
365 66 448
366 337 241
367 269 46
368 22 41
369 198 271
370 287 43
371 446 63
372 200 229
373 48 72
374 465 142
375 123 155
376 16 497
377 220 319
378 484 171
379 55 431
380 428 24
381 80 342
382 16 68
383 124 56
384 95 218
385 481 26
386 145 434
387 335 57
388 26 490
389 324 127
390 109 114
391 72 148
392 220 392
393 442 243
394 69 336
395 131 226
396 150 204
397 423 217
398 419 459
399 285 163
400 203 7
401 54 445
402 109 463
403 355 180
404 13 455
405 165 337
406 314 124
407 9 124
408 3 292
409 16 462
410 189 464
411 288 154
412 90 296
413 138 438
414 13 459
415 461 8
416 96 97
417 68 99
418 146 205
419 117 152
420 481 96
421 338 260
422 285 44
423 111 464
424 468 291
425 148 206
426 184 464
427 197 11
428 396 410
429 133 53
430 132 30
431 464 13
432 100 394
433 483 22
434 93 235
435 174 26
436 436 264
437 24 492
438 406 94
439 234 246
440 315 287
441 408 453
442 128 225
443 226 191
444 391 407
445 198 264
446 179 7
447 425 215
448 483 27
449 22 40
450 479 176
451 476 102
452 386 405
453 22 38
454 440 241
455 182 14
456 266 405
457 357 181
458 395 332
459 423 290
460 104 28
461 131 56
462 111 110
463 97 93
464 90 274
465 214 394
466 6 114
467 375 191
468 356 21
469 466 165
470 415 223
471 397 20
472 241 403
473 69 334
474 152 210
475 67 335
476 126 30
477 390 423
478 285 162
479 285 158
480 406 96
481 459 374
482 67 109
483 468 475
484 438 31
485 168 24
486 267 394
487 406 450
488 460 288
489 224 203
490 21 487
491 21 488
492 87 217
493 67 452
494 119 223
495 398 428
496 344 262
497 390 301
498 167 27
499 236 247
500 313 119
501 13 51
502 200 13
503 0 120
504 202 4
505 343 144
506 94 383
507 250 411
508 464 134
509 443 237
510 4 114
511 169 336
512 200 178
513 412 453
514 121 151
515 403 93
516 399 301
517 97 387
518 176 8
519 62 326
520 151 207
521 299 98
522 334 240
523 92 270
524 444 269
525 132 223
526 428 25
527 413 421
528 382 498
529 391 429
530 398 97
531 192 265
532 438 26
533 44 79
534 137 290
535 446 319
536 175 487
537 26 45
538 147 435
539 111 459
540 472 132
541 349 158
542 86 268
543 415 216
544 121 218
545 210 185
546 98 215
547 484 174
548 328 458
549 313 126
550 390 415
551 459 17
552 481 124
553 386 414
554 116 466
555 468 295
556 391 426
557 408 279
558 15 68
559 392 424
560 88 95
561 116 151
562 240 250
563 123 159
564 89 290
565 39 50
566 359 179
567 338 257
568 92 236
569 413 417
570 91 101
571 55 449
572 57 425
573 465 287
574 320 280
575 322 468
576 483 458
577 312 267
578 139 291
579 388 408
580 110 459
581 459 372
582 204 269
583 407 98
584 335 256
585 471 484
586 339 244
587 89 272
588 488 96
589 316 286
590 235 50
591 316 258
592 425 288
593 213 397
594 113 156
595 199 9
596 463 167
597 129 27
598 248 404
599 405 276
600 400 288
601 61 156
602 393 20
603 484 177
604 108 116
605 112 217
606 389 404
607 102 391
608 434 26
609 488 26
610 477 120
611 126 220
612 439 310
613 212 319
614 320 283
615 17 459
616 236 213
617 68 108
618 390 294
619 275 42
620 423 214
621 460 367
622 272 402
623 478 102
624 400 260
625 181 6
626 470 475
627 245 408
628 93 96
629 218 318
630 441 265
631 21 64
632 356 23
633 267 44
634 277 50
635 182 4
636 26 36
637 384 491
638 418 290
639 321 277
640 358 16
641 389 334
642 48 78
643 24 68
644 206 225
645 290 141
646 439 15
647 359 182
648 413 287
649 230 49
650 407 280
651 459 295
652 468 199
653 101 384
654 170 26
655 197 270
656 415 289
657 203 390
658 443 272
659 210 391
660 363 22
661 352 176
662 212 223
663 8 120
664 244 250
665 18 484
666 379 82
667 84 346
668 233 207
669 344 62
670 20 489
671 361 181
672 174 494
673 49 76
674 390 325
675 7 118
676 107 26
677 312 270
678 399 102
679 109 108
680 115 218
681 88 287
682 54 424
683 125 32
684 199 12
685 457 374
686 391 413
687 304 102
688 391 293
689 66 336
690 132 291
691 18 462
692 347 62
693 466 142
694 389 17
695 342 254
696 92 223
697 404 83
698 290 46
699 95 92
700 200 265
701 435 16
702 25 499
703 319 260
704 116 225
705 402 284
706 108 105
707 386 13
708 472 129
709 132 57
710 43 71
711 493 91
712 12 451
713 201 188
714 60 428
715 243 248
716 230 197
717 389 11
718 401 281
719 459 14
720 411 95
721 0 297
722 476 196
723 458 16
724 92 230
725 432 24
726 215 317
727 371 192
728 481 20
729 152 207
730 14 459
731 361 17
732 8 497
733 206 186
734 421 218
735 402 264
736 388 325
737 35 304
738 321 263
739 444 313
740 188 462
741 400 103
742 418 221
743 112 219
744 408 452
745 30 301
746 205 228
747 407 88
748 380 489
749 395 331
750 133 26
751 21 68
752 313 282
753 53 440
754 458 130
755 437 15
756 400 286
757 346 144
758 440 244
759 280 162
760 488 173
761 326 118
762 207 400
763 391 18
764 37 55
765 204 15
766 173 28
767 343 148
768 231 43
769 445 273
770 432 27
771 439 305
772 208 396
773 249 407
774 107 112
775 279 159
776 376 494
777 403 262
778 41 47
779 96 213
780 461 167
781 391 99
782 116 221
783 165 343
784 388 334
785 130 57
786 422 409
787 66 156
788 485 86
789 389 428
790 117 467
791 475 477
792 429 27
793 339 60
794 381 494
795 218 321
796 64 101
797 343 254
798 478 464
799 423 286
800 198 9
801 225 196
802 374 190
803 462 14
804 347 54
805 231 195
806 72 96
807 489 87
808 443 313
809 233 204
810 477 483
811 459 368
812 95 277
813 16 460
814 100 266
815 288 53
816 211 386
817 144 439
818 224 314
819 79 291
820 95 235
821 7 123
822 91 217
823 105 27
824 101 385
825 238 210
826 439 67
827 435 267
828 443 64
829 92 234
830 450 265
831 102 27
832 492 94
833 440 63
834 453 367
835 15 69
836 489 17
837 335 255
838 419 418
839 292 41
840 489 27
841 96 270
842 461 369
843 105 22
844 479 121
845 207 223
846 17 458
847 186 7
848 465 168
849 416 288
850 388 418
851 92 233
852 179 492
853 132 55
854 485 24
855 388 331
856 217 323
857 281 164
858 169 340
859 491 20
860 279 42
861 439 243
862 391 334
863 96 244
864 441 273
865 477 478
866 56 434
867 12 463
868 458 164
869 446 65
870 71 156
871 65 153
872 8 118
873 102 29
874 315 265
875 343 62
876 384 16
877 67 105
878 478 118
879 73 101
880 200 14
881 114 225
882 460 293
883 51 447
884 418 295
885 282 139
886 477 122
887 91 266
888 16 463
889 228 199
890 435 20
891 467 195
892 469 132
893 465 136
894 246 255
895 49 75
896 66 98
897 166 32
898 326 466
899 202 186
900 467 285
901 290 136
902 341 58
903 121 219
904 107 35
905 216 319
906 134 288
907 89 270
908 136 52
909 462 167
910 340 54
911 80 286
912 38 301
913 25 307
914 470 139
915 270 400
916 204 187
917 460 171
918 399 106
919 197 267
920 77 350
921 91 231
922 398 103
923 35 303
924 231 204
925 311 266
926 416 420
927 231 203
928 4 116
929 417 217
930 268 52
931 345 144
932 368 85
933 441 65
934 201 270
935 0 293
936 167 24
937 186 464
938 7 292
939 80 290
940 405 455
941 439 312
942 300 108
943 478 121
944 92 232
945 111 463
946 132 294
947 134 285
948 316 284
949 56 428
950 232 47
951 466 291
952 341 257
953 420 213
954 116 152
955 163 337
956 440 7
957 208 222
958 485 95
959 97 385
960 462 367
961 455 365
962 492 95
963 405 450
964 371 193
965 234 202
966 404 103
967 24 41
968 67 334
969 207 227
970 277 403
971 15 457
972 217 319
973 111 467
974 378 493
975 112 465
976 173 25
977 421 292
978 74 146
979 178 491
980 204 185
981 319 470
982 163 331
983 470 125
984 315 121
985 166 34
986 284 140
987 85 288
988 376 190
989 238 203
990 399 104
991 472 481
992 46 74
993 401 255
994 475 480
995 485 27
996 476 174
997 330 242
998 332 249
999 375 80
1000 94 235
1001 287 144
1002 13 459
1003 197 267
1004 418 218
1005 168 24
1006 100 394
1007 476 94
1008 466 165
1009 485 24
1010 232 42
1011 181 6
1012 330 242
1013 8 118
1014 111 459
1015 64 426
1016 286 159
1017 197 11
1018 459 372
1019 384 16
1020 269 48
1021 417 417
1022 428 25
1023 439 268
1024 67 108
1025 134 288
1026 418 295
1027 349 158
1028 231 195
1029 105 22
1030 133 53
1031 39 50
1032 459 295
1033 357 26
1034 66 336
1035 464 134
1036 391 413
1037 146 439
1038 91 235
1039 220 319
1040 243 399
1041 272 403
1042 480 455
1043 204 269
1044 151 207
1045 238 204
1046 312 267
1047 379 196
PICKUP_AND_DELIVERY_SECTION
1 0 0 1824 0 0 0
2 10 144 681 90 0 516
3 10 789 1183 90 0 54
4 20 127 680 90 0 966
5 -10 196 785 90 45 0
6 20 290 836 0 0 1016
7 10 226 743 90 0 211
8 30 413 926 90 0 849
9 10 287 770 90 0 696
10 30 348 778 90 0 143
11 -20 338 717 90 100 0
12 30 230 803 90 0 722
13 -10 746 1149 90 634 0
14 10 337 745 90 0 79
15 20 449 720 90 0 646
16 20 740 1264 0 0 1004
17 -10 627 948 90 665 0
18 -20 260 682 90 90 0
19 -20 451 1047 90 968 0
20 10 908 1394 0 0 1042
21 -20 351 812 90 330 0
22 -20 595 1073 90 703 0
23 -10 414 902 90 845 0
24 -20 599 960 90 120 0
25 10 832 1142 0 0 1021
26 10 599 942 90 0 645
27 -10 602 925 90 761 0
28 30 456 1016 90 0 523
29 20 269 799 90 0 974
30 -10 503 993 90 153 0
31 10 117 726 90 0 633
32 20 443 935 0 0 1047
33 10 155 644 90 0 521
34 10 273 734 90 0 321
35 -30 222 662 90 737 0
36 10 259 746 90 0 833
37 10 5 418 90 0 250
38 20 409 962 90 0 206
39 -40 196 664 90 306 0
40 -20 168 813 90 405 0
41 20 123 501 90 0 903
42 -10 656 1102 90 277 0
43 20 936 1428 0 0 1033
44 -20 771 1421 90 991 0
45 10 196 746 90 0 5
46 10 310 686 90 0 576
47 -10 362 984 90 578 0
48 -20 427 899 90 563 0
49 -10 381 835 90 212 0
50 -30 348 679 90 80 0
51 10 265 654 90 0 676
52 10 368 721 90 0 592
53 20 53 538 90 0 445
54 -10 819 1341 90 3 0
55 10 285 788 90 0 178
56 -10 800 1220 90 444 0
57 -10 944 1385 90 181 0
58 20 200 668 90 0 390
59 -30 858 1214 90 962 0
60 -10 762 1201 90 700 0
61 -30 482 898 90 626 0
62 10 317 887 90 0 938
63 -20 975 1367 90 923 0
64 20 206 824 90 0 930
65 -20 584 936 90 199 0
66 -20 744 1139 90 729 0
67 -10 154 690 90 442 0
68 20 739 1155 90 0 648
69 -10 362 814 90 798 0
70 20 87 658 90 0 163
71 -20 147 623 90 232 0
72 -10 1070 1442 90 434 0
73 30 77 522 90 0 440
74 -10 937 1250 90 378 0
75 10 265 748 90 0 84
76 -30 803 1202 90 653 0
77 20 249 694 90 0 468
78 -20 115 548 90 425 0
79 -10 480 786 90 14 0
80 30 325 703 90 0 50
81 -20 674 1206 90 699 0
82 30 211 709 90 0 817
83 10 951 1489 90 0 400
84 -10 942 1428 90 75 0
85 -30 224 840 90 403 0
86 -30 611 1120 90 424 0
87 -10 656 1140 90 915 0
88 10 87 705 90 0 108
89 -30 671 1131 90 640 0
90 20 402 912 90 0 18
91 -20 352 799 90 309 0
92 -20 264 849 90 572 0
93 30 250 801 90 0 201
94 -20 304 789 90 322 0
95 30 327 933 90 0 943
96 10 290 865 90 0 272
97 -20 326 936 90 949 0
98 -10 634 1236 90 106 0
99 10 826 1488 90 0 157
100 20 188 680 90 0 11
101 20 408 968 90 0 335
102 10 719 1145 90 0 393
103 10 278 768 90 0 266
104 10 253 674 90 0 423
105 20 284 751 90 0 926
106 10 606 1076 90 0 98
107 20 208 667 90 0 554
108 -10 176 681 90 88 0
109 10 270 681 90 0 602
110 20 109 738 90 0 724
111 -20 937 1233 90 731 0
112 20 259 660 90 0 844
113 -20 254 876 90 337 0
114 10 566 1161 90 0 449
115 -20 558 1015 90 706 0
116 20 250 563 90 0 441
117 10 148 606 90 0 564
118 10 392 929 90 0 658
119 40 483 905 90 0 548
120 20 375 810 90 0 24
121 -30 181 741 90 998 0
122 -30 305 764 90 537 0
123 20 198 713 90 0 323
124 -20 838 1189 90 398 0
125 10 413 936 0 0 1037
126 20 123 506 90 0 379
127 -30 639 962 90 935 0
128 10 250 635 90 0 904
129 10 742 1371 90 0 669
130 30 215 652 90 0 594
131 20 73 681 90 0 905
132 10 251 802 90 0 187
133 -10 416 807 90 786 0
134 -10 408 803 90 693 0
135 -20 449 1176 90 536 0
136 -20 689 1184 90 196 0
137 10 298 677 90 0 901
138 40 234 724 90 0 371
139 -20 661 1054 90 336 0
140 40 302 720 90 0 431
141 -10 824 1330 90 531 0
142 10 564 898 90 0 864
143 -30 572 933 90 10 0
144 20 381 655 90 0 662
145 10 239 708 90 0 552
146 20 526 1017 90 0 692
147 -10 962 1413 90 836 0
148 -30 848 1186 90 776 0
149 10 159 558 90 0 774
150 30 223 762 90 0 304
151 10 620 991 90 0 298
152 -20 205 793 90 273 0
153 10 270 671 90 0 30
154 -10 876 1146 90 939 0
155 -10 447 818 90 826 0
156 20 63 504 90 0 874
157 -10 972 1492 90 99 0
158 -10 390 923 90 255 0
159 30 211 802 90 0 580
160 -20 791 1186 90 279 0
161 20 692 1235 90 0 413
162 10 962 1367 0 0 1038
163 -20 401 832 90 70 0
164 -30 399 939 90 932 0
165 -20 271 646 90 194 0
166 -10 700 1226 90 910 0
167 30 287 739 90 0 677
168 10 165 738 90 0 917
169 10 335 903 90 0 593
170 -20 795 1151 90 775 0
171 -30 296 803 90 493 0
172 -30 817 1373 90 755 0
173 -10 481 1073 90 570 0
174 30 203 752 90 0 701
175 -10 568 1231 90 680 0
176 40 233 866 90 0 886
177 -20 822 1408 90 241 0
178 -10 468 854 90 55 0
179 10 641 1203 90 0 217
180 -20 348 944 90 457 0
181 10 636 1096 90 0 57
182 10 247 908 90 0 408
183 20 273 774 90 0 694
184 20 2 428 90 0 312
185 20 297 707 90 0 415
186 10 931 1454 0 0 1015
187 -10 801 1268 90 132 0
188 40 796 1322 90 0 303
189 10 336 768 90 0 748
190 -10 551 1104 90 299 0
191 10 266 760 90 0 831
192 20 270 653 90 0 704
193 20 709 1003 0 0 1020
194 20 405 785 90 0 165
195 30 219 632 90 0 374
196 20 463 1043 90 0 136
197 20 673 1177 90 0 663
198 20 203 790 90 0 590
199 20 511 823 90 0 65
200 10 376 864 90 0 421
201 -30 253 685 90 93 0
202 -10 575 1037 90 635 0
203 -30 560 1193 90 898 0
204 -20 384 905 90 471 0
205 -10 300 887 90 438 0
206 -20 771 1165 90 38 0
207 -30 468 1053 90 347 0
208 -40 724 1214 90 295 0
209 20 220 656 90 0 333
210 30 276 722 90 0 806
211 -10 234 780 90 7 0
212 10 63 651 90 0 49
213 20 205 664 90 0 367
214 30 310 739 0 0 1041
215 10 422 721 0 0 1010
216 -20 529 980 90 382 0
217 -10 491 984 90 179 0
218 -20 874 1283 90 224 0
219 30 53 413 90 0 372
220 30 274 802 90 0 238
221 -10 642 1195 90 612 0
222 -10 1119 1550 90 758 0
223 20 391 722 90 0 928
224 20 697 1082 90 0 218
225 10 65 479 90 0 735
226 -10 843 1242 90 690 0
227 20 252 644 90 0 410
228 -30 439 975 90 921 0
229 20 152 696 90 0 777
230 -10 392 1032 90 334 0
231 -20 647 1113 90 885 0
232 20 142 599 90 0 71
233 -10 1163 1434 90 763 0
234 -10 831 1274 90 951 0
235 -10 959 1503 90 339 0
236 30 304 932 90 0 597
237 10 799 1263 90 0 675
238 -30 872 1164 90 220 0
239 40 148 635 90 0 267
240 -20 611 1041 90 799 0
241 20 418 875 90 0 177
242 -20 549 1026 90 354 0
243 -20 273 825 90 566 0
244 40 351 898 90 0 349
245 20 233 832 90 0 766
246 20 466 1009 90 0 637
247 10 155 673 90 0 829
248 10 559 979 90 0 453
249 -30 851 1403 90 600 0
250 -10 160 629 90 37 0
251 10 189 478 90 0 769
252 -20 446 790 90 363 0
253 -10 551 1063 90 622 0
254 10 345 862 90 0 734
255 10 195 758 90 0 158
256 -10 213 653 90 830 0
257 10 425 934 90 0 511
258 -20 305 753 90 302 0
259 20 201 773 90 0 959
260 20 357 813 90 0 320
261 10 585 1034 0 0 1040
262 20 435 912 90 0 698
263 10 203 745 90 0 619
264 -20 645 1108 90 671 0
265 -10 986 1263 90 679 0
266 -10 717 1073 90 103 0
267 -40 750 1134 90 239 0
268 30 237 677 90 0 527
269 -10 228 728 90 970 0
270 20 543 960 90 0 691
271 -20 758 1246 90 869 0
272 -10 432 891 90 96 0
273 20 150 606 90 0 152
274 20 698 1112 90 0 718
275 -30 587 975 90 601 0
276 20 554 1078 90 0 846
277 10 507 1057 90 0 42
278 20 392 807 0 0 1045
279 20 78 687 90 0 160
280 -30 391 800 90 467 0
281 -20 996 1309 90 865 0
282 -20 698 1096 90 762 0
283 30 208 598 90 0 384
284 -10 1068 1537 90 454 0
285 -10 885 1425 90 877 0
286 20 193 625 90 0 667
287 30 572 814 90 0 889
288 20 155 781 90 0 627
289 10 409 988 90 0 859
290 -20 219 772 90 900 0
291 -10 1016 1366 90 610 0
292 10 158 568 90 0 871
293 10 564 995 90 0 697
294 20 166 643 90 0 909
295 40 139 557 90 0 208
296 -30 632 914 90 364 0
297 -20 634 974 90 760 0
298 -10 905 1273 90 151 0
299 10 237 760 90 0 190
300 -20 237 795 90 310 0
301 -20 217 862 90 661 0
302 20 289 862 90 0 258
303 -40 738 1184 90 188 0
304 -30 250 763 90 150 0
305 -20 562 1021 90 961 0
306 40 115 608 90 0 39
307 10 135 671 90 0 647
308 -10 494 919 90 497 0
309 20 153 582 90 0 91
310 20 220 721 90 0 300
311 -20 1023 1452 90 751 0
312 -20 423 1087 90 184 0
313 20 194 678 90 0 567
314 10 231 625 0 0 1024
315 -20 464 877 90 739 0
316 -10 620 1063 90 911 0
317 20 200 652 90 0 896
318 10 279 668 90 0 866
319 -20 459 867 90 807 0
320 -20 381 978 90 260 0
321 -10 363 773 90 34 0
322 20 186 680 90 0 94
323 -20 218 497 90 123 0
324 20 274 695 0 0 1007
325 10 261 531 90 0 370
326 30 600 1017 90 0 736
327 -20 316 755 90 956 0
328 20 500 941 90 0 406
329 30 245 762 90 0 847
330 20 120 602 90 0 21
331 10 749 1316 0 0 1023
332 -10 339 723 90 790 0
333 -20 253 752 90 209 0
334 10 297 755 90 0 230
335 -20 357 822 90 101 0
336 20 89 564 90 0 139
337 20 186 550 90 0 113
338 20 110 593 90 0 574
339 10 699 1057 90 0 235
340 20 357 701 90 0 674
341 -10 691 1233 90 666 0
342 -10 671 1211 90 517 0
343 -10 637 1114 90 355 0
344 -10 352 673 90 505 0
345 -10 359 854 90 502 0
346 20 311 885 90 0 402
347 30 260 711 90 0 207
348 20 943 1424 90 0 501
349 -40 627 997 90 244 0
350 -10 552 1106 90 365 0
351 20 284 711 90 0 404
352 20 245 716 90 0 476
353 40 220 576 90 0 466
354 20 334 717 90 0 242
355 10 478 909 90 0 343
356 -30 588 1176 90 825 0
357 10 197 665 90 0 473
358 20 221 652 90 0 500
359 -40 771 1186 90 657 0
360 20 132 540 90 0 899
361 -10 400 922 90 533 0
362 10 727 1240 90 0 448
363 20 152 575 90 0 252
364 30 307 679 90 0 296
365 10 270 720 90 0 350
366 20 161 576 90 0 522
367 -20 553 974 90 213 0
368 -20 873 1401 90 778 0
369 -10 217 621 90 664 0
370 -10 356 808 90 325 0
371 -40 388 1058 90 138 0
372 -30 156 500 90 219 0
373 -20 423 1056 90 463 0
374 -30 240 739 90 195 0
375 -20 966 1386 90 419 0
376 -10 863 1298 90 670 0
377 30 732 1276 0 0 1039
378 10 542 874 90 0 74
379 -20 516 930 90 126 0
380 -10 812 1433 90 608 0
381 10 193 604 90 0 506
382 20 296 977 90 0 216
383 20 231 913 90 0 460
384 -30 633 1167 90 283 0
385 30 321 756 90 0 433
386 -20 269 707 90 538 0
387 30 210 606 90 0 793
388 -20 832 1406 90 712 0
389 30 143 595 90 0 999
390 -20 540 1159 90 58 0
391 -30 205 683 90 978 0
392 -20 722 1263 90 772 0
393 -10 712 1336 90 102 0
394 20 293 654 90 0 920
395 20 121 670 90 0 743
396 20 358 976 90 0 782
397 -20 603 1030 90 620 0
398 20 562 1060 90 0 124
399 -20 532 963 90 1001 0
400 -10 805 1336 90 83 0
401 10 307 819 90 0 753
402 -20 776 1202 90 346 0
403 30 126 632 90 0 85
404 -20 313 921 90 351 0
405 20 218 577 90 0 40
406 -20 532 1080 90 328 0
407 20 271 696 90 0 503
408 -10 250 766 90 182 0
409 -20 721 1200 90 888 0
410 -20 590 1173 90 227 0
411 10 170 766 90 0 902
412 20 166 636 90 0 475
413 -20 643 1081 90 161 0
414 20 407 957 0 0 1002
415 -20 510 1058 90 185 0
416 20 217 687 90 0 628
417 10 858 1268 90 0 879
418 -20 132 648 90 474 0
419 20 675 1118 90 0 375
420 20 334 769 90 0 832
421 -10 489 810 90 200 0
422 -40 258 722 90 860 0
423 -10 551 1060 90 104 0
424 30 435 1111 90 0 86
425 20 205 760 90 0 78
426 10 223 688 90 0 945
427 10 479 918 0 0 1017
428 10 661 1047 90 0 638
429 20 453 935 0 0 1030
430 -20 695 1106 90 709 0
431 -40 560 1200 90 140 0
432 10 778 1294 0 0 1006
433 -30 325 856 90 385 0
434 10 748 1214 90 0 72
435 -10 750 1392 90 654 0
436 20 186 693 90 0 630
437 -10 1053 1403 90 490 0
438 10 220 758 90 0 205
439 10 349 770 90 0 655
440 -30 474 972 90 73 0
441 -20 383 853 90 116 0
442 10 124 635 90 0 67
443 20 163 693 90 0 980
444 10 378 776 90 0 56
445 -20 559 1032 90 53 0
446 -10 705 1089 90 880 0
447 10 469 978 90 0 742
448 -10 892 1412 90 362 0
449 -10 813 1280 90 114 0
450 20 240 834 90 0 547
451 -10 654 1008 90 623 0
452 20 206 640 90 0 477
453 -10 721 1187 90 248 0
454 10 835 1398 90 0 284
455 -10 827 1352 90 518 0
456 20 483 941 90 0 486
457 20 127 703 90 0 180
458 -20 364 878 90 855 0
459 -20 177 673 90 977 0
460 -20 519 944 90 383 0
461 -40 227 832 90 785 0
462 -10 369 771 90 969 0
463 20 261 730 90 0 373
464 20 170 698 90 0 907
465 10 558 1053 90 0 818
466 -40 649 1016 90 353 0
467 30 197 806 90 0 280
468 -20 252 798 90 77 0
469 30 580 972 0 0 1008
470 -10 1016 1544 90 891 0
471 20 272 761 90 0 204
472 -10 576 855 90 773 0
473 -10 199 804 90 357 0
474 20 105 447 90 0 418
475 -20 461 852 90 412 0
476 -20 284 770 90 352 0
477 -20 222 658 90 452 0
478 -20 403 910 90 857 0
479 -30 139 606 90 759 0
480 -10 219 696 90 583 0
481 20 702 1063 90 0 685
482 20 231 702 90 0 796
483 -10 313 848 90 606 0
484 10 288 893 90 0 770
485 10 522 1065 0 0 1005
486 -20 818 1170 90 456 0
487 -20 253 649 90 789 0
488 10 213 626 90 0 573
489 20 53 543 90 0 512
490 10 329 910 90 0 437
491 -10 343 1049 90 883 0
492 10 330 912 90 0 822
493 30 272 780 90 0 171
494 10 691 1067 90 0 525
495 -20 355 839 90 529 0
496 -20 353 753 90 952 0
497 10 149 767 90 0 308
498 30 275 747 90 0 976
499 -10 267 667 90 562 0
500 -20 480 941 90 358 0
501 -20 921 1425 90 348 0
502 10 242 867 90 0 345
503 -20 281 862 90 407 0
504 -20 757 1197 90 684 0
505 10 153 498 90 0 344
506 -10 472 851 90 381 0
507 -30 261 785 90 598 0
508 20 844 1310 0 0 1035
509 -40 193 638 90 624 0
510 -30 459 1021 90 821 0
511 -10 571 1159 90 257 0
512 -20 87 491 90 489 0
513 10 395 1029 90 0 940
514 -10 821 1342 90 853 0
515 -10 1001 1311 90 741 0
516 -10 488 730 90 2 0
517 10 637 1055 90 0 342
518 10 791 1191 90 0 455
519 20 707 1176 90 0 947
520 10 502 1018 0 0 1044
521 -10 159 603 90 33 0
522 -20 220 889 90 366 0
523 -30 707 1277 90 28 0
524 20 345 793 90 0 861
525 -10 527 1218 90 494 0
526 20 937 1448 0 0 1022
527 -30 598 997 90 268 0
528 10 433 855 90 0 794
529 20 272 728 90 0 495
530 10 212 658 90 0 720
531 10 522 876 90 0 141
532 10 292 785 90 0 725
533 10 267 916 90 0 361
534 10 119 588 90 0 946
535 30 207 741 90 0 811
536 20 248 746 90 0 135
537 30 303 704 90 0 122
538 20 295 865 90 0 386
539 20 970 1378 0 0 1014
540 -10 626 966 90 914 0
541 20 854 1289 0 0 1027
542 -20 540 885 90 544 0
543 10 168 664 90 0 868
544 20 132 676 90 0 542
545 20 76 438 90 0 908
546 -20 155 518 90 605 0
547 -20 338 701 90 450 0
548 -40 666 1284 90 119 0
549 -10 738 1058 90 984 0
550 -10 878 1255 90 579 0
551 -20 830 1302 90 803 0
552 -10 321 755 90 145 0
553 -10 819 1453 90 559 0
554 -20 254 941 90 107 0
555 10 710 1212 90 0 882
556 -10 514 1056 90 850 0
557 20 492 938 90 0 650
558 -10 297 823 90 835 0
559 10 763 1171 90 0 553
560 20 479 892 90 0 895
561 20 516 1095 90 0 604
562 10 147 598 90 0 499
563 20 156 646 90 0 48
564 -10 165 576 90 117 0
565 30 290 739 0 0 1031
566 20 270 725 90 0 243
567 -20 448 1038 90 313 0
568 -10 879 1267 90 587 0
569 -10 901 1442 90 838 0
570 10 635 1112 90 0 173
571 20 278 699 90 0 867
572 20 260 860 90 0 92
573 -10 426 748 90 488 0
574 -20 99 420 90 338 0
575 -10 403 798 90 981 0
576 -10 411 952 90 46 0
577 10 703 1100 0 0 1046
578 10 118 682 90 0 47
579 10 209 740 90 0 550
580 -30 748 1417 90 159 0
581 20 471 927 0 0 1018
582 30 49 498 0 0 1043
583 10 218 696 90 0 480
584 -30 659 1193 90 993 0
585 10 369 820 90 0 994
586 -20 89 685 90 591 0
587 10 263 790 90 0 568
588 -10 655 1226 90 958 0
589 -20 400 863 90 948 0
590 -20 682 1028 90 198 0
591 20 90 596 90 0 586
592 -10 395 877 90 52 0
593 -10 502 923 90 169 0
594 -30 451 787 90 130 0
595 -20 582 1181 90 649 0
596 -10 465 901 90 780 0
597 -30 410 1015 90 236 0
598 30 154 737 90 0 507
599 -30 625 994 90 705 0
600 30 154 556 90 0 249
601 30 263 731 90 0 275
602 -10 912 1464 90 109 0
603 20 245 628 90 0 996
604 -20 773 1111 90 561 0
605 20 201 625 90 0 546
606 10 207 688 90 0 483
607 -20 899 1360 90 714 0
608 10 314 825 90 0 380
609 -10 936 1399 90 840 0
610 10 732 1262 90 0 291
611 -10 493 877 90 746 0
612 10 198 526 90 0 221
613 -30 78 468 90 715 0
614 30 213 678 90 0 752
615 -20 1006 1421 90 813 0
616 20 39 627 90 0 965
617 10 230 724 90 0 643
618 -20 614 1170 90 688 0
619 -10 413 732 90 263 0
620 20 412 852 90 0 397
621 20 240 861 90 0 834
622 10 153 638 90 0 253
623 10 558 921 90 0 451
624 40 150 527 90 0 509
625 20 471 959 0 0 1011
626 30 314 975 90 0 61
627 -20 363 874 90 288 0
628 -20 219 742 90 416 0
629 -10 716 1108 90 972 0
630 -20 191 734 90 436 0
631 -40 590 1104 90 710 0
632 20 250 712 90 0 660
633 -10 451 891 90 31 0
634 10 201 540 90 0 13
635 10 377 868 90 0 202
636 -10 386 962 90 967 0
637 -20 676 1170 90 246 0
638 -10 975 1419 90 428 0
639 10 75 516 90 0 827
640 30 397 839 90 0 89
641 20 162 616 90 0 749
642 -20 763 1270 90 673 0
643 -10 930 1444 90 617 0
644 10 195 655 90 0 957
645 -10 405 949 90 26 0
646 -20 403 954 90 15 0
647 -10 572 997 90 307 0
648 -20 1076 1567 90 68 0
649 20 201 721 90 0 595
650 -20 419 828 90 557 0
651 20 1027 1455 0 0 1032
652 20 507 892 90 0 953
653 30 200 563 90 0 76
654 10 646 1127 90 0 435
655 -10 312 710 90 439 0
656 20 169 646 90 0 808
657 40 147 644 90 0 359
658 -10 585 1105 90 118 0
659 -20 146 661 90 816 0
660 -20 707 1282 90 632 0
661 20 126 473 90 0 301
662 -20 515 1076 90 144 0
663 -20 946 1455 90 197 0
664 10 6 546 90 0 369
665 10 329 865 90 0 17
666 10 656 1054 90 0 341
667 -20 889 1363 90 286 0
668 10 46 531 90 0 924
669 -10 978 1505 90 129 0
670 10 630 1127 90 0 376
671 20 483 902 90 0 264
672 10 305 751 90 0 979
673 20 674 1175 90 0 642
674 -20 646 1166 90 340 0
675 -10 775 1259 90 237 0
676 -10 292 805 90 51 0
677 -30 698 1292 90 167 0
678 20 381 984 90 0 918
679 10 245 709 90 0 265
680 10 138 698 90 0 175
681 -20 694 1143 90 987 0
682 -20 262 838 90 824 0
683 30 251 687 90 0 750
684 20 265 766 90 0 504
685 -20 697 1253 90 481 0
686 10 845 1237 0 0 1036
687 -10 250 813 90 942 0
688 20 611 990 90 0 618
689 10 483 1014 0 0 1034
690 10 501 1032 90 0 226
691 -20 837 1268 90 270 0
692 -20 977 1319 90 146 0
693 10 247 781 90 0 134
694 -20 771 1270 90 183 0
695 -20 92 511 90 837 0
696 -10 787 1203 90 9 0
697 -10 625 1121 90 293 0
698 -20 636 1093 90 262 0
699 20 277 899 90 0 81
700 10 642 1133 90 0 60
701 -30 693 1031 90 174 0
702 -40 911 1399 90 732 0
703 20 207 849 90 0 22
704 -20 537 1035 90 192 0
705 30 155 634 90 0 599
706 20 202 528 90 0 115
707 -20 617 1046 90 717 0
708 10 252 849 90 0 983
709 20 226 833 90 0 430
710 40 294 812 90 0 631
711 -20 382 759 90 788 0
712 20 311 705 90 0 388
713 10 267 841 90 0 881
714 20 894 1301 90 0 607
715 30 44 513 90 0 613
716 -20 333 901 90 927 0
717 20 534 943 90 0 707
718 -20 761 1232 90 274 0
719 20 315 778 90 0 995
720 -10 235 760 90 530 0
721 10 432 983 90 0 745
722 -30 260 760 90 12 0
723 20 313 764 90 0 728
724 -20 311 737 90 110 0
725 -10 722 1334 90 532 0
726 10 75 402 90 0 937
727 30 134 690 90 0 802
728 -20 430 773 90 723 0
729 20 574 1128 90 0 66
730 -20 341 840 90 971 0
731 20 577 1032 90 0 111
732 40 701 1265 90 0 702
733 10 705 1140 90 0 916
734 -10 590 1229 90 254 0
735 -10 152 702 90 225 0
736 -30 732 1264 90 326 0
737 30 221 751 90 0 35
738 -10 516 907 90 925 0
739 20 211 762 90 0 315
740 -10 468 1111 90 852 0
741 10 360 821 90 0 515
742 -10 907 1466 90 447 0
743 -20 320 689 90 395 0
744 -20 268 786 90 963 0
745 -10 459 927 90 721 0
746 10 50 480 90 0 611
747 -20 806 1312 90 781 0
748 -10 928 1300 90 189 0
749 -20 410 1013 90 641 0
750 -30 560 1054 90 683 0
751 20 1020 1412 90 0 311
752 -30 637 1000 90 614 0
753 -10 420 897 90 401 0
754 -20 918 1432 90 878 0
755 30 431 1110 90 0 172
756 -20 154 447 90 797 0
757 -40 437 954 90 986 0
758 10 613 1070 90 0 222
759 30 92 687 90 0 479
760 20 376 852 90 0 297
761 10 152 508 90 0 27
762 20 256 795 90 0 282
763 10 820 1405 90 0 233
764 -20 530 981 90 992 0
765 20 239 522 90 0 800
766 -20 916 1409 90 245 0
767 -30 138 795 90 931 0
768 -10 280 680 90 950 0
769 -10 510 995 90 251 0
770 -10 649 1040 90 484 0
771 -30 549 985 90 941 0
772 20 171 691 90 0 392
773 10 174 683 90 0 472
774 -10 550 964 90 149 0
775 20 121 433 90 0 170
776 30 274 552 90 0 148
777 -20 259 781 90 229 0
778 20 291 795 90 0 368
779 30 158 576 90 0 954
780 10 226 774 90 0 596
781 20 206 716 90 0 747
782 -20 346 852 90 396 0
783 -40 377 793 90 982 0
784 20 161 704 90 0 862
785 40 227 786 90 0 461
786 10 234 635 90 0 133
787 10 349 1021 90 0 870
788 20 286 841 90 0 711
789 20 225 648 90 0 487
790 10 254 794 90 0 332
791 -20 822 1297 90 810 0
792 -20 1064 1449 90 890 0
793 -30 209 685 90 387 0
794 -10 633 1024 90 528 0
795 20 517 939 90 0 894
796 -20 468 922 90 482 0
797 20 126 602 90 0 756
798 10 312 733 90 0 69
799 20 330 577 90 0 240
800 -20 540 1041 90 765 0
801 10 59 602 90 0 985
802 -30 137 520 90 727 0
803 20 712 1232 90 0 551
804 10 579 1161 90 0 875
805 20 262 787 0 0 1028
806 -30 965 1499 90 210 0
807 20 289 780 90 0 319
808 -20 333 823 90 656 0
809 20 49 515 90 0 989
810 20 554 1007 90 0 791
811 -30 240 566 90 535 0
812 -10 915 1264 90 819 0
813 20 908 1383 90 0 615
814 20 150 633 90 0 841
815 -10 720 1203 90 839 0
816 20 141 455 90 0 659
817 -30 490 1042 90 82 0
818 -10 935 1265 90 465 0
819 10 313 774 90 0 812
820 10 155 388 90 0 887
821 30 274 734 90 0 510
822 -10 482 947 90 492 0
823 10 423 857 90 0 873
824 20 201 802 90 0 682
825 30 580 998 90 0 356
826 10 263 748 90 0 155
827 -10 1034 1401 90 639 0
828 -10 561 1073 90 933 0
829 -10 699 1081 90 247 0
830 10 215 727 90 0 256
831 -10 552 1096 90 191 0
832 -20 461 1049 90 420 0
833 -10 643 1176 90 36 0
834 -20 876 1269 90 621 0
835 10 296 586 90 0 558
836 10 585 1005 90 0 147
837 20 85 494 90 0 695
838 10 238 729 90 0 569
839 10 594 943 90 0 815
840 10 822 1331 90 0 609
841 -20 155 712 90 814 0
842 -20 412 800 90 960 0
843 30 270 823 0 0 1029
844 -20 401 1045 90 112 0
845 10 447 772 90 0 23
846 -20 1024 1422 90 276 0
847 -30 278 778 90 329 0
848 -30 613 1125 90 929 0
849 -30 1058 1521 90 8 0
850 10 217 719 90 0 556
851 -10 570 1028 90 944 0
852 10 441 989 90 0 740
853 10 385 819 90 0 514
854 20 326 729 0 0 1009
855 20 160 529 90 0 458
856 -10 133 764 90 934 0
857 20 91 629 90 0 478
858 -10 467 1075 90 955 0
859 -10 620 1157 90 289 0
860 40 210 744 90 0 422
861 -20 979 1439 90 524 0
862 -20 215 657 90 784 0
863 -20 1133 1578 90 1000 0
864 -10 615 1260 90 142 0
865 20 696 1239 90 0 281
866 -10 632 1188 90 318 0
867 -20 519 1033 90 571 0
868 -10 225 664 90 543 0
869 20 269 819 90 0 271
870 -10 641 1108 90 787 0
871 -10 385 800 90 292 0
872 20 844 1373 0 0 1013
873 -10 592 1241 90 823 0
874 -20 634 982 90 156 0
875 -10 873 1525 90 804 0
876 20 764 1088 0 0 1019
877 10 354 846 90 0 285
878 20 825 1353 90 0 754
879 -10 869 1503 90 417 0
880 10 241 713 90 0 446
881 -10 462 925 90 713 0
882 -10 857 1441 90 555 0
883 10 280 684 90 0 491
884 20 885 1318 0 0 1026
885 20 115 506 90 0 231
886 -40 705 1105 90 176 0
887 -10 512 1104 90 820 0
888 20 649 1090 90 0 409
889 -30 502 916 90 287 0
890 20 728 1184 90 0 792
891 10 223 712 90 0 470
892 10 707 1071 90 0 893
893 -10 689 1282 90 892 0
894 -20 543 1153 90 795 0
895 -20 707 959 90 560 0
896 -20 737 1204 90 317 0
897 10 233 814 90 0 936
898 30 515 1054 90 0 203
899 -20 405 887 90 360 0
900 20 219 666 90 0 290
901 -10 334 830 90 137 0
902 -10 212 656 90 411 0
903 -20 132 659 90 41 0
904 -10 854 1173 90 128 0
905 -20 147 561 90 131 0
906 20 668 1234 0 0 1025
907 -20 335 902 90 464 0
908 -20 572 1004 90 545 0
909 -20 340 844 90 294 0
910 10 241 745 90 0 166
911 10 351 926 90 0 316
912 -10 409 1172 90 913 0
913 10 239 769 90 0 912
914 10 514 885 90 0 540
915 10 151 703 90 0 87
916 -10 578 1082 90 733 0
917 -10 704 1226 90 168 0
918 -20 708 1206 90 678 0
919 10 378 830 0 0 1003
920 -20 700 1355 90 394 0
921 30 391 840 90 0 228
922 -10 477 1069 90 990 0
923 20 221 571 90 0 63
924 -10 660 950 90 668 0
925 10 63 465 90 0 738
926 -20 527 883 90 105 0
927 20 115 528 90 0 716
928 -20 412 885 90 223 0
929 30 170 753 90 0 848
930 -20 876 1205 90 64 0
931 30 388 820 90 0 767
932 30 202 661 90 0 164
933 10 265 690 90 0 828
934 10 52 702 90 0 856
935 30 331 897 90 0 127
936 -10 508 896 90 897 0
937 -10 434 958 90 726 0
938 -10 246 731 90 62 0
939 10 213 692 90 0 154
940 -10 781 1050 90 513 0
941 30 198 646 90 0 771
942 10 150 612 90 0 687
943 -30 578 1050 90 95 0
944 10 196 668 90 0 851
945 -10 694 1099 90 426 0
946 -10 194 782 90 534 0
947 -20 922 1350 90 519 0
948 20 311 768 90 0 589
949 20 263 824 90 0 97
950 10 203 764 90 0 768
951 10 406 956 90 0 234
952 20 234 681 90 0 496
953 -20 202 876 90 652 0
954 -30 526 902 90 779 0
955 10 123 808 90 0 858
956 20 308 714 90 0 327
957 -10 410 991 90 644 0
958 10 281 825 90 0 588
959 -20 310 825 90 259 0
960 20 342 685 90 0 842
961 20 235 731 90 0 305
962 30 603 1089 90 0 59
963 20 253 774 90 0 744
964 20 133 713 90 0 988
965 -20 145 684 90 616 0
966 -20 222 772 90 4 0
967 10 383 775 90 0 636
968 20 317 814 90 0 19
969 10 48 522 90 0 462
970 10 210 650 90 0 269
971 20 313 832 90 0 730
972 10 539 1101 90 0 629
973 20 408 836 90 0 975
974 -20 274 759 90 29 0
975 -20 419 1009 90 973 0
976 -30 753 1206 90 498 0
977 20 176 714 90 0 459
978 30 204 555 90 0 391
979 -10 302 945 90 672 0
980 -20 503 973 90 443 0
981 10 230 784 90 0 575
982 40 118 326 90 0 783
983 -10 253 809 90 708 0
984 10 355 882 90 0 549
985 -10 231 823 90 801 0
986 40 115 584 90 0 757
987 20 169 729 90 0 681
988 -20 258 563 90 964 0
989 -20 305 712 90 809 0
990 10 660 1070 90 0 922
991 20 320 936 90 0 44
992 20 428 866 90 0 764
993 30 394 1029 90 0 584
994 -10 586 1162 90 585 0
995 -20 900 1411 90 719 0
996 -20 675 1123 90 603 0
997 30 422 876 0 0 1012
998 30 82 612 90 0 121
999 -30 340 808 90 389 0
1000 20 156 667 90 0 863
1001 20 635 1088 90 0 399
1002 -20 407 957 90 414 0
1003 -10 378 830 90 919 0
1004 -20 740 1264 90 16 0
1005 -10 522 1065 90 485 0
1006 -10 778 1294 90 432 0
1007 -20 274 695 90 324 0
1008 -30 580 972 90 469 0
1009 -20 326 729 90 854 0
1010 -10 422 721 90 215 0
1011 -20 471 959 90 625 0
1012 -30 422 876 90 997 0
1013 -20 844 1373 90 872 0
1014 -20 970 1378 90 539 0
1015 -10 931 1454 90 186 0
1016 -20 290 836 90 6 0
1017 -10 479 918 90 427 0
1018 -20 471 927 90 581 0
1019 -20 764 1088 90 876 0
1020 -20 709 1003 90 193 0
1021 -10 832 1142 90 25 0
1022 -20 937 1448 90 526 0
1023 -10 749 1316 90 331 0
1024 -10 231 625 90 314 0
1025 -20 668 1234 90 906 0
1026 -20 885 1318 90 884 0
1027 -20 854 1289 90 541 0
1028 -20 262 787 90 805 0
1029 -30 270 823 90 843 0
1030 -20 453 935 90 429 0
1031 -30 290 739 90 565 0
1032 -20 1027 1455 90 651 0
1033 -20 936 1428 90 43 0
1034 -10 483 1014 90 689 0
1035 -20 844 1310 90 508 0
1036 -10 845 1237 90 686 0
1037 -10 413 936 90 125 0
1038 -10 962 1367 90 162 0
1039 -30 732 1276 90 377 0
1040 -10 585 1034 90 261 0
1041 -30 310 739 90 214 0
1042 -10 908 1394 90 20 0
1043 -30 49 498 90 582 0
1044 -10 502 1018 90 520 0
1045 -20 392 807 90 278 0
1046 -10 703 1100 90 577 0
1047 -20 443 935 90 32 0
DEPOT_SECTION
1
-1
EOF
