NAME: lc1_10_3
TYPE: PDPTW
COMMENT: Li & Lim PDPTW benchmark converted from SINTEF format
DIMENSION: 1049
VEHICLES: 250
CAPACITY: 200
EDGE_WEIGHT_TYPE: EUC_2D
NODE_COORD_SECTION
1 250 250
2 387 297
3 5 297
4 355 177
5 78 346
6 286 159
7 322 465
8 393 408
9 89 216
10 76 345
11 410 285
12 472 189
13 270 49
14 219 325
15 437 12
16 418 218
17 20 488
18 77 347
19 73 346
20 480 455
21 129 292
22 337 257
23 237 254
24 131 220
25 417 417
26 287 143
27 379 80
28 87 285
29 374 489
30 440 247
31 281 137
32 379 196
33 297 102
34 39 76
35 35 306
36 435 68
37 245 251
38 409 88
39 273 55
40 163 340
41 129 223
42 371 200
43 357 26
44 470 473
45 77 344
46 478 461
47 128 291
48 111 113
49 164 21
50 21 485
51 108 26
52 424 286
53 200 270
54 7 300
55 433 31
56 420 295
57 451 367
58 118 157
59 489 101
60 200 261
61 476 483
62 30 302
63 8 300
64 275 45
65 238 46
66 152 206
67 99 218
68 393 410
69 480 460
70 337 256
71 389 300
72 90 237
73 321 280
74 417 218
75 64 108
76 57 432
77 356 24
78 143 207
79 221 325
80 22 483
81 24 65
82 141 431
83 202 9
84 20 48
85 457 163
86 470 290
87 268 400
88 337 251
89 366 20
90 72 344
91 149 203
92 55 428
93 189 7
94 397 18
95 481 122
96 20 73
97 54 430
98 74 350
99 202 8
100 406 285
101 460 2
102 441 244
103 1 293
104 115 465
105 422 420
106 75 347
107 141 428
108 404 264
109 398 23
110 148 211
111 362 22
112 479 127
113 443 246
114 22 37
115 65 100
116 404 447
117 102 264
118 444 271
119 325 466
120 124 219
121 335 243
122 26 42
123 113 106
124 399 450
125 146 439
126 162 336
127 2 295
128 122 35
129 346 60
130 93 213
131 218 316
132 116 156
133 419 422
134 467 141
135 187 491
136 433 25
137 286 137
138 370 82
139 132 290
140 435 11
141 206 261
142 428 291
143 95 384
144 205 223
145 463 140
146 343 47
147 435 62
148 387 488
149 121 157
150 182 463
151 92 216
152 370 83
153 444 242
154 90 285
155 446 64
156 312 264
157 208 11
158 442 247
159 140 431
160 118 153
161 134 428
162 91 235
163 406 257
164 377 76
165 474 96
166 346 57
167 393 301
168 412 214
169 210 398
170 346 150
171 62 453
172 437 61
173 87 96
174 367 83
175 91 268
176 459 145
177 63 444
178 433 27
179 60 454
180 478 99
181 485 454
182 6 292
183 398 20
184 248 251
185 433 15
186 64 426
187 154 207
188 481 456
189 380 498
190 88 286
191 111 23
192 199 187
193 269 48
194 367 178
195 452 163
196 431 28
197 8 116
198 233 47
199 237 43
200 320 262
201 188 4
202 180 6
203 328 466
204 393 12
205 409 90
206 406 87
207 394 407
208 358 183
209 186 461
210 38 72
211 323 471
212 224 192
213 278 46
214 272 403
215 232 42
216 18 63
217 58 458
218 416 417
219 205 230
220 65 453
221 421 294
222 434 245
223 2 116
224 411 421
225 315 260
226 136 288
227 173 490
228 90 232
229 402 265
230 361 14
231 348 147
232 385 295
233 394 23
234 466 295
235 71 103
236 125 29
237 25 65
238 58 449
239 246 398
240 423 294
241 59 459
242 348 145
243 477 97
244 307 102
245 169 31
246 381 495
247 95 234
248 22 33
249 435 268
250 135 293
251 439 266
252 269 402
253 267 400
254 473 196
255 445 237
256 461 284
257 167 339
258 26 43
259 101 386
260 342 54
261 243 399
262 288 44
263 274 48
264 360 184
265 23 67
266 6 296
267 249 258
268 421 415
269 319 468
270 50 438
271 440 61
272 17 65
273 323 118
274 402 281
275 71 153
276 52 432
277 378 199
278 238 204
279 208 184
280 376 195
281 473 475
282 215 395
283 123 222
284 436 241
285 70 100
286 73 328
287 241 205
288 250 405
289 483 14
290 466 287
291 467 114
292 120 159
293 408 84
294 413 217
295 338 142
296 483 457
297 479 169
298 95 224
299 122 216
300 477 179
301 406 99
302 44 47
303 487 450
304 172 488
305 460 374
306 279 138
307 338 147
308 395 295
309 195 185
310 463 194
311 30 72
312 244 254
313 317 261
314 67 108
315 442 310
316 63 336
317 109 107
318 100 387
319 494 94
320 343 49
321 40 52
322 319 124
323 94 97
324 476 94
325 283 47
326 398 325
327 460 13
328 305 107
329 188 12
330 136 290
331 439 268
332 112 467
333 181 469
334 358 18
335 459 10
336 199 268
337 436 237
338 318 280
339 64 99
340 394 333
341 366 93
342 95 391
343 391 425
344 344 146
345 198 12
346 186 472
347 390 408
348 19 43
349 307 108
350 59 457
351 49 451
352 125 39
353 61 147
354 317 123
355 392 426
356 237 213
357 71 333
358 304 97
359 196 462
360 224 191
361 37 51
362 491 25
363 270 401
364 474 461
365 66 448
366 337 241
367 269 46
368 22 41
369 198 271
370 287 43
371 446 63
372 200 229
373 48 72
374 465 142
375 123 155
376 16 497
377 220 319
378 484 171
379 55 431
380 428 24
381 80 342
382 16 68
383 124 56
384 95 218
385 481 26
386 145 434
387 335 57
388 26 490
389 324 127
390 109 114
391 72 148
392 220 392
393 442 243
394 69 336
395 131 226
396 150 204
397 423 217
398 419 459
399 285 163
400 203 7
401 54 445
402 109 463
403 355 180
404 13 455
405 165 337
406 314 124
407 9 124
408 3 292
409 16 462
410 189 464
411 288 154
412 90 296
413 138 438
414 13 459
415 461 8
416 96 97
417 68 99
418 146 205
419 117 152
420 481 96
421 338 260
422 285 44
423 111 464
424 468 291
425 148 206
426 184 464
427 197 11
428 396 410
429 133 53
430 132 30
431 464 13
432 100 394
433 483 22
434 93 235
435 174 26
436 436 264
437 24 492
438 406 94
439 234 246
440 315 287
441 408 453
442 128 225
443 226 191
444 391 407
445 198 264
446 179 7
447 425 215
448 483 27
449 22 40
450 479 176
451 476 102
452 386 405
453 22 38
454 440 241
455 182 14
456 266 405
457 357 181
458 395 332
459 423 290
460 104 28
461 131 56
462 111 110
463 97 93
464 90 274
465 214 394
466 6 114
467 375 191
468 356 21
469 466 165
470 415 223
471 397 20
472 241 403
473 69 334
474 152 210
475 67 335
476 126 30
477 390 423
478 285 162
479 285 158
480 406 96
481 459 374
482 67 109
483 468 475
484 438 31
485 168 24
486 267 394
487 406 450
488 460 288
489 224 203
490 21 487
491 21 488
492 87 217
493 67 452
494 119 223
495 398 428
496 344 262
497 390 301
498 167 27
499 236 247
500 313 119
501 13 51
502 200 13
503 0 120
504 202 4
505 343 144
506 94 383
507 250 411
508 464 134
509 443 237
510 4 114
511 169 336
512 200 178
513 412 453
514 121 151
515 403 93
516 399 301
517 97 387
518 176 8
519 62 326
520 151 207
521 299 98
522 334 240
523 92 270
524 444 269
525 132 223
526 428 25
527 413 421
528 382 498
529 391 429
530 398 97
531 192 265
532 438 26
533 44 79
534 137 290
535 446 319
536 175 487
537 26 45
538 147 435
539 111 459
540 472 132
541 349 158
542 86 268
543 415 216
544 121 218
545 210 185
546 98 215
547 484 174
548 328 458
549 313 126
550 390 415
551 459 17
552 481 124
553 386 414
554 116 466
555 468 295
556 391 426
557 408 279
558 15 68
559 392 424
560 88 95
561 116 151
562 240 250
563 123 159
564 89 290
565 39 50
566 359 179
567 338 257
568 92 236
569 413 417
570 91 101
571 55 449
572 57 425
573 465 287
574 320 280
575 322 468
576 483 458
577 312 267
578 139 291
579 388 408
580 110 459
581 459 372
582 204 269
583 407 98
584 335 256
585 471 484
586 339 244
587 89 272
588 488 96
589 316 286
590 235 50
591 316 258
592 425 288
593 213 397
594 113 156
595 199 9
596 463 167
597 129 27
598 248 404
599 405 276
600 400 288
601 61 156
602 393 20
603 484 177
604 108 116
605 112 217
606 389 404
607 102 391
608 434 26
609 488 26
610 477 120
611 126 220
612 439 310
613 212 319
614 320 283
615 17 459
616 236 213
617 68 108
618 390 294
619 275 42
620 423 214
621 460 367
622 272 402
623 478 102
624 400 260
625 181 6
626 470 475
627 245 408
628 93 96
629 218 318
630 441 265
631 21 64
632 356 23
633 267 44
634 277 50
635 182 4
636 26 36
637 384 491
638 418 290
639 321 277
640 358 16
641 389 334
642 48 78
643 24 68
644 206 225
645 290 141
646 439 15
647 359 182
648 413 287
649 230 49
650 407 280
651 459 295
652 468 199
653 101 384
654 170 26
655 197 270
656 415 289
657 203 390
658 443 272
659 210 391
660 363 22
661 352 176
662 212 223
663 8 120
664 244 250
665 18 484
666 379 82
667 84 346
668 233 207
669 344 62
670 20 489
671 361 181
672 174 494
673 49 76
674 390 325
675 7 118
676 107 26
677 312 270
678 399 102
679 109 108
680 115 218
681 88 287
682 54 424
683 125 32
684 199 12
685 457 374
686 391 413
687 304 102
688 391 293
689 66 336
690 132 291
691 18 462
692 347 62
693 466 142
694 389 17
695 342 254
696 92 223
697 404 83
698 290 46
699 95 92
700 200 265
701 435 16
702 25 499
703 319 260
704 116 225
705 402 284
706 108 105
707 386 13
708 472 129
709 132 57
710 43 71
711 493 91
712 12 451
713 201 188
714 60 428
715 243 248
716 230 197
717 389 11
718 401 281
719 459 14
720 411 95
721 0 297
722 476 196
723 458 16
724 92 230
725 432 24
726 215 317
727 371 192
728 481 20
729 152 207
730 14 459
731 361 17
732 8 497
733 206 186
734 421 218
735 402 264
736 388 325
737 35 304
738 321 263
739 444 313
740 188 462
741 400 103
742 418 221
743 112 219
744 408 452
745 30 301
746 205 228
747 407 88
748 380 489
749 395 331
750 133 26
751 21 68
752 313 282
753 53 440
754 458 130
755 437 15
756 400 286
757 346 144
758 440 244
759 280 162
760 488 173
761 326 118
762 207 400
763 391 18
764 37 55
765 204 15
766 173 28
767 343 148
768 231 43
769 445 273
770 432 27
771 439 305
772 208 396
773 249 407
774 107 112
775 279 159
776 376 494
777 403 262
778 41 47
779 96 213
780 461 167
781 391 99
782 116 221
783 165 343
784 388 334
785 130 57
786 422 409
787 66 156
788 485 86
789 389 428
790 117 467
791 475 477
792 429 27
793 339 60
794 381 494
795 218 321
796 64 101
797 343 254
798 478 464
799 423 286
800 198 9
801 225 196
802 374 190
803 462 14
804 347 54
805 231 195
806 72 96
807 489 87
808 443 313
809 233 204
810 477 483
811 459 368
812 95 277
813 16 460
814 100 266
815 288 53
816 211 386
817 144 439
818 224 314
819 79 291
820 95 235
821 7 123
822 91 217
823 105 27
824 101 385
825 238 210
826 439 67
827 435 267
828 443 64
829 92 234
830 450 265
831 102 27
832 492 94
833 440 63
834 453 367
835 15 69
836 489 17
837 335 255
838 419 418
839 292 41
840 489 27
841 96 270
842 461 369
843 105 22
844 479 121
845 207 223
846 17 458
847 186 7
848 465 168
849 416 288
850 388 418
851 92 233
852 179 492
853 132 55
854 485 24
855 388 331
856 217 323
857 281 164
858 169 340
859 491 20
860 279 42
861 439 243
862 391 334
863 96 244
864 441 273
865 477 478
866 56 434
867 12 463
868 458 164
869 446 65
870 71 156
871 65 153
872 8 118
873 102 29
874 315 265
875 343 62
876 384 16
877 67 105
878 478 118
879 73 101
880 200 14
881 114 225
882 460 293
883 51 447
884 418 295
885 282 139
886 477 122
887 91 266
888 16 463
889 228 199
890 435 20
891 467 195
892 469 132
893 465 136
894 246 255
895 49 75
896 66 98
897 166 32
898 326 466
899 202 186
900 467 285
901 290 136
902 341 58
903 121 219
904 107 35
905 216 319
906 134 288
907 89 270
908 136 52
909 462 167
910 340 54
911 80 286
912 38 301
913 25 307
914 470 139
915 270 400
916 204 187
917 460 171
918 399 106
919 197 267
920 77 350
921 91 231
922 398 103
923 35 303
924 231 204
925 311 266
926 416 420
927 231 203
928 4 116
929 417 217
930 268 52
931 345 144
932 368 85
933 441 65
934 201 270
935 0 293
936 167 24
937 186 464
938 7 292
939 80 290
940 405 455
941 439 312
942 300 108
943 478 121
944 92 232
945 111 463
946 132 294
947 134 285
948 316 284
949 56 428
950 232 47
951 466 291
952 341 257
953 420 213
954 116 152
955 163 337
956 440 7
957 208 222
958 485 95
959 97 385
960 462 367
961 455 365
962 492 95
963 405 450
964 371 193
965 234 202
966 404 103
967 24 41
968 67 334
969 207 227
970 277 403
971 15 457
972 217 319
973 111 467
974 378 493
975 112 465
976 173 25
977 421 292
978 74 146
979 178 491
980 204 185
981 319 470
982 163 331
983 470 125
984 315 121
985 166 34
986 284 140
987 85 288
988 376 190
989 238 203
990 399 104
991 472 481
992 46 74
993 401 255
994 475 480
995 485 27
996 476 174
997 330 242
998 332 249
999 375 80
1000 94 235
1001 287 144
1002 232 42
1003 37 55
1004 204 269
1005 356 21
1006 377 76
1007 492 95
1008 200 229
1009 483 457
1010 481 124
1011 35 306
1012 122 35
1013 187 491
1014 169 336
1015 95 391
1016 38 72
1017 128 291
1018 270 49
1019 135 293
1020 411 95
1021 390 408
1022 379 80
1023 4 116
1024 395 332
1025 332 249
1026 405 455
1027 464 134
1028 237 254
1029 442 310
1030 113 156
1031 385 295
1032 435 62
1033 98 215
1034 348 145
1035 421 292
1036 238 204
1037 86 268
1038 95 277
1039 43 71
1040 204 15
1041 466 295
1042 388 325
1043 1 293
1044 441 265
1045 418 218
1046 52 432
1047 204 187
1048 313 119
1049 287 144
PICKUP_AND_DELIVERY_SECTION
1 0 0 1824 0 0 0
2 10 200 270 90 0 308
3 -10 955 1017 90 182 0
4 -20 0 1607 90 566 0
5 30 355 403 90 0 519
6 -30 530 597 90 479 0
7 10 226 291 90 0 981
8 -20 0 1521 90 862 0
9 -10 0 1570 90 492 0
10 30 0 1536 90 0 19
11 20 499 556 90 0 555
12 30 0 1504 90 0 914
13 30 925 970 0 0 1018
14 10 0 1653 90 0 795
15 -20 557 613 90 646 0
16 20 0 1563 0 0 1045
17 -30 754 820 90 50 0
18 20 436 505 90 0 412
19 -30 0 1533 90 10 0
20 -40 1123 1179 90 188 0
21 10 552 610 90 0 934
22 20 0 1647 90 0 496
23 20 0 1721 0 0 1028
24 -20 0 1612 90 120 0
25 -10 954 1020 90 786 0
26 -40 748 793 90 986 0
27 20 0 1521 0 0 1022
28 -10 709 764 90 819 0
29 20 0 1465 90 0 748
30 20 717 779 90 0 100
31 10 0 1617 90 0 137
32 -30 665 714 90 727 0
33 10 214 281 90 0 984
34 10 328 399 90 0 806
35 20 0 1512 0 0 1011
36 10 0 1475 90 0 869
37 10 60 130 90 0 957
38 -10 0 1508 90 438 0
39 20 196 246 90 0 370
40 30 468 513 90 0 613
41 20 274 340 90 0 299
42 -10 0 1604 90 145 0
43 -20 0 1486 90 660 0
44 10 1221 1270 90 0 798
45 -20 254 319 90 667 0
46 10 0 1424 90 0 69
47 10 0 1606 0 0 1017
48 -20 632 694 90 317 0
49 20 578 639 90 0 245
50 30 487 540 90 0 17
51 -10 423 491 90 676 0
52 -10 0 1557 90 573 0
53 20 0 1681 90 0 184
54 -10 1056 1104 90 721 0
55 10 0 1449 90 0 792
56 -20 0 1559 90 651 0
57 -10 1134 1195 90 842 0
58 -10 0 1573 90 132 0
59 20 0 1453 90 0 754
60 -20 945 1017 90 144 0
61 10 0 1410 90 0 865
62 -20 0 1508 90 286 0
63 10 1131 1211 90 0 911
64 20 444 515 90 0 860
65 40 735 784 90 0 590
66 10 910 973 90 0 418
67 30 154 205 90 0 384
68 -20 913 982 90 784 0
69 -10 549 627 90 46 0
70 20 154 201 90 0 557
71 -30 0 1587 90 993 0
72 -10 0 1574 90 820 0
73 30 143 194 90 0 574
74 -10 0 1564 90 596 0
75 10 473 539 90 0 115
76 -30 973 1033 90 159 0
77 20 249 323 90 0 111
78 -20 0 1619 90 729 0
79 10 0 1654 90 0 377
80 -10 0 1409 90 388 0
81 -10 0 1442 90 558 0
82 30 362 423 90 0 270
83 -10 0 1489 90 880 0
84 -20 1294 1358 90 631 0
85 20 284 346 90 0 780
86 10 0 1511 90 0 900
87 -30 0 1583 90 214 0
88 10 0 1647 90 0 584
89 -10 874 927 90 230 0
90 -10 0 1533 90 98 0
91 -20 553 597 90 110 0
92 -30 511 568 90 653 0
93 30 0 1484 90 0 847
94 -20 0 1460 90 471 0
95 -20 607 653 90 983 0
96 10 0 1444 90 0 835
97 -20 610 652 90 949 0
98 10 915 955 90 0 90
99 -10 0 1488 90 504 0
100 -20 0 1575 90 30 0
101 20 655 720 90 0 532
102 10 0 1543 90 0 393
103 10 0 1482 0 0 1043
104 -10 409 465 90 790 0
105 20 0 1493 90 0 133
106 10 0 1534 90 0 670
107 20 0 1526 90 0 386
108 -20 0 1580 90 229 0
109 10 270 334 90 0 707
110 20 167 233 90 0 91
111 -20 0 1480 90 77 0
112 20 412 478 90 0 693
113 -20 536 593 90 337 0
114 -20 0 1422 90 453 0
115 -10 763 811 90 75 0
116 20 250 280 90 0 550
117 10 148 215 90 0 863
118 -10 633 688 90 488 0
119 -20 0 1506 90 575 0
120 20 571 615 90 0 24
121 20 0 1649 90 0 567
122 -10 455 519 90 258 0
123 20 0 1536 90 0 356
124 20 0 1485 90 0 495
125 -20 642 707 90 333 0
126 -20 0 1611 90 259 0
127 -10 774 828 90 938 0
128 10 0 1484 0 0 1012
129 -20 1027 1086 90 166 0
130 -10 0 1573 90 696 0
131 -10 0 1661 90 726 0
132 10 495 557 90 0 58
133 -20 0 1493 90 105 0
134 -10 0 1492 90 708 0
135 20 0 1485 0 0 1013
136 20 0 1444 90 0 526
137 -10 0 1616 90 31 0
138 40 0 1528 90 0 725
139 -10 0 1610 90 578 0
140 -20 0 1432 90 956 0
141 -10 1050 1104 90 746 0
142 -20 698 764 90 656 0
143 -30 719 785 90 959 0
144 20 491 544 90 0 60
145 10 0 1495 90 0 42
146 20 0 1511 90 0 804
147 30 0 1471 0 0 1032
148 -20 0 1460 90 246 0
149 10 0 1575 90 0 390
150 30 0 1511 90 0 972
151 10 0 1573 90 0 779
152 20 357 419 90 0 608
153 -20 441 501 90 509 0
154 40 0 1571 90 0 655
155 10 0 1464 90 0 271
156 20 131 179 90 0 313
157 20 0 1492 90 0 198
158 -10 0 1542 90 255 0
159 30 280 324 90 0 76
160 -40 0 1571 90 785 0
161 -20 935 992 90 973 0
162 10 0 1575 90 0 228
163 -20 0 1578 90 769 0
164 20 0 1519 0 0 1006
165 30 0 1463 90 0 844
166 20 0 1519 90 0 129
167 -30 0 1583 90 705 0
168 -10 0 1569 90 848 0
169 10 0 1581 90 0 282
170 -40 948 998 90 295 0
171 -30 515 584 90 220 0
172 -30 1063 1127 90 828 0
173 30 0 1510 90 0 560
174 -10 0 1531 90 770 0
175 -20 869 931 90 523 0
176 40 233 291 90 0 297
177 -20 0 1465 90 351 0
178 -10 0 1446 90 999 0
179 10 892 952 90 0 402
180 -20 0 1461 90 324 0
181 -10 0 1423 90 576 0
182 10 316 360 90 0 3
183 20 333 394 90 0 876
184 -20 0 1732 90 53 0
185 -10 0 1437 90 701 0
186 -20 1162 1223 90 714 0
187 -10 0 1629 90 520 0
188 40 1028 1091 90 0 20
189 -30 523 582 90 974 0
190 -20 795 859 90 564 0
191 10 266 326 90 0 976
192 -20 0 1653 90 879 0
193 -30 0 1532 90 619 0
194 -20 0 1597 90 802 0
195 30 0 1515 90 0 868
196 -20 0 1448 90 480 0
197 -20 894 957 90 407 0
198 -20 0 1531 90 157 0
199 20 631 702 90 0 549
200 -10 585 656 90 225 0
201 -30 413 455 90 329 0
202 -20 0 1481 90 625 0
203 -30 0 1505 90 898 0
204 10 0 1457 90 0 694
205 20 0 1509 90 0 293
206 -10 0 1509 90 741 0
207 20 733 789 90 0 606
208 20 0 1607 90 0 467
209 20 220 284 90 0 920
210 30 420 496 0 0 1016
211 -10 0 1502 90 269 0
212 10 215 274 90 0 927
213 -10 0 1529 90 422 0
214 30 494 555 90 0 87
215 10 545 599 0 0 1002
216 -10 716 792 90 967 0
217 -10 702 774 90 401 0
218 -20 1057 1099 90 224 0
219 30 203 263 90 0 700
220 30 0 1460 90 0 171
221 -20 0 1558 90 827 0
222 -20 1377 1416 90 284 0
223 20 526 586 90 0 675
224 20 862 917 90 0 218
225 10 223 278 90 0 200
226 -20 1023 1063 90 946 0
227 20 406 462 90 0 852
228 -10 0 1573 90 162 0
229 20 306 365 90 0 108
230 10 0 1474 90 0 89
231 -10 845 914 90 757 0
232 20 0 1592 0 0 1031
233 -20 1271 1326 90 717 0
234 20 0 1514 0 0 1041
235 -30 0 1503 90 265 0
236 -20 0 1481 90 430 0
237 -20 1005 1057 90 382 0
238 30 0 1458 90 0 571
239 40 148 199 90 0 773
240 -30 0 1556 90 882 0
241 -10 0 1451 90 883 0
242 20 763 813 0 0 1034
243 10 0 1461 90 0 451
244 40 0 1576 90 0 411
245 -20 0 1501 90 49 0
246 20 705 769 90 0 148
247 10 315 362 90 0 434
248 10 0 1420 90 0 636
249 10 1100 1154 90 0 592
250 30 0 1612 0 0 1019
251 -10 0 1545 90 658 0
252 -20 587 648 90 363 0
253 -10 779 836 90 970 0
254 10 564 642 90 0 454
255 10 349 402 90 0 158
256 10 275 340 90 0 524
257 -20 0 1613 90 607 0
258 10 365 427 90 0 122
259 20 0 1533 90 0 126
260 -20 553 616 90 793 0
261 -10 782 837 90 472 0
262 20 0 1525 90 0 634
263 10 0 1531 90 0 325
264 -20 846 906 90 647 0
265 30 0 1443 90 0 235
266 10 863 926 90 0 913
267 -20 0 1726 90 629 0
268 30 297 364 90 0 749
269 10 289 353 90 0 211
270 -30 0 1460 90 82 0
271 -10 0 1467 90 155 0
272 20 625 699 90 0 501
273 -20 0 1584 90 354 0
274 -10 0 1579 90 650 0
275 -30 746 816 90 601 0
276 20 789 843 0 0 1046
277 10 761 804 90 0 366
278 20 566 634 0 0 1036
279 20 146 192 90 0 616
280 -20 576 616 90 964 0
281 -20 0 1418 90 810 0
282 -10 0 1585 90 169 0
283 -20 376 430 90 395 0
284 20 0 1548 90 0 222
285 -10 1119 1191 90 417 0
286 20 193 270 90 0 62
287 -20 0 1689 90 805 0
288 -30 303 370 90 598 0
289 -20 0 1403 90 854 0
290 10 467 525 90 0 436
291 -10 0 1478 90 958 0
292 10 306 377 90 0 396
293 -20 745 814 90 205 0
294 20 230 289 90 0 447
295 40 204 256 90 0 170
296 20 735 811 0 0 1009
297 -40 774 834 90 176 0
298 20 0 1577 90 0 822
299 -20 461 537 90 41 0
300 -20 0 1497 90 310 0
301 20 0 1517 90 0 966
302 20 0 1445 90 0 565
303 -30 929 993 90 364 0
304 10 310 374 90 0 672
305 -10 753 831 90 811 0
306 40 281 320 90 0 645
307 10 0 1599 90 0 931
308 -10 677 736 90 2 0
309 -20 0 1649 90 896 0
310 20 0 1514 90 0 300
311 -20 0 1452 90 348 0
312 20 723 787 90 0 894
313 -20 398 473 90 156 0
314 10 0 1503 90 0 877
315 20 643 698 0 0 1029
316 -10 0 1529 90 689 0
317 20 357 416 90 0 48
318 10 0 1531 90 0 824
319 -20 634 692 90 807 0
320 10 0 1513 90 0 692
321 -20 546 591 90 778 0
322 -10 400 465 90 761 0
323 20 285 334 90 0 706
324 20 334 396 90 0 180
325 -10 0 1529 90 263 0
326 30 774 843 90 0 674
327 20 0 1418 90 0 431
328 -10 0 1581 90 768 0
329 30 245 309 90 0 201
330 20 272 332 90 0 690
331 -20 0 1545 90 864 0
332 10 0 1477 90 0 975
333 20 468 536 90 0 125
334 10 0 1479 90 0 640
335 10 0 1416 90 0 551
336 20 284 368 90 0 919
337 20 186 264 90 0 113
338 20 319 384 90 0 440
339 -20 853 904 90 482 0
340 20 0 1568 90 0 855
341 20 0 1539 90 0 932
342 10 0 1525 0 0 1015
343 20 842 909 90 0 559
344 -10 0 1594 90 505 0
345 10 0 1491 90 0 800
346 20 0 1503 90 0 740
347 30 0 1523 0 0 1021
348 20 1203 1259 90 0 311
349 -10 0 1581 90 875 0
350 30 810 848 90 0 539
351 20 0 1450 90 0 177
352 20 245 318 90 0 954
353 40 0 1519 90 0 787
354 20 497 554 90 0 273
355 10 666 722 90 0 579
356 -20 0 1695 90 123 0
357 -30 0 1537 90 473 0
358 20 0 1572 90 0 687
359 10 955 1003 90 0 937
360 -20 0 1670 90 545 0
361 10 0 1443 90 0 368
362 10 0 1405 90 0 836
363 20 217 268 90 0 252
364 30 307 379 90 0 303
365 10 270 345 90 0 493
366 -10 0 1647 90 277 0
367 -20 0 1530 90 649 0
368 -10 1110 1164 90 361 0
369 -20 0 1678 90 906 0
370 -20 555 609 90 39 0
371 -10 697 750 90 933 0
372 30 0 1680 0 0 1008
373 30 711 768 90 0 570
374 -30 0 1494 90 893 0
375 -30 1143 1209 90 774 0
376 20 1038 1123 90 0 437
377 -10 0 1659 90 79 0
378 -20 680 736 90 603 0
379 -10 0 1468 90 682 0
380 -30 0 1447 90 755 0
381 10 193 275 90 0 702
382 20 521 617 90 0 237
383 20 0 1503 90 0 899
384 -30 873 927 90 67 0
385 30 0 1413 90 0 840
386 -20 462 514 90 107 0
387 30 0 1524 90 0 669
388 10 0 1406 90 0 80
389 30 143 200 90 0 403
390 -10 829 871 90 149 0
391 20 0 1529 90 0 978
392 20 970 1015 90 0 818
393 -10 996 1052 90 102 0
394 20 440 507 90 0 912
395 20 121 183 90 0 283
396 -10 0 1624 90 292 0
397 20 785 849 90 0 688
398 -20 785 838 90 963 0
399 -20 714 780 90 775 0
400 -20 0 1487 90 595 0
401 10 534 593 90 0 217
402 -10 0 1479 90 179 0
403 -30 0 1608 90 389 0
404 -20 381 430 90 712 0
405 20 0 1613 90 0 783
406 -10 0 1593 90 897 0
407 20 271 336 90 0 197
408 20 404 457 90 0 935
409 -20 935 986 90 414 0
410 -20 0 1512 90 536 0
411 -40 0 1631 90 244 0
412 -20 0 1568 90 18 0
413 -20 0 1516 90 554 0
414 20 646 718 90 0 409
415 20 0 1413 90 0 515
416 20 217 280 90 0 628
417 10 1040 1085 90 0 285
418 -10 0 1621 90 66 0
419 -20 0 1569 90 561 0
420 20 526 577 90 0 623
421 -30 0 1646 90 715 0
422 10 0 1526 90 0 213
423 10 775 837 90 0 817
424 30 0 1513 90 0 951
425 -20 458 506 90 474 0
426 10 285 344 90 0 538
427 -10 0 1490 90 502 0
428 10 829 880 90 0 444
429 20 0 1505 90 0 980
430 20 875 926 90 0 236
431 -20 853 906 90 327 0
432 -20 0 1527 90 572 0
433 -20 476 543 90 448 0
434 -10 0 1577 90 247 0
435 -10 0 1498 90 766 0
436 -10 0 1548 90 290 0
437 -20 1252 1302 90 376 0
438 10 375 430 90 0 38
439 10 0 1718 90 0 499
440 -20 693 754 90 338 0
441 -10 0 1477 90 744 0
442 -10 0 1610 90 680 0
443 20 0 1671 90 0 908
444 -10 0 1523 90 428 0
445 20 0 1681 90 0 987
446 20 864 930 90 0 455
447 -20 699 748 90 294 0
448 20 0 1412 90 0 433
449 -30 1012 1080 90 537 0
450 20 0 1494 90 0 892
451 -10 0 1464 90 243 0
452 -10 0 1528 90 686 0
453 20 0 1423 90 0 114
454 -10 0 1544 90 254 0
455 -20 0 1489 90 446 0
456 20 680 745 90 0 856
457 20 367 441 90 0 671
458 10 593 648 0 0 1024
459 -20 0 1557 90 799 0
460 20 0 1469 90 0 904
461 10 0 1507 90 0 853
462 -20 0 1537 90 563 0
463 -20 0 1515 90 699 0
464 20 411 458 90 0 887
465 -10 0 1586 90 979 0
466 10 0 1455 90 0 663
467 -20 0 1596 90 208 0
468 20 414 452 0 0 1005
469 30 0 1502 90 0 988
470 -20 1257 1302 90 760 0
471 20 0 1462 90 0 94
472 10 686 744 90 0 261
473 30 0 1535 90 0 357
474 20 105 163 90 0 425
475 -20 629 684 90 968 0
476 10 495 558 90 0 498
477 -10 0 1512 90 850 0
478 -30 625 688 90 759 0
479 30 340 405 90 0 6
480 20 280 342 90 0 196
481 -20 848 917 90 581 0
482 20 388 438 90 0 339
483 10 313 373 90 0 994
484 -20 0 1446 90 803 0
485 -10 0 1494 90 654 0
486 -10 0 1589 90 548 0
487 20 405 464 90 0 513
488 10 213 265 90 0 118
489 20 0 1681 90 0 924
490 10 582 629 90 0 491
491 -10 0 1404 90 490 0
492 10 0 1568 90 0 9
493 -10 327 402 90 365 0
494 -20 853 906 90 704 0
495 -20 0 1503 90 124 0
496 -20 0 1640 90 22 0
497 -10 0 1585 90 685 0
498 -10 0 1497 90 476 0
499 -10 0 1720 90 439 0
500 30 679 742 0 0 1048
501 -20 0 1425 90 272 0
502 10 397 453 90 0 427
503 30 0 1453 90 0 510
504 10 950 1004 90 0 99
505 10 0 1593 90 0 344
506 -40 636 687 90 982 0
507 30 492 554 90 0 627
508 20 0 1491 0 0 1027
509 20 248 318 90 0 153
510 -30 712 769 90 503 0
511 30 0 1616 0 0 1014
512 20 240 298 90 0 825
513 -20 0 1475 90 487 0
514 -30 0 1572 90 604 0
515 -20 0 1515 90 415 0
516 -10 584 634 90 639 0
517 -10 823 869 90 955 0
518 -10 0 1481 90 635 0
519 -30 0 1532 90 5 0
520 10 0 1627 90 0 187
521 -20 0 1575 90 901 0
522 -30 0 1650 90 586 0
523 20 0 1575 90 0 175
524 -10 0 1540 90 256 0
525 30 0 1613 90 0 605
526 -20 0 1448 90 136 0
527 -20 768 828 90 926 0
528 10 0 1454 90 0 794
529 20 0 1507 90 0 556
530 10 264 344 90 0 990
531 -30 0 1675 90 681 0
532 -20 0 1442 90 101 0
533 10 267 333 90 0 992
534 10 0 1615 90 0 947
535 -30 0 1527 90 941 0
536 20 248 308 90 0 410
537 30 0 1431 90 0 449
538 -10 553 607 90 426 0
539 -30 0 1483 90 350 0
540 10 767 826 90 0 909
541 -20 0 1599 90 767 0
542 10 689 735 0 0 1037
543 10 319 384 90 0 734
544 20 191 257 90 0 743
545 20 0 1658 90 0 360
546 20 0 1579 0 0 1033
547 10 0 1488 90 0 996
548 10 0 1512 90 0 486
549 -20 0 1595 90 199 0
550 -20 0 1518 90 116 0
551 -10 1039 1094 90 335 0
552 10 505 571 0 0 1010
553 -20 1109 1162 90 789 0
554 20 318 373 90 0 413
555 -20 934 987 90 11 0
556 -20 0 1509 90 529 0
557 -20 682 747 90 70 0
558 10 448 508 90 0 81
559 -20 926 1007 90 343 0
560 -30 0 1510 90 173 0
561 20 774 836 90 0 419
562 -20 0 1724 90 724 0
563 20 156 216 90 0 462
564 20 0 1569 90 0 190
565 -20 0 1444 90 302 0
566 20 0 1604 90 0 4
567 -20 0 1646 90 121 0
568 -10 0 1576 90 829 0
569 -10 1135 1207 90 838 0
570 -30 0 1517 90 373 0
571 -30 0 1456 90 238 0
572 20 0 1474 90 0 432
573 10 0 1516 90 0 52
574 -30 221 298 90 73 0
575 20 0 1505 90 0 119
576 10 656 708 90 0 181
577 10 0 1670 90 0 925
578 10 118 187 90 0 139
579 -10 0 1525 90 355 0
580 -40 0 1483 90 732 0
581 20 0 1492 90 0 481
582 30 49 98 0 0 1004
583 -30 0 1516 90 697 0
584 -10 890 962 90 88 0
585 -20 0 1413 90 991 0
586 30 251 299 90 0 522
587 10 498 555 90 0 907
588 -20 0 1451 90 788 0
589 -30 601 662 90 614 0
590 -40 813 896 90 65 0
591 20 0 1668 90 0 874
592 -10 0 1555 90 249 0
593 -30 680 744 90 659 0
594 10 0 1568 0 0 1030
595 20 853 911 90 0 400
596 10 657 709 90 0 74
597 -10 0 1481 90 750 0
598 30 0 1580 90 0 288
599 20 0 1577 90 0 648
600 30 154 232 90 0 735
601 30 462 532 90 0 275
602 -10 0 1464 90 763 0
603 20 390 463 90 0 378
604 30 0 1539 90 0 514
605 -30 383 443 90 525 0
606 -20 0 1527 90 207 0
607 20 0 1530 90 0 257
608 -20 0 1445 90 152 0
609 30 0 1408 90 0 995
610 10 968 1026 90 0 878
611 -20 0 1607 90 903 0
612 10 198 256 90 0 756
613 -30 0 1656 90 40 0
614 30 421 471 90 0 589
615 -20 1200 1275 90 971 0
616 -20 0 1695 90 279 0
617 10 0 1504 90 0 796
618 -30 0 1588 90 777 0
619 30 537 608 90 0 193
620 20 0 1558 90 0 742
621 -20 0 1494 90 961 0
622 -10 0 1581 90 915 0
623 -20 704 775 90 420 0
624 40 150 212 90 0 722
625 20 678 753 90 0 202
626 30 381 429 90 0 791
627 -30 585 652 90 507 0
628 -20 374 427 90 416 0
629 20 884 939 90 0 267
630 40 0 1543 0 0 1044
631 20 818 876 90 0 84
632 20 0 1484 90 0 731
633 20 649 693 90 0 815
634 -20 0 1533 90 262 0
635 10 586 659 90 0 518
636 -10 0 1425 90 248 0
637 -30 897 948 90 776 0
638 -20 1172 1221 90 797 0
639 10 75 140 90 0 516
640 -10 596 641 90 334 0
641 -20 0 1572 90 752 0
642 -20 0 1469 90 673 0
643 -20 0 1444 90 751 0
644 10 0 1684 90 0 969
645 -40 645 709 90 306 0
646 20 0 1433 90 0 15
647 20 0 1606 90 0 264
648 -20 0 1567 90 599 0
649 20 201 253 90 0 367
650 10 595 653 90 0 274
651 20 1209 1273 90 0 56
652 -10 669 730 90 891 0
653 30 200 262 90 0 92
654 10 855 918 90 0 485
655 -40 0 1678 90 154 0
656 20 169 228 90 0 142
657 40 307 361 90 0 762
658 10 0 1540 90 0 251
659 30 202 272 90 0 593
660 20 964 1025 90 0 43
661 20 126 175 90 0 781
662 -10 758 832 90 845 0
663 -10 0 1460 90 466 0
664 -10 0 1728 90 679 0
665 10 0 1405 90 0 858
666 -20 0 1523 90 890 0
667 20 0 1543 90 0 45
668 -10 0 1688 90 889 0
669 -30 1208 1274 90 387 0
670 -10 856 901 90 106 0
671 -20 662 723 90 457 0
672 -10 0 1479 90 304 0
673 20 0 1469 90 0 642
674 -30 883 929 90 326 0
675 -20 0 1458 90 223 0
676 10 0 1469 90 0 51
677 30 0 1669 90 0 948
678 20 0 1524 90 0 918
679 10 0 1534 90 0 664
680 10 298 341 90 0 442
681 30 0 1568 90 0 531
682 10 320 387 90 0 379
683 30 407 462 90 0 936
684 -10 0 1491 90 989 0
685 10 0 1493 90 0 497
686 10 0 1519 90 0 452
687 -20 505 559 90 358 0
688 -20 0 1587 90 397 0
689 10 719 778 90 0 316
690 -20 0 1610 90 330 0
691 -20 0 1420 90 730 0
692 -10 1121 1176 90 320 0
693 -20 0 1493 90 112 0
694 -10 0 1463 90 204 0
695 10 0 1642 90 0 849
696 10 0 1574 90 0 130
697 30 831 916 90 0 583
698 -10 832 896 90 839 0
699 20 0 1513 90 0 463
700 -30 853 922 90 219 0
701 10 829 895 90 0 185
702 -10 0 1399 90 381 0
703 20 0 1665 90 0 738
704 20 0 1598 90 0 494
705 30 313 367 90 0 167
706 -20 0 1532 90 323 0
707 -10 785 878 90 109 0
708 10 312 383 90 0 134
709 -10 396 443 90 965 0
710 40 0 1461 0 0 1039
711 30 542 599 90 0 832
712 20 0 1423 90 0 404
713 -20 0 1655 90 895 0
714 20 1059 1137 90 0 186
715 30 243 314 90 0 421
716 -20 588 645 90 809 0
717 20 707 769 90 0 233
718 -20 0 1580 90 837 0
719 -20 372 439 90 723 0
720 30 475 521 0 0 1020
721 10 679 737 90 0 54
722 -40 476 544 90 624 0
723 20 313 369 90 0 719
724 20 0 1575 90 0 562
725 -40 0 1444 90 138 0
726 10 140 194 90 0 131
727 30 0 1600 90 0 32
728 -20 0 1409 90 859 0
729 20 824 877 90 0 78
730 20 0 1419 90 0 691
731 -20 777 832 90 632 0
732 40 959 1006 90 0 580
733 -10 891 955 90 801 0
734 -10 880 939 90 543 0
735 -30 216 273 90 600 0
736 10 971 1026 0 0 1042
737 30 0 1513 90 0 939
738 -20 0 1662 90 703 0
739 20 0 1531 90 0 808
740 -20 0 1514 90 346 0
741 10 0 1524 90 0 206
742 -20 1150 1223 90 620 0
743 -20 0 1593 90 544 0
744 10 490 564 90 0 441
745 10 660 726 90 0 923
746 10 0 1684 90 0 141
747 -30 0 1509 90 922 0
748 -20 0 1462 90 29 0
749 -30 0 1568 90 268 0
750 10 0 1482 90 0 597
751 20 0 1442 90 0 643
752 20 0 1664 90 0 641
753 10 633 684 90 0 866
754 -20 0 1494 90 59 0
755 30 0 1434 90 0 380
756 -10 0 1580 90 612 0
757 10 0 1591 90 0 231
758 10 809 874 90 0 861
759 30 158 210 90 0 478
760 20 0 1484 90 0 470
761 10 213 272 90 0 322
762 -40 489 562 90 657 0
763 10 1085 1141 90 0 602
764 10 0 1446 0 0 1003
765 20 0 1495 0 0 1040
766 10 1134 1191 90 0 435
767 20 399 441 90 0 541
768 10 447 513 90 0 328
769 20 725 781 90 0 163
770 10 810 878 90 0 174
771 30 0 1538 90 0 884
772 -20 401 462 90 816 0
773 -40 403 455 90 239 0
774 30 728 787 90 0 375
775 20 252 301 90 0 399
776 30 334 396 90 0 637
777 30 493 547 90 0 618
778 20 359 406 90 0 321
779 -10 0 1576 90 151 0
780 -20 470 531 90 85 0
781 -20 0 1528 90 661 0
782 30 0 1597 90 0 881
783 -20 556 613 90 405 0
784 20 227 280 90 0 68
785 40 289 365 90 0 160
786 10 234 290 90 0 25
787 -40 653 718 90 353 0
788 20 349 413 90 0 588
789 20 0 1509 90 0 553
790 10 0 1480 90 0 104
791 -30 1028 1091 90 626 0
792 -10 1272 1339 90 55 0
793 20 274 338 90 0 260
794 -10 801 855 90 528 0
795 -10 0 1657 90 14 0
796 -10 667 724 90 617 0
797 20 334 394 90 0 638
798 -10 0 1422 90 44 0
799 20 430 477 90 0 459
800 -10 0 1488 90 345 0
801 10 128 174 90 0 733
802 20 0 1597 90 0 194
803 20 0 1417 90 0 484
804 -20 836 904 90 146 0
805 20 0 1676 90 0 287
806 -10 1220 1278 90 34 0
807 20 451 499 90 0 319
808 -20 554 602 90 739 0
809 20 0 1685 90 0 716
810 20 745 817 90 0 281
811 10 299 361 90 0 305
812 20 1057 1121 0 0 1038
813 -20 1112 1180 90 867 0
814 20 207 275 90 0 841
815 -20 0 1534 90 633 0
816 20 141 212 90 0 772
817 -10 0 1518 90 423 0
818 -20 0 1665 90 392 0
819 10 519 568 90 0 28
820 10 155 227 90 0 72
821 30 329 399 90 0 872
822 -20 692 738 90 298 0
823 10 0 1469 90 0 831
824 -10 0 1533 90 318 0
825 -20 757 821 90 512 0
826 10 322 386 90 0 833
827 20 0 1549 90 0 221
828 30 779 854 90 0 172
829 10 0 1576 90 0 568
830 -10 0 1534 90 953 0
831 -10 796 852 90 823 0
832 -30 724 787 90 711 0
833 -10 886 934 90 826 0
834 -20 0 1500 90 960 0
835 -10 0 1438 90 96 0
836 -10 0 1401 90 362 0
837 20 85 124 90 0 718
838 10 394 454 90 0 569
839 10 0 1521 90 0 698
840 -30 0 1408 90 385 0
841 -20 308 367 90 814 0
842 10 0 1492 90 0 57
843 30 339 385 90 0 873
844 -30 0 1472 90 165 0
845 10 585 634 90 0 662
846 -20 1297 1360 90 888 0
847 -30 0 1483 90 93 0
848 10 837 902 90 0 168
849 -10 1251 1328 90 695 0
850 10 217 283 90 0 477
851 -10 768 830 90 944 0
852 -20 678 752 90 227 0
853 -10 573 632 90 461 0
854 20 0 1408 90 0 289
855 -20 0 1574 90 340 0
856 -20 0 1654 90 456 0
857 -20 0 1643 90 885 0
858 -10 0 1613 90 665 0
859 20 0 1401 90 0 728
860 -20 0 1524 90 64 0
861 -10 0 1545 90 758 0
862 20 402 470 90 0 8
863 -10 1332 1380 90 117 0
864 20 903 972 90 0 331
865 -10 0 1413 90 61 0
866 -10 0 1467 90 753 0
867 20 0 1415 90 0 813
868 -30 374 439 90 195 0
869 -10 516 566 90 36 0
870 10 0 1532 90 0 871
871 -10 0 1526 90 870 0
872 -30 1079 1138 90 821 0
873 -30 0 1469 90 843 0
874 -20 0 1668 90 591 0
875 10 1300 1364 90 0 349
876 -20 892 959 90 183 0
877 -10 0 1501 90 314 0
878 -10 0 1471 90 610 0
879 20 1313 1375 90 0 192
880 10 311 356 90 0 83
881 -30 0 1596 90 782 0
882 30 1121 1176 90 0 240
883 10 438 501 90 0 241
884 -30 1063 1140 90 771 0
885 20 0 1619 90 0 857
886 -40 886 924 90 943 0
887 -20 0 1575 90 464 0
888 20 0 1418 90 0 846
889 10 673 746 90 0 668
890 20 0 1439 90 0 666
891 10 285 344 90 0 652
892 -20 856 923 90 450 0
893 30 964 1007 90 0 374
894 -20 818 877 90 312 0
895 20 810 857 90 0 713
896 20 0 1496 90 0 309
897 10 296 352 90 0 406
898 30 753 817 90 0 203
899 -20 0 1654 90 383 0
900 -10 0 1515 90 86 0
901 20 0 1614 90 0 521
902 10 0 1522 90 0 910
903 20 0 1602 90 0 611
904 -20 986 1041 90 460 0
905 -20 0 1658 90 945 0
906 20 0 1612 90 0 369
907 -10 590 647 90 587 0
908 -20 759 817 90 443 0
909 -10 0 1507 90 540 0
910 -10 0 1519 90 902 0
911 -10 0 1561 90 63 0
912 -20 0 1516 90 394 0
913 -10 0 1502 90 266 0
914 -30 668 731 90 12 0
915 10 151 213 90 0 622
916 30 803 857 0 0 1047
917 30 937 994 90 0 929
918 -20 0 1527 90 678 0
919 -20 582 626 90 336 0
920 -20 997 1058 90 209 0
921 -20 579 652 90 1000 0
922 30 739 807 90 0 747
923 -10 0 1513 90 745 0
924 -20 0 1685 90 489 0
925 -10 0 1671 90 577 0
926 20 0 1497 90 0 527
927 -10 0 1684 90 212 0
928 10 618 678 0 0 1023
929 -30 0 1564 90 917 0
930 -10 1003 1079 90 950 0
931 -10 568 640 90 307 0
932 -20 0 1532 90 341 0
933 10 0 1469 90 0 371
934 -10 0 1682 90 21 0
935 -20 591 637 90 408 0
936 -30 668 736 90 683 0
937 -10 0 1511 90 359 0
938 10 246 306 90 0 127
939 -30 0 1560 90 737 0
940 40 0 1477 0 0 1026
941 30 257 324 90 0 535
942 -20 0 1584 90 985 0
943 40 788 840 90 0 886
944 10 0 1575 90 0 851
945 20 0 1480 90 0 905
946 20 454 521 90 0 226
947 -10 0 1613 90 534 0
948 -30 510 570 90 677 0
949 20 415 482 90 0 97
950 10 262 327 90 0 930
951 -30 0 1515 90 424 0
952 -30 0 1643 90 997 0
953 10 509 568 90 0 830
954 -20 678 750 90 352 0
955 10 277 334 90 0 517
956 20 0 1426 90 0 140
957 -10 667 734 90 37 0
958 10 281 351 90 0 291
959 30 0 1530 90 0 143
960 20 481 545 90 0 834
961 20 235 306 90 0 621
962 30 0 1447 0 0 1007
963 20 311 376 90 0 398
964 20 0 1601 90 0 280
965 10 0 1684 90 0 709
966 -20 0 1522 90 301 0
967 10 0 1427 90 0 216
968 20 532 600 90 0 475
969 -10 0 1686 90 644 0
970 10 395 464 90 0 253
971 20 462 534 90 0 615
972 -30 0 1658 90 150 0
973 20 597 647 90 0 161
974 30 426 487 90 0 189
975 -10 0 1479 90 332 0
976 -10 952 1007 90 191 0
977 20 0 1558 0 0 1035
978 -20 0 1530 90 391 0
979 10 0 1483 90 0 465
980 -20 0 1655 90 429 0
981 -10 0 1504 90 7 0
982 40 118 179 90 0 506
983 20 253 316 90 0 95
984 -10 0 1590 90 33 0
985 20 0 1503 90 0 942
986 40 115 172 90 0 26
987 -20 329 386 90 445 0
988 -30 0 1595 90 469 0
989 10 0 1686 90 0 684
990 -10 0 1526 90 530 0
991 20 477 527 90 0 585
992 -10 0 1465 90 533 0
993 30 685 738 90 0 71
994 -10 837 911 90 483 0
995 -30 1231 1291 90 609 0
996 -10 874 924 90 547 0
997 30 627 671 90 0 952
998 30 82 144 0 0 1025
999 10 550 598 90 0 178
1000 20 227 266 90 0 921
1001 20 0 1622 0 0 1049
1002 -10 545 599 90 215 0
1003 -10 0 1446 90 764 0
1004 -30 49 98 90 582 0
1005 -20 414 452 90 468 0
1006 -20 0 1519 90 164 0
1007 -30 0 1447 90 962 0
1008 -30 0 1680 90 372 0
1009 -20 735 811 90 296 0
1010 -10 505 571 90 552 0
1011 -20 0 1512 90 35 0
1012 -10 0 1484 90 128 0
1013 -20 0 1485 90 135 0
1014 -30 0 1616 90 511 0
1015 -10 0 1525 90 342 0
1016 -30 420 496 90 210 0
1017 -10 0 1606 90 47 0
1018 -30 925 970 90 13 0
1019 -30 0 1612 90 250 0
1020 -30 475 521 90 720 0
1021 -30 0 1523 90 347 0
1022 -20 0 1521 90 27 0
1023 -10 618 678 90 928 0
1024 -10 593 648 90 458 0
1025 -30 82 144 90 998 0
1026 -40 0 1477 90 940 0
1027 -20 0 1491 90 508 0
1028 -20 0 1721 90 23 0
1029 -20 643 698 90 315 0
1030 -10 0 1568 90 594 0
1031 -20 0 1592 90 232 0
1032 -30 0 1471 90 147 0
1033 -20 0 1579 90 546 0
1034 -20 763 813 90 242 0
1035 -20 0 1558 90 977 0
1036 -20 566 634 90 278 0
1037 -10 689 735 90 542 0
1038 -20 1057 1121 90 812 0
1039 -40 0 1461 90 710 0
1040 -20 0 1495 90 765 0
1041 -20 0 1514 90 234 0
1042 -10 971 1026 90 736 0
1043 -10 0 1482 90 103 0
1044 -40 0 1543 90 630 0
1045 -20 0 1563 90 16 0
1046 -20 789 843 90 276 0
1047 -30 803 857 90 916 0
1048 -30 679 742 90 500 0
1049 -20 0 1622 90 1001 0
DEPOT_SECTION
1
-1
EOF
