NAME: lc1_10_5
TYPE: PDPTW
COMMENT: Li & Lim PDPTW benchmark converted from SINTEF format
DIMENSION: 1059
VEHICLES: 250
CAPACITY: 200
EDGE_WEIGHT_TYPE: EUC_2D
NODE_COORD_SECTION
1 250 250
2 387 297
3 5 297
4 355 177
5 78 346
6 286 159
7 322 465
8 393 408
9 89 216
10 76 345
11 410 285
12 472 189
13 270 49
14 219 325
15 437 12
16 418 218
17 20 488
18 77 347
19 73 346
20 480 455
21 129 292
22 337 257
23 237 254
24 131 220
25 417 417
26 287 143
27 379 80
28 87 285
29 374 489
30 440 247
31 281 137
32 379 196
33 297 102
34 39 76
35 35 306
36 435 68
37 245 251
38 409 88
39 273 55
40 163 340
41 129 223
42 371 200
43 357 26
44 470 473
45 77 344
46 478 461
47 128 291
48 111 113
49 164 21
50 21 485
51 108 26
52 424 286
53 200 270
54 7 300
55 433 31
56 420 295
57 451 367
58 118 157
59 489 101
60 200 261
61 476 483
62 30 302
63 8 300
64 275 45
65 238 46
66 152 206
67 99 218
68 393 410
69 480 460
70 337 256
71 389 300
72 90 237
73 321 280
74 417 218
75 64 108
76 57 432
77 356 24
78 143 207
79 221 325
80 22 483
81 24 65
82 141 431
83 202 9
84 20 48
85 457 163
86 470 290
87 268 400
88 337 251
89 366 20
90 72 344
91 149 203
92 55 428
93 189 7
94 397 18
95 481 122
96 20 73
97 54 430
98 74 350
99 202 8
100 406 285
101 460 2
102 441 244
103 1 293
104 115 465
105 422 420
106 75 347
107 141 428
108 404 264
109 398 23
110 148 211
111 362 22
112 479 127
113 443 246
114 22 37
115 65 100
116 404 447
117 102 264
118 444 271
119 325 466
120 124 219
121 335 243
122 26 42
123 113 106
124 399 450
125 146 439
126 162 336
127 2 295
128 122 35
129 346 60
130 93 213
131 218 316
132 116 156
133 419 422
134 467 141
135 187 491
136 433 25
137 286 137
138 370 82
139 132 290
140 435 11
141 206 261
142 428 291
143 95 384
144 205 223
145 463 140
146 343 47
147 435 62
148 387 488
149 121 157
150 182 463
151 92 216
152 370 83
153 444 242
154 90 285
155 446 64
156 312 264
157 208 11
158 442 247
159 140 431
160 118 153
161 134 428
162 91 235
163 406 257
164 377 76
165 474 96
166 346 57
167 393 301
168 412 214
169 210 398
170 346 150
171 62 453
172 437 61
173 87 96
174 367 83
175 91 268
176 459 145
177 63 444
178 433 27
179 60 454
180 478 99
181 485 454
182 6 292
183 398 20
184 248 251
185 433 15
186 64 426
187 154 207
188 481 456
189 380 498
190 88 286
191 111 23
192 199 187
193 269 48
194 367 178
195 452 163
196 431 28
197 8 116
198 233 47
199 237 43
200 320 262
201 188 4
202 180 6
203 328 466
204 393 12
205 409 90
206 406 87
207 394 407
208 358 183
209 186 461
210 38 72
211 323 471
212 224 192
213 278 46
214 272 403
215 232 42
216 18 63
217 58 458
218 416 417
219 205 230
220 65 453
221 421 294
222 434 245
223 2 116
224 411 421
225 315 260
226 136 288
227 173 490
228 90 232
229 402 265
230 361 14
231 348 147
232 385 295
233 394 23
234 466 295
235 71 103
236 125 29
237 25 65
238 58 449
239 246 398
240 423 294
241 59 459
242 348 145
243 477 97
244 307 102
245 169 31
246 381 495
247 95 234
248 22 33
249 435 268
250 135 293
251 439 266
252 269 402
253 267 400
254 473 196
255 445 237
256 461 284
257 167 339
258 26 43
259 101 386
260 342 54
261 243 399
262 288 44
263 274 48
264 360 184
265 23 67
266 6 296
267 249 258
268 421 415
269 319 468
270 50 438
271 440 61
272 17 65
273 323 118
274 402 281
275 71 153
276 52 432
277 378 199
278 238 204
279 208 184
280 376 195
281 473 475
282 215 395
283 123 222
284 436 241
285 70 100
286 73 328
287 241 205
288 250 405
289 483 14
290 466 287
291 467 114
292 120 159
293 408 84
294 413 217
295 338 142
296 483 457
297 479 169
298 95 224
299 122 216
300 477 179
301 406 99
302 44 47
303 487 450
304 172 488
305 460 374
306 279 138
307 338 147
308 395 295
309 195 185
310 463 194
311 30 72
312 244 254
313 317 261
314 67 108
315 442 310
316 63 336
317 109 107
318 100 387
319 494 94
320 343 49
321 40 52
322 319 124
323 94 97
324 476 94
325 283 47
326 398 325
327 460 13
328 305 107
329 188 12
330 136 290
331 439 268
332 112 467
333 181 469
334 358 18
335 459 10
336 199 268
337 436 237
338 318 280
339 64 99
340 394 333
341 366 93
342 95 391
343 391 425
344 344 146
345 198 12
346 186 472
347 390 408
348 19 43
349 307 108
350 59 457
351 49 451
352 125 39
353 61 147
354 317 123
355 392 426
356 237 213
357 71 333
358 304 97
359 196 462
360 224 191
361 37 51
362 491 25
363 270 401
364 474 461
365 66 448
366 337 241
367 269 46
368 22 41
369 198 271
370 287 43
371 446 63
372 200 229
373 48 72
374 465 142
375 123 155
376 16 497
377 220 319
378 484 171
379 55 431
380 428 24
381 80 342
382 16 68
383 124 56
384 95 218
385 481 26
386 145 434
387 335 57
388 26 490
389 324 127
390 109 114
391 72 148
392 220 392
393 442 243
394 69 336
395 131 226
396 150 204
397 423 217
398 419 459
399 285 163
400 203 7
401 54 445
402 109 463
403 355 180
404 13 455
405 165 337
406 314 124
407 9 124
408 3 292
409 16 462
410 189 464
411 288 154
412 90 296
413 138 438
414 13 459
415 461 8
416 96 97
417 68 99
418 146 205
419 117 152
420 481 96
421 338 260
422 285 44
423 111 464
424 468 291
425 148 206
426 184 464
427 197 11
428 396 410
429 133 53
430 132 30
431 464 13
432 100 394
433 483 22
434 93 235
435 174 26
436 436 264
437 24 492
438 406 94
439 234 246
440 315 287
441 408 453
442 128 225
443 226 191
444 391 407
445 198 264
446 179 7
447 425 215
448 483 27
449 22 40
450 479 176
451 476 102
452 386 405
453 22 38
454 440 241
455 182 14
456 266 405
457 357 181
458 395 332
459 423 290
460 104 28
461 131 56
462 111 110
463 97 93
464 90 274
465 214 394
466 6 114
467 375 191
468 356 21
469 466 165
470 415 223
471 397 20
472 241 403
473 69 334
474 152 210
475 67 335
476 126 30
477 390 423
478 285 162
479 285 158
480 406 96
481 459 374
482 67 109
483 468 475
484 438 31
485 168 24
486 267 394
487 406 450
488 460 288
489 224 203
490 21 487
491 21 488
492 87 217
493 67 452
494 119 223
495 398 428
496 344 262
497 390 301
498 167 27
499 236 247
500 313 119
501 13 51
502 200 13
503 0 120
504 202 4
505 343 144
506 94 383
507 250 411
508 464 134
509 443 237
510 4 114
511 169 336
512 200 178
513 412 453
514 121 151
515 403 93
516 399 301
517 97 387
518 176 8
519 62 326
520 151 207
521 299 98
522 334 240
523 92 270
524 444 269
525 132 223
526 428 25
527 413 421
528 382 498
529 391 429
530 398 97
531 192 265
532 438 26
533 44 79
534 137 290
535 446 319
536 175 487
537 26 45
538 147 435
539 111 459
540 472 132
541 349 158
542 86 268
543 415 216
544 121 218
545 210 185
546 98 215
547 484 174
548 328 458
549 313 126
550 390 415
551 459 17
552 481 124
553 386 414
554 116 466
555 468 295
556 391 426
557 408 279
558 15 68
559 392 424
560 88 95
561 116 151
562 240 250
563 123 159
564 89 290
565 39 50
566 359 179
567 338 257
568 92 236
569 413 417
570 91 101
571 55 449
572 57 425
573 465 287
574 320 280
575 322 468
576 483 458
577 312 267
578 139 291
579 388 408
580 110 459
581 459 372
582 204 269
583 407 98
584 335 256
585 471 484
586 339 244
587 89 272
588 488 96
589 316 286
590 235 50
591 316 258
592 425 288
593 213 397
594 113 156
595 199 9
596 463 167
597 129 27
598 248 404
599 405 276
600 400 288
601 61 156
602 393 20
603 484 177
604 108 116
605 112 217
606 389 404
607 102 391
608 434 26
609 488 26
610 477 120
611 126 220
612 439 310
613 212 319
614 320 283
615 17 459
616 236 213
617 68 108
618 390 294
619 275 42
620 423 214
621 460 367
622 272 402
623 478 102
624 400 260
625 181 6
626 470 475
627 245 408
628 93 96
629 218 318
630 441 265
631 21 64
632 356 23
633 267 44
634 277 50
635 182 4
636 26 36
637 384 491
638 418 290
639 321 277
640 358 16
641 389 334
642 48 78
643 24 68
644 206 225
645 290 141
646 439 15
647 359 182
648 413 287
649 230 49
650 407 280
651 459 295
652 468 199
653 101 384
654 170 26
655 197 270
656 415 289
657 203 390
658 443 272
659 210 391
660 363 22
661 352 176
662 212 223
663 8 120
664 244 250
665 18 484
666 379 82
667 84 346
668 233 207
669 344 62
670 20 489
671 361 181
672 174 494
673 49 76
674 390 325
675 7 118
676 107 26
677 312 270
678 399 102
679 109 108
680 115 218
681 88 287
682 54 424
683 125 32
684 199 12
685 457 374
686 391 413
687 304 102
688 391 293
689 66 336
690 132 291
691 18 462
692 347 62
693 466 142
694 389 17
695 342 254
696 92 223
697 404 83
698 290 46
699 95 92
700 200 265
701 435 16
702 25 499
703 319 260
704 116 225
705 402 284
706 108 105
707 386 13
708 472 129
709 132 57
710 43 71
711 493 91
712 12 451
713 201 188
714 60 428
715 243 248
716 230 197
717 389 11
718 401 281
719 459 14
720 411 95
721 0 297
722 476 196
723 458 16
724 92 230
725 432 24
726 215 317
727 371 192
728 481 20
729 152 207
730 14 459
731 361 17
732 8 497
733 206 186
734 421 218
735 402 264
736 388 325
737 35 304
738 321 263
739 444 313
740 188 462
741 400 103
742 418 221
743 112 219
744 408 452
745 30 301
746 205 228
747 407 88
748 380 489
749 395 331
750 133 26
751 21 68
752 313 282
753 53 440
754 458 130
755 437 15
756 400 286
757 346 144
758 440 244
759 280 162
760 488 173
761 326 118
762 207 400
763 391 18
764 37 55
765 204 15
766 173 28
767 343 148
768 231 43
769 445 273
770 432 27
771 439 305
772 208 396
773 249 407
774 107 112
775 279 159
776 376 494
777 403 262
778 41 47
779 96 213
780 461 167
781 391 99
782 116 221
783 165 343
784 388 334
785 130 57
786 422 409
787 66 156
788 485 86
789 389 428
790 117 467
791 475 477
792 429 27
793 339 60
794 381 494
795 218 321
796 64 101
797 343 254
798 478 464
799 423 286
800 198 9
801 225 196
802 374 190
803 462 14
804 347 54
805 231 195
806 72 96
807 489 87
808 443 313
809 233 204
810 477 483
811 459 368
812 95 277
813 16 460
814 100 266
815 288 53
816 211 386
817 144 439
818 224 314
819 79 291
820 95 235
821 7 123
822 91 217
823 105 27
824 101 385
825 238 210
826 439 67
827 435 267
828 443 64
829 92 234
830 450 265
831 102 27
832 492 94
833 440 63
834 453 367
835 15 69
836 489 17
837 335 255
838 419 418
839 292 41
840 489 27
841 96 270
842 461 369
843 105 22
844 479 121
845 207 223
846 17 458
847 186 7
848 465 168
849 416 288
850 388 418
851 92 233
852 179 492
853 132 55
854 485 24
855 388 331
856 217 323
857 281 164
858 169 340
859 491 20
860 279 42
861 439 243
862 391 334
863 96 244
864 441 273
865 477 478
866 56 434
867 12 463
868 458 164
869 446 65
870 71 156
871 65 153
872 8 118
873 102 29
874 315 265
875 343 62
876 384 16
877 67 105
878 478 118
879 73 101
880 200 14
881 114 225
882 460 293
883 51 447
884 418 295
885 282 139
886 477 122
887 91 266
888 16 463
889 228 199
890 435 20
891 467 195
892 469 132
893 465 136
894 246 255
895 49 75
896 66 98
897 166 32
898 326 466
899 202 186
900 467 285
901 290 136
902 341 58
903 121 219
904 107 35
905 216 319
906 134 288
907 89 270
908 136 52
909 462 167
910 340 54
911 80 286
912 38 301
913 25 307
914 470 139
915 270 400
916 204 187
917 460 171
918 399 106
919 197 267
920 77 350
921 91 231
922 398 103
923 35 303
924 231 204
925 311 266
926 416 420
927 231 203
928 4 116
929 417 217
930 268 52
931 345 144
932 368 85
933 441 65
934 201 270
935 0 293
936 167 24
937 186 464
938 7 292
939 80 290
940 405 455
941 439 312
942 300 108
943 478 121
944 92 232
945 111 463
946 132 294
947 134 285
948 316 284
949 56 428
950 232 47
951 466 291
952 341 257
953 420 213
954 116 152
955 163 337
956 440 7
957 208 222
958 485 95
959 97 385
960 462 367
961 455 365
962 492 95
963 405 450
964 371 193
965 234 202
966 404 103
967 24 41
968 67 334
969 207 227
970 277 403
971 15 457
972 217 319
973 111 467
974 378 493
975 112 465
976 173 25
977 421 292
978 74 146
979 178 491
980 204 185
981 319 470
982 163 331
983 470 125
984 315 121
985 166 34
986 284 140
987 85 288
988 376 190
989 238 203
990 399 104
991 472 481
992 46 74
993 401 255
994 475 480
995 485 27
996 476 174
997 330 242
998 332 249
999 375 80
1000 94 235
1001 287 144
1002 470 473
1003 464 13
1004 432 24
1005 21 64
1006 438 26
1007 60 428
1008 338 257
1009 7 118
1010 474 96
1011 43 71
1012 87 96
1013 105 27
1014 399 450
1015 100 394
1016 363 22
1017 112 465
1018 172 488
1019 2 295
1020 39 50
1021 202 9
1022 173 25
1023 453 367
1024 413 421
1025 328 458
1026 26 45
1027 35 304
1028 386 414
1029 136 52
1030 224 314
1031 404 83
1032 458 164
1033 440 61
1034 340 54
1035 140 431
1036 379 82
1037 292 41
1038 69 336
1039 84 346
1040 416 288
1041 423 214
1042 116 152
1043 92 223
1044 469 132
1045 391 293
1046 319 124
1047 116 221
1048 379 196
1049 128 291
1050 123 222
1051 165 337
1052 287 143
1053 154 207
1054 339 244
1055 313 282
1056 319 260
1057 205 228
1058 231 203
1059 237 254
PICKUP_AND_DELIVERY_SECTION
1 0 0 1824 0 0 0
2 -20 187 283 90 232 0
3 -10 931 1041 90 721 0
4 20 136 303 90 0 566
5 -10 307 451 90 45 0
6 -30 502 624 90 479 0
7 10 226 335 90 0 119
8 -10 625 713 90 444 0
9 -30 473 584 90 130 0
10 -10 503 623 90 381 0
11 20 457 599 90 0 650
12 30 356 468 90 0 722
13 -20 889 1006 90 633 0
14 10 486 597 90 0 972
15 -40 526 643 90 140 0
16 -10 948 1056 90 543 0
17 -10 726 849 90 491 0
18 20 397 545 90 0 90
19 10 701 798 90 0 106
20 -10 1098 1203 90 798 0
21 10 526 636 90 0 139
22 -20 771 897 90 952 0
23 20 608 709 0 0 1059
24 -10 720 840 90 299 0
25 -20 931 1044 90 926 0
26 10 718 823 0 0 1052
27 -30 694 832 90 174 0
28 -10 671 801 90 819 0
29 20 269 389 90 0 148
30 20 675 822 90 0 393
31 10 339 447 90 0 137
32 20 633 745 0 0 1048
33 10 195 300 90 0 358
34 10 299 429 90 0 514
35 20 347 461 90 0 62
36 10 259 378 90 0 155
37 10 26 164 90 0 664
38 20 626 744 90 0 747
39 20 196 313 90 0 64
40 30 431 551 90 0 511
41 20 267 347 90 0 525
42 -30 812 946 90 727 0
43 -10 1117 1247 90 334 0
44 10 1195 1296 0 0 1002
45 10 215 359 90 0 5
46 10 422 569 90 0 188
47 10 591 754 0 0 1049
48 -20 621 704 90 706 0
49 20 555 661 90 0 766
50 30 458 568 90 0 702
51 -10 380 535 90 191 0
52 -10 488 600 90 459 0
53 -10 184 283 90 934 0
54 -10 1034 1125 90 103 0
55 10 285 423 90 0 380
56 20 946 1074 90 0 638
57 -20 1092 1237 90 305 0
58 20 385 484 90 0 594
59 -10 995 1076 90 832 0
60 10 910 1053 90 0 141
61 10 619 760 90 0 810
62 -20 536 668 90 35 0
63 -30 1125 1216 90 935 0
64 -20 422 537 90 39 0
65 -10 702 817 90 950 0
66 -30 895 989 90 78 0
67 30 154 286 90 0 779
68 -20 889 1005 90 207 0
69 -30 532 643 90 364 0
70 -20 142 213 90 837 0
71 10 267 390 90 0 618
72 -30 1195 1317 90 921 0
73 -10 119 218 90 639 0
74 -10 1030 1156 90 447 0
75 10 453 560 90 0 877
76 -20 951 1055 90 270 0
77 20 249 363 90 0 632
78 30 243 349 90 0 66
79 -10 586 681 90 726 0
80 30 325 466 90 0 670
81 -10 879 1002 90 96 0
82 30 341 445 90 0 161
83 10 1170 1336 0 0 1021
84 10 1267 1385 90 0 501
85 20 255 374 90 0 780
86 -20 807 924 90 900 0
87 -20 833 964 90 456 0
88 -30 105 249 90 998 0
89 10 844 958 90 0 111
90 -20 584 729 90 18 0
91 -10 515 636 90 418 0
92 20 481 597 90 0 379
93 30 291 392 90 0 625
94 -10 480 613 90 109 0
95 30 547 714 90 0 844
96 10 290 397 90 0 81
97 20 600 662 90 0 607
98 10 885 984 90 0 920
99 -10 1082 1242 90 345 0
100 -30 375 492 90 705 0
101 20 635 741 90 0 803
102 -20 849 1016 90 113 0
103 10 449 597 90 0 54
104 10 365 510 90 0 945
105 -30 448 588 90 268 0
106 -10 789 893 90 19 0
107 20 208 328 90 0 413
108 20 371 485 90 0 777
109 10 270 404 90 0 94
110 -20 147 252 90 474 0
111 -10 1022 1149 90 89 0
112 -10 375 515 90 708 0
113 20 496 633 90 0 102
114 -10 798 928 90 636 0
115 -20 724 850 90 482 0
116 20 250 324 90 0 398
117 10 148 257 90 0 814
118 -10 607 714 90 251 0
119 -10 616 772 90 7 0
120 -20 545 641 90 395 0
121 -20 393 529 90 366 0
122 20 427 546 90 0 453
123 20 198 323 90 0 390
124 20 964 1063 0 0 1014
125 -20 604 744 90 386 0
126 20 153 274 90 0 858
127 30 741 860 0 0 1019
128 10 283 397 90 0 430
129 -20 998 1114 90 146 0
130 30 370 497 90 0 9
131 20 73 211 90 0 905
132 10 474 578 90 0 561
133 -10 530 692 90 838 0
134 10 543 668 90 0 893
135 20 736 890 90 0 410
136 -10 869 1004 90 608 0
137 -10 413 562 90 31 0
138 40 419 539 90 0 999
139 -10 804 911 90 21 0
140 40 325 459 90 0 15
141 -10 1017 1137 90 60 0
142 -20 664 798 90 799 0
143 -30 680 825 90 653 0
144 20 443 592 90 0 845
145 10 263 398 90 0 693
146 20 704 840 90 0 129
147 -20 1139 1236 90 869 0
148 -20 952 1082 90 29 0
149 -20 199 300 90 563 0
150 -10 353 459 90 426 0
151 -10 746 866 90 822 0
152 20 334 442 90 0 341
153 -20 399 543 90 509 0
154 40 953 1069 90 0 812
155 -10 564 700 90 36 0
156 20 96 215 90 0 591
157 -10 1304 1394 90 504 0
158 -20 601 712 90 337 0
159 30 265 338 0 0 1035
160 30 917 1059 90 0 375
161 -30 914 1013 90 82 0
162 -10 1111 1218 90 228 0
163 -20 556 676 90 229 0
164 -30 609 729 90 932 0
165 30 271 407 0 0 1010
166 20 904 1023 90 0 669
167 30 463 564 90 0 516
168 10 165 272 90 0 953
169 -40 557 681 90 657 0
170 -10 922 1024 90 757 0
171 -10 475 624 90 365 0
172 -20 1033 1157 90 833 0
173 30 715 838 0 0 1012
174 30 224 366 90 0 27
175 -10 844 955 90 907 0
176 40 233 363 90 0 540
177 -30 1054 1176 90 220 0
178 20 619 703 90 0 792
179 10 854 990 90 0 238
180 10 585 707 90 0 451
181 -20 809 924 90 296 0
182 -10 288 387 90 938 0
183 20 320 408 90 0 602
184 20 2 103 90 0 715
185 20 297 412 90 0 701
186 -10 1122 1263 90 401 0
187 20 961 1107 0 0 1053
188 -10 991 1128 90 46 0
189 -30 485 619 90 776 0
190 -10 758 896 90 911 0
191 10 266 324 90 0 51
192 -20 393 531 90 279 0
193 -10 796 915 90 263 0
194 20 529 662 90 0 647
195 30 219 354 90 0 909
196 20 689 818 90 0 526
197 20 857 994 90 0 663
198 20 321 451 90 0 215
199 20 609 725 90 0 590
200 10 562 678 90 0 577
201 -30 382 486 90 329 0
202 10 749 863 90 0 446
203 -20 806 947 90 575 0
204 10 589 700 90 0 694
205 -10 531 655 90 583 0
206 -10 893 1043 90 438 0
207 20 703 818 90 0 68
208 -20 892 1045 90 457 0
209 20 220 342 90 0 740
210 30 385 530 90 0 373
211 -10 433 581 90 269 0
212 -20 186 304 90 489 0
213 20 205 338 90 0 815
214 -10 470 579 90 915 0
215 -20 507 637 90 198 0
216 -10 705 803 90 835 0
217 -30 680 795 90 493 0
218 -10 1011 1145 90 786 0
219 30 185 282 90 0 957
220 30 393 520 90 0 177
221 -10 858 978 90 592 0
222 -20 1325 1469 90 861 0
223 -30 499 614 90 503 0
224 20 850 930 90 0 569
225 -10 185 315 90 925 0
226 -10 986 1099 90 690 0
227 20 366 502 90 0 852
228 10 661 752 90 0 162
229 20 261 410 90 0 163
230 -20 665 759 90 468 0
231 -10 834 925 90 344 0
232 20 142 306 90 0 2
233 -20 1249 1349 90 717 0
234 -10 998 1107 90 290 0
235 -10 1385 1490 90 285 0
236 -10 562 675 90 476 0
237 -10 974 1089 90 558 0
238 -10 956 1080 90 179 0
239 40 148 263 90 0 598
240 10 787 865 90 0 648
241 20 597 696 90 0 350
242 -30 730 845 90 931 0
243 10 417 498 90 0 754
244 -10 580 669 90 942 0
245 20 352 481 90 0 936
246 -30 675 800 90 974 0
247 10 287 390 90 0 851
248 10 706 832 90 0 348
249 -10 1041 1213 90 830 0
250 -20 336 454 90 330 0
251 10 234 326 90 0 118
252 20 569 667 90 0 253
253 -20 746 868 90 252 0
254 -10 548 658 90 891 0
255 10 322 428 90 0 284
256 -10 254 362 90 488 0
257 -10 628 731 90 783 0
258 10 326 466 90 0 449
259 -20 307 457 90 824 0
260 20 537 632 90 0 804
261 -30 758 861 90 507 0
262 -10 612 735 90 370 0
263 10 313 459 90 0 193
264 -20 819 933 90 661 0
265 30 1072 1176 90 0 643
266 -20 830 959 90 408 0
267 -10 883 1000 90 894 0
268 30 265 396 90 0 105
269 10 250 391 90 0 211
270 20 689 815 90 0 76
271 30 953 1050 0 0 1033
272 20 607 717 90 0 751
273 20 275 397 90 0 549
274 20 842 968 90 0 718
275 20 738 824 90 0 870
276 20 754 878 90 0 866
277 -20 725 840 90 802 0
278 -20 547 653 90 809 0
279 20 108 229 90 0 192
280 -20 526 665 90 964 0
281 -20 1097 1208 90 865 0
282 -20 847 946 90 816 0
283 30 355 450 0 0 1050
284 -10 1242 1362 90 255 0
285 10 1101 1208 90 0 235
286 20 193 311 90 0 316
287 -10 655 731 90 989 0
288 20 279 394 90 0 627
289 10 636 761 90 0 448
290 10 421 570 90 0 234
291 -20 1117 1265 90 807 0
292 10 283 400 90 0 419
293 10 708 850 90 0 515
294 20 186 332 90 0 929
295 40 166 294 90 0 767
296 20 700 846 90 0 181
297 20 742 866 90 0 996
298 -20 1030 1147 90 546 0
299 10 441 557 90 0 24
300 20 237 347 90 0 760
301 -10 334 470 90 530 0
302 20 289 393 90 0 642
303 -10 902 1019 90 576 0
304 10 297 387 0 0 1018
305 20 740 844 90 0 57
306 -40 250 351 90 986 0
307 10 135 260 90 0 505
308 -10 649 764 90 497 0
309 20 310 424 90 0 713
310 20 220 336 90 0 742
311 -20 1351 1452 90 382 0
312 -20 698 813 90 499 0
313 20 383 488 90 0 677
314 10 266 377 90 0 417
315 -30 619 722 90 535 0
316 -20 785 898 90 286 0
317 20 320 452 90 0 462
318 10 404 544 90 0 517
319 -10 609 718 90 958 0
320 -10 612 747 90 902 0
321 -20 508 628 90 778 0
322 20 381 485 0 0 1046
323 -20 230 388 90 416 0
324 20 306 424 90 0 420
325 -40 321 472 90 860 0
326 30 738 878 90 0 736
327 -20 432 562 90 719 0
328 -30 662 779 90 687 0
329 30 245 426 90 0 201
330 20 270 334 90 0 250
331 -20 969 1096 90 769 0
332 10 478 584 90 0 973
333 20 445 559 90 0 346
334 10 451 602 90 0 43
335 10 522 657 90 0 415
336 20 252 400 90 0 700
337 20 186 307 90 0 158
338 20 298 405 90 0 589
339 -10 832 925 90 617 0
340 20 454 605 90 0 458
341 -20 897 1028 90 152 0
342 -20 885 996 90 572 0
343 -10 818 934 90 850 0
344 10 478 547 90 0 231
345 10 542 672 90 0 99
346 -20 539 658 90 333 0
347 30 431 540 90 0 686
348 -10 1178 1283 90 248 0
349 -30 769 856 90 521 0
350 -20 772 887 90 241 0
351 20 314 435 90 0 883
352 20 245 353 90 0 597
353 -30 322 475 90 978 0
354 20 461 589 90 0 984
355 -20 653 735 90 529 0
356 -10 823 940 90 889 0
357 10 217 361 90 0 473
358 -10 357 516 90 33 0
359 -10 908 1050 90 979 0
360 20 266 406 90 0 924
361 10 607 716 90 0 764
362 -30 926 1041 90 385 0
363 20 182 302 90 0 486
364 30 307 421 90 0 69
365 10 270 338 90 0 171
366 20 294 443 90 0 121
367 -30 708 820 90 619 0
368 -10 1074 1201 90 967 0
369 20 357 482 90 0 531
370 10 515 649 90 0 262
371 20 678 769 90 0 828
372 30 275 381 90 0 644
373 -30 669 811 90 210 0
374 10 375 472 90 0 914
375 -30 1136 1216 90 160 0
376 -40 1007 1154 90 732 0
377 -10 958 1050 90 937 0
378 -10 652 765 90 547 0
379 -20 673 772 90 92 0
380 -10 1061 1183 90 55 0
381 10 193 336 90 0 10
382 20 510 627 90 0 311
383 20 231 345 90 0 709
384 -10 834 965 90 492 0
385 30 321 444 90 0 362
386 20 420 556 90 0 125
387 30 210 330 90 0 875
388 -10 1278 1406 90 437 0
389 30 143 281 90 0 761
390 -20 792 908 90 123 0
391 20 234 360 90 0 787
392 -10 954 1031 90 465 0
393 -20 977 1071 90 30 0
394 20 399 548 0 0 1038
395 20 121 258 90 0 120
396 20 595 739 90 0 729
397 20 765 868 90 0 470
398 -20 766 857 90 116 0
399 -30 688 806 90 478 0
400 -20 1005 1136 90 595 0
401 10 509 618 90 0 186
402 -10 914 1064 90 423 0
403 30 271 353 90 0 671
404 10 346 465 90 0 414
405 20 320 475 0 0 1051
406 -30 774 838 90 500 0
407 20 271 420 90 0 466
408 20 376 486 90 0 266
409 -20 889 1032 90 730 0
410 -20 818 945 90 135 0
411 -20 415 521 90 775 0
412 20 166 311 90 0 939
413 -20 804 920 90 107 0
414 -10 634 729 90 404 0
415 -10 714 854 90 335 0
416 20 217 322 90 0 323
417 -10 996 1130 90 314 0
418 10 332 448 90 0 91
419 -10 835 959 90 292 0
420 -20 504 599 90 324 0
421 -20 604 695 90 496 0
422 10 399 581 90 0 698
423 10 747 865 90 0 402
424 30 716 829 90 0 651
425 20 418 546 90 0 520
426 10 254 374 90 0 150
427 -20 619 778 90 684 0
428 -10 795 913 90 606 0
429 -10 648 741 90 461 0
430 -10 843 958 90 128 0
431 20 843 916 0 0 1003
432 10 990 1082 0 0 1015
433 10 458 561 90 0 836
434 10 917 1046 90 0 863
435 -30 1013 1128 90 498 0
436 20 186 317 90 0 864
437 10 1212 1341 90 0 388
438 10 331 475 90 0 206
439 -10 497 622 90 562 0
440 -30 666 780 90 614 0
441 10 570 666 90 0 940
442 10 151 278 90 0 611
443 -10 367 488 90 801 0
444 10 521 633 90 0 8
445 -30 746 845 90 582 0
446 -10 824 971 90 202 0
447 10 646 801 90 0 74
448 -10 1256 1412 90 289 0
449 -10 975 1118 90 258 0
450 20 256 406 90 0 603
451 -10 773 890 90 180 0
452 20 206 335 90 0 579
453 -20 899 1009 90 122 0
454 -10 1054 1179 90 758 0
455 -20 1039 1139 90 847 0
456 20 653 771 90 0 87
457 20 324 484 90 0 208
458 -20 568 673 90 340 0
459 10 304 414 90 0 52
460 20 664 799 90 0 831
461 10 459 562 90 0 429
462 -20 514 625 90 317 0
463 -20 433 558 90 628 0
464 -20 366 503 90 841 0
465 10 749 863 90 0 392
466 -20 762 903 90 407 0
467 -30 421 582 90 988 0
468 20 358 507 90 0 230
469 -10 709 844 90 596 0
470 -20 1231 1329 90 397 0
471 20 386 523 90 0 707
472 -10 654 777 90 773 0
473 -10 318 444 90 357 0
474 20 105 201 90 0 110
475 20 591 722 90 0 689
476 10 473 580 90 0 236
477 10 248 377 90 0 556
478 30 579 733 90 0 399
479 30 317 428 90 0 6
480 20 258 363 90 0 720
481 20 815 951 90 0 685
482 20 332 493 90 0 115
483 10 313 432 90 0 626
484 10 335 426 90 0 770
485 10 735 852 90 0 654
486 -20 945 1043 90 363 0
487 -20 382 487 90 963 0
488 10 213 350 90 0 256
489 20 53 174 90 0 212
490 -10 552 659 90 665 0
491 10 614 779 90 0 17
492 10 558 683 90 0 384
493 30 285 443 90 0 217
494 -20 817 942 90 605 0
495 -20 545 650 90 789 0
496 20 483 624 90 0 421
497 10 359 482 90 0 308
498 30 450 573 90 0 435
499 20 394 540 90 0 312
500 30 648 773 90 0 406
501 -10 1282 1425 90 84 0
502 10 378 472 90 0 800
503 30 405 518 90 0 223
504 10 919 1035 90 0 157
505 -10 290 361 90 307 0
506 -30 599 723 90 959 0
507 30 465 580 90 0 261
508 -40 1005 1149 90 943 0
509 20 212 355 90 0 153
510 -10 671 810 90 928 0
511 -30 807 923 90 40 0
512 -20 216 322 90 545 0
513 -10 646 778 90 744 0
514 -10 1022 1141 90 34 0
515 -10 1095 1216 90 293 0
516 -30 557 662 90 167 0
517 -10 799 893 90 318 0
518 -10 921 1060 90 635 0
519 -20 877 1006 90 968 0
520 -20 695 824 90 425 0
521 30 283 401 90 0 349
522 30 497 612 90 0 997
523 -10 937 1047 90 542 0
524 20 502 636 90 0 658
525 -20 803 942 90 41 0
526 -20 1168 1258 90 196 0
527 10 740 855 0 0 1024
528 10 601 688 90 0 637
529 20 434 566 90 0 355
530 10 253 354 90 0 301
531 -20 624 775 90 369 0
532 10 397 553 0 0 1006
533 10 267 394 90 0 895
534 -10 169 252 90 578 0
535 30 345 435 90 0 315
536 20 248 398 90 0 672
537 30 303 458 0 0 1026
538 20 504 656 90 0 817
539 -10 1108 1239 90 790 0
540 -40 728 864 90 176 0
541 -20 1022 1121 90 918 0
542 10 655 769 90 0 523
543 10 292 410 90 0 16
544 20 159 289 90 0 680
545 20 76 204 90 0 512
546 20 190 306 90 0 298
547 10 473 567 90 0 378
548 10 907 1043 0 0 1025
549 -20 850 947 90 273 0
550 -10 1025 1108 90 559 0
551 -20 987 1146 90 723 0
552 10 463 613 90 0 610
553 10 1082 1189 0 0 1028
554 20 289 403 90 0 580
555 -10 904 1018 90 951 0
556 -10 724 845 90 477 0
557 -10 650 779 90 756 0
558 10 412 544 90 0 237
559 10 917 1017 90 0 550
560 -20 624 747 90 699 0
561 -10 732 878 90 132 0
562 10 308 437 90 0 439
563 20 156 294 90 0 149
564 20 201 324 90 0 987
565 30 416 536 0 0 1020
566 -20 418 577 90 4 0
567 20 692 793 0 0 1008
568 -20 1007 1139 90 724 0
569 -20 1111 1232 90 224 0
570 10 818 929 90 0 604
571 20 278 405 90 0 753
572 20 260 387 90 0 342
573 10 524 650 90 0 882
574 10 201 318 90 0 948
575 20 533 667 90 0 203
576 10 607 756 90 0 303
577 -10 852 951 90 200 0
578 10 118 235 90 0 534
579 -20 321 465 90 452 0
580 -20 1029 1136 90 554 0
581 -20 631 768 90 621 0
582 30 49 194 90 0 445
583 10 218 345 90 0 205
584 -20 861 991 90 735 0
585 -20 558 632 90 991 0
586 30 201 348 0 0 1054
587 10 471 582 90 0 887
588 -30 881 1001 90 711 0
589 -20 575 689 90 338 0
590 -20 797 912 90 199 0
591 -20 262 424 90 156 0
592 10 578 694 90 0 221
593 -20 652 773 90 762 0
594 -20 567 672 90 58 0
595 20 840 924 90 0 400
596 10 619 746 90 0 469
597 -20 663 763 90 352 0
598 -40 165 323 90 239 0
599 -30 738 881 90 600 0
600 30 154 300 90 0 599
601 30 431 563 90 0 871
602 -20 1120 1292 90 183 0
603 -20 363 490 90 450 0
604 -10 892 993 90 570 0
605 20 345 481 90 0 494
606 10 243 356 90 0 428
607 -20 1082 1177 90 97 0
608 10 499 640 90 0 136
609 -10 1113 1222 90 840 0
610 -10 938 1057 90 552 0
611 -10 630 740 90 442 0
612 10 198 342 90 0 941
613 30 209 311 90 0 856
614 30 384 507 90 0 440
615 -20 1185 1289 90 712 0
616 20 39 162 90 0 668
617 10 230 350 90 0 339
618 -10 827 957 90 71 0
619 30 509 637 90 0 367
620 20 580 684 0 0 1041
621 20 375 468 90 0 581
622 10 280 390 90 0 970
623 10 690 789 90 0 878
624 40 150 237 90 0 993
625 -30 656 774 90 93 0
626 -10 342 468 90 483 0
627 -20 575 663 90 288 0
628 20 336 464 90 0 463
629 -20 854 969 90 795 0
630 40 304 441 90 0 827
631 20 804 890 0 0 1005
632 -20 276 405 90 77 0
633 20 613 729 90 0 13
634 10 234 352 90 0 930
635 10 571 675 90 0 518
636 10 622 727 90 0 114
637 -10 848 998 90 528 0
638 -20 1147 1247 90 56 0
639 10 75 187 90 0 73
640 30 571 665 90 0 731
641 -20 282 406 90 784 0
642 -20 946 1087 90 302 0
643 -30 1236 1382 90 265 0
644 -30 388 463 90 372 0
645 30 610 744 90 0 1001
646 20 615 741 90 0 890
647 -20 735 833 90 194 0
648 -10 1325 1440 90 240 0
649 20 201 302 90 0 768
650 -20 563 684 90 11 0
651 -30 1189 1293 90 424 0
652 20 651 748 90 0 734
653 30 200 296 90 0 143
654 -10 817 955 90 485 0
655 30 448 573 90 0 919
656 20 169 331 90 0 977
657 40 279 388 90 0 169
658 -20 788 902 90 524 0
659 30 172 301 90 0 772
660 20 922 1066 0 0 1016
661 20 126 233 90 0 264
662 -10 742 849 90 969 0
663 -20 1128 1273 90 197 0
664 -10 123 250 90 37 0
665 10 345 495 90 0 490
666 10 796 915 0 0 1036
667 20 1044 1207 0 0 1039
668 -20 72 201 90 616 0
669 -20 1176 1306 90 166 0
670 -30 833 924 90 80 0
671 -30 626 759 90 403 0
672 -20 469 587 90 536 0
673 -20 882 966 90 992 0
674 -20 839 973 90 749 0
675 20 958 1076 0 0 1009
676 -30 492 605 90 843 0
677 -20 951 1038 90 313 0
678 -20 608 756 90 781 0
679 10 422 532 90 0 774
680 -20 247 393 90 544 0
681 30 857 980 90 0 947
682 10 285 423 90 0 949
683 30 377 492 90 0 750
684 20 462 570 90 0 427
685 -20 909 1040 90 481 0
686 -30 985 1097 90 347 0
687 30 481 583 90 0 328
688 20 736 866 0 0 1045
689 -20 674 823 90 475 0
690 10 710 824 90 0 226
691 20 1005 1100 90 0 846
692 -20 1083 1214 90 793 0
693 -10 436 592 90 145 0
694 -10 960 1081 90 204 0
695 10 209 337 90 0 797
696 10 934 1056 0 0 1043
697 30 806 941 0 0 1031
698 -10 800 929 90 422 0
699 20 526 650 90 0 560
700 -20 822 953 90 336 0
701 -20 813 911 90 185 0
702 -30 1118 1241 90 50 0
703 20 460 596 0 0 1056
704 -20 720 851 90 743 0
705 30 267 412 90 0 100
706 20 234 353 90 0 48
707 -20 772 891 90 471 0
708 10 278 418 90 0 112
709 -20 360 479 90 383 0
710 40 505 600 0 0 1011
711 30 500 640 90 0 588
712 20 311 454 90 0 615
713 -20 508 599 90 309 0
714 20 1033 1162 0 0 1007
715 -20 212 346 90 184 0
716 -20 534 700 90 805 0
717 20 677 800 90 0 233
718 -20 921 1071 90 274 0
719 20 362 448 90 0 327
720 -20 443 553 90 480 0
721 10 639 776 90 0 3
722 -30 467 553 90 12 0
723 20 313 391 90 0 551
724 20 450 597 90 0 568
725 20 962 1094 0 0 1004
726 10 110 223 90 0 79
727 30 167 283 90 0 42
728 20 538 666 90 0 995
729 -20 795 907 90 396 0
730 20 517 664 90 0 409
731 -30 751 858 90 640 0
732 40 919 1047 90 0 376
733 -20 857 989 90 980 0
734 -20 845 973 90 652 0
735 20 187 303 90 0 584
736 -30 930 1067 90 326 0
737 30 252 372 0 0 1027
738 20 653 771 90 0 874
739 20 440 534 90 0 808
740 -20 740 839 90 209 0
741 10 516 666 90 0 990
742 -20 1127 1246 90 310 0
743 20 428 581 90 0 704
744 10 480 575 90 0 513
745 -10 637 748 90 913 0
746 10 90 193 0 0 1057
747 -20 1004 1115 90 38 0
748 -10 1053 1175 90 794 0
749 20 649 774 90 0 674
750 -30 744 870 90 683 0
751 -20 1157 1275 90 272 0
752 20 751 886 0 0 1055
753 -20 591 725 90 571 0
754 -10 1113 1237 90 243 0
755 -20 719 821 90 956 0
756 10 187 306 90 0 557
757 10 637 753 90 0 170
758 10 774 909 90 0 454
759 -20 125 243 90 857 0
760 -20 563 665 90 300 0
761 -30 195 291 90 389 0
762 20 492 559 90 0 593
763 -20 1056 1169 90 876 0
764 -10 694 816 90 361 0
765 20 239 351 90 0 880
766 -20 1112 1213 90 49 0
767 -40 345 495 90 295 0
768 -20 429 531 90 649 0
769 20 700 806 90 0 331
770 -10 766 922 90 484 0
771 30 693 841 90 0 884
772 -30 375 487 90 659 0
773 10 373 485 90 0 472
774 -10 698 817 90 679 0
775 20 238 315 90 0 411
776 30 302 428 90 0 189
777 -20 466 574 90 108 0
778 20 331 433 90 0 321
779 -30 292 389 90 67 0
780 -20 450 551 90 85 0
781 20 206 311 90 0 678
782 30 560 639 0 0 1047
783 10 550 619 90 0 257
784 20 193 314 90 0 641
785 40 262 392 90 0 853
786 10 234 403 90 0 218
787 -20 635 736 90 391 0
788 20 307 455 90 0 962
789 20 348 468 90 0 495
790 10 254 393 90 0 539
791 -30 1014 1106 90 994 0
792 -20 1231 1380 90 178 0
793 20 249 362 90 0 692
794 10 768 888 90 0 748
795 20 662 794 90 0 629
796 20 643 748 90 0 896
797 -10 301 426 90 695 0
798 10 356 449 90 0 20
799 20 407 499 90 0 142
800 -10 738 843 90 502 0
801 10 85 216 90 0 443
802 20 226 411 90 0 277
803 -20 915 1029 90 101 0
804 -20 813 928 90 260 0
805 20 460 589 90 0 716
806 20 1194 1305 90 0 879
807 20 403 546 90 0 291
808 -20 521 635 90 739 0
809 20 164 294 90 0 278
810 -10 710 851 90 61 0
811 10 280 380 90 0 960
812 -40 1032 1147 90 154 0
813 -20 1099 1193 90 867 0
814 -10 183 300 90 117 0
815 -20 895 1028 90 213 0
816 20 141 250 90 0 282
817 -20 711 821 90 538 0
818 10 1029 1172 0 0 1030
819 10 486 601 90 0 28
820 10 155 248 90 0 1000
821 30 296 433 90 0 872
822 10 676 754 90 0 151
823 10 571 709 0 0 1013
824 20 239 344 90 0 259
825 -10 735 843 90 965 0
826 10 290 417 90 0 933
827 -40 1155 1281 90 630 0
828 -20 768 866 90 371 0
829 -10 821 959 90 944 0
830 10 404 538 90 0 249
831 -20 764 885 90 460 0
832 10 693 817 90 0 59
833 20 835 984 90 0 172
834 20 1021 1124 0 0 1023
835 10 320 453 90 0 216
836 -10 729 860 90 433 0
837 20 85 239 90 0 70
838 10 367 481 90 0 133
839 10 698 840 0 0 1037
840 10 999 1153 90 0 609
841 20 262 413 90 0 464
842 -20 564 648 90 961 0
843 30 316 408 90 0 676
844 -30 680 765 90 95 0
845 -20 543 677 90 144 0
846 -20 1255 1402 90 691 0
847 20 459 597 90 0 455
848 10 794 944 90 0 917
849 20 1239 1340 0 0 1040
850 10 217 372 90 0 343
851 -10 741 856 90 247 0
852 -20 641 788 90 227 0
853 -40 553 651 90 785 0
854 20 370 463 90 0 859
855 20 160 303 90 0 862
856 -30 358 538 90 613 0
857 20 91 225 90 0 759
858 -20 723 820 90 126 0
859 -20 835 943 90 854 0
860 40 231 370 90 0 325
861 20 1152 1266 90 0 222
862 -20 376 496 90 855 0
863 -10 1294 1417 90 434 0
864 -20 879 996 90 436 0
865 20 914 1021 90 0 281
866 -20 844 977 90 276 0
867 20 706 846 90 0 813
868 20 335 477 0 0 1032
869 20 478 605 90 0 147
870 -20 806 942 90 275 0
871 -30 523 662 90 601 0
872 -30 1038 1178 90 821 0
873 30 864 969 90 0 904
874 -20 746 870 90 738 0
875 -30 1271 1394 90 387 0
876 20 881 971 90 0 763
877 -10 526 674 90 75 0
878 -10 1045 1134 90 623 0
879 -20 1284 1405 90 806 0
880 -20 272 395 90 765 0
881 -20 618 769 90 903 0
882 -10 1083 1215 90 573 0
883 -20 413 525 90 351 0
884 -30 1041 1163 90 771 0
885 20 133 282 90 0 901
886 -20 841 970 90 983 0
887 -10 763 852 90 587 0
888 -20 823 916 90 971 0
889 10 658 760 90 0 356
890 -20 900 1013 90 646 0
891 10 236 392 90 0 254
892 10 828 951 0 0 1044
893 -10 915 1055 90 134 0
894 10 805 891 90 0 267
895 -10 770 896 90 533 0
896 -20 913 1027 90 796 0
897 -20 256 391 90 985 0
898 -10 737 832 90 981 0
899 20 578 714 90 0 916
900 20 352 455 90 0 86
901 -20 521 642 90 885 0
902 10 345 452 90 0 320
903 20 132 274 90 0 881
904 -30 964 1063 90 873 0
905 -20 283 425 90 131 0
906 -20 888 1014 90 946 0
907 10 558 679 90 0 175
908 10 734 842 0 0 1029
909 -30 514 669 90 195 0
910 10 428 557 0 0 1034
911 10 566 712 90 0 190
912 -20 720 862 90 923 0
913 10 442 567 90 0 745
914 -10 614 785 90 374 0
915 10 151 253 90 0 214
916 -20 771 890 90 899 0
917 -10 900 1031 90 848 0
918 20 892 1022 90 0 541
919 -30 538 669 90 655 0
920 -10 964 1092 90 98 0
921 30 549 681 90 0 72
922 -20 699 848 90 966 0
923 20 221 353 90 0 912
924 -20 741 869 90 360 0
925 10 63 165 90 0 225
926 20 652 757 90 0 25
927 20 278 366 0 0 1058
928 10 591 706 90 0 510
929 -20 399 488 90 294 0
930 -10 977 1105 90 634 0
931 30 533 676 90 0 242
932 30 202 345 90 0 164
933 -10 385 508 90 826 0
934 10 88 198 90 0 53
935 30 570 657 90 0 63
936 -20 622 782 90 245 0
937 10 639 754 90 0 377
938 10 246 380 90 0 182
939 -20 413 492 90 412 0
940 -10 857 974 90 441 0
941 -10 230 350 90 612 0
942 10 150 265 90 0 244
943 40 756 871 90 0 508
944 10 364 500 90 0 829
945 -10 850 944 90 104 0
946 20 428 547 90 0 906
947 -30 1087 1185 90 681 0
948 -10 457 622 90 574 0
949 -10 394 503 90 682 0
950 10 241 349 90 0 65
951 10 615 746 90 0 555
952 20 401 513 90 0 22
953 -10 462 616 90 168 0
954 20 652 777 0 0 1042
955 -40 258 353 90 982 0
956 20 424 554 90 0 755
957 -30 644 757 90 219 0
958 10 281 401 90 0 319
959 30 502 633 90 0 506
960 -10 465 561 90 811 0
961 20 235 352 90 0 842
962 -20 777 915 90 788 0
963 20 288 398 90 0 487
964 20 133 221 90 0 280
965 10 359 471 90 0 825
966 20 431 562 90 0 922
967 10 515 643 90 0 368
968 20 509 622 90 0 519
969 10 48 180 90 0 662
970 -10 357 502 90 622 0
971 20 452 544 90 0 888
972 -10 754 886 90 14 0
973 -10 568 676 90 332 0
974 30 419 495 90 0 246
975 10 658 770 0 0 1017
976 20 899 1060 0 0 1022
977 -20 204 329 90 656 0
978 30 204 305 90 0 353
979 10 563 683 90 0 359
980 20 697 779 90 0 733
981 10 338 487 90 0 898
982 40 118 245 90 0 955
983 20 253 379 90 0 886
984 -20 563 673 90 354 0
985 20 231 314 90 0 897
986 40 115 227 90 0 306
987 -20 288 426 90 564 0
988 30 344 477 90 0 467
989 10 451 567 90 0 287
990 -10 799 930 90 741 0
991 20 444 560 90 0 585
992 20 592 703 90 0 673
993 -40 635 787 90 624 0
994 30 806 942 90 0 791
995 -20 1193 1328 90 728 0
996 -20 823 975 90 297 0
997 -30 606 691 90 522 0
998 30 82 204 90 0 88
999 -40 526 623 90 138 0
1000 -10 191 302 90 820 0
1001 -30 805 918 90 645 0
1002 -10 1195 1296 90 44 0
1003 -20 843 916 90 431 0
1004 -20 962 1094 90 725 0
1005 -20 804 890 90 631 0
1006 -10 397 553 90 532 0
1007 -20 1033 1162 90 714 0
1008 -20 692 793 90 567 0
1009 -20 958 1076 90 675 0
1010 -30 271 407 90 165 0
1011 -40 505 600 90 710 0
1012 -30 715 838 90 173 0
1013 -10 571 709 90 823 0
1014 -20 964 1063 90 124 0
1015 -10 990 1082 90 432 0
1016 -20 922 1066 90 660 0
1017 -10 658 770 90 975 0
1018 -10 297 387 90 304 0
1019 -30 741 860 90 127 0
1020 -30 416 536 90 565 0
1021 -10 1170 1336 90 83 0
1022 -20 899 1060 90 976 0
1023 -20 1021 1124 90 834 0
1024 -10 740 855 90 527 0
1025 -10 907 1043 90 548 0
1026 -30 303 458 90 537 0
1027 -30 252 372 90 737 0
1028 -10 1082 1189 90 553 0
1029 -10 734 842 90 908 0
1030 -10 1029 1172 90 818 0
1031 -30 806 941 90 697 0
1032 -20 335 477 90 868 0
1033 -30 953 1050 90 271 0
1034 -10 428 557 90 910 0
1035 -30 265 338 90 159 0
1036 -10 796 915 90 666 0
1037 -10 698 840 90 839 0
1038 -20 399 548 90 394 0
1039 -20 1044 1207 90 667 0
1040 -20 1239 1340 90 849 0
1041 -20 580 684 90 620 0
1042 -20 652 777 90 954 0
1043 -10 934 1056 90 696 0
1044 -10 828 951 90 892 0
1045 -20 736 866 90 688 0
1046 -20 381 485 90 322 0
1047 -30 560 639 90 782 0
1048 -20 633 745 90 32 0
1049 -10 591 754 90 47 0
1050 -30 355 450 90 283 0
1051 -20 320 475 90 405 0
1052 -10 718 823 90 26 0
1053 -20 961 1107 90 187 0
1054 -30 201 348 90 586 0
1055 -20 751 886 90 752 0
1056 -20 460 596 90 703 0
1057 -10 90 193 90 746 0
1058 -20 278 366 90 927 0
1059 -20 608 709 90 23 0
DEPOT_SECTION
1
-1
EOF
