NAME: lc1_10_4
TYPE: PDPTW
COMMENT: Li & Lim PDPTW benchmark converted from SINTEF format
DIMENSION: 1039
VEHICLES: 250
CAPACITY: 200
EDGE_WEIGHT_TYPE: EUC_2D
NODE_COORD_SECTION
1 250 250
2 387 297
3 5 297
4 355 177
5 78 346
6 286 159
7 322 465
8 393 408
9 89 216
10 76 345
11 410 285
12 472 189
13 270 49
14 219 325
15 437 12
16 418 218
17 20 488
18 77 347
19 73 346
20 480 455
21 129 292
22 337 257
23 237 254
24 131 220
25 417 417
26 287 143
27 379 80
28 87 285
29 374 489
30 440 247
31 281 137
32 379 196
33 297 102
34 39 76
35 35 306
36 435 68
37 245 251
38 409 88
39 273 55
40 163 340
41 129 223
42 371 200
43 357 26
44 470 473
45 77 344
46 478 461
47 128 291
48 111 113
49 164 21
50 21 485
51 108 26
52 424 286
53 200 270
54 7 300
55 433 31
56 420 295
57 451 367
58 118 157
59 489 101
60 200 261
61 476 483
62 30 302
63 8 300
64 275 45
65 238 46
66 152 206
67 99 218
68 393 410
69 480 460
70 337 256
71 389 300
72 90 237
73 321 280
74 417 218
75 64 108
76 57 432
77 356 24
78 143 207
79 221 325
80 22 483
81 24 65
82 141 431
83 202 9
84 20 48
85 457 163
86 470 290
87 268 400
88 337 251
89 366 20
90 72 344
91 149 203
92 55 428
93 189 7
94 397 18
95 481 122
96 20 73
97 54 430
98 74 350
99 202 8
100 406 285
101 460 2
102 441 244
103 1 293
104 115 465
105 422 420
106 75 347
107 141 428
108 404 264
109 398 23
110 148 211
111 362 22
112 479 127
113 443 246
114 22 37
115 65 100
116 404 447
117 102 264
118 444 271
119 325 466
120 124 219
121 335 243
122 26 42
123 113 106
124 399 450
125 146 439
126 162 336
127 2 295
128 122 35
129 346 60
130 93 213
131 218 316
132 116 156
133 419 422
134 467 141
135 187 491
136 433 25
137 286 137
138 370 82
139 132 290
140 435 11
141 206 261
142 428 291
143 95 384
144 205 223
145 463 140
146 343 47
147 435 62
148 387 488
149 121 157
150 182 463
151 92 216
152 370 83
153 444 242
154 90 285
155 446 64
156 312 264
157 208 11
158 442 247
159 140 431
160 118 153
161 134 428
162 91 235
163 406 257
164 377 76
165 474 96
166 346 57
167 393 301
168 412 214
169 210 398
170 346 150
171 62 453
172 437 61
173 87 96
174 367 83
175 91 268
176 459 145
177 63 444
178 433 27
179 60 454
180 478 99
181 485 454
182 6 292
183 398 20
184 248 251
185 433 15
186 64 426
187 154 207
188 481 456
189 380 498
190 88 286
191 111 23
192 199 187
193 269 48
194 367 178
195 452 163
196 431 28
197 8 116
198 233 47
199 237 43
200 320 262
201 188 4
202 180 6
203 328 466
204 393 12
205 409 90
206 406 87
207 394 407
208 358 183
209 186 461
210 38 72
211 323 471
212 224 192
213 278 46
214 272 403
215 232 42
216 18 63
217 58 458
218 416 417
219 205 230
220 65 453
221 421 294
222 434 245
223 2 116
224 411 421
225 315 260
226 136 288
227 173 490
228 90 232
229 402 265
230 361 14
231 348 147
232 385 295
233 394 23
234 466 295
235 71 103
236 125 29
237 25 65
238 58 449
239 246 398
240 423 294
241 59 459
242 348 145
243 477 97
244 307 102
245 169 31
246 381 495
247 95 234
248 22 33
249 435 268
250 135 293
251 439 266
252 269 402
253 267 400
254 473 196
255 445 237
256 461 284
257 167 339
258 26 43
259 101 386
260 342 54
261 243 399
262 288 44
263 274 48
264 360 184
265 23 67
266 6 296
267 249 258
268 421 415
269 319 468
270 50 438
271 440 61
272 17 65
273 323 118
274 402 281
275 71 153
276 52 432
277 378 199
278 238 204
279 208 184
280 376 195
281 473 475
282 215 395
283 123 222
284 436 241
285 70 100
286 73 328
287 241 205
288 250 405
289 483 14
290 466 287
291 467 114
292 120 159
293 408 84
294 413 217
295 338 142
296 483 457
297 479 169
298 95 224
299 122 216
300 477 179
301 406 99
302 44 47
303 487 450
304 172 488
305 460 374
306 279 138
307 338 147
308 395 295
309 195 185
310 463 194
311 30 72
312 244 254
313 317 261
314 67 108
315 442 310
316 63 336
317 109 107
318 100 387
319 494 94
320 343 49
321 40 52
322 319 124
323 94 97
324 476 94
325 283 47
326 398 325
327 460 13
328 305 107
329 188 12
330 136 290
331 439 268
332 112 467
333 181 469
334 358 18
335 459 10
336 199 268
337 436 237
338 318 280
339 64 99
340 394 333
341 366 93
342 95 391
343 391 425
344 344 146
345 198 12
346 186 472
347 390 408
348 19 43
349 307 108
350 59 457
351 49 451
352 125 39
353 61 147
354 317 123
355 392 426
356 237 213
357 71 333
358 304 97
359 196 462
360 224 191
361 37 51
362 491 25
363 270 401
364 474 461
365 66 448
366 337 241
367 269 46
368 22 41
369 198 271
370 287 43
371 446 63
372 200 229
373 48 72
374 465 142
375 123 155
376 16 497
377 220 319
378 484 171
379 55 431
380 428 24
381 80 342
382 16 68
383 124 56
384 95 218
385 481 26
386 145 434
387 335 57
388 26 490
389 324 127
390 109 114
391 72 148
392 220 392
393 442 243
394 69 336
395 131 226
396 150 204
397 423 217
398 419 459
399 285 163
400 203 7
401 54 445
402 109 463
403 355 180
404 13 455
405 165 337
406 314 124
407 9 124
408 3 292
409 16 462
410 189 464
411 288 154
412 90 296
413 138 438
414 13 459
415 461 8
416 96 97
417 68 99
418 146 205
419 117 152
420 481 96
421 338 260
422 285 44
423 111 464
424 468 291
425 148 206
426 184 464
427 197 11
428 396 410
429 133 53
430 132 30
431 464 13
432 100 394
433 483 22
434 93 235
435 174 26
436 436 264
437 24 492
438 406 94
439 234 246
440 315 287
441 408 453
442 128 225
443 226 191
444 391 407
445 198 264
446 179 7
447 425 215
448 483 27
449 22 40
450 479 176
451 476 102
452 386 405
453 22 38
454 440 241
455 182 14
456 266 405
457 357 181
458 395 332
459 423 290
460 104 28
461 131 56
462 111 110
463 97 93
464 90 274
465 214 394
466 6 114
467 375 191
468 356 21
469 466 165
470 415 223
471 397 20
472 241 403
473 69 334
474 152 210
475 67 335
476 126 30
477 390 423
478 285 162
479 285 158
480 406 96
481 459 374
482 67 109
483 468 475
484 438 31
485 168 24
486 267 394
487 406 450
488 460 288
489 224 203
490 21 487
491 21 488
492 87 217
493 67 452
494 119 223
495 398 428
496 344 262
497 390 301
498 167 27
499 236 247
500 313 119
501 13 51
502 200 13
503 0 120
504 202 4
505 343 144
506 94 383
507 250 411
508 464 134
509 443 237
510 4 114
511 169 336
512 200 178
513 412 453
514 121 151
515 403 93
516 399 301
517 97 387
518 176 8
519 62 326
520 151 207
521 299 98
522 334 240
523 92 270
524 444 269
525 132 223
526 428 25
527 413 421
528 382 498
529 391 429
530 398 97
531 192 265
532 438 26
533 44 79
534 137 290
535 446 319
536 175 487
537 26 45
538 147 435
539 111 459
540 472 132
541 349 158
542 86 268
543 415 216
544 121 218
545 210 185
546 98 215
547 484 174
548 328 458
549 313 126
550 390 415
551 459 17
552 481 124
553 386 414
554 116 466
555 468 295
556 391 426
557 408 279
558 15 68
559 392 424
560 88 95
561 116 151
562 240 250
563 123 159
564 89 290
565 39 50
566 359 179
567 338 257
568 92 236
569 413 417
570 91 101
571 55 449
572 57 425
573 465 287
574 320 280
575 322 468
576 483 458
577 312 267
578 139 291
579 388 408
580 110 459
581 459 372
582 204 269
583 407 98
584 335 256
585 471 484
586 339 244
587 89 272
588 488 96
589 316 286
590 235 50
591 316 258
592 425 288
593 213 397
594 113 156
595 199 9
596 463 167
597 129 27
598 248 404
599 405 276
600 400 288
601 61 156
602 393 20
603 484 177
604 108 116
605 112 217
606 389 404
607 102 391
608 434 26
609 488 26
610 477 120
611 126 220
612 439 310
613 212 319
614 320 283
615 17 459
616 236 213
617 68 108
618 390 294
619 275 42
620 423 214
621 460 367
622 272 402
623 478 102
624 400 260
625 181 6
626 470 475
627 245 408
628 93 96
629 218 318
630 441 265
631 21 64
632 356 23
633 267 44
634 277 50
635 182 4
636 26 36
637 384 491
638 418 290
639 321 277
640 358 16
641 389 334
642 48 78
643 24 68
644 206 225
645 290 141
646 439 15
647 359 182
648 413 287
649 230 49
650 407 280
651 459 295
652 468 199
653 101 384
654 170 26
655 197 270
656 415 289
657 203 390
658 443 272
659 210 391
660 363 22
661 352 176
662 212 223
663 8 120
664 244 250
665 18 484
666 379 82
667 84 346
668 233 207
669 344 62
670 20 489
671 361 181
672 174 494
673 49 76
674 390 325
675 7 118
676 107 26
677 312 270
678 399 102
679 109 108
680 115 218
681 88 287
682 54 424
683 125 32
684 199 12
685 457 374
686 391 413
687 304 102
688 391 293
689 66 336
690 132 291
691 18 462
692 347 62
693 466 142
694 389 17
695 342 254
696 92 223
697 404 83
698 290 46
699 95 92
700 200 265
701 435 16
702 25 499
703 319 260
704 116 225
705 402 284
706 108 105
707 386 13
708 472 129
709 132 57
710 43 71
711 493 91
712 12 451
713 201 188
714 60 428
715 243 248
716 230 197
717 389 11
718 401 281
719 459 14
720 411 95
721 0 297
722 476 196
723 458 16
724 92 230
725 432 24
726 215 317
727 371 192
728 481 20
729 152 207
730 14 459
731 361 17
732 8 497
733 206 186
734 421 218
735 402 264
736 388 325
737 35 304
738 321 263
739 444 313
740 188 462
741 400 103
742 418 221
743 112 219
744 408 452
745 30 301
746 205 228
747 407 88
748 380 489
749 395 331
750 133 26
751 21 68
752 313 282
753 53 440
754 458 130
755 437 15
756 400 286
757 346 144
758 440 244
759 280 162
760 488 173
761 326 118
762 207 400
763 391 18
764 37 55
765 204 15
766 173 28
767 343 148
768 231 43
769 445 273
770 432 27
771 439 305
772 208 396
773 249 407
774 107 112
775 279 159
776 376 494
777 403 262
778 41 47
779 96 213
780 461 167
781 391 99
782 116 221
783 165 343
784 388 334
785 130 57
786 422 409
787 66 156
788 485 86
789 389 428
790 117 467
791 475 477
792 429 27
793 339 60
794 381 494
795 218 321
796 64 101
797 343 254
798 478 464
799 423 286
800 198 9
801 225 196
802 374 190
803 462 14
804 347 54
805 231 195
806 72 96
807 489 87
808 443 313
809 233 204
810 477 483
811 459 368
812 95 277
813 16 460
814 100 266
815 288 53
816 211 386
817 144 439
818 224 314
819 79 291
820 95 235
821 7 123
822 91 217
823 105 27
824 101 385
825 238 210
826 439 67
827 435 267
828 443 64
829 92 234
830 450 265
831 102 27
832 492 94
833 440 63
834 453 367
835 15 69
836 489 17
837 335 255
838 419 418
839 292 41
840 489 27
841 96 270
842 461 369
843 105 22
844 479 121
845 207 223
846 17 458
847 186 7
848 465 168
849 416 288
850 388 418
851 92 233
852 179 492
853 132 55
854 485 24
855 388 331
856 217 323
857 281 164
858 169 340
859 491 20
860 279 42
861 439 243
862 391 334
863 96 244
864 441 273
865 477 478
866 56 434
867 12 463
868 458 164
869 446 65
870 71 156
871 65 153
872 8 118
873 102 29
874 315 265
875 343 62
876 384 16
877 67 105
878 478 118
879 73 101
880 200 14
881 114 225
882 460 293
883 51 447
884 418 295
885 282 139
886 477 122
887 91 266
888 16 463
889 228 199
890 435 20
891 467 195
892 469 132
893 465 136
894 246 255
895 49 75
896 66 98
897 166 32
898 326 466
899 202 186
900 467 285
901 290 136
902 341 58
903 121 219
904 107 35
905 216 319
906 134 288
907 89 270
908 136 52
909 462 167
910 340 54
911 80 286
912 38 301
913 25 307
914 470 139
915 270 400
916 204 187
917 460 171
918 399 106
919 197 267
920 77 350
921 91 231
922 398 103
923 35 303
924 231 204
925 311 266
926 416 420
927 231 203
928 4 116
929 417 217
930 268 52
931 345 144
932 368 85
933 441 65
934 201 270
935 0 293
936 167 24
937 186 464
938 7 292
939 80 290
940 405 455
941 439 312
942 300 108
943 478 121
944 92 232
945 111 463
946 132 294
947 134 285
948 316 284
949 56 428
950 232 47
951 466 291
952 341 257
953 420 213
954 116 152
955 163 337
956 440 7
957 208 222
958 485 95
959 97 385
960 462 367
961 455 365
962 492 95
963 405 450
964 371 193
965 234 202
966 404 103
967 24 41
968 67 334
969 207 227
970 277 403
971 15 457
972 217 319
973 111 467
974 378 493
975 112 465
976 173 25
977 421 292
978 74 146
979 178 491
980 204 185
981 319 470
982 163 331
983 470 125
984 315 121
985 166 34
986 284 140
987 85 288
988 376 190
989 238 203
990 399 104
991 472 481
992 46 74
993 401 255
994 475 480
995 485 27
996 476 174
997 330 242
998 332 249
999 375 80
1000 94 235
1001 287 144
1002 118 157
1003 22 38
1004 87 96
1005 51 447
1006 270 49
1007 65 153
1008 441 65
1009 393 20
1010 208 222
1011 470 290
1012 468 295
1013 52 432
1014 109 108
1015 0 120
1016 440 247
1017 215 395
1018 338 142
1019 92 216
1020 380 498
1021 469 132
1022 236 247
1023 348 147
1024 73 101
1025 244 254
1026 76 345
1027 6 296
1028 240 250
1029 418 218
1030 404 264
1031 287 144
1032 362 22
1033 16 68
1034 132 30
1035 367 83
1036 152 206
1037 241 403
1038 467 114
1039 391 429
PICKUP_AND_DELIVERY_SECTION
1 0 0 1824 0 0 0
2 10 200 270 90 0 951
3 -10 0 1485 90 721 0
4 -10 0 1607 90 505 0
5 -10 0 1538 90 920 0
6 20 0 1637 90 0 478
7 10 226 291 90 0 269
8 -10 0 1521 90 495 0
9 -20 0 1570 90 298 0
10 30 0 1536 0 0 1026
11 -20 499 556 90 100 0
12 30 0 1504 90 0 310
13 30 925 970 0 0 1006
14 -20 0 1653 90 392 0
15 20 557 613 90 0 701
16 20 0 1563 0 0 1029
17 -10 754 820 90 702 0
18 20 436 505 90 0 412
19 10 0 1533 90 0 106
20 -10 1123 1179 90 181 0
21 -30 552 610 90 473 0
22 -20 0 1647 90 567 0
23 -30 0 1721 90 40 0
24 -10 0 1612 90 969 0
25 10 0 1498 90 0 218
26 -20 0 1621 90 901 0
27 -20 0 1521 90 678 0
28 -20 0 1568 90 564 0
29 20 0 1465 90 0 974
30 20 0 1544 0 0 1016
31 10 0 1617 90 0 645
32 20 0 1595 90 0 467
33 10 214 281 90 0 406
34 -10 328 399 90 533 0
35 20 0 1512 90 0 737
36 10 0 1475 90 0 155
37 10 60 130 90 0 219
38 20 0 1508 90 0 966
39 20 196 246 90 0 902
40 30 0 1609 90 0 23
41 -20 0 1611 90 110 0
42 -20 0 1604 90 661 0
43 -20 0 1486 90 731 0
44 -10 1221 1270 90 61 0
45 10 254 319 90 0 519
46 10 0 1424 90 0 576
47 -10 0 1606 90 911 0
48 10 632 694 90 0 774
49 -10 578 639 90 485 0
50 30 0 1406 90 0 665
51 -20 0 1469 90 831 0
52 -20 0 1557 90 799 0
53 20 0 1681 90 0 655
54 -20 0 1486 90 408 0
55 10 0 1449 90 0 770
56 20 0 1559 90 0 688
57 -10 0 1502 90 786 0
58 20 0 1573 0 0 1002
59 -30 0 1453 90 711 0
60 -20 945 1017 90 336 0
61 10 0 1410 90 0 44
62 -10 0 1508 90 745 0
63 -10 0 1487 90 103 0
64 -30 0 1528 90 619 0
65 40 735 784 90 0 590
66 10 0 1627 0 0 1036
67 30 154 205 90 0 696
68 -20 0 1520 90 116 0
69 -10 549 627 90 850 0
70 20 154 201 90 0 577
71 10 0 1587 90 0 232
72 -10 0 1574 90 829 0
73 30 0 1657 90 0 574
74 -10 0 1564 90 158 0
75 -40 0 1500 90 710 0
76 10 0 1469 90 0 186
77 20 249 323 90 0 660
78 -20 0 1619 90 396 0
79 -40 0 1654 90 657 0
80 30 0 1409 90 0 670
81 -10 0 1442 90 501 0
82 30 362 423 90 0 143
83 -10 0 1489 90 965 0
84 -20 1294 1358 90 348 0
85 20 284 346 90 0 254
86 10 0 1511 0 0 1011
87 -20 0 1583 90 363 0
88 -20 0 1647 90 769 0
89 -20 0 1477 90 632 0
90 -20 0 1533 90 394 0
91 10 553 597 90 0 474
92 20 511 568 90 0 98
93 30 0 1484 90 0 455
94 -10 0 1460 90 109 0
95 30 0 1470 90 0 552
96 -10 0 1444 90 114 0
97 -10 0 1468 90 342 0
98 -20 0 1532 90 92 0
99 -20 0 1488 90 400 0
100 20 0 1575 90 0 11
101 20 0 1410 90 0 484
102 -10 0 1543 90 393 0
103 10 0 1482 90 0 63
104 -10 0 1481 90 790 0
105 20 0 1493 90 0 550
106 -10 0 1534 90 19 0
107 -20 0 1526 90 973 0
108 20 0 1580 0 0 1030
109 10 0 1464 90 0 94
110 20 167 233 90 0 41
111 20 0 1480 0 0 1032
112 -10 0 1475 90 886 0
113 20 0 1541 90 0 758
114 10 0 1422 90 0 96
115 10 0 1496 90 0 339
116 20 250 280 90 0 68
117 10 0 1586 90 0 439
118 10 0 1539 90 0 284
119 -30 0 1506 90 211 0
120 20 571 615 90 0 395
121 -20 0 1649 90 647 0
122 20 455 519 90 0 368
123 20 0 1536 90 0 192
124 20 0 1485 90 0 789
125 -20 0 1519 90 209 0
126 20 0 1611 90 0 664
127 -10 0 1482 90 938 0
128 -20 0 1484 90 352 0
129 -20 1027 1086 90 166 0
130 -10 0 1573 90 822 0
131 20 0 1661 90 0 629
132 10 0 1571 90 0 149
133 20 0 1493 90 0 926
134 10 0 1492 90 0 917
135 20 0 1485 90 0 740
136 20 0 1444 90 0 725
137 10 0 1616 90 0 328
138 40 0 1528 90 0 549
139 -20 0 1610 90 987 0
140 40 0 1432 90 0 646
141 -10 1050 1104 90 919 0
142 10 698 764 90 0 488
143 -30 719 785 90 82 0
144 -20 0 1682 90 184 0
145 -20 0 1495 90 508 0
146 -20 0 1511 90 717 0
147 -10 0 1471 90 172 0
148 -30 0 1460 90 776 0
149 -10 0 1575 90 132 0
150 30 0 1511 90 0 538
151 10 0 1573 0 0 1019
152 20 357 419 90 0 804
153 -20 441 501 90 337 0
154 -20 0 1571 90 947 0
155 -10 0 1464 90 36 0
156 20 0 1671 90 0 677
157 20 0 1492 90 0 800
158 10 0 1542 90 0 74
159 -10 0 1523 90 426 0
160 -10 0 1571 90 375 0
161 -20 0 1522 90 539 0
162 10 0 1575 90 0 1000
163 -20 0 1578 90 436 0
164 -30 0 1519 90 922 0
165 30 0 1463 90 0 420
166 20 0 1519 90 0 129
167 30 0 1583 90 0 497
168 10 0 1569 90 0 727
169 -30 0 1581 90 659 0
170 20 948 998 90 0 307
171 -10 0 1458 90 753 0
172 10 0 1469 90 0 147
173 30 0 1510 0 0 1004
174 30 0 1531 0 0 1035
175 10 869 931 90 0 814
176 40 233 291 90 0 547
177 20 0 1465 90 0 432
178 20 0 1446 90 0 526
179 -10 892 952 90 401 0
180 -10 0 1461 90 958 0
181 10 0 1423 90 0 20
182 10 316 360 90 0 935
183 20 333 394 90 0 707
184 20 0 1732 90 0 144
185 -10 0 1437 90 380 0
186 -10 1162 1223 90 76 0
187 20 0 1629 90 0 418
188 -20 0 1425 90 296 0
189 10 523 582 0 0 1020
190 10 795 859 90 0 681
191 10 266 326 90 0 823
192 -20 0 1653 90 123 0
193 -10 0 1532 90 930 0
194 20 0 1597 90 0 566
195 -20 0 1515 90 754 0
196 -10 0 1448 90 532 0
197 -20 0 1458 90 407 0
198 20 0 1531 90 0 367
199 -10 0 1527 90 897 0
200 -20 585 656 90 837 0
201 20 0 1481 90 0 329
202 10 0 1481 90 0 847
203 -10 0 1505 90 981 0
204 -10 0 1457 90 763 0
205 20 0 1509 90 0 301
206 -20 0 1509 90 890 0
207 20 733 789 90 0 428
208 20 0 1607 90 0 366
209 20 0 1514 90 0 125
210 30 420 496 90 0 992
211 30 0 1502 90 0 119
212 -10 215 274 90 801 0
213 20 0 1529 90 0 669
214 30 494 555 90 0 252
215 -20 0 1526 90 985 0
216 -10 716 792 90 558 0
217 10 0 1451 90 0 350
218 -10 0 1499 90 25 0
219 -10 0 1685 90 37 0
220 -20 0 1460 90 241 0
221 -20 0 1558 90 884 0
222 -10 1377 1416 90 658 0
223 -30 0 1453 90 821 0
224 20 862 917 90 0 569
225 10 223 278 90 0 849
226 -20 1023 1063 90 946 0
227 -10 406 462 90 304 0
228 10 0 1573 90 0 434
229 -40 306 365 90 624 0
230 -30 0 1474 90 640 0
231 10 0 1592 0 0 1023
232 -10 0 1592 90 71 0
233 20 0 1466 90 0 876
234 20 0 1514 90 0 651
235 20 0 1503 90 0 514
236 -30 0 1481 90 843 0
237 -20 0 1443 90 631 0
238 -20 0 1458 90 712 0
239 40 0 1586 90 0 598
240 10 0 1556 90 0 290
241 20 0 1451 90 0 220
242 -20 763 813 90 273 0
243 -10 0 1461 90 319 0
244 40 0 1576 90 0 349
245 -20 0 1501 90 936 0
246 20 705 769 90 0 794
247 10 315 362 90 0 851
248 10 0 1420 90 0 636
249 -10 1100 1154 90 874 0
250 30 0 1612 90 0 906
251 -20 0 1545 90 827 0
252 -30 0 1581 90 214 0
253 10 0 1584 90 0 338
254 -20 564 642 90 85 0
255 10 349 402 90 0 454
256 -30 0 1521 90 424 0
257 -10 0 1613 90 955 0
258 -30 365 427 90 537 0
259 20 0 1533 90 0 824
260 -10 0 1518 90 999 0
261 -30 782 837 90 507 0
262 20 0 1525 90 0 860
263 -10 0 1531 90 654 0
264 -20 846 906 90 457 0
265 -20 0 1443 90 272 0
266 10 0 1486 0 0 1027
267 -20 0 1726 90 288 0
268 30 297 364 90 0 940
269 -10 0 1506 90 7 0
270 -20 0 1460 90 376 0
271 -30 0 1467 90 828 0
272 20 0 1437 90 0 265
273 20 0 1584 90 0 242
274 20 0 1579 90 0 557
275 -40 746 816 90 353 0
276 20 0 1466 0 0 1013
277 10 0 1597 90 0 964
278 20 0 1687 90 0 356
279 20 146 192 90 0 443
280 -20 0 1597 90 294 0
281 10 0 1418 90 0 798
282 20 0 1585 0 0 1017
283 -20 0 1604 90 903 0
284 -10 0 1548 90 118 0
285 -10 1119 1191 90 314 0
286 20 193 270 90 0 690
287 30 0 1689 90 0 759
288 20 303 370 90 0 267
289 -30 0 1403 90 385 0
290 -10 0 1515 90 240 0
291 10 0 1478 0 0 1038
292 -20 0 1576 90 419 0
293 -20 0 1505 90 415 0
294 20 230 289 90 0 280
295 40 204 256 0 0 1018
296 20 0 1423 90 0 188
297 20 0 1492 90 0 378
298 20 0 1577 90 0 9
299 -20 461 537 90 611 0
300 -20 0 1497 90 760 0
301 -20 0 1517 90 205 0
302 20 0 1445 90 0 321
303 10 929 993 90 0 513
304 10 0 1484 90 0 227
305 20 753 831 90 0 960
306 -20 281 320 90 885 0
307 -20 0 1599 90 170 0
308 20 0 1583 90 0 638
309 -10 0 1649 90 417 0
310 -30 0 1514 90 12 0
311 -20 0 1452 90 643 0
312 20 0 1727 0 0 1025
313 -30 398 473 90 998 0
314 10 0 1503 90 0 285
315 -30 0 1533 90 535 0
316 -20 0 1529 90 968 0
317 -20 357 416 90 462 0
318 -10 0 1531 90 506 0
319 10 634 692 90 0 243
320 -10 0 1513 90 692 0
321 -20 546 591 90 302 0
322 20 400 465 90 0 389
323 -10 285 334 90 713 0
324 20 0 1460 90 0 451
325 -10 0 1529 90 634 0
326 -20 774 843 90 862 0
327 -20 0 1418 90 719 0
328 -10 0 1581 90 137 0
329 -20 0 1489 90 201 0
330 -10 0 1614 90 357 0
331 -20 0 1545 90 864 0
332 10 0 1477 90 0 402
333 -10 468 536 90 937 0
334 -20 0 1479 90 468 0
335 -20 0 1416 90 723 0
336 20 0 1680 90 0 60
337 20 186 264 90 0 153
338 -10 0 1660 90 253 0
339 -10 0 1495 90 115 0
340 20 0 1568 90 0 458
341 20 0 1539 90 0 932
342 10 0 1525 90 0 97
343 -10 0 1510 90 441 0
344 -10 0 1594 90 757 0
345 10 0 1491 90 0 684
346 -10 0 1503 90 672 0
347 -10 0 1523 90 527 0
348 20 0 1424 90 0 84
349 -40 0 1581 90 244 0
350 -10 0 1453 90 217 0
351 -10 0 1450 90 404 0
352 20 0 1489 90 0 128
353 40 0 1519 90 0 275
354 -30 0 1591 90 687 0
355 10 666 722 90 0 686
356 -20 0 1695 90 278 0
357 10 0 1537 90 0 330
358 20 0 1572 90 0 521
359 10 0 1516 90 0 762
360 20 0 1670 90 0 805
361 10 0 1443 90 0 764
362 10 0 1405 90 0 859
363 20 217 268 90 0 87
364 30 0 1427 90 0 398
365 10 0 1464 90 0 730
366 -20 0 1647 90 208 0
367 -20 0 1530 90 198 0
368 -20 1110 1164 90 122 0
369 20 0 1678 90 0 445
370 10 0 1524 90 0 839
371 -10 0 1464 90 826 0
372 -10 0 1680 90 520 0
373 -30 0 1465 90 565 0
374 -30 0 1494 90 893 0
375 10 0 1576 90 0 160
376 20 0 1394 90 0 270
377 30 0 1659 90 0 818
378 -20 680 736 90 297 0
379 -20 0 1468 90 572 0
380 10 0 1447 90 0 185
381 10 193 275 90 0 913
382 20 521 617 0 0 1033
383 -10 0 1503 90 750 0
384 20 873 927 90 0 779
385 30 0 1413 90 0 289
386 20 462 514 90 0 517
387 -10 0 1524 90 910 0
388 10 0 1406 90 0 490
389 -20 0 1591 90 322 0
390 10 829 871 90 0 706
391 -10 0 1529 90 787 0
392 20 970 1015 90 0 14
393 10 0 1542 90 0 102
394 20 440 507 90 0 90
395 -20 0 1613 90 120 0
396 20 0 1624 90 0 78
397 -30 0 1558 90 722 0
398 -30 0 1466 90 364 0
399 -20 0 1641 90 775 0
400 20 0 1487 90 0 99
401 10 0 1458 90 0 179
402 -10 0 1479 90 332 0
403 -20 0 1608 90 671 0
404 10 381 430 90 0 351
405 -40 0 1613 90 982 0
406 -10 0 1593 90 33 0
407 20 0 1463 90 0 197
408 20 404 457 90 0 54
409 10 935 986 90 0 846
410 -20 0 1512 90 536 0
411 -40 0 1631 90 986 0
412 -20 0 1568 90 18 0
413 -30 0 1516 90 817 0
414 -20 0 1419 90 888 0
415 20 0 1413 90 0 293
416 -20 0 1517 90 628 0
417 10 0 1498 90 0 309
418 -20 0 1621 90 187 0
419 20 0 1569 90 0 292
420 -30 526 577 90 165 0
421 -20 0 1646 90 599 0
422 10 0 1526 90 0 793
423 10 0 1479 90 0 945
424 30 0 1513 90 0 256
425 -20 0 1623 90 729 0
426 10 285 344 90 0 159
427 -20 0 1490 90 595 0
428 -20 829 880 90 207 0
429 20 0 1505 90 0 463
430 20 875 926 0 0 1034
431 20 853 906 90 0 803
432 -20 0 1527 90 177 0
433 10 0 1409 90 0 448
434 -10 0 1577 90 228 0
435 -10 0 1498 90 766 0
436 20 0 1548 90 0 163
437 10 0 1403 90 0 491
438 -10 375 430 90 990 0
439 -10 0 1718 90 117 0
440 30 0 1660 90 0 894
441 10 0 1477 90 0 343
442 -30 0 1610 90 782 0
443 -20 0 1671 90 279 0
444 -20 0 1523 90 487 0
445 -20 0 1681 90 369 0
446 20 0 1481 90 0 635
447 10 0 1556 90 0 742
448 -10 0 1412 90 433 0
449 -10 0 1425 90 967 0
450 20 0 1494 90 0 603
451 -20 0 1464 90 324 0
452 -10 0 1528 90 579 0
453 20 0 1423 0 0 1003
454 -10 0 1544 90 255 0
455 -30 0 1489 90 93 0
456 -10 680 745 90 622 0
457 20 367 441 90 0 264
458 -20 593 648 90 340 0
459 10 0 1557 90 0 882
460 20 0 1469 90 0 683
461 10 0 1507 90 0 570
462 20 0 1537 90 0 317
463 -20 0 1515 90 429 0
464 -10 0 1573 90 700 0
465 -20 0 1586 90 816 0
466 -10 0 1455 90 510 0
467 -20 0 1596 90 32 0
468 20 414 452 90 0 334
469 30 0 1502 90 0 780
470 20 0 1567 90 0 891
471 20 0 1462 90 0 694
472 10 686 744 0 0 1037
473 30 0 1535 90 0 21
474 -10 0 1629 90 91 0
475 20 0 1533 90 0 689
476 10 0 1482 90 0 668
477 -20 0 1512 90 748 0
478 -20 625 688 90 6 0
479 30 340 405 90 0 857
480 20 280 342 90 0 747
481 20 0 1491 90 0 834
482 -20 0 1503 90 642 0
483 10 0 1421 90 0 994
484 -20 0 1446 90 101 0
485 10 0 1494 90 0 49
486 10 0 1589 90 0 752
487 20 0 1481 90 0 444
488 -10 0 1521 90 142 0
489 20 0 1681 90 0 899
490 -10 582 629 90 388 0
491 -10 0 1404 90 437 0
492 10 0 1568 90 0 546
493 30 0 1462 90 0 580
494 -20 853 906 90 605 0
495 10 0 1503 90 0 8
496 20 0 1640 90 0 952
497 -30 0 1585 90 167 0
498 30 0 1497 90 0 976
499 20 0 1720 0 0 1022
500 30 0 1589 90 0 984
501 10 0 1425 90 0 81
502 10 0 1492 90 0 504
503 30 0 1453 0 0 1015
504 -10 950 1004 90 502 0
505 10 0 1593 90 0 4
506 10 636 687 90 0 318
507 30 0 1573 90 0 261
508 20 0 1491 90 0 145
509 20 0 1541 90 0 861
510 10 712 769 90 0 466
511 -10 0 1616 90 783 0
512 20 240 298 90 0 916
513 -10 0 1475 90 303 0
514 -20 0 1572 90 235 0
515 -20 0 1515 90 551 0
516 -20 0 1577 90 618 0
517 -20 823 869 90 386 0
518 10 0 1481 90 0 625
519 -10 0 1532 90 45 0
520 10 0 1627 90 0 372
521 -20 0 1575 90 358 0
522 30 0 1650 90 0 997
523 -10 0 1575 90 531 0
524 -20 0 1540 90 652 0
525 30 0 1613 90 0 680
526 -20 0 1448 90 178 0
527 10 768 828 90 0 347
528 10 0 1454 90 0 637
529 20 0 1507 0 0 1039
530 10 264 344 90 0 781
531 10 0 1675 90 0 523
532 10 0 1442 90 0 196
533 10 0 1467 90 0 34
534 10 0 1615 90 0 578
535 30 0 1527 90 0 315
536 20 248 308 90 0 410
537 30 0 1431 90 0 258
538 -30 0 1523 90 150 0
539 20 0 1483 90 0 161
540 -20 767 826 90 983 0
541 -20 0 1599 90 767 0
542 -10 0 1570 90 907 0
543 -10 0 1566 90 734 0
544 20 191 257 90 0 743
545 20 0 1658 90 0 597
546 -10 0 1579 90 492 0
547 -40 0 1488 90 176 0
548 10 0 1512 90 0 553
549 -40 0 1595 90 138 0
550 -20 0 1518 90 105 0
551 20 1039 1094 90 0 515
552 -30 505 571 90 95 0
553 -10 1109 1162 90 548 0
554 20 0 1480 90 0 975
555 10 0 1512 0 0 1012
556 10 0 1509 90 0 559
557 -20 0 1574 90 274 0
558 10 448 508 90 0 216
559 -10 0 1510 90 556 0
560 -20 0 1510 90 699 0
561 20 774 836 90 0 563
562 10 0 1724 0 0 1028
563 -20 0 1578 90 561 0
564 20 0 1569 90 0 28
565 30 0 1444 90 0 373
566 -20 0 1604 90 194 0
567 20 0 1646 90 0 22
568 20 0 1576 90 0 863
569 -20 1135 1207 90 224 0
570 -10 0 1517 90 461 0
571 20 0 1456 90 0 866
572 20 0 1474 90 0 379
573 10 0 1516 90 0 830
574 -30 221 298 90 73 0
575 20 0 1505 90 0 898
576 -10 656 708 90 46 0
577 -20 0 1670 90 70 0
578 -10 0 1616 90 534 0
579 10 0 1525 90 0 452
580 -30 0 1483 90 493 0
581 -10 0 1492 90 685 0
582 30 49 98 90 0 934
583 10 0 1516 90 0 741
584 -10 890 962 90 695 0
585 10 0 1413 90 0 865
586 -20 0 1645 90 620 0
587 -20 0 1572 90 812 0
588 -10 0 1451 90 832 0
589 -30 601 662 90 614 0
590 -40 813 896 90 65 0
591 -10 0 1668 90 650 0
592 -10 0 1555 90 925 0
593 -20 0 1583 90 772 0
594 -20 0 1568 90 954 0
595 20 853 911 90 0 427
596 -10 0 1506 90 848 0
597 -20 0 1481 90 545 0
598 -40 0 1580 90 239 0
599 20 0 1577 90 0 421
600 30 0 1580 90 0 718
601 -10 462 532 90 870 0
602 20 0 1464 0 0 1009
603 -20 0 1489 90 450 0
604 -10 0 1539 90 908 0
605 20 0 1593 90 0 494
606 -10 0 1527 90 838 0
607 20 0 1530 90 0 653
608 10 0 1445 90 0 792
609 30 0 1408 90 0 840
610 10 968 1026 90 0 844
611 20 0 1607 90 0 299
612 -30 0 1536 90 808 0
613 30 0 1656 90 0 905
614 30 421 471 90 0 589
615 -20 0 1421 90 813 0
616 20 0 1695 90 0 989
617 10 0 1504 90 0 896
618 20 0 1588 90 0 516
619 30 0 1525 90 0 64
620 20 0 1558 90 0 586
621 20 0 1494 90 0 961
622 10 0 1581 90 0 456
623 -20 0 1463 90 807 0
624 40 150 212 90 0 229
625 -10 678 753 90 518 0
626 30 0 1420 90 0 991
627 -10 585 652 90 773 0
628 20 0 1515 90 0 416
629 -20 0 1659 90 131 0
630 -20 0 1543 90 900 0
631 20 0 1439 90 0 237
632 20 0 1484 90 0 89
633 -20 0 1528 90 649 0
634 10 0 1533 90 0 325
635 -20 0 1479 90 446 0
636 -10 0 1425 90 248 0
637 -10 897 948 90 528 0
638 -20 1172 1221 90 308 0
639 10 0 1659 90 0 948
640 30 596 641 90 0 230
641 -20 0 1572 90 855 0
642 20 0 1469 90 0 482
643 20 0 1444 90 0 311
644 -30 0 1684 90 978 0
645 -10 645 709 90 31 0
646 -40 0 1433 90 140 0
647 20 0 1606 90 0 121
648 -20 0 1567 90 977 0
649 20 201 253 90 0 633
650 10 595 653 90 0 591
651 -20 0 1521 90 234 0
652 20 0 1511 90 0 524
653 -20 0 1534 90 607 0
654 10 0 1497 90 0 263
655 -20 0 1678 90 53 0
656 20 169 228 90 0 771
657 40 0 1587 90 0 79
658 10 0 1540 90 0 222
659 30 0 1588 90 0 169
660 -20 0 1480 90 77 0
661 20 0 1608 90 0 42
662 -10 0 1688 90 845 0
663 -10 0 1460 90 928 0
664 -20 0 1728 90 126 0
665 -30 0 1405 90 50 0
666 -30 0 1523 90 697 0
667 -10 0 1543 90 682 0
668 -10 0 1688 90 476 0
669 -20 1208 1274 90 213 0
670 -30 856 901 90 80 0
671 20 662 723 90 0 403
672 10 0 1479 90 0 346
673 -20 0 1469 90 895 0
674 30 883 929 90 0 736
675 -20 0 1458 90 872 0
676 -30 0 1469 90 873 0
677 -20 0 1669 90 156 0
678 20 0 1524 90 0 27
679 10 0 1534 0 0 1014
680 -30 298 341 90 525 0
681 -10 0 1568 90 190 0
682 10 0 1472 90 0 667
683 -20 0 1483 90 460 0
684 -10 0 1491 90 345 0
685 10 0 1493 90 0 581
686 -10 0 1519 90 355 0
687 30 0 1577 90 0 354
688 -20 0 1587 90 56 0
689 -20 0 1531 90 475 0
690 -20 0 1610 90 286 0
691 -40 0 1420 90 732 0
692 10 0 1523 90 0 320
693 10 0 1493 90 0 996
694 -20 0 1463 90 471 0
695 10 0 1642 90 0 584
696 -30 0 1574 90 67 0
697 30 0 1507 90 0 666
698 -40 0 1527 90 815 0
699 20 0 1513 90 0 560
700 10 0 1682 90 0 464
701 -20 0 1436 90 15 0
702 10 0 1399 90 0 17
703 20 0 1665 90 0 738
704 -30 0 1598 90 881 0
705 -10 313 367 90 756 0
706 -10 0 1532 90 390 0
707 -20 0 1461 90 183 0
708 10 312 383 90 0 929
709 20 396 443 90 0 853
710 40 0 1461 90 0 75
711 30 542 599 90 0 59
712 20 0 1423 90 0 238
713 10 0 1655 90 0 323
714 20 1059 1137 90 0 858
715 30 0 1727 90 0 746
716 -20 0 1678 90 809 0
717 20 0 1458 90 0 146
718 -30 0 1580 90 600 0
719 20 372 439 90 0 327
720 30 475 521 90 0 918
721 10 679 737 90 0 3
722 30 476 544 90 0 397
723 20 0 1421 90 0 335
724 -10 0 1575 90 820 0
725 -20 0 1444 90 136 0
726 10 0 1659 90 0 856
727 -10 0 1600 90 168 0
728 20 0 1409 90 0 854
729 20 0 1627 90 0 425
730 -10 0 1419 90 365 0
731 20 777 832 90 0 43
732 40 0 1389 90 0 691
733 -20 891 955 90 980 0
734 10 0 1561 90 0 543
735 20 0 1582 90 0 777
736 -30 0 1577 90 674 0
737 -20 0 1513 90 35 0
738 -20 0 1662 90 703 0
739 -30 0 1531 90 941 0
740 -20 0 1514 90 135 0
741 -10 0 1524 90 583 0
742 -10 1150 1223 90 447 0
743 -20 0 1593 90 544 0
744 -20 490 564 90 963 0
745 10 660 726 90 0 62
746 -30 0 1684 90 715 0
747 -20 0 1509 90 480 0
748 20 0 1462 90 0 477
749 -20 0 1568 90 784 0
750 10 0 1482 90 0 383
751 20 0 1442 90 0 835
752 -10 0 1664 90 486 0
753 10 0 1461 90 0 171
754 20 0 1494 90 0 195
755 -20 0 1434 90 956 0
756 10 0 1580 90 0 705
757 10 0 1591 90 0 344
758 -20 809 874 90 113 0
759 -30 158 210 90 287 0
760 20 0 1484 90 0 300
761 10 213 272 90 0 931
762 -10 0 1578 90 359 0
763 10 0 1463 90 0 204
764 -10 0 1446 90 361 0
765 -10 0 1495 90 880 0
766 10 0 1500 90 0 435
767 20 399 441 90 0 541
768 -10 447 513 90 950 0
769 20 725 781 90 0 88
770 -10 0 1447 90 55 0
771 -20 0 1538 90 656 0
772 20 0 1583 90 0 593
773 10 403 455 90 0 627
774 -10 0 1536 90 48 0
775 20 0 1639 90 0 399
776 30 0 1460 90 0 148
777 -20 493 547 90 735 0
778 20 359 406 90 0 806
779 -20 0 1576 90 384 0
780 -30 0 1508 90 469 0
781 -10 0 1528 90 530 0
782 30 0 1597 90 0 442
783 10 556 613 90 0 511
784 20 0 1573 90 0 749
785 40 289 365 90 0 904
786 10 234 290 90 0 57
787 10 0 1528 90 0 391
788 20 0 1448 90 0 962
789 -20 0 1509 90 124 0
790 10 0 1480 90 0 104
791 -20 0 1415 90 810 0
792 -10 1272 1339 90 608 0
793 -10 0 1525 90 422 0
794 -20 0 1458 90 246 0
795 -10 0 1657 90 972 0
796 -10 667 724 90 877 0
797 -30 0 1641 90 993 0
798 -10 0 1422 90 281 0
799 20 0 1558 90 0 52
800 -20 0 1488 90 157 0
801 10 128 174 90 0 212
802 -30 0 1597 90 988 0
803 -20 0 1417 90 431 0
804 -20 0 1516 90 152 0
805 -20 0 1676 90 360 0
806 -20 0 1499 90 778 0
807 20 0 1445 90 0 623
808 30 0 1531 90 0 612
809 20 0 1685 90 0 716
810 20 0 1409 90 0 791
811 -10 0 1494 90 842 0
812 20 0 1577 90 0 587
813 20 1112 1180 90 0 615
814 -10 0 1584 90 175 0
815 40 0 1534 90 0 698
816 20 141 212 90 0 465
817 30 0 1518 90 0 413
818 -30 0 1665 90 377 0
819 10 0 1559 90 0 939
820 10 155 227 90 0 724
821 30 0 1460 90 0 223
822 10 692 738 90 0 130
823 -10 0 1469 90 191 0
824 -20 0 1533 90 259 0
825 -20 757 821 90 924 0
826 10 322 386 90 0 371
827 20 0 1549 90 0 251
828 30 0 1466 90 0 271
829 10 0 1576 90 0 72
830 -10 0 1534 90 573 0
831 20 796 852 90 0 51
832 10 0 1447 90 0 588
833 -20 0 1468 90 869 0
834 -20 0 1500 90 481 0
835 -20 0 1438 90 751 0
836 10 0 1401 90 0 995
837 20 0 1649 90 0 200
838 10 394 454 90 0 606
839 -10 0 1521 90 370 0
840 -30 0 1408 90 609 0
841 -10 0 1579 90 887 0
842 10 0 1492 90 0 811
843 30 0 1464 90 0 236
844 -10 0 1472 90 610 0
845 10 0 1684 90 0 662
846 -10 1297 1360 90 409 0
847 -10 0 1483 90 202 0
848 10 837 902 90 0 596
849 -10 0 1564 90 225 0
850 10 217 283 90 0 69
851 -10 768 830 90 247 0
852 -10 678 752 90 979 0
853 -20 0 1507 90 709 0
854 -20 0 1408 90 728 0
855 20 0 1574 90 0 641
856 -10 0 1654 90 726 0
857 -30 0 1643 90 479 0
858 -20 0 1613 90 714 0
859 -10 0 1401 90 362 0
860 -20 0 1524 90 262 0
861 -20 0 1545 90 509 0
862 20 402 470 90 0 326
863 -20 0 1580 90 568 0
864 20 903 972 90 0 331
865 -10 0 1413 90 585 0
866 -20 0 1467 90 571 0
867 20 0 1415 90 0 971
868 -10 0 1509 90 914 0
869 20 0 1465 90 0 833
870 10 0 1532 90 0 601
871 30 0 1526 0 0 1007
872 20 1079 1138 90 0 675
873 30 0 1469 90 0 676
874 10 0 1668 90 0 249
875 10 0 1525 90 0 942
876 -20 0 1465 90 233 0
877 10 0 1501 90 0 796
878 20 0 1471 90 0 943
879 20 0 1503 0 0 1024
880 10 311 356 90 0 765
881 30 0 1596 90 0 704
882 -10 1121 1176 90 459 0
883 10 438 501 0 0 1005
884 20 0 1561 90 0 221
885 20 0 1619 90 0 306
886 10 886 924 90 0 112
887 10 0 1575 90 0 841
888 20 0 1418 90 0 414
889 -20 673 746 90 927 0
890 20 0 1439 90 0 206
891 -20 285 344 90 470 0
892 10 0 1486 0 0 1021
893 30 964 1007 90 0 374
894 -30 818 877 90 440 0
895 20 810 857 90 0 673
896 -10 0 1496 90 617 0
897 10 296 352 90 0 199
898 -20 753 817 90 575 0
899 -20 0 1654 90 489 0
900 20 0 1515 90 0 630
901 20 0 1614 90 0 26
902 -20 0 1522 90 39 0
903 20 0 1602 90 0 283
904 -40 986 1041 90 785 0
905 -30 0 1658 90 613 0
906 -30 0 1612 90 250 0
907 10 590 647 90 0 542
908 10 759 817 90 0 604
909 20 0 1507 90 0 953
910 10 0 1519 90 0 387
911 10 0 1561 90 0 47
912 -20 0 1516 90 923 0
913 -10 0 1502 90 381 0
914 10 0 1488 90 0 868
915 10 151 213 90 0 970
916 -20 803 857 90 512 0
917 -10 937 994 90 134 0
918 -30 0 1527 90 720 0
919 10 582 626 90 0 141
920 10 997 1058 90 0 5
921 30 0 1574 90 0 944
922 30 0 1526 90 0 164
923 20 0 1513 90 0 912
924 20 0 1685 90 0 825
925 10 0 1671 90 0 592
926 -20 0 1497 90 133 0
927 20 0 1684 90 0 889
928 10 618 678 90 0 663
929 -10 0 1564 90 708 0
930 10 1003 1079 90 0 193
931 -10 568 640 90 761 0
932 -20 0 1532 90 341 0
933 10 0 1469 0 0 1008
934 -30 0 1682 90 582 0
935 -10 591 637 90 182 0
936 20 0 1494 90 0 245
937 10 0 1511 90 0 333
938 10 246 306 90 0 127
939 -10 0 1560 90 819 0
940 -30 0 1477 90 268 0
941 30 257 324 90 0 739
942 -10 0 1584 90 875 0
943 -20 788 840 90 878 0
944 -30 0 1575 90 921 0
945 -10 0 1480 90 423 0
946 20 0 1609 90 0 226
947 20 0 1613 90 0 154
948 -10 510 570 90 639 0
949 -30 0 1471 90 959 0
950 10 262 327 90 0 768
951 -10 0 1515 90 2 0
952 -20 0 1643 90 496 0
953 -20 0 1561 90 909 0
954 20 678 750 90 0 594
955 10 0 1611 90 0 257
956 20 0 1426 90 0 755
957 30 667 734 0 0 1010
958 10 281 351 90 0 180
959 30 0 1530 90 0 949
960 -20 0 1492 90 305 0
961 -20 0 1499 90 621 0
962 -20 0 1447 90 788 0
963 20 0 1481 90 0 744
964 -10 0 1601 90 277 0
965 10 0 1684 90 0 83
966 -20 0 1522 90 38 0
967 10 0 1427 90 0 449
968 20 532 600 90 0 316
969 10 0 1686 90 0 24
970 -10 395 464 90 915 0
971 -20 0 1421 90 867 0
972 10 0 1658 90 0 795
973 20 597 647 90 0 107
974 -20 426 487 90 29 0
975 -20 0 1479 90 554 0
976 -30 952 1007 90 498 0
977 20 0 1558 90 0 648
978 30 0 1530 90 0 644
979 10 0 1483 90 0 852
980 20 0 1655 90 0 733
981 10 0 1504 90 0 203
982 40 118 179 90 0 405
983 20 253 316 90 0 540
984 -30 0 1590 90 500 0
985 20 0 1503 90 0 215
986 40 115 172 90 0 411
987 20 329 386 90 0 139
988 30 0 1595 90 0 802
989 -20 0 1686 90 616 0
990 10 0 1526 90 0 438
991 -30 0 1414 90 626 0
992 -30 0 1465 90 210 0
993 30 0 1583 90 0 797
994 -10 0 1413 90 483 0
995 -10 1231 1291 90 836 0
996 -10 874 924 90 693 0
997 -30 0 1654 90 522 0
998 30 82 144 90 0 313
999 10 550 598 90 0 260
1000 -10 0 1578 90 162 0
1001 20 0 1622 0 0 1031
1002 -20 0 1573 90 58 0
1003 -20 0 1423 90 453 0
1004 -30 0 1510 90 173 0
1005 -10 438 501 90 883 0
1006 -30 925 970 90 13 0
1007 -30 0 1526 90 871 0
1008 -10 0 1469 90 933 0
1009 -20 0 1464 90 602 0
1010 -30 667 734 90 957 0
1011 -10 0 1511 90 86 0
1012 -10 0 1512 90 555 0
1013 -20 0 1466 90 276 0
1014 -10 0 1534 90 679 0
1015 -30 0 1453 90 503 0
1016 -20 0 1544 90 30 0
1017 -20 0 1585 90 282 0
1018 -40 204 256 90 295 0
1019 -10 0 1573 90 151 0
1020 -10 523 582 90 189 0
1021 -10 0 1486 90 892 0
1022 -20 0 1720 90 499 0
1023 -10 0 1592 90 231 0
1024 -20 0 1503 90 879 0
1025 -20 0 1727 90 312 0
1026 -30 0 1536 90 10 0
1027 -10 0 1486 90 266 0
1028 -10 0 1724 90 562 0
1029 -20 0 1563 90 16 0
1030 -20 0 1580 90 108 0
1031 -20 0 1622 90 1001 0
1032 -20 0 1480 90 111 0
1033 -20 521 617 90 382 0
1034 -20 875 926 90 430 0
1035 -30 0 1531 90 174 0
1036 -10 0 1627 90 66 0
1037 -10 686 744 90 472 0
1038 -10 0 1478 90 291 0
1039 -20 0 1507 90 529 0
DEPOT_SECTION
1
-1
EOF
