NAME: lc1_10_2
TYPE: PDPTW
COMMENT: Li & Lim PDPTW benchmark converted from SINTEF format
DIMENSION: 1047
VEHICLES: 250
CAPACITY: 200
EDGE_WEIGHT_TYPE: EUC_2D
NODE_COORD_SECTION
1 250 250
2 387 297
3 5 297
4 355 177
5 78 346
6 286 159
7 322 465
8 393 408
9 89 216
10 76 345
11 410 285
12 472 189
13 270 49
14 219 325
15 437 12
16 418 218
17 20 488
18 77 347
19 73 346
20 480 455
21 129 292
22 337 257
23 237 254
24 131 220
25 417 417
26 287 143
27 379 80
28 87 285
29 374 489
30 440 247
31 281 137
32 379 196
33 297 102
34 39 76
35 35 306
36 435 68
37 245 251
38 409 88
39 273 55
40 163 340
41 129 223
42 371 200
43 357 26
44 470 473
45 77 344
46 478 461
47 128 291
48 111 113
49 164 21
50 21 485
51 108 26
52 424 286
53 200 270
54 7 300
55 433 31
56 420 295
57 451 367
58 118 157
59 489 101
60 200 261
61 476 483
62 30 302
63 8 300
64 275 45
65 238 46
66 152 206
67 99 218
68 393 410
69 480 460
70 337 256
71 389 300
72 90 237
73 321 280
74 417 218
75 64 108
76 57 432
77 356 24
78 143 207
79 221 325
80 22 483
81 24 65
82 141 431
83 202 9
84 20 48
85 457 163
86 470 290
87 268 400
88 337 251
89 366 20
90 72 344
91 149 203
92 55 428
93 189 7
94 397 18
95 481 122
96 20 73
97 54 430
98 74 350
99 202 8
100 406 285
101 460 2
102 441 244
103 1 293
104 115 465
105 422 420
106 75 347
107 141 428
108 404 264
109 398 23
110 148 211
111 362 22
112 479 127
113 443 246
114 22 37
115 65 100
116 404 447
117 102 264
118 444 271
119 325 466
120 124 219
121 335 243
122 26 42
123 113 106
124 399 450
125 146 439
126 162 336
127 2 295
128 122 35
129 346 60
130 93 213
131 218 316
132 116 156
133 419 422
134 467 141
135 187 491
136 433 25
137 286 137
138 370 82
139 132 290
140 435 11
141 206 261
142 428 291
143 95 384
144 205 223
145 463 140
146 343 47
147 435 62
148 387 488
149 121 157
150 182 463
151 92 216
152 370 83
153 444 242
154 90 285
155 446 64
156 312 264
157 208 11
158 442 247
159 140 431
160 118 153
161 134 428
162 91 235
163 406 257
164 377 76
165 474 96
166 346 57
167 393 301
168 412 214
169 210 398
170 346 150
171 62 453
172 437 61
173 87 96
174 367 83
175 91 268
176 459 145
177 63 444
178 433 27
179 60 454
180 478 99
181 485 454
182 6 292
183 398 20
184 248 251
185 433 15
186 64 426
187 154 207
188 481 456
189 380 498
190 88 286
191 111 23
192 199 187
193 269 48
194 367 178
195 452 163
196 431 28
197 8 116
198 233 47
199 237 43
200 320 262
201 188 4
202 180 6
203 328 466
204 393 12
205 409 90
206 406 87
207 394 407
208 358 183
209 186 461
210 38 72
211 323 471
212 224 192
213 278 46
214 272 403
215 232 42
216 18 63
217 58 458
218 416 417
219 205 230
220 65 453
221 421 294
222 434 245
223 2 116
224 411 421
225 315 260
226 136 288
227 173 490
228 90 232
229 402 265
230 361 14
231 348 147
232 385 295
233 394 23
234 466 295
235 71 103
236 125 29
237 25 65
238 58 449
239 246 398
240 423 294
241 59 459
242 348 145
243 477 97
244 307 102
245 169 31
246 381 495
247 95 234
248 22 33
249 435 268
250 135 293
251 439 266
252 269 402
253 267 400
254 473 196
255 445 237
256 461 284
257 167 339
258 26 43
259 101 386
260 342 54
261 243 399
262 288 44
263 274 48
264 360 184
265 23 67
266 6 296
267 249 258
268 421 415
269 319 468
270 50 438
271 440 61
272 17 65
273 323 118
274 402 281
275 71 153
276 52 432
277 378 199
278 238 204
279 208 184
280 376 195
281 473 475
282 215 395
283 123 222
284 436 241
285 70 100
286 73 328
287 241 205
288 250 405
289 483 14
290 466 287
291 467 114
292 120 159
293 408 84
294 413 217
295 338 142
296 483 457
297 479 169
298 95 224
299 122 216
300 477 179
301 406 99
302 44 47
303 487 450
304 172 488
305 460 374
306 279 138
307 338 147
308 395 295
309 195 185
310 463 194
311 30 72
312 244 254
313 317 261
314 67 108
315 442 310
316 63 336
317 109 107
318 100 387
319 494 94
320 343 49
321 40 52
322 319 124
323 94 97
324 476 94
325 283 47
326 398 325
327 460 13
328 305 107
329 188 12
330 136 290
331 439 268
332 112 467
333 181 469
334 358 18
335 459 10
336 199 268
337 436 237
338 318 280
339 64 99
340 394 333
341 366 93
342 95 391
343 391 425
344 344 146
345 198 12
346 186 472
347 390 408
348 19 43
349 307 108
350 59 457
351 49 451
352 125 39
353 61 147
354 317 123
355 392 426
356 237 213
357 71 333
358 304 97
359 196 462
360 224 191
361 37 51
362 491 25
363 270 401
364 474 461
365 66 448
366 337 241
367 269 46
368 22 41
369 198 271
370 287 43
371 446 63
372 200 229
373 48 72
374 465 142
375 123 155
376 16 497
377 220 319
378 484 171
379 55 431
380 428 24
381 80 342
382 16 68
383 124 56
384 95 218
385 481 26
386 145 434
387 335 57
388 26 490
389 324 127
390 109 114
391 72 148
392 220 392
393 442 243
394 69 336
395 131 226
396 150 204
397 423 217
398 419 459
399 285 163
400 203 7
401 54 445
402 109 463
403 355 180
404 13 455
405 165 337
406 314 124
407 9 124
408 3 292
409 16 462
410 189 464
411 288 154
412 90 296
413 138 438
414 13 459
415 461 8
416 96 97
417 68 99
418 146 205
419 117 152
420 481 96
421 338 260
422 285 44
423 111 464
424 468 291
425 148 206
426 184 464
427 197 11
428 396 410
429 133 53
430 132 30
431 464 13
432 100 394
433 483 22
434 93 235
435 174 26
436 436 264
437 24 492
438 406 94
439 234 246
440 315 287
441 408 453
442 128 225
443 226 191
444 391 407
445 198 264
446 179 7
447 425 215
448 483 27
449 22 40
450 479 176
451 476 102
452 386 405
453 22 38
454 440 241
455 182 14
456 266 405
457 357 181
458 395 332
459 423 290
460 104 28
461 131 56
462 111 110
463 97 93
464 90 274
465 214 394
466 6 114
467 375 191
468 356 21
469 466 165
470 415 223
471 397 20
472 241 403
473 69 334
474 152 210
475 67 335
476 126 30
477 390 423
478 285 162
479 285 158
480 406 96
481 459 374
482 67 109
483 468 475
484 438 31
485 168 24
486 267 394
487 406 450
488 460 288
489 224 203
490 21 487
491 21 488
492 87 217
493 67 452
494 119 223
495 398 428
496 344 262
497 390 301
498 167 27
499 236 247
500 313 119
501 13 51
502 200 13
503 0 120
504 202 4
505 343 144
506 94 383
507 250 411
508 464 134
509 443 237
510 4 114
511 169 336
512 200 178
513 412 453
514 121 151
515 403 93
516 399 301
517 97 387
518 176 8
519 62 326
520 151 207
521 299 98
522 334 240
523 92 270
524 444 269
525 132 223
526 428 25
527 413 421
528 382 498
529 391 429
530 398 97
531 192 265
532 438 26
533 44 79
534 137 290
535 446 319
536 175 487
537 26 45
538 147 435
539 111 459
540 472 132
541 349 158
542 86 268
543 415 216
544 121 218
545 210 185
546 98 215
547 484 174
548 328 458
549 313 126
550 390 415
551 459 17
552 481 124
553 386 414
554 116 466
555 468 295
556 391 426
557 408 279
558 15 68
559 392 424
560 88 95
561 116 151
562 240 250
563 123 159
564 89 290
565 39 50
566 359 179
567 338 257
568 92 236
569 413 417
570 91 101
571 55 449
572 57 425
573 465 287
574 320 280
575 322 468
576 483 458
577 312 267
578 139 291
579 388 408
580 110 459
581 459 372
582 204 269
583 407 98
584 335 256
585 471 484
586 339 244
587 89 272
588 488 96
589 316 286
590 235 50
591 316 258
592 425 288
593 213 397
594 113 156
595 199 9
596 463 167
597 129 27
598 248 404
599 405 276
600 400 288
601 61 156
602 393 20
603 484 177
604 108 116
605 112 217
606 389 404
607 102 391
608 434 26
609 488 26
610 477 120
611 126 220
612 439 310
613 212 319
614 320 283
615 17 459
616 236 213
617 68 108
618 390 294
619 275 42
620 423 214
621 460 367
622 272 402
623 478 102
624 400 260
625 181 6
626 470 475
627 245 408
628 93 96
629 218 318
630 441 265
631 21 64
632 356 23
633 267 44
634 277 50
635 182 4
636 26 36
637 384 491
638 418 290
639 321 277
640 358 16
641 389 334
642 48 78
643 24 68
644 206 225
645 290 141
646 439 15
647 359 182
648 413 287
649 230 49
650 407 280
651 459 295
652 468 199
653 101 384
654 170 26
655 197 270
656 415 289
657 203 390
658 443 272
659 210 391
660 363 22
661 352 176
662 212 223
663 8 120
664 244 250
665 18 484
666 379 82
667 84 346
668 233 207
669 344 62
670 20 489
671 361 181
672 174 494
673 49 76
674 390 325
675 7 118
676 107 26
677 312 270
678 399 102
679 109 108
680 115 218
681 88 287
682 54 424
683 125 32
684 199 12
685 457 374
686 391 413
687 304 102
688 391 293
689 66 336
690 132 291
691 18 462
692 347 62
693 466 142
694 389 17
695 342 254
696 92 223
697 404 83
698 290 46
699 95 92
700 200 265
701 435 16
702 25 499
703 319 260
704 116 225
705 402 284
706 108 105
707 386 13
708 472 129
709 132 57
710 43 71
711 493 91
712 12 451
713 201 188
714 60 428
715 243 248
716 230 197
717 389 11
718 401 281
719 459 14
720 411 95
721 0 297
722 476 196
723 458 16
724 92 230
725 432 24
726 215 317
727 371 192
728 481 20
729 152 207
730 14 459
731 361 17
732 8 497
733 206 186
734 421 218
735 402 264
736 388 325
737 35 304
738 321 263
739 444 313
740 188 462
741 400 103
742 418 221
743 112 219
744 408 452
745 30 301
746 205 228
747 407 88
748 380 489
749 395 331
750 133 26
751 21 68
752 313 282
753 53 440
754 458 130
755 437 15
756 400 286
757 346 144
758 440 244
759 280 162
760 488 173
761 326 118
762 207 400
763 391 18
764 37 55
765 204 15
766 173 28
767 343 148
768 231 43
769 445 273
770 432 27
771 439 305
772 208 396
773 249 407
774 107 112
775 279 159
776 376 494
777 403 262
778 41 47
779 96 213
780 461 167
781 391 99
782 116 221
783 165 343
784 388 334
785 130 57
786 422 409
787 66 156
788 485 86
789 389 428
790 117 467
791 475 477
792 429 27
793 339 60
794 381 494
795 218 321
796 64 101
797 343 254
798 478 464
799 423 286
800 198 9
801 225 196
802 374 190
803 462 14
804 347 54
805 231 195
806 72 96
807 489 87
808 443 313
809 233 204
810 477 483
811 459 368
812 95 277
813 16 460
814 100 266
815 288 53
816 211 386
817 144 439
818 224 314
819 79 291
820 95 235
821 7 123
822 91 217
823 105 27
824 101 385
825 238 210
826 439 67
827 435 267
828 443 64
829 92 234
830 450 265
831 102 27
832 492 94
833 440 63
834 453 367
835 15 69
836 489 17
837 335 255
838 419 418
839 292 41
840 489 27
841 96 270
842 461 369
843 105 22
844 479 121
845 207 223
846 17 458
847 186 7
848 465 168
849 416 288
850 388 418
851 92 233
852 179 492
853 132 55
854 485 24
855 388 331
856 217 323
857 281 164
858 169 340
859 491 20
860 279 42
861 439 243
862 391 334
863 96 244
864 441 273
865 477 478
866 56 434
867 12 463
868 458 164
869 446 65
870 71 156
871 65 153
872 8 118
873 102 29
874 315 265
875 343 62
876 384 16
877 67 105
878 478 118
879 73 101
880 200 14
881 114 225
882 460 293
883 51 447
884 418 295
885 282 139
886 477 122
887 91 266
888 16 463
889 228 199
890 435 20
891 467 195
892 469 132
893 465 136
894 246 255
895 49 75
896 66 98
897 166 32
898 326 466
899 202 186
900 467 285
901 290 136
902 341 58
903 121 219
904 107 35
905 216 319
906 134 288
907 89 270
908 136 52
909 462 167
910 340 54
911 80 286
912 38 301
913 25 307
914 470 139
915 270 400
916 204 187
917 460 171
918 399 106
919 197 267
920 77 350
921 91 231
922 398 103
923 35 303
924 231 204
925 311 266
926 416 420
927 231 203
928 4 116
929 417 217
930 268 52
931 345 144
932 368 85
933 441 65
934 201 270
935 0 293
936 167 24
937 186 464
938 7 292
939 80 290
940 405 455
941 439 312
942 300 108
943 478 121
944 92 232
945 111 463
946 132 294
947 134 285
948 316 284
949 56 428
950 232 47
951 466 291
952 341 257
953 420 213
954 116 152
955 163 337
956 440 7
957 208 222
958 485 95
959 97 385
960 462 367
961 455 365
962 492 95
963 405 450
964 371 193
965 234 202
966 404 103
967 24 41
968 67 334
969 207 227
970 277 403
971 15 457
972 217 319
973 111 467
974 378 493
975 112 465
976 173 25
977 421 292
978 74 146
979 178 491
980 204 185
981 319 470
982 163 331
983 470 125
984 315 121
985 166 34
986 284 140
987 85 288
988 376 190
989 238 203
990 399 104
991 472 481
992 46 74
993 401 255
994 475 480
995 485 27
996 476 174
997 330 242
998 332 249
999 375 80
1000 94 235
1001 287 144
1002 287 143
1003 22 40
1004 485 454
1005 49 76
1006 493 91
1007 8 116
1008 316 258
1009 390 415
1010 109 108
1011 464 134
1012 112 467
1013 6 296
1014 470 139
1015 133 53
1016 453 367
1017 441 244
1018 421 415
1019 151 207
1020 450 265
1021 406 94
1022 424 286
1023 396 410
1024 366 93
1025 287 43
1026 71 153
1027 300 108
1028 215 395
1029 95 277
1030 75 347
1031 116 151
1032 66 336
1033 441 265
1034 246 255
1035 439 305
1036 417 217
1037 234 246
1038 218 318
1039 232 42
1040 313 119
1041 338 260
1042 134 285
1043 208 222
1044 94 97
1045 322 468
1046 181 6
1047 321 263
PICKUP_AND_DELIVERY_SECTION
1 0 0 1824 0 0 0
2 10 200 270 90 0 308
3 -30 955 1017 90 127 0
4 -20 0 1607 90 59 0
5 -10 355 403 90 45 0
6 -30 530 597 90 479 0
7 10 226 291 90 0 981
8 30 0 1521 90 0 444
9 -20 495 562 90 546 0
10 -30 0 1536 90 653 0
11 20 499 556 90 0 557
12 -20 0 1504 90 310 0
13 -20 925 970 90 193 0
14 10 520 563 90 0 795
15 20 557 613 90 0 701
16 -10 974 1030 90 447 0
17 10 754 820 90 0 388
18 20 436 505 90 0 519
19 10 726 772 90 0 90
20 -40 1123 1179 90 188 0
21 -20 552 610 90 330 0
22 -30 805 863 90 993 0
23 -10 0 1721 90 700 0
24 -20 0 1612 90 611 0
25 10 954 1020 90 0 569
26 10 748 793 0 0 1002
27 -40 737 789 90 138 0
28 -20 709 764 90 968 0
29 20 269 339 90 0 776
30 20 717 779 90 0 163
31 -40 370 416 90 986 0
32 20 665 714 90 0 277
33 10 214 281 90 0 244
34 10 328 399 90 0 353
35 -20 369 440 90 286 0
36 10 0 1475 90 0 583
37 10 60 130 90 0 278
38 20 655 715 90 0 697
39 20 196 246 90 0 930
40 -10 468 513 90 955 0
41 20 274 340 90 0 120
42 10 0 1604 90 0 85
43 20 0 1486 90 0 230
44 10 1221 1270 90 0 798
45 10 254 319 90 0 5
46 -30 462 529 90 364 0
47 -30 639 706 90 250 0
48 10 632 694 90 0 774
49 20 578 639 90 0 766
50 -30 487 540 90 80 0
51 -10 423 491 90 191 0
52 10 0 1557 0 0 1022
53 20 0 1681 90 0 445
54 30 1056 1104 90 0 913
55 10 285 333 90 0 327
56 -20 0 1559 90 656 0
57 -20 1134 1195 90 305 0
58 20 403 465 90 0 954
59 20 0 1453 90 0 4
60 -30 945 1017 90 655 0
61 -10 657 722 90 585 0
62 10 572 632 90 0 923
63 -10 1131 1211 90 938 0
64 -10 444 515 90 263 0
65 40 735 784 90 0 590
66 -10 910 973 90 299 0
67 30 154 205 90 0 822
68 -20 913 982 90 207 0
69 20 549 627 90 0 576
70 -20 154 201 90 837 0
71 -10 0 1587 90 639 0
72 20 0 1574 90 0 863
73 30 143 194 90 0 752
74 -10 0 1564 90 848 0
75 10 473 539 90 0 235
76 -20 973 1033 90 866 0
77 20 249 323 90 0 468
78 30 0 1619 90 0 969
79 10 0 1654 90 0 818
80 30 325 389 90 0 50
81 -30 0 1442 90 173 0
82 30 362 423 90 0 667
83 -20 0 1489 90 765 0
84 10 1294 1358 90 0 501
85 -10 284 346 90 42 0
86 -10 835 895 90 290 0
87 -20 869 928 90 456 0
88 -10 0 1647 90 222 0
89 -20 874 927 90 731 0
90 -10 0 1533 90 19 0
91 -20 553 597 90 279 0
92 -20 511 568 90 572 0
93 30 0 1484 90 0 202
94 -20 519 575 90 183 0
95 -20 607 653 90 112 0
96 10 0 1444 90 0 751
97 20 610 652 90 0 405
98 10 915 955 90 0 920
99 10 0 1488 90 0 157
100 -20 0 1575 90 849 0
101 20 655 720 90 0 995
102 10 909 955 0 0 1017
103 -10 0 1482 90 182 0
104 10 409 465 90 0 945
105 -20 0 1493 90 296 0
106 10 810 872 0 0 1030
107 -20 0 1526 90 413 0
108 -20 395 462 90 229 0
109 10 270 334 90 0 174
110 20 167 233 90 0 787
111 20 1050 1121 90 0 910
112 20 412 478 90 0 95
113 20 536 593 90 0 251
114 10 0 1422 90 0 348
115 10 763 811 90 0 285
116 20 250 280 90 0 744
117 10 148 215 90 0 190
118 10 633 688 90 0 249
119 40 0 1506 90 0 203
120 -20 571 615 90 41 0
121 20 428 495 90 0 997
122 20 455 519 90 0 967
123 20 198 260 90 0 462
124 -10 971 1056 90 441 0
125 -20 642 707 90 209 0
126 20 0 1611 90 0 511
127 30 774 828 90 0 3
128 10 0 1484 90 0 699
129 10 1027 1086 90 0 669
130 -30 0 1573 90 871 0
131 20 73 134 90 0 538
132 10 495 557 90 0 160
133 -10 0 1493 90 303 0
134 10 0 1492 90 0 892
135 -20 771 854 90 346 0
136 20 0 1444 90 0 725
137 -40 0 1616 90 306 0
138 40 0 1528 90 0 27
139 10 818 898 90 0 226
140 40 0 1432 90 0 646
141 -30 1050 1104 90 582 0
142 10 698 764 90 0 648
143 -20 719 785 90 386 0
144 -30 491 544 90 372 0
145 10 295 366 90 0 540
146 -10 0 1511 90 761 0
147 30 1156 1218 90 0 966
148 -20 987 1046 90 637 0
149 10 220 279 90 0 292
150 30 372 440 90 0 817
151 -30 0 1573 90 921 0
152 20 357 419 90 0 164
153 10 441 501 90 0 436
154 -20 981 1042 90 841 0
155 10 600 665 90 0 828
156 20 131 179 90 0 200
157 -10 0 1492 90 99 0
158 -20 623 689 90 337 0
159 30 280 324 90 0 517
160 -10 949 1028 90 132 0
161 20 935 992 90 0 972
162 10 1140 1188 90 0 562
163 -20 0 1578 90 30 0
164 -20 638 699 90 152 0
165 30 271 327 90 0 623
166 -10 0 1519 90 902 0
167 30 482 545 90 0 516
168 10 165 215 90 0 861
169 -20 592 647 90 816 0
170 -10 948 998 90 757 0
171 -30 515 584 90 220 0
172 -10 1063 1127 90 990 0
173 30 0 1510 90 0 81
174 -10 0 1531 90 109 0
175 10 869 931 90 0 568
176 40 233 291 90 0 195
177 -20 1084 1146 90 241 0
178 -20 628 694 90 471 0
179 -10 892 952 90 365 0
180 -20 0 1461 90 324 0
181 10 0 1423 0 0 1004
182 10 316 360 90 0 103
183 20 333 394 90 0 94
184 20 2 63 90 0 715
185 20 297 344 90 0 956
186 10 1162 1223 90 0 539
187 -30 0 1629 90 283 0
188 40 1028 1091 90 0 20
189 10 523 582 90 0 794
190 -10 795 859 90 117 0
191 10 266 326 90 0 51
192 20 433 490 90 0 899
193 20 0 1532 90 0 13
194 -10 0 1597 90 291 0
195 -40 0 1515 90 176 0
196 20 0 1448 90 0 792
197 20 894 957 0 0 1007
198 20 356 415 90 0 199
199 -20 631 702 90 198 0
200 -20 585 656 90 156 0
201 20 413 455 90 0 446
202 -30 0 1481 90 93 0
203 -40 847 906 90 119 0
204 10 0 1457 90 0 707
205 20 0 1509 90 0 206
206 -20 936 999 90 205 0
207 20 733 789 90 0 68
208 -30 932 1005 90 403 0
209 20 220 284 90 0 125
210 30 420 496 90 0 560
211 -10 0 1502 90 269 0
212 10 215 274 90 0 889
213 20 205 269 90 0 422
214 -10 494 555 90 622 0
215 10 545 599 0 0 1039
216 -20 716 792 90 382 0
217 10 702 774 90 0 350
218 -20 1057 1099 90 926 0
219 -10 203 263 90 746 0
220 30 423 490 90 0 171
221 -20 883 953 90 739 0
222 10 1377 1416 90 0 88
223 20 526 586 90 0 663
224 -10 862 917 90 838 0
225 10 223 278 90 0 874
226 -10 1023 1063 90 139 0
227 -10 406 462 90 304 0
228 -20 682 732 90 464 0
229 20 306 365 90 0 108
230 -20 686 738 90 43 0
231 -10 845 914 90 344 0
232 -20 0 1592 90 618 0
233 20 1271 1326 90 0 273
234 -10 0 1514 90 488 0
235 -10 0 1503 90 75 0
236 30 0 1481 90 0 597
237 -20 1005 1057 90 778 0
238 -30 993 1042 90 493 0
239 40 148 199 90 0 627
240 10 0 1556 90 0 638
241 20 0 1451 90 0 177
242 20 763 813 90 0 541
243 10 421 495 90 0 420
244 -10 0 1576 90 33 0
245 -10 0 1501 90 485 0
246 -30 705 769 90 974 0
247 10 315 362 90 0 384
248 10 735 803 90 0 453
249 -10 1100 1154 90 118 0
250 30 0 1612 90 0 47
251 -20 0 1545 90 113 0
252 20 587 648 90 0 253
253 -20 779 836 90 252 0
254 -30 564 642 90 722 0
255 -20 349 402 90 509 0
256 10 275 340 90 0 424
257 10 648 710 90 0 858
258 -30 365 427 90 537 0
259 -20 349 415 90 824 0
260 -30 553 616 90 387 0
261 -10 782 837 90 773 0
262 -40 0 1525 90 860 0
263 10 368 405 90 0 64
264 -20 846 906 90 671 0
265 -10 0 1443 90 533 0
266 10 863 926 0 0 1013
267 -20 910 974 90 312 0
268 30 297 364 0 0 1018
269 10 289 353 90 0 211
270 20 0 1460 90 0 714
271 -10 971 1032 90 826 0
272 20 625 699 90 0 631
273 -20 0 1584 90 233 0
274 20 886 924 90 0 718
275 20 746 816 0 0 1026
276 -10 789 843 90 682 0
277 -20 761 804 90 32 0
278 -10 566 634 90 37 0
279 20 146 192 90 0 91
280 -30 576 616 90 727 0
281 -10 0 1418 90 483 0
282 20 865 928 0 0 1028
283 30 376 430 90 0 187
284 -10 1271 1333 90 758 0
285 -10 1119 1191 90 115 0
286 20 193 270 90 0 35
287 -10 0 1689 90 950 0
288 20 303 370 90 0 507
289 -20 0 1403 90 728 0
290 10 467 525 90 0 86
291 10 1159 1223 90 0 194
292 -10 306 377 90 149 0
293 10 745 814 90 0 515
294 20 230 289 90 0 470
295 40 204 256 90 0 931
296 20 735 811 90 0 105
297 -10 774 834 90 378 0
298 -10 0 1577 90 820 0
299 10 461 537 90 0 66
300 -10 0 1497 90 547 0
301 20 367 438 90 0 918
302 20 0 1445 90 0 879
303 10 929 993 90 0 133
304 10 310 374 90 0 227
305 20 753 831 90 0 57
306 40 281 320 90 0 137
307 10 135 193 90 0 767
308 -10 677 736 90 2 0
309 20 335 399 90 0 396
310 20 220 279 90 0 12
311 -20 0 1452 90 643 0
312 20 723 787 90 0 267
313 20 398 473 90 0 677
314 10 297 346 90 0 796
315 -30 643 698 90 808 0
316 -10 822 861 90 381 0
317 -20 357 416 90 706 0
318 -20 0 1531 90 379 0
319 10 634 692 90 0 962
320 10 650 710 90 0 804
321 40 546 591 90 0 391
322 20 400 465 90 0 984
323 20 285 334 0 0 1044
324 20 334 396 90 0 180
325 10 373 420 90 0 839
326 -20 774 843 90 749 0
327 -10 0 1418 90 55 0
328 -20 0 1581 90 660 0
329 30 245 309 90 0 847
330 20 272 332 90 0 21
331 10 0 1545 90 0 769
332 10 505 557 0 0 1012
333 -10 468 536 90 426 0
334 10 0 1479 90 0 640
335 10 0 1416 90 0 385
336 -10 284 368 90 934 0
337 20 186 264 90 0 158
338 20 319 384 90 0 589
339 10 853 904 90 0 896
340 -20 0 1568 90 784 0
341 20 936 989 0 0 1024
342 -20 909 973 90 949 0
343 20 842 909 90 0 559
344 10 496 529 90 0 231
345 10 582 631 90 0 427
346 20 564 633 90 0 135
347 -10 0 1523 90 606 0
348 -10 1203 1259 90 114 0
349 10 777 847 90 0 901
350 -10 810 848 90 217 0
351 20 340 409 90 0 753
352 20 245 318 90 0 476
353 -10 0 1519 90 34 0
354 20 497 554 90 0 549
355 -20 666 722 90 789 0
356 -40 846 917 90 716 0
357 10 0 1537 90 0 412
358 -30 407 466 90 521 0
359 10 955 1003 90 0 740
360 20 312 359 90 0 825
361 -30 0 1443 90 565 0
362 -20 0 1405 90 719 0
363 20 217 268 90 0 970
364 30 307 379 90 0 46
365 10 270 345 90 0 179
366 -10 0 1647 90 543 0
367 -20 733 794 90 633 0
368 -10 1110 1164 90 636 0
369 -10 0 1678 90 690 0
370 10 555 609 0 0 1025
371 -20 697 750 90 661 0
372 30 301 355 90 0 144
373 -20 711 768 90 628 0
374 10 0 1494 90 0 693
375 -20 1143 1209 90 419 0
376 20 1038 1123 90 0 437
377 -20 971 1037 90 856 0
378 10 680 736 90 0 297
379 20 694 752 90 0 318
380 10 0 1447 90 0 526
381 10 193 275 90 0 316
382 20 521 617 90 0 216
383 -10 0 1503 90 676 0
384 -10 873 927 90 247 0
385 -10 0 1413 90 335 0
386 20 462 514 90 0 143
387 30 210 261 90 0 260
388 -10 1345 1394 90 17 0
389 30 143 200 90 0 999
390 10 829 871 90 0 604
391 -40 0 1529 90 321 0
392 -20 970 1015 90 772 0
393 -10 996 1052 90 891 0
394 -20 440 507 90 814 0
395 20 121 183 90 0 418
396 -20 639 694 90 309 0
397 20 785 849 90 0 742
398 -10 785 838 90 513 0
399 -30 714 780 90 478 0
400 -10 1033 1108 90 502 0
401 -20 534 593 90 571 0
402 30 0 1479 90 0 613
403 30 279 345 90 0 208
404 10 381 430 90 0 888
405 -20 0 1613 90 97 0
406 -10 0 1593 90 875 0
407 20 271 336 90 0 928
408 20 404 457 90 0 721
409 -20 935 986 90 691 0
410 -20 856 906 90 536 0
411 -20 442 494 90 775 0
412 -10 0 1568 90 357 0
413 20 832 893 90 0 107
414 -20 646 718 90 712 0
415 -20 0 1413 90 803 0
416 20 217 280 90 0 710
417 10 1040 1085 90 0 594
418 -20 0 1621 90 395 0
419 20 0 1569 90 0 375
420 -10 526 577 90 243 0
421 20 0 1646 0 0 1041
422 -20 0 1526 90 213 0
423 10 775 837 90 0 937
424 -10 748 798 90 256 0
425 -20 458 506 90 512 0
426 10 285 344 90 0 333
427 -10 0 1490 90 345 0
428 10 829 880 0 0 1023
429 20 668 720 0 0 1015
430 -30 875 926 90 683 0
431 20 853 906 90 0 933
432 10 0 1527 90 0 607
433 10 476 543 90 0 859
434 10 951 1012 90 0 724
435 -20 1037 1105 90 936 0
436 -10 0 1548 90 153 0
437 -20 1252 1302 90 376 0
438 10 375 430 0 0 1021
439 10 0 1718 0 0 1037
440 -20 693 754 90 948 0
441 10 0 1477 90 0 124
442 -20 0 1610 90 605 0
443 20 397 459 90 0 805
444 -30 0 1523 90 8 0
445 -20 770 821 90 53 0
446 -20 864 930 90 201 0
447 10 699 748 90 0 16
448 -20 1322 1384 90 854 0
449 30 1012 1080 0 0 1003
450 -30 0 1494 90 996 0
451 20 797 866 90 0 647
452 20 206 266 90 0 579
453 -10 929 980 90 248 0
454 -20 0 1544 90 652 0
455 -10 1062 1116 90 635 0
456 20 680 745 90 0 87
457 20 367 441 90 0 566
458 10 593 648 90 0 736
459 10 0 1557 90 0 592
460 20 0 1469 90 0 873
461 10 0 1507 90 0 908
462 -20 550 590 90 123 0
463 -10 0 1515 90 750 0
464 20 411 458 90 0 228
465 -10 0 1586 90 852 0
466 -30 0 1455 90 821 0
467 -20 473 531 90 964 0
468 -20 414 452 90 77 0
469 -20 747 805 90 909 0
470 -20 1257 1302 90 294 0
471 20 433 477 90 0 178
472 -30 686 744 90 598 0
473 -20 0 1535 90 475 0
474 20 105 163 90 0 779
475 20 629 684 90 0 473
476 -20 495 558 90 352 0
477 10 290 336 90 0 529
478 30 625 688 90 0 399
479 30 340 405 90 0 6
480 20 280 342 90 0 747
481 -20 848 917 90 581 0
482 20 388 438 90 0 644
483 10 313 373 90 0 281
484 10 348 413 90 0 551
485 10 770 816 90 0 245
486 -10 962 1027 90 915 0
487 20 405 464 90 0 940
488 10 213 265 90 0 234
489 -20 0 1681 90 545 0
490 10 582 629 90 0 702
491 -10 0 1404 90 665 0
492 -30 0 1568 90 601 0
493 30 327 402 90 0 238
494 -20 853 906 90 743 0
495 -20 0 1503 90 963 0
496 -10 0 1640 90 756 0
497 10 0 1585 90 0 688
498 -10 487 536 90 897 0
499 -20 0 1720 90 729 0
500 30 679 742 0 0 1040
501 -10 1366 1425 90 84 0
502 10 397 453 90 0 400
503 30 431 492 90 0 510
504 -20 950 1004 90 595 0
505 -30 0 1593 90 755 0
506 -30 636 687 90 959 0
507 -20 492 554 90 288 0
508 20 0 1491 0 0 1011
509 20 248 318 90 0 255
510 -30 712 769 90 503 0
511 -20 838 892 90 126 0
512 20 240 298 90 0 425
513 10 0 1475 90 0 398
514 -20 0 1572 90 563 0
515 -10 1131 1181 90 293 0
516 -30 584 634 90 167 0
517 -30 823 869 90 159 0
518 10 0 1481 90 0 965
519 -20 0 1532 90 18 0
520 10 0 1627 0 0 1019
521 30 320 364 90 0 358
522 -30 0 1650 90 893 0
523 -30 954 1029 90 737 0
524 -30 0 1540 90 600 0
525 -30 0 1613 90 782 0
526 -10 1175 1251 90 380 0
527 -10 768 828 90 786 0
528 10 619 669 90 0 748
529 -10 0 1507 90 477 0
530 -20 264 344 90 781 0
531 -10 678 721 90 919 0
532 -20 0 1442 90 890 0
533 10 267 333 90 0 265
534 10 176 245 90 0 906
535 -30 364 416 90 941 0
536 20 248 308 90 0 410
537 30 0 1431 90 0 258
538 -20 553 607 90 131 0
539 -10 0 1483 90 186 0
540 -10 767 826 90 145 0
541 -20 1050 1093 90 242 0
542 -10 689 735 90 819 0
543 10 319 384 90 0 366
544 -20 191 257 90 903 0
545 20 0 1658 90 0 489
546 20 218 278 90 0 9
547 10 0 1488 90 0 300
548 -30 0 1512 90 898 0
549 -20 873 923 90 354 0
550 20 0 1518 0 0 1009
551 -10 1039 1094 90 484 0
552 10 505 571 90 0 878
553 -10 1109 1162 90 686 0
554 -10 318 373 90 790 0
555 10 934 987 90 0 651
556 -10 0 1509 90 850 0
557 -20 682 747 90 11 0
558 -10 448 508 90 835 0
559 -20 926 1007 90 343 0
560 -30 658 712 90 210 0
561 20 774 836 0 0 1031
562 -10 0 1724 90 162 0
563 20 156 216 90 0 514
564 -30 225 300 90 681 0
565 30 440 511 90 0 361
566 -20 465 529 90 457 0
567 -20 0 1646 90 952 0
568 -10 1041 1104 90 175 0
569 -10 1135 1207 90 25 0
570 -20 0 1517 90 806 0
571 20 0 1456 90 0 401
572 20 260 317 90 0 92
573 -20 556 617 90 900 0
574 10 221 298 90 0 614
575 20 575 625 0 0 1045
576 -20 656 708 90 69 0
577 -20 862 941 90 703 0
578 10 118 187 90 0 946
579 -20 361 425 90 452 0
580 -10 0 1483 90 883 0
581 20 0 1492 90 0 481
582 30 49 98 90 0 141
583 -10 0 1516 90 36 0
584 -30 890 962 90 777 0
585 10 0 1413 90 0 61
586 30 251 299 90 0 797
587 -20 498 555 90 1000 0
588 10 909 973 90 0 754
589 -20 601 662 90 338 0
590 -40 813 896 90 65 0
591 20 0 1668 0 0 1008
592 -10 0 1555 90 459 0
593 -20 680 744 90 762 0
594 -10 0 1568 90 417 0
595 20 853 911 90 0 504
596 -10 657 709 90 780 0
597 -30 680 745 90 236 0
598 30 214 274 90 0 472
599 -10 771 848 90 650 0
600 30 154 232 90 0 524
601 30 462 532 90 0 492
602 -10 1190 1222 90 763 0
603 20 390 463 90 0 760
604 -10 911 973 90 390 0
605 20 383 443 90 0 442
606 10 267 331 90 0 347
607 -10 1098 1161 90 432 0
608 10 0 1445 90 0 770
609 -10 0 1408 90 840 0
610 -10 968 1026 90 886 0
611 20 0 1607 90 0 24
612 10 198 256 90 0 884
613 -30 0 1656 90 402 0
614 -10 421 471 90 574 0
615 10 1200 1275 90 0 846
616 20 0 1695 90 0 976
617 10 230 324 90 0 877
618 20 853 931 90 0 232
619 -10 537 608 90 634 0
620 -10 0 1558 90 953 0
621 -20 392 450 90 961 0
622 10 317 353 90 0 214
623 -30 704 775 90 165 0
624 40 150 212 90 0 735
625 20 678 753 0 0 1046
626 30 381 429 90 0 994
627 -40 585 652 90 239 0
628 20 374 427 90 0 373
629 20 884 939 0 0 1038
630 40 344 400 0 0 1033
631 -20 818 876 90 272 0
632 20 309 373 90 0 694
633 20 649 693 90 0 367
634 10 0 1533 90 0 619
635 10 586 659 90 0 455
636 10 646 702 90 0 368
637 20 897 948 90 0 148
638 -10 1172 1221 90 240 0
639 10 75 140 90 0 71
640 -10 596 641 90 334 0
641 -20 0 1572 90 855 0
642 -10 0 1469 90 764 0
643 20 1282 1337 90 0 311
644 -20 0 1684 90 482 0
645 -20 645 709 90 885 0
646 -40 650 706 90 140 0
647 -20 0 1606 90 451 0
648 -10 1348 1417 90 142 0
649 20 201 253 90 0 768
650 10 595 653 90 0 599
651 -10 1209 1273 90 555 0
652 20 669 730 90 0 454
653 30 200 262 90 0 10
654 10 855 918 90 0 985
655 30 474 548 90 0 60
656 20 169 228 90 0 56
657 -30 307 361 90 659 0
658 10 821 869 90 0 695
659 30 202 272 90 0 657
660 20 964 1025 90 0 328
661 20 126 175 90 0 371
662 -10 758 832 90 845 0
663 -20 1169 1232 90 223 0
664 -10 0 1728 90 939 0
665 10 397 444 90 0 491
666 -30 827 884 90 932 0
667 -30 1095 1157 90 82 0
668 10 105 167 90 0 713
669 -10 1208 1274 90 129 0
670 10 856 901 90 0 732
671 20 662 723 90 0 264
672 -10 0 1479 90 975 0
673 20 0 1469 0 0 1005
674 -20 883 929 90 862 0
675 20 0 1458 90 0 872
676 10 0 1469 90 0 383
677 -20 0 1669 90 313 0
678 20 0 1524 90 0 720
679 10 0 1534 0 0 1010
680 10 298 341 90 0 704
681 30 0 1568 90 0 564
682 10 320 387 90 0 276
683 30 407 462 90 0 430
684 -10 475 557 90 880 0
685 -10 0 1493 90 842 0
686 10 1013 1069 90 0 553
687 30 505 559 90 0 1001
688 -10 768 834 90 497 0
689 10 719 778 0 0 1032
690 10 0 1610 90 0 369
691 20 0 1420 90 0 409
692 -20 1121 1176 90 793 0
693 -10 0 1493 90 374 0
694 -20 993 1049 90 632 0
695 -10 0 1642 90 658 0
696 -10 0 1574 90 829 0
697 -20 831 916 90 38 0
698 20 832 896 90 0 815
699 -10 0 1513 90 128 0
700 10 853 922 90 0 23
701 -20 829 895 90 15 0
702 -10 1154 1206 90 490 0
703 20 489 566 90 0 577
704 -10 752 820 90 680 0
705 -10 313 367 90 925 0
706 20 258 329 90 0 317
707 -10 785 878 90 204 0
708 -20 312 383 90 983 0
709 20 396 443 90 0 853
710 -20 525 581 90 416 0
711 30 542 599 0 0 1006
712 20 0 1423 90 0 414
713 -10 526 581 90 668 0
714 -20 1059 1137 90 270 0
715 -20 243 314 90 184 0
716 40 588 645 90 0 356
717 20 707 769 90 0 876
718 -20 968 1024 90 274 0
719 20 372 439 90 0 362
720 -20 475 521 90 678 0
721 -20 679 737 90 408 0
722 30 476 544 90 0 254
723 20 313 369 90 0 836
724 -10 0 1575 90 434 0
725 -20 1000 1056 90 136 0
726 10 140 194 90 0 905
727 30 190 259 90 0 280
728 20 572 631 90 0 289
729 20 824 877 90 0 499
730 20 559 622 90 0 867
731 20 777 832 90 0 89
732 -10 959 1006 90 670 0
733 -20 891 955 90 809 0
734 -30 880 939 90 998 0
735 -40 216 273 90 624 0
736 -10 971 1026 90 458 0
737 30 280 345 90 0 523
738 20 680 743 0 0 1047
739 20 462 511 90 0 221
740 -10 0 1514 90 359 0
741 10 546 636 90 0 922
742 -20 1150 1223 90 397 0
743 20 469 541 90 0 494
744 -20 490 564 90 116 0
745 10 660 726 90 0 912
746 10 110 173 90 0 219
747 -20 1035 1083 90 480 0
748 -10 1084 1143 90 528 0
749 20 690 734 90 0 326
750 10 0 1482 90 0 463
751 -10 1189 1243 90 96 0
752 -30 790 847 90 73 0
753 -20 633 684 90 351 0
754 -10 0 1494 90 588 0
755 30 0 1434 90 0 505
756 10 217 276 90 0 496
757 10 0 1591 90 0 170
758 10 809 874 90 0 284
759 -20 158 210 90 857 0
760 -20 0 1484 90 603 0
761 10 213 272 90 0 146
762 20 489 562 90 0 593
763 10 1085 1141 90 0 602
764 10 730 780 90 0 642
765 20 0 1495 90 0 83
766 -20 1134 1191 90 49 0
767 -10 399 441 90 307 0
768 -20 447 513 90 649 0
769 -10 725 781 90 331 0
770 -10 810 878 90 608 0
771 30 0 1538 0 0 1035
772 20 401 462 90 0 392
773 10 403 455 90 0 261
774 -10 728 787 90 48 0
775 20 252 301 90 0 411
776 -20 334 396 90 29 0
777 30 493 547 90 0 584
778 20 359 406 90 0 237
779 -20 0 1576 90 474 0
780 10 470 531 90 0 596
781 20 206 268 90 0 530
782 30 571 627 90 0 525
783 -40 556 613 90 982 0
784 20 227 280 90 0 340
785 -20 289 365 90 980 0
786 10 234 290 90 0 527
787 -20 653 718 90 110 0
788 20 349 413 90 0 807
789 20 380 435 90 0 355
790 10 254 307 90 0 554
791 -20 1028 1091 90 991 0
792 -20 1272 1339 90 196 0
793 20 274 338 90 0 692
794 -10 801 855 90 189 0
795 -10 697 759 90 14 0
796 -10 667 724 90 314 0
797 -30 334 394 90 586 0
798 -10 0 1422 90 44 0
799 -20 430 477 90 977 0
800 20 763 819 90 0 989
801 -20 128 174 90 924 0
802 20 292 344 90 0 988
803 20 0 1417 90 0 415
804 -10 836 904 90 320 0
805 -20 497 552 90 443 0
806 20 1220 1278 90 0 570
807 -20 451 499 90 788 0
808 30 554 602 90 0 315
809 20 198 260 90 0 733
810 20 745 817 90 0 865
811 10 299 361 90 0 960
812 20 1057 1121 0 0 1029
813 -20 1112 1180 90 971 0
814 20 207 275 90 0 394
815 -20 925 997 90 698 0
816 20 141 212 90 0 169
817 -30 736 797 90 150 0
818 -10 0 1665 90 79 0
819 10 519 568 90 0 542
820 10 155 227 90 0 298
821 30 329 399 90 0 466
822 -30 692 738 90 67 0
823 -30 0 1469 90 843 0
824 20 262 320 90 0 259
825 -20 757 821 90 360 0
826 10 322 386 90 0 271
827 -20 1188 1247 90 864 0
828 -10 779 854 90 155 0
829 10 0 1576 90 0 696
830 10 0 1534 0 0 1020
831 20 796 852 90 0 904
832 -10 724 787 90 958 0
833 -20 886 934 90 869 0
834 20 0 1500 0 0 1016
835 10 0 1438 90 0 558
836 -20 764 826 90 723 0
837 20 85 124 90 0 70
838 10 394 454 90 0 224
839 -10 733 804 90 325 0
840 10 0 1408 90 0 609
841 20 308 367 90 0 154
842 10 579 633 90 0 685
843 30 339 385 90 0 823
844 10 0 1472 90 0 943
845 10 585 634 90 0 662
846 -10 1297 1360 90 615 0
847 -30 500 555 90 329 0
848 10 837 902 90 0 74
849 20 1251 1328 90 0 100
850 10 217 283 90 0 556
851 10 768 830 90 0 944
852 10 678 752 90 0 465
853 -20 573 632 90 709 0
854 20 0 1408 90 0 448
855 20 160 230 90 0 641
856 20 424 473 90 0 377
857 20 91 140 90 0 759
858 -10 737 806 90 257 0
859 -10 0 1401 90 433 0
860 40 0 1524 90 0 262
861 -10 0 1545 90 168 0
862 20 402 470 90 0 674
863 -20 1332 1380 90 72 0
864 20 903 972 90 0 827
865 -20 942 993 90 810 0
866 20 0 1467 90 0 76
867 -20 0 1415 90 730 0
868 20 374 439 90 0 917
869 20 516 566 90 0 833
870 -30 0 1532 90 978 0
871 30 570 614 90 0 130
872 -20 1079 1138 90 675 0
873 -20 0 1469 90 460 0
874 -10 774 841 90 225 0
875 10 1300 1364 90 0 406
876 -20 892 959 90 717 0
877 -10 579 622 90 617 0
878 -10 1058 1121 90 552 0
879 -20 1313 1375 90 302 0
880 10 311 356 90 0 684
881 -10 0 1596 90 907 0
882 -10 1121 1176 90 951 0
883 10 438 501 90 0 580
884 -10 1063 1140 90 612 0
885 20 188 227 90 0 645
886 10 886 924 90 0 610
887 -20 0 1575 90 987 0
888 -10 836 904 90 404 0
889 -10 673 746 90 212 0
890 20 0 1439 90 0 532
891 10 285 344 90 0 393
892 -10 856 923 90 134 0
893 30 964 1007 90 0 522
894 10 818 877 0 0 1034
895 -20 810 857 90 992 0
896 -10 944 996 90 339 0
897 10 296 352 90 0 498
898 30 753 817 90 0 548
899 -20 616 676 90 192 0
900 20 0 1515 90 0 573
901 -10 0 1614 90 349 0
902 10 0 1522 90 0 166
903 20 132 203 90 0 544
904 -20 986 1041 90 831 0
905 -10 321 387 90 726 0
906 -10 923 979 90 534 0
907 10 590 647 90 0 881
908 -10 759 817 90 461 0
909 20 0 1507 90 0 469
910 -20 0 1519 90 111 0
911 -30 0 1561 90 935 0
912 -10 0 1516 90 745 0
913 -30 0 1502 90 54 0
914 10 668 731 0 0 1014
915 10 151 213 90 0 486
916 -20 803 857 90 927 0
917 -20 937 994 90 868 0
918 -20 925 989 90 301 0
919 10 582 626 90 0 531
920 -10 997 1058 90 98 0
921 30 579 652 90 0 151
922 -10 739 807 90 741 0
923 -10 0 1513 90 62 0
924 20 0 1685 90 0 801
925 10 63 126 90 0 705
926 20 0 1497 90 0 218
927 20 291 352 90 0 916
928 -20 618 678 90 407 0
929 30 0 1564 0 0 1036
930 -20 1003 1079 90 39 0
931 -40 568 640 90 295 0
932 30 0 1532 90 0 666
933 -20 0 1469 90 431 0
934 10 108 177 90 0 336
935 30 591 637 90 0 911
936 20 668 736 90 0 435
937 -10 0 1511 90 423 0
938 10 246 306 90 0 63
939 10 420 484 90 0 664
940 -20 883 948 90 487 0
941 30 257 324 90 0 535
942 10 150 211 0 0 1027
943 -10 788 840 90 844 0
944 -10 0 1575 90 851 0
945 -10 0 1480 90 104 0
946 -10 454 521 90 578 0
947 20 1104 1168 0 0 1042
948 20 510 570 90 0 440
949 20 415 482 90 0 342
950 10 262 327 90 0 287
951 10 656 705 90 0 882
952 20 0 1643 90 0 567
953 10 509 568 90 0 620
954 -20 678 750 90 58 0
955 10 277 334 90 0 40
956 -20 0 1426 90 185 0
957 30 667 734 0 0 1043
958 10 281 351 90 0 832
959 30 537 598 90 0 506
960 -10 481 545 90 811 0
961 20 235 306 90 0 621
962 -10 0 1447 90 319 0
963 20 311 376 90 0 495
964 20 133 185 90 0 467
965 -10 0 1684 90 518 0
966 -30 0 1522 90 147 0
967 -20 557 601 90 122 0
968 20 532 600 90 0 28
969 -30 0 1686 90 78 0
970 -20 395 464 90 363 0
971 20 462 534 90 0 813
972 -20 0 1658 90 161 0
973 20 597 647 90 0 979
974 30 426 487 90 0 246
975 10 685 743 90 0 672
976 -20 952 1007 90 616 0
977 20 245 287 90 0 799
978 30 0 1530 90 0 870
979 -20 0 1483 90 973 0
980 20 0 1655 90 0 785
981 -10 0 1504 90 7 0
982 40 118 179 90 0 783
983 20 253 316 90 0 708
984 -20 590 647 90 322 0
985 -10 0 1503 90 654 0
986 40 115 172 90 0 31
987 20 329 386 90 0 887
988 -20 382 439 90 802 0
989 -20 0 1686 90 800 0
990 10 834 896 90 0 172
991 20 477 527 90 0 791
992 20 612 682 90 0 895
993 30 685 738 90 0 22
994 -30 837 911 90 626 0
995 -20 1231 1291 90 101 0
996 30 874 924 90 0 450
997 -20 627 671 90 121 0
998 30 82 144 90 0 734
999 -30 550 598 90 389 0
1000 20 227 266 90 0 587
1001 -30 0 1622 90 687 0
1002 -10 748 793 90 26 0
1003 -30 1012 1080 90 449 0
1004 -10 0 1423 90 181 0
1005 -20 0 1469 90 673 0
1006 -30 542 599 90 711 0
1007 -20 894 957 90 197 0
1008 -20 0 1668 90 591 0
1009 -20 0 1518 90 550 0
1010 -10 0 1534 90 679 0
1011 -20 0 1491 90 508 0
1012 -10 505 557 90 332 0
1013 -10 863 926 90 266 0
1014 -10 668 731 90 914 0
1015 -20 668 720 90 429 0
1016 -20 0 1500 90 834 0
1017 -10 909 955 90 102 0
1018 -30 297 364 90 268 0
1019 -10 0 1627 90 520 0
1020 -10 0 1534 90 830 0
1021 -10 375 430 90 438 0
1022 -10 0 1557 90 52 0
1023 -10 829 880 90 428 0
1024 -20 936 989 90 341 0
1025 -10 555 609 90 370 0
1026 -20 746 816 90 275 0
1027 -10 150 211 90 942 0
1028 -20 865 928 90 282 0
1029 -20 1057 1121 90 812 0
1030 -10 810 872 90 106 0
1031 -20 774 836 90 561 0
1032 -10 719 778 90 689 0
1033 -40 344 400 90 630 0
1034 -10 818 877 90 894 0
1035 -30 0 1538 90 771 0
1036 -30 0 1564 90 929 0
1037 -10 0 1718 90 439 0
1038 -20 884 939 90 629 0
1039 -10 545 599 90 215 0
1040 -30 679 742 90 500 0
1041 -20 0 1646 90 421 0
1042 -20 1104 1168 90 947 0
1043 -30 667 734 90 957 0
1044 -20 285 334 90 323 0
1045 -20 575 625 90 575 0
1046 -20 678 753 90 625 0
1047 -20 680 743 90 738 0
DEPOT_SECTION
1
-1
EOF
