NAME: lc1_10_6
TYPE: PDPTW
COMMENT: Li & Lim PDPTW benchmark converted from SINTEF format
DIMENSION: 1055
VEHICLES: 250
CAPACITY: 200
EDGE_WEIGHT_TYPE: EUC_2D
NODE_COORD_SECTION
1 250 250
2 387 297
3 5 297
4 355 177
5 78 346
6 286 159
7 322 465
8 393 408
9 89 216
10 76 345
11 410 285
12 472 189
13 270 49
14 219 325
15 437 12
16 418 218
17 20 488
18 77 347
19 73 346
20 480 455
21 129 292
22 337 257
23 237 254
24 131 220
25 417 417
26 287 143
27 379 80
28 87 285
29 374 489
30 440 247
31 281 137
32 379 196
33 297 102
34 39 76
35 35 306
36 435 68
37 245 251
38 409 88
39 273 55
40 163 340
41 129 223
42 371 200
43 357 26
44 470 473
45 77 344
46 478 461
47 128 291
48 111 113
49 164 21
50 21 485
51 108 26
52 424 286
53 200 270
54 7 300
55 433 31
56 420 295
57 451 367
58 118 157
59 489 101
60 200 261
61 476 483
62 30 302
63 8 300
64 275 45
65 238 46
66 152 206
67 99 218
68 393 410
69 480 460
70 337 256
71 389 300
72 90 237
73 321 280
74 417 218
75 64 108
76 57 432
77 356 24
78 143 207
79 221 325
80 22 483
81 24 65
82 141 431
83 202 9
84 20 48
85 457 163
86 470 290
87 268 400
88 337 251
89 366 20
90 72 344
91 149 203
92 55 428
93 189 7
94 397 18
95 481 122
96 20 73
97 54 430
98 74 350
99 202 8
100 406 285
101 460 2
102 441 244
103 1 293
104 115 465
105 422 420
106 75 347
107 141 428
108 404 264
109 398 23
110 148 211
111 362 22
112 479 127
113 443 246
114 22 37
115 65 100
116 404 447
117 102 264
118 444 271
119 325 466
120 124 219
121 335 243
122 26 42
123 113 106
124 399 450
125 146 439
126 162 336
127 2 295
128 122 35
129 346 60
130 93 213
131 218 316
132 116 156
133 419 422
134 467 141
135 187 491
136 433 25
137 286 137
138 370 82
139 132 290
140 435 11
141 206 261
142 428 291
143 95 384
144 205 223
145 463 140
146 343 47
147 435 62
148 387 488
149 121 157
150 182 463
151 92 216
152 370 83
153 444 242
154 90 285
155 446 64
156 312 264
157 208 11
158 442 247
159 140 431
160 118 153
161 134 428
162 91 235
163 406 257
164 377 76
165 474 96
166 346 57
167 393 301
168 412 214
169 210 398
170 346 150
171 62 453
172 437 61
173 87 96
174 367 83
175 91 268
176 459 145
177 63 444
178 433 27
179 60 454
180 478 99
181 485 454
182 6 292
183 398 20
184 248 251
185 433 15
186 64 426
187 154 207
188 481 456
189 380 498
190 88 286
191 111 23
192 199 187
193 269 48
194 367 178
195 452 163
196 431 28
197 8 116
198 233 47
199 237 43
200 320 262
201 188 4
202 180 6
203 328 466
204 393 12
205 409 90
206 406 87
207 394 407
208 358 183
209 186 461
210 38 72
211 323 471
212 224 192
213 278 46
214 272 403
215 232 42
216 18 63
217 58 458
218 416 417
219 205 230
220 65 453
221 421 294
222 434 245
223 2 116
224 411 421
225 315 260
226 136 288
227 173 490
228 90 232
229 402 265
230 361 14
231 348 147
232 385 295
233 394 23
234 466 295
235 71 103
236 125 29
237 25 65
238 58 449
239 246 398
240 423 294
241 59 459
242 348 145
243 477 97
244 307 102
245 169 31
246 381 495
247 95 234
248 22 33
249 435 268
250 135 293
251 439 266
252 269 402
253 267 400
254 473 196
255 445 237
256 461 284
257 167 339
258 26 43
259 101 386
260 342 54
261 243 399
262 288 44
263 274 48
264 360 184
265 23 67
266 6 296
267 249 258
268 421 415
269 319 468
270 50 438
271 440 61
272 17 65
273 323 118
274 402 281
275 71 153
276 52 432
277 378 199
278 238 204
279 208 184
280 376 195
281 473 475
282 215 395
283 123 222
284 436 241
285 70 100
286 73 328
287 241 205
288 250 405
289 483 14
290 466 287
291 467 114
292 120 159
293 408 84
294 413 217
295 338 142
296 483 457
297 479 169
298 95 224
299 122 216
300 477 179
301 406 99
302 44 47
303 487 450
304 172 488
305 460 374
306 279 138
307 338 147
308 395 295
309 195 185
310 463 194
311 30 72
312 244 254
313 317 261
314 67 108
315 442 310
316 63 336
317 109 107
318 100 387
319 494 94
320 343 49
321 40 52
322 319 124
323 94 97
324 476 94
325 283 47
326 398 325
327 460 13
328 305 107
329 188 12
330 136 290
331 439 268
332 112 467
333 181 469
334 358 18
335 459 10
336 199 268
337 436 237
338 318 280
339 64 99
340 394 333
341 366 93
342 95 391
343 391 425
344 344 146
345 198 12
346 186 472
347 390 408
348 19 43
349 307 108
350 59 457
351 49 451
352 125 39
353 61 147
354 317 123
355 392 426
356 237 213
357 71 333
358 304 97
359 196 462
360 224 191
361 37 51
362 491 25
363 270 401
364 474 461
365 66 448
366 337 241
367 269 46
368 22 41
369 198 271
370 287 43
371 446 63
372 200 229
373 48 72
374 465 142
375 123 155
376 16 497
377 220 319
378 484 171
379 55 431
380 428 24
381 80 342
382 16 68
383 124 56
384 95 218
385 481 26
386 145 434
387 335 57
388 26 490
389 324 127
390 109 114
391 72 148
392 220 392
393 442 243
394 69 336
395 131 226
396 150 204
397 423 217
398 419 459
399 285 163
400 203 7
401 54 445
402 109 463
403 355 180
404 13 455
405 165 337
406 314 124
407 9 124
408 3 292
409 16 462
410 189 464
411 288 154
412 90 296
413 138 438
414 13 459
415 461 8
416 96 97
417 68 99
418 146 205
419 117 152
420 481 96
421 338 260
422 285 44
423 111 464
424 468 291
425 148 206
426 184 464
427 197 11
428 396 410
429 133 53
430 132 30
431 464 13
432 100 394
433 483 22
434 93 235
435 174 26
436 436 264
437 24 492
438 406 94
439 234 246
440 315 287
441 408 453
442 128 225
443 226 191
444 391 407
445 198 264
446 179 7
447 425 215
448 483 27
449 22 40
450 479 176
451 476 102
452 386 405
453 22 38
454 440 241
455 182 14
456 266 405
457 357 181
458 395 332
459 423 290
460 104 28
461 131 56
462 111 110
463 97 93
464 90 274
465 214 394
466 6 114
467 375 191
468 356 21
469 466 165
470 415 223
471 397 20
472 241 403
473 69 334
474 152 210
475 67 335
476 126 30
477 390 423
478 285 162
479 285 158
480 406 96
481 459 374
482 67 109
483 468 475
484 438 31
485 168 24
486 267 394
487 406 450
488 460 288
489 224 203
490 21 487
491 21 488
492 87 217
493 67 452
494 119 223
495 398 428
496 344 262
497 390 301
498 167 27
499 236 247
500 313 119
501 13 51
502 200 13
503 0 120
504 202 4
505 343 144
506 94 383
507 250 411
508 464 134
509 443 237
510 4 114
511 169 336
512 200 178
513 412 453
514 121 151
515 403 93
516 399 301
517 97 387
518 176 8
519 62 326
520 151 207
521 299 98
522 334 240
523 92 270
524 444 269
525 132 223
526 428 25
527 413 421
528 382 498
529 391 429
530 398 97
531 192 265
532 438 26
533 44 79
534 137 290
535 446 319
536 175 487
537 26 45
538 147 435
539 111 459
540 472 132
541 349 158
542 86 268
543 415 216
544 121 218
545 210 185
546 98 215
547 484 174
548 328 458
549 313 126
550 390 415
551 459 17
552 481 124
553 386 414
554 116 466
555 468 295
556 391 426
557 408 279
558 15 68
559 392 424
560 88 95
561 116 151
562 240 250
563 123 159
564 89 290
565 39 50
566 359 179
567 338 257
568 92 236
569 413 417
570 91 101
571 55 449
572 57 425
573 465 287
574 320 280
575 322 468
576 483 458
577 312 267
578 139 291
579 388 408
580 110 459
581 459 372
582 204 269
583 407 98
584 335 256
585 471 484
586 339 244
587 89 272
588 488 96
589 316 286
590 235 50
591 316 258
592 425 288
593 213 397
594 113 156
595 199 9
596 463 167
597 129 27
598 248 404
599 405 276
600 400 288
601 61 156
602 393 20
603 484 177
604 108 116
605 112 217
606 389 404
607 102 391
608 434 26
609 488 26
610 477 120
611 126 220
612 439 310
613 212 319
614 320 283
615 17 459
616 236 213
617 68 108
618 390 294
619 275 42
620 423 214
621 460 367
622 272 402
623 478 102
624 400 260
625 181 6
626 470 475
627 245 408
628 93 96
629 218 318
630 441 265
631 21 64
632 356 23
633 267 44
634 277 50
635 182 4
636 26 36
637 384 491
638 418 290
639 321 277
640 358 16
641 389 334
642 48 78
643 24 68
644 206 225
645 290 141
646 439 15
647 359 182
648 413 287
649 230 49
650 407 280
651 459 295
652 468 199
653 101 384
654 170 26
655 197 270
656 415 289
657 203 390
658 443 272
659 210 391
660 363 22
661 352 176
662 212 223
663 8 120
664 244 250
665 18 484
666 379 82
667 84 346
668 233 207
669 344 62
670 20 489
671 361 181
672 174 494
673 49 76
674 390 325
675 7 118
676 107 26
677 312 270
678 399 102
679 109 108
680 115 218
681 88 287
682 54 424
683 125 32
684 199 12
685 457 374
686 391 413
687 304 102
688 391 293
689 66 336
690 132 291
691 18 462
692 347 62
693 466 142
694 389 17
695 342 254
696 92 223
697 404 83
698 290 46
699 95 92
700 200 265
701 435 16
702 25 499
703 319 260
704 116 225
705 402 284
706 108 105
707 386 13
708 472 129
709 132 57
710 43 71
711 493 91
712 12 451
713 201 188
714 60 428
715 243 248
716 230 197
717 389 11
718 401 281
719 459 14
720 411 95
721 0 297
722 476 196
723 458 16
724 92 230
725 432 24
726 215 317
727 371 192
728 481 20
729 152 207
730 14 459
731 361 17
732 8 497
733 206 186
734 421 218
735 402 264
736 388 325
737 35 304
738 321 263
739 444 313
740 188 462
741 400 103
742 418 221
743 112 219
744 408 452
745 30 301
746 205 228
747 407 88
748 380 489
749 395 331
750 133 26
751 21 68
752 313 282
753 53 440
754 458 130
755 437 15
756 400 286
757 346 144
758 440 244
759 280 162
760 488 173
761 326 118
762 207 400
763 391 18
764 37 55
765 204 15
766 173 28
767 343 148
768 231 43
769 445 273
770 432 27
771 439 305
772 208 396
773 249 407
774 107 112
775 279 159
776 376 494
777 403 262
778 41 47
779 96 213
780 461 167
781 391 99
782 116 221
783 165 343
784 388 334
785 130 57
786 422 409
787 66 156
788 485 86
789 389 428
790 117 467
791 475 477
792 429 27
793 339 60
794 381 494
795 218 321
796 64 101
797 343 254
798 478 464
799 423 286
800 198 9
801 225 196
802 374 190
803 462 14
804 347 54
805 231 195
806 72 96
807 489 87
808 443 313
809 233 204
810 477 483
811 459 368
812 95 277
813 16 460
814 100 266
815 288 53
816 211 386
817 144 439
818 224 314
819 79 291
820 95 235
821 7 123
822 91 217
823 105 27
824 101 385
825 238 210
826 439 67
827 435 267
828 443 64
829 92 234
830 450 265
831 102 27
832 492 94
833 440 63
834 453 367
835 15 69
836 489 17
837 335 255
838 419 418
839 292 41
840 489 27
841 96 270
842 461 369
843 105 22
844 479 121
845 207 223
846 17 458
847 186 7
848 465 168
849 416 288
850 388 418
851 92 233
852 179 492
853 132 55
854 485 24
855 388 331
856 217 323
857 281 164
858 169 340
859 491 20
860 279 42
861 439 243
862 391 334
863 96 244
864 441 273
865 477 478
866 56 434
867 12 463
868 458 164
869 446 65
870 71 156
871 65 153
872 8 118
873 102 29
874 315 265
875 343 62
876 384 16
877 67 105
878 478 118
879 73 101
880 200 14
881 114 225
882 460 293
883 51 447
884 418 295
885 282 139
886 477 122
887 91 266
888 16 463
889 228 199
890 435 20
891 467 195
892 469 132
893 465 136
894 246 255
895 49 75
896 66 98
897 166 32
898 326 466
899 202 186
900 467 285
901 290 136
902 341 58
903 121 219
904 107 35
905 216 319
906 134 288
907 89 270
908 136 52
909 462 167
910 340 54
911 80 286
912 38 301
913 25 307
914 470 139
915 270 400
916 204 187
917 460 171
918 399 106
919 197 267
920 77 350
921 91 231
922 398 103
923 35 303
924 231 204
925 311 266
926 416 420
927 231 203
928 4 116
929 417 217
930 268 52
931 345 144
932 368 85
933 441 65
934 201 270
935 0 293
936 167 24
937 186 464
938 7 292
939 80 290
940 405 455
941 439 312
942 300 108
943 478 121
944 92 232
945 111 463
946 132 294
947 134 285
948 316 284
949 56 428
950 232 47
951 466 291
952 341 257
953 420 213
954 116 152
955 163 337
956 440 7
957 208 222
958 485 95
959 97 385
960 462 367
961 455 365
962 492 95
963 405 450
964 371 193
965 234 202
966 404 103
967 24 41
968 67 334
969 207 227
970 277 403
971 15 457
972 217 319
973 111 467
974 378 493
975 112 465
976 173 25
977 421 292
978 74 146
979 178 491
980 204 185
981 319 470
982 163 331
983 470 125
984 315 121
985 166 34
986 284 140
987 85 288
988 376 190
989 238 203
990 399 104
991 472 481
992 46 74
993 401 255
994 475 480
995 485 27
996 476 174
997 330 242
998 332 249
999 375 80
1000 94 235
1001 287 144
1002 475 477
1003 461 8
1004 22 41
1005 16 68
1006 433 31
1007 66 98
1008 8 116
1009 49 76
1010 435 62
1011 107 35
1012 412 453
1013 363 22
1014 111 459
1015 6 296
1016 198 9
1017 168 24
1018 459 374
1019 413 417
1020 282 139
1021 64 99
1022 323 471
1023 439 243
1024 38 301
1025 388 408
1026 136 52
1027 403 93
1028 423 217
1029 340 54
1030 145 434
1031 93 96
1032 315 121
1033 367 83
1034 288 53
1035 63 336
1036 443 313
1037 74 350
1038 131 220
1039 93 213
1040 91 231
1041 435 20
1042 399 106
1043 169 336
1044 345 144
1045 123 222
1046 376 195
1047 463 167
1048 132 294
1049 154 207
1050 337 241
1051 338 257
1052 313 282
1053 234 246
1054 321 263
1055 231 203
PICKUP_AND_DELIVERY_SECTION
1 0 0 1824 0 0 0
2 -20 176 295 90 232 0
3 -20 871 1101 90 408 0
4 20 140 299 90 0 403
5 30 286 473 90 0 90
6 20 451 675 90 0 478
7 10 226 395 90 0 119
8 30 650 688 90 0 68
9 10 466 591 90 0 384
10 -10 425 701 90 381 0
11 20 503 553 90 0 557
12 30 345 480 90 0 722
13 -20 934 961 90 193 0
14 10 504 579 90 0 79
15 20 494 675 90 0 701
16 -30 837 1167 90 929 0
17 10 654 920 90 0 437
18 20 410 531 90 0 106
19 -10 643 856 90 45 0
20 -20 1005 1296 90 69 0
21 10 539 623 90 0 906
22 -20 687 981 90 797 0
23 20 623 693 90 0 267
24 30 710 849 0 0 1038
25 -30 881 1093 90 268 0
26 -40 628 912 90 986 0
27 -20 704 823 90 152 0
28 -10 660 812 90 911 0
29 20 269 462 90 0 528
30 20 743 753 90 0 884
31 10 300 485 90 0 901
32 -30 577 801 90 727 0
33 10 192 303 90 0 328
34 10 273 482 90 0 373
35 20 328 481 90 0 913
36 10 259 434 90 0 933
37 10 5 241 90 0 664
38 -10 583 788 90 583 0
39 20 196 352 90 0 634
40 -20 468 513 90 405 0
41 20 180 434 90 0 78
42 -30 798 961 90 467 0
43 -30 1059 1304 90 640 0
44 -20 1200 1291 90 810 0
45 10 248 325 90 0 19
46 10 434 558 90 0 303
47 -20 614 732 90 330 0
48 10 600 725 90 0 390
49 -20 567 650 90 245 0
50 30 441 585 90 0 491
51 10 387 528 90 0 823
52 -20 430 658 90 799 0
53 20 138 329 90 0 655
54 30 1049 1111 90 0 63
55 10 285 442 0 0 1006
56 20 922 1097 90 0 849
57 -20 1115 1214 90 581 0
58 20 398 470 90 0 419
59 -10 922 1149 90 832 0
60 -20 934 1028 90 369 0
61 -20 550 830 90 991 0
62 10 534 669 90 0 745
63 -30 1074 1268 90 54 0
64 20 474 485 90 0 633
65 -10 612 907 90 215 0
66 -20 889 995 90 425 0
67 30 154 473 90 0 151
68 -30 882 1013 90 8 0
69 20 455 721 90 0 20
70 20 102 252 90 0 695
71 10 285 372 90 0 308
72 -20 1190 1322 90 1000 0
73 -10 77 298 90 639 0
74 -10 1067 1120 90 953 0
75 10 480 533 90 0 115
76 -20 894 1112 90 866 0
77 20 249 317 90 0 632
78 -20 202 390 90 41 0
79 -10 554 713 90 14 0
80 30 325 369 90 0 702
81 -20 839 1042 90 272 0
82 -30 320 466 90 159 0
83 -10 1125 1382 90 502 0
84 -20 1273 1379 90 453 0
85 20 286 343 90 0 917
86 -10 854 876 90 290 0
87 -30 824 973 90 214 0
88 10 92 262 90 0 121
89 -20 716 1086 90 731 0
90 -30 559 754 90 5 0
91 10 524 626 90 0 396
92 -10 523 555 90 682 0
93 30 250 482 90 0 625
94 -20 506 587 90 183 0
95 -10 540 720 90 552 0
96 10 290 440 90 0 558
97 -20 502 761 90 572 0
98 10 848 1022 0 0 1037
99 -20 1047 1277 90 684 0
100 20 279 588 90 0 650
101 20 586 789 90 0 803
102 -20 882 983 90 310 0
103 10 393 652 90 0 721
104 10 289 585 90 0 945
105 -10 447 589 90 838 0
106 -20 704 978 90 18 0
107 20 208 512 90 0 538
108 20 277 579 90 0 993
109 10 270 521 90 0 204
110 20 119 280 90 0 418
111 -10 975 1195 90 230 0
112 -20 415 474 90 983 0
113 20 528 601 90 0 648
114 -10 793 934 90 967 0
115 -10 676 897 90 75 0
116 20 250 565 90 0 744
117 10 148 195 90 0 464
118 10 616 705 90 0 331
119 -10 573 815 90 7 0
120 -10 506 679 90 299 0
121 -10 313 609 90 88 0
122 20 417 557 90 0 449
123 20 198 391 90 0 317
124 -40 994 1034 90 940 0
125 10 620 729 90 0 817
126 -40 207 221 90 982 0
127 -30 726 875 90 935 0
128 -20 250 629 90 352 0
129 10 979 1134 90 0 875
130 30 378 489 0 0 1039
131 20 73 199 90 0 613
132 10 519 533 90 0 954
133 20 570 652 90 0 224
134 -10 496 715 90 693 0
135 -10 728 897 90 852 0
136 -10 898 975 90 608 0
137 -40 410 565 90 306 0
138 40 351 608 90 0 164
139 -30 753 962 90 250 0
140 40 302 482 90 0 956
141 -10 1036 1118 90 919 0
142 10 601 860 90 0 677
143 -20 642 863 90 824 0
144 -30 395 641 90 372 0
145 -40 239 451 90 176 0
146 -10 677 866 90 320 0
147 30 1143 1231 0 0 1010
148 -20 947 1087 90 637 0
149 -20 172 327 90 563 0
150 30 302 510 90 0 346
151 -30 737 874 90 67 0
152 20 298 478 90 0 27
153 -20 404 538 90 509 0
154 -20 886 1136 90 987 0
155 -10 629 635 90 826 0
156 20 103 208 90 0 703
157 -10 1245 1454 90 504 0
158 -10 587 725 90 255 0
159 30 211 493 90 0 82
160 -10 925 1051 90 594 0
161 -20 930 996 90 413 0
162 -10 1050 1278 90 820 0
163 10 497 736 90 0 584
164 -40 567 770 90 138 0
165 30 271 437 90 0 243
166 -30 800 1126 90 387 0
167 30 448 578 90 0 516
168 10 165 376 90 0 742
169 10 451 788 90 0 392
170 -20 933 1013 90 242 0
171 10 516 584 90 0 241
172 -20 1024 1165 90 833 0
173 -20 702 852 90 323 0
174 30 255 336 0 0 1033
175 -10 833 966 90 887 0
176 40 233 318 90 0 145
177 -10 1103 1127 90 179 0
178 20 622 699 90 0 526
179 10 805 1040 90 0 177
180 -20 561 732 90 324 0
181 -20 843 890 90 296 0
182 -10 247 496 90 938 0
183 20 273 457 90 0 94
184 20 2 279 90 0 499
185 20 297 391 90 0 646
186 -20 1168 1216 90 949 0
187 20 907 1162 0 0 1049
188 -30 946 1173 90 364 0
189 10 463 641 90 0 748
190 10 784 871 90 0 812
191 10 266 479 90 0 676
192 -20 407 516 90 279 0
193 20 789 923 90 0 13
194 -20 508 683 90 457 0
195 30 219 420 90 0 868
196 20 698 809 90 0 380
197 20 826 1025 0 0 1008
198 20 226 546 90 0 649
199 -10 508 825 90 950 0
200 -20 533 708 90 591 0
201 20 368 500 90 0 446
202 -20 727 885 90 847 0
203 -20 869 884 90 575 0
204 -10 629 660 90 109 0
205 -30 569 617 90 720 0
206 -30 886 1049 90 697 0
207 20 739 783 90 0 428
208 -10 889 1048 90 264 0
209 20 220 468 90 0 377
210 30 362 553 90 0 992
211 30 494 521 0 0 1022
212 -10 186 303 90 801 0
213 20 205 293 90 0 860
214 30 502 548 90 0 87
215 10 518 626 90 0 65
216 -10 696 813 90 835 0
217 -30 632 843 90 220 0
218 -10 1014 1142 90 527 0
219 30 228 239 90 0 894
220 30 439 475 90 0 217
221 -20 857 979 90 315 0
222 -10 1348 1445 90 254 0
223 20 489 623 90 0 928
224 -20 820 959 90 133 0
225 10 228 272 90 0 313
226 -10 947 1139 90 690 0
227 -20 414 454 90 536 0
228 -10 629 785 90 247 0
229 20 269 403 90 0 777
230 10 709 715 90 0 111
231 -10 796 963 90 505 0
232 20 142 291 90 0 2
233 -20 1240 1358 90 717 0
234 -10 939 1166 90 573 0
235 -20 1267 1503 90 778 0
236 30 528 708 90 0 430
237 -20 936 1126 90 631 0
238 -30 935 1100 90 350 0
239 40 148 255 90 0 598
240 -10 706 947 90 612 0
241 -10 617 675 90 171 0
242 20 659 916 90 0 170
243 -30 440 476 90 165 0
244 -10 520 730 90 942 0
245 20 374 460 90 0 49
246 20 623 852 90 0 794
247 10 261 416 90 0 228
248 10 693 846 90 0 348
249 10 1098 1156 90 0 827
250 30 322 467 90 0 139
251 10 230 331 90 0 864
252 -20 530 706 90 363 0
253 10 713 902 90 0 486
254 10 533 673 90 0 222
255 10 241 510 90 0 158
256 -10 213 402 90 488 0
257 10 584 774 90 0 858
258 10 314 478 90 0 636
259 -30 353 411 90 653 0
260 20 433 737 90 0 692
261 -20 803 816 90 288 0
262 -10 555 793 90 370 0
263 10 230 542 90 0 619
264 10 744 1009 90 0 208
265 30 1001 1248 90 0 311
266 10 748 1041 0 0 1015
267 -20 914 969 90 23 0
268 30 289 371 90 0 25
269 10 228 461 90 0 898
270 -10 704 799 90 401 0
271 -20 984 1020 90 869 0
272 20 581 742 90 0 81
273 20 228 444 90 0 406
274 -30 778 1033 90 600 0
275 -10 749 813 90 787 0
276 20 744 887 90 0 342
277 -20 691 874 90 802 0
278 -20 514 685 90 809 0
279 20 92 245 90 0 192
280 10 500 692 0 0 1046
281 -10 1114 1191 90 585 0
282 -10 816 978 90 593 0
283 30 306 500 0 0 1045
284 -10 1290 1315 90 378 0
285 -20 1023 1286 90 796 0
286 20 193 280 90 0 357
287 30 613 773 90 0 825
288 20 311 362 90 0 261
289 10 684 713 90 0 859
290 10 457 534 90 0 86
291 -20 1135 1247 90 420 0
292 10 253 430 90 0 561
293 -10 749 810 90 438 0
294 20 210 308 90 0 447
295 40 171 289 90 0 767
296 20 767 779 90 0 181
297 20 725 882 90 0 996
298 -20 1044 1133 90 546 0
299 10 368 630 90 0 120
300 20 237 503 90 0 760
301 20 336 469 90 0 966
302 20 289 453 90 0 764
303 -10 894 1027 90 46 0
304 10 282 402 90 0 672
305 -20 692 891 90 960 0
306 40 264 338 90 0 137
307 10 135 267 90 0 541
308 -10 638 774 90 71 0
309 20 315 420 90 0 980
310 20 220 414 90 0 102
311 -30 1281 1452 90 265 0
312 -10 714 796 90 746 0
313 -10 386 486 90 225 0
314 10 285 359 90 0 879
315 20 578 763 90 0 221
316 20 768 915 0 0 1035
317 -20 298 475 90 123 0
318 10 398 549 90 0 506
319 10 478 848 90 0 962
320 10 574 786 90 0 146
321 40 485 651 90 0 361
322 -10 396 469 90 761 0
323 20 253 365 90 0 173
324 20 274 613 90 0 180
325 10 307 485 90 0 839
326 -20 706 910 90 862 0
327 20 371 623 90 0 431
328 -10 505 936 90 33 0
329 30 245 323 90 0 635
330 20 260 343 90 0 47
331 -10 961 1104 90 118 0
332 10 438 624 90 0 973
333 20 403 601 90 0 937
334 -20 479 573 90 468 0
335 -20 418 762 90 723 0
336 20 187 466 90 0 700
337 20 186 417 90 0 638
338 20 341 363 90 0 948
339 10 862 895 0 0 1021
340 -20 448 610 90 855 0
341 -30 874 1050 90 932 0
342 -20 827 1055 90 276 0
343 -10 811 940 90 477 0
344 10 398 626 90 0 757
345 -10 537 676 90 880 0
346 -30 558 638 90 150 0
347 -20 468 502 90 452 0
348 -10 1083 1378 90 248 0
349 -30 760 865 90 687 0
350 30 689 969 90 0 238
351 20 332 418 90 0 432
352 20 245 251 90 0 128
353 -30 309 488 90 978 0
354 20 419 631 90 0 500
355 -20 684 704 90 529 0
356 -40 784 979 90 716 0
357 -20 197 456 90 286 0
358 -30 326 547 90 521 0
359 -10 947 1011 90 979 0
360 20 212 460 90 0 443
361 -40 534 788 90 321 0
362 10 881 1087 90 0 840
363 20 152 389 90 0 252
364 30 307 486 90 0 188
365 10 270 437 90 0 493
366 20 286 450 0 0 1050
367 20 681 847 90 0 930
368 10 1067 1208 0 0 1004
369 20 379 459 90 0 60
370 10 542 623 90 0 262
371 20 626 821 90 0 828
372 30 254 402 90 0 144
373 -10 622 858 90 34 0
374 10 380 467 90 0 540
375 -20 1118 1235 90 514 0
376 20 1053 1109 90 0 388
377 -20 868 1140 90 209 0
378 10 596 820 90 0 284
379 20 635 811 90 0 714
380 -20 1095 1150 90 196 0
381 10 193 309 90 0 10
382 20 413 724 0 0 1005
383 20 231 437 90 0 853
384 -10 893 907 90 9 0
385 30 321 586 90 0 995
386 20 389 586 0 0 1030
387 30 210 541 90 0 166
388 -20 1078 1406 90 376 0
389 30 143 377 90 0 549
390 -10 784 915 90 48 0
391 20 249 346 90 0 601
392 -10 916 1070 90 169 0
393 -10 957 1091 90 891 0
394 20 383 563 90 0 689
395 20 121 382 90 0 494
396 -10 517 817 90 91 0
397 20 739 894 0 0 1028
398 -10 787 835 90 441 0
399 -10 618 876 90 411 0
400 -20 968 1173 90 595 0
401 10 537 589 90 0 270
402 -10 886 1092 90 423 0
403 -20 209 416 90 4 0
404 10 362 449 90 0 867
405 20 369 426 90 0 40
406 -20 729 882 90 273 0
407 20 271 282 90 0 663
408 20 299 562 90 0 3
409 10 851 1071 90 0 846
410 10 770 993 90 0 818
411 10 433 503 90 0 399
412 20 166 214 90 0 564
413 20 740 984 90 0 161
414 -20 644 720 90 730 0
415 20 668 900 0 0 1003
416 20 217 390 90 0 560
417 -10 954 1171 90 617 0
418 -20 275 504 90 110 0
419 -20 820 973 90 58 0
420 20 465 639 90 0 291
421 -20 538 762 90 496 0
422 10 364 617 90 0 698
423 10 769 843 90 0 402
424 -20 712 834 90 900 0
425 20 358 607 90 0 66
426 10 223 405 90 0 740
427 -20 612 784 90 765 0
428 -20 797 912 90 207 0
429 -10 616 773 90 461 0
430 -30 897 905 90 236 0
431 -20 862 898 90 327 0
432 -20 965 1108 90 351 0
433 -20 379 639 90 854 0
434 -10 966 996 90 851 0
435 -20 979 1162 90 976 0
436 20 186 358 90 0 658
437 -10 1273 1280 90 17 0
438 10 276 530 90 0 293
439 10 477 643 0 0 1053
440 -10 632 815 90 574 0
441 10 562 674 90 0 398
442 10 178 252 90 0 782
443 -20 338 518 90 360 0
444 -10 524 629 90 606 0
445 -30 677 913 90 582 0
446 -20 765 1030 90 201 0
447 -20 691 757 90 294 0
448 -30 1218 1412 90 609 0
449 -20 986 1106 90 122 0
450 20 240 469 90 0 547
451 -10 778 885 90 623 0
452 20 206 224 90 0 347
453 20 895 1013 90 0 84
454 -20 992 1240 90 603 0
455 -10 893 1286 90 518 0
456 -10 679 746 90 970 0
457 20 278 530 90 0 194
458 10 574 667 90 0 674
459 10 187 531 90 0 592
460 -30 623 841 90 843 0
461 10 430 592 90 0 429
462 -20 480 659 90 706 0
463 20 448 543 90 0 699
464 -10 329 540 90 117 0
465 -20 785 827 90 772 0
466 -30 792 873 90 821 0
467 30 455 549 90 0 42
468 20 368 498 90 0 334
469 -10 640 912 90 780 0
470 -10 1226 1333 90 734 0
471 20 338 572 90 0 694
472 -30 695 735 90 507 0
473 30 302 460 90 0 968
474 20 105 321 90 0 845
475 20 604 709 90 0 519
476 10 459 594 90 0 750
477 10 285 341 90 0 343
478 -20 560 752 90 6 0
479 -20 274 471 90 857 0
480 20 225 396 90 0 747
481 20 813 952 0 0 1018
482 20 363 463 90 0 877
483 10 313 594 90 0 626
484 10 288 599 90 0 532
485 10 754 833 0 0 1017
486 -10 876 1112 90 253 0
487 -20 335 533 90 963 0
488 10 213 538 90 0 256
489 20 53 360 90 0 889
490 -10 547 664 90 665 0
491 -30 635 758 90 50 0
492 10 568 673 90 0 822
493 -10 276 452 90 365 0
494 -20 697 1062 90 395 0
495 10 577 617 90 0 556
496 20 481 626 90 0 421
497 10 307 534 90 0 577
498 30 368 654 90 0 936
499 -20 448 487 90 184 0
500 -20 635 786 90 354 0
501 -30 1143 1425 90 537 0
502 10 355 495 90 0 83
503 30 374 550 90 0 510
504 10 973 981 90 0 157
505 10 223 429 90 0 231
506 -10 541 781 90 318 0
507 30 470 575 90 0 472
508 -30 1032 1123 90 893 0
509 20 258 309 90 0 153
510 -30 692 788 90 503 0
511 30 804 926 0 0 1043
512 20 209 329 90 0 733
513 10 647 778 0 0 1012
514 20 1059 1105 90 0 375
515 10 1114 1198 0 0 1027
516 -30 567 651 90 167 0
517 -30 736 957 90 959 0
518 10 932 1050 90 0 455
519 -20 788 1094 90 475 0
520 10 680 840 90 0 729
521 30 178 506 90 0 358
522 -30 448 661 90 586 0
523 -20 972 1011 90 814 0
524 -40 506 632 90 630 0
525 -20 828 918 90 605 0
526 -20 1182 1244 90 178 0
527 10 624 972 90 0 218
528 -20 568 720 90 29 0
529 20 405 596 90 0 355
530 10 243 364 90 0 990
531 -10 656 743 90 934 0
532 -10 373 577 90 484 0
533 10 267 322 90 0 710
534 -10 149 272 90 578 0
535 30 334 447 90 0 739
536 20 248 457 90 0 227
537 30 303 335 90 0 501
538 -20 497 664 90 107 0
539 20 1083 1264 0 0 1014
540 -10 723 869 90 374 0
541 -10 1035 1109 90 307 0
542 -10 663 762 90 587 0
543 10 246 456 90 0 620
544 20 154 293 90 0 680
545 20 76 212 90 0 916
546 20 155 363 90 0 298
547 -20 468 571 90 450 0
548 -10 871 1078 90 981 0
549 -30 797 1000 90 389 0
550 -10 952 1180 90 686 0
551 -20 928 1204 90 719 0
552 10 493 584 90 0 95
553 -10 1011 1261 90 559 0
554 -10 254 479 90 790 0
555 10 869 1053 90 0 882
556 -10 719 851 90 495 0
557 -20 709 720 90 11 0
558 -10 383 572 90 96 0
559 10 845 1088 90 0 553
560 -20 535 835 90 416 0
561 -10 683 927 90 292 0
562 10 228 517 90 0 715
563 20 156 354 90 0 149
564 -20 165 419 90 412 0
565 30 362 590 90 0 642
566 20 454 540 90 0 647
567 20 671 814 0 0 1051
568 20 989 1157 90 0 863
569 10 1014 1328 0 0 1019
570 10 860 887 90 0 604
571 20 278 357 90 0 607
572 20 260 371 90 0 97
573 10 509 665 90 0 234
574 10 220 299 90 0 440
575 20 529 672 90 0 203
576 -10 649 715 90 798 0
577 -10 895 909 90 497 0
578 10 118 287 90 0 534
579 10 280 507 0 0 1025
580 -10 955 1211 90 975 0
581 20 607 792 90 0 57
582 30 49 88 90 0 445
583 10 218 320 90 0 38
584 -10 879 973 90 163 0
585 10 541 648 90 0 281
586 30 165 384 90 0 522
587 10 428 625 90 0 542
588 -30 845 1036 90 711 0
589 -30 489 775 90 614 0
590 -10 693 1016 90 768 0
591 20 208 477 90 0 200
592 -10 572 700 90 459 0
593 10 619 806 90 0 282
594 10 562 677 90 0 160
595 20 804 959 90 0 400
596 10 592 773 0 0 1047
597 -30 674 752 90 683 0
598 -40 154 383 90 239 0
599 -30 649 969 90 705 0
600 30 154 165 90 0 274
601 -20 411 584 90 391 0
602 -10 1025 1386 90 707 0
603 20 365 488 90 0 454
604 -10 864 1021 90 570 0
605 20 405 420 90 0 525
606 10 259 340 90 0 444
607 -20 1017 1243 90 571 0
608 10 538 600 90 0 136
609 30 1119 1216 90 0 448
610 10 935 1060 90 0 754
611 -20 602 767 90 903 0
612 10 198 515 90 0 240
613 -20 163 357 90 131 0
614 30 357 534 90 0 589
615 -20 1171 1304 90 813 0
616 20 39 117 90 0 668
617 10 230 351 90 0 417
618 -20 781 1004 90 977 0
619 -10 558 588 90 263 0
620 -10 530 734 90 543 0
621 20 322 520 90 0 842
622 -10 213 457 90 915 0
623 10 712 766 90 0 451
624 40 150 257 90 0 735
625 -30 655 775 90 93 0
626 -10 353 458 90 483 0
627 -10 542 696 90 773 0
628 20 382 419 0 0 1031
629 -10 811 1012 90 972 0
630 40 295 449 90 0 524
631 20 827 867 90 0 237
632 -20 305 376 90 77 0
633 -20 588 753 90 64 0
634 -20 201 442 90 39 0
635 -30 471 775 90 329 0
636 -10 623 725 90 258 0
637 20 918 927 90 0 148
638 -20 1118 1276 90 337 0
639 10 75 239 90 0 73
640 30 512 724 90 0 43
641 -20 254 435 90 784 0
642 -30 922 1110 90 565 0
643 -20 1260 1358 90 751 0
644 10 331 519 90 0 957
645 30 553 800 90 0 1001
646 -20 633 724 90 185 0
647 -20 755 813 90 566 0
648 -20 1280 1486 90 113 0
649 -20 201 438 90 198 0
650 -20 516 732 90 100 0
651 -10 1217 1265 90 951 0
652 20 630 769 90 0 758
653 30 200 463 90 0 259
654 10 733 1039 90 0 766
655 -20 480 541 90 53 0
656 20 169 345 90 0 688
657 40 280 387 90 0 762
658 -20 775 915 90 436 0
659 -20 194 280 90 816 0
660 20 892 1097 0 0 1013
661 20 126 244 90 0 671
662 -10 661 929 90 969 0
663 -20 1192 1209 90 407 0
664 -10 58 315 90 37 0
665 10 336 505 90 0 490
666 -10 716 995 90 999 0
667 -10 1066 1186 90 920 0
668 -20 113 159 90 616 0
669 -10 1179 1304 90 902 0
670 10 786 971 90 0 732
671 -20 671 713 90 661 0
672 -10 426 630 90 304 0
673 20 821 1027 0 0 1009
674 -10 818 995 90 458 0
675 20 906 1129 90 0 872
676 -10 468 629 90 191 0
677 -10 836 1154 90 142 0
678 20 638 727 90 0 922
679 10 339 615 90 0 774
680 -20 202 438 90 544 0
681 -30 860 977 90 737 0
682 10 266 441 90 0 92
683 30 311 558 90 0 597
684 20 466 566 90 0 99
685 10 965 984 90 0 834
686 10 971 1110 90 0 550
687 30 432 631 90 0 349
688 -20 694 907 90 656 0
689 -20 545 951 90 394 0
690 10 686 847 90 0 226
691 -20 931 1174 90 888 0
692 -20 1077 1219 90 260 0
693 10 416 612 90 0 134
694 -20 979 1062 90 471 0
695 -20 222 323 90 70 0
696 -30 901 1090 90 779 0
697 30 782 965 90 0 206
698 -10 755 974 90 422 0
699 -20 505 670 90 463 0
700 -20 790 984 90 336 0
701 -20 767 958 90 15 0
702 -30 1114 1245 90 80 0
703 -20 495 561 90 156 0
704 -20 716 856 90 724 0
705 30 286 394 90 0 599
706 20 287 301 90 0 462
707 10 745 918 90 0 602
708 10 327 369 90 0 943
709 -40 257 581 90 785 0
710 -10 436 669 90 533 0
711 30 485 655 90 0 588
712 20 311 348 90 0 971
713 10 452 655 90 0 899
714 -20 1035 1161 90 379 0
715 -10 198 359 90 562 0
716 40 498 736 90 0 356
717 20 656 820 90 0 233
718 -10 952 1040 90 756 0
719 20 391 419 90 0 551
720 30 410 585 90 0 205
721 -10 615 801 90 103 0
722 -30 419 601 90 12 0
723 20 313 384 90 0 335
724 20 487 560 90 0 704
725 -30 927 1130 90 755 0
726 10 75 309 90 0 795
727 30 134 416 90 0 32
728 20 427 777 90 0 836
729 -10 758 943 90 520 0
730 20 513 669 90 0 414
731 20 737 872 90 0 89
732 -10 924 1041 90 670 0
733 -20 864 981 90 512 0
734 10 786 1032 90 0 470
735 -40 152 392 90 624 0
736 -20 973 1024 90 749 0
737 30 221 520 90 0 681
738 20 573 850 0 0 1054
739 -30 374 599 90 535 0
740 -10 686 893 90 426 0
741 -20 441 741 90 781 0
742 -10 969 1404 90 168 0
743 20 394 616 90 0 881
744 -20 393 662 90 116 0
745 -10 632 753 90 62 0
746 10 52 230 90 0 312
747 -20 966 1153 90 480 0
748 -10 987 1241 90 189 0
749 20 641 783 90 0 736
750 -10 768 845 90 476 0
751 20 1129 1303 90 0 643
752 20 761 875 0 0 1052
753 -10 593 724 90 883 0
754 -10 1116 1233 90 610 0
755 30 586 954 90 0 725
756 10 172 321 90 0 718
757 -10 658 732 90 344 0
758 -20 668 1015 90 652 0
759 30 92 286 90 0 775
760 -20 529 699 90 300 0
761 10 152 406 90 0 322
762 -40 462 590 90 657 0
763 -20 1014 1211 90 876 0
764 -20 685 826 90 302 0
765 20 239 314 90 0 427
766 -10 1158 1168 90 654 0
767 -40 357 483 90 295 0
768 10 401 560 90 0 590
769 -10 620 886 90 830 0
770 10 817 872 90 0 792
771 -30 644 890 90 941 0
772 20 416 447 90 0 465
773 10 329 528 90 0 627
774 -10 688 827 90 679 0
775 -30 216 337 90 759 0
776 30 274 533 90 0 974
777 -20 501 540 90 229 0
778 20 335 429 90 0 235
779 30 222 458 90 0 696
780 10 456 545 90 0 469
781 20 206 334 90 0 741
782 -10 510 688 90 442 0
783 -10 477 692 90 955 0
784 20 161 378 90 0 641
785 40 277 377 90 0 709
786 10 234 431 90 0 926
787 10 600 771 90 0 275
788 20 286 510 90 0 878
789 -10 389 426 90 850 0
790 10 254 446 90 0 554
791 20 946 1173 0 0 1002
792 -10 1235 1376 90 770 0
793 20 247 365 90 0 804
794 -20 772 885 90 246 0
795 -10 677 780 90 726 0
796 20 620 771 90 0 285
797 20 204 523 90 0 22
798 10 343 462 90 0 576
799 20 377 530 90 0 52
800 20 750 831 0 0 1016
801 10 59 346 90 0 212
802 20 239 398 90 0 277
803 -20 846 1099 90 101 0
804 -20 776 964 90 793 0
805 20 480 568 90 0 924
806 -20 1211 1288 90 895 0
807 -10 436 514 90 958 0
808 30 469 687 0 0 1036
809 20 189 269 90 0 278
810 20 687 875 90 0 44
811 -20 240 446 90 961 0
812 -10 1036 1142 90 190 0
813 20 1066 1225 90 0 615
814 20 150 380 90 0 523
815 40 850 1073 0 0 1034
816 20 141 301 90 0 659
817 -10 681 851 90 125 0
818 -10 948 1253 90 410 0
819 -10 487 601 90 939 0
820 10 155 276 90 0 162
821 30 327 402 90 0 466
822 -10 671 758 90 492 0
823 -10 597 684 90 51 0
824 20 251 331 90 0 143
825 -30 740 838 90 287 0
826 10 263 455 90 0 155
827 -10 1108 1327 90 249 0
828 -20 767 866 90 371 0
829 -10 854 925 90 944 0
830 10 416 527 90 0 769
831 20 780 869 90 0 873
832 10 636 875 90 0 59
833 20 813 1007 90 0 172
834 -10 1045 1101 90 685 0
835 10 296 601 90 0 216
836 -20 724 865 90 728 0
837 20 85 248 90 0 952
838 10 295 552 90 0 105
839 -10 663 875 90 325 0
840 -10 947 1206 90 362 0
841 20 253 422 90 0 907
842 -20 521 691 90 621 0
843 30 270 537 90 0 460
844 10 635 810 90 0 886
845 -20 545 675 90 474 0
846 -10 1192 1422 90 409 0
847 20 454 601 90 0 202
848 -20 720 1018 90 909 0
849 -20 1257 1322 90 56 0
850 10 217 498 90 0 789
851 10 711 886 90 0 434
852 10 654 776 90 0 135
853 -20 531 674 90 383 0
854 20 326 514 90 0 433
855 20 160 314 90 0 340
856 -10 432 465 90 905 0
857 20 91 299 90 0 479
858 -10 750 792 90 257 0
859 -10 856 921 90 289 0
860 -20 217 384 90 213 0
861 20 1083 1335 0 0 1023
862 20 412 461 90 0 326
863 -20 1333 1378 90 568 0
864 -10 847 1028 90 251 0
865 -30 943 991 90 994 0
866 20 752 1069 90 0 76
867 -10 698 853 90 404 0
868 -30 330 482 90 195 0
869 20 508 574 90 0 271
870 -30 735 1013 90 871 0
871 30 549 635 90 0 870
872 -20 1031 1185 90 675 0
873 -20 866 967 90 831 0
874 -10 693 922 90 925 0
875 -10 1276 1388 90 129 0
876 20 754 1098 90 0 763
877 -20 447 753 90 482 0
878 -20 1018 1161 90 788 0
879 -10 1210 1479 90 314 0
880 10 278 389 90 0 345
881 -20 618 770 90 743 0
882 -10 1125 1173 90 555 0
883 10 376 562 90 0 753
884 -20 1057 1146 90 30 0
885 20 146 269 0 0 1020
886 -10 849 962 90 844 0
887 10 673 943 90 0 175
888 20 810 929 90 0 691
889 -20 698 720 90 489 0
890 20 920 993 0 0 1041
891 10 265 363 90 0 393
892 -10 819 960 90 914 0
893 30 966 1004 90 0 508
894 -30 759 937 90 219 0
895 20 742 925 90 0 806
896 20 885 1055 0 0 1007
897 -20 267 380 90 985 0
898 -10 716 854 90 269 0
899 -10 545 747 90 713 0
900 20 281 526 90 0 424
901 -10 503 661 90 31 0
902 10 334 463 90 0 669
903 20 132 143 90 0 611
904 30 904 1124 0 0 1011
905 10 208 501 90 0 856
906 -10 894 1007 90 21 0
907 -20 536 702 90 841 0
908 10 705 870 0 0 1026
909 20 556 627 90 0 848
910 10 396 589 0 0 1029
911 10 563 714 90 0 28
912 20 730 851 0 0 1024
913 -20 403 606 90 35 0
914 10 687 712 90 0 892
915 10 151 224 90 0 622
916 -20 720 941 90 545 0
917 -20 918 1012 90 85 0
918 20 904 1010 0 0 1042
919 10 504 704 90 0 141
920 10 961 1094 90 0 667
921 30 611 620 0 0 1040
922 -20 769 777 90 678 0
923 20 221 239 90 0 947
924 -20 756 855 90 805 0
925 10 63 348 90 0 874
926 -10 664 745 90 786 0
927 20 194 450 0 0 1055
928 -20 571 726 90 223 0
929 30 384 503 90 0 16
930 -20 895 1187 90 367 0
931 30 452 756 0 0 1044
932 30 202 425 90 0 341
933 -10 355 538 90 36 0
934 10 64 222 90 0 531
935 30 583 645 90 0 127
936 -30 646 759 90 498 0
937 -20 686 707 90 333 0
938 10 246 437 90 0 182
939 10 305 600 90 0 819
940 40 845 987 90 0 124
941 30 198 444 90 0 771
942 10 150 211 90 0 244
943 -10 713 914 90 708 0
944 10 332 531 90 0 829
945 -10 861 933 90 104 0
946 20 439 536 0 0 1048
947 -20 1063 1210 90 923 0
948 -20 525 555 90 338 0
949 20 306 591 90 0 186
950 10 237 353 90 0 199
951 10 662 700 90 0 651
952 -20 408 507 90 837 0
953 10 418 659 90 0 74
954 -10 591 837 90 132 0
955 10 249 362 90 0 783
956 -40 483 495 90 140 0
957 -10 641 761 90 644 0
958 10 281 424 90 0 807
959 30 464 670 90 0 517
960 20 425 602 90 0 305
961 20 235 369 90 0 811
962 -10 713 980 90 319 0
963 20 253 454 90 0 487
964 20 133 342 90 0 988
965 10 378 451 90 0 989
966 -20 459 535 90 301 0
967 10 497 660 90 0 114
968 -30 461 671 90 473 0
969 10 48 84 90 0 662
970 10 319 541 90 0 456
971 -20 448 549 90 712 0
972 10 765 875 90 0 629
973 -10 560 684 90 332 0
974 -30 274 658 90 776 0
975 10 693 735 90 0 580
976 20 885 1074 90 0 435
977 20 249 283 90 0 618
978 30 204 265 90 0 353
979 10 469 777 90 0 359
980 -20 658 818 90 309 0
981 10 369 456 90 0 548
982 40 118 129 90 0 126
983 20 253 313 90 0 112
984 10 553 683 0 0 1032
985 20 231 302 90 0 897
986 40 115 134 90 0 26
987 20 328 386 90 0 154
988 -20 361 460 90 964 0
989 -10 463 555 90 965 0
990 -10 736 993 90 530 0
991 20 373 630 90 0 61
992 -30 525 769 90 210 0
993 -20 683 740 90 108 0
994 30 811 937 90 0 865
995 -30 1223 1299 90 385 0
996 -20 847 951 90 297 0
997 -30 569 728 90 998 0
998 30 82 252 90 0 997
999 10 508 640 90 0 666
1000 20 156 375 90 0 72
1001 -30 790 932 90 645 0
1002 -20 946 1173 90 791 0
1003 -20 668 900 90 415 0
1004 -10 1067 1208 90 368 0
1005 -20 413 724 90 382 0
1006 -10 285 442 90 55 0
1007 -20 885 1055 90 896 0
1008 -20 826 1025 90 197 0
1009 -20 821 1027 90 673 0
1010 -30 1143 1231 90 147 0
1011 -30 904 1124 90 904 0
1012 -10 647 778 90 513 0
1013 -20 892 1097 90 660 0
1014 -20 1083 1264 90 539 0
1015 -10 748 1041 90 266 0
1016 -20 750 831 90 800 0
1017 -10 754 833 90 485 0
1018 -20 813 952 90 481 0
1019 -10 1014 1328 90 569 0
1020 -20 146 269 90 885 0
1021 -10 862 895 90 339 0
1022 -30 494 521 90 211 0
1023 -20 1083 1335 90 861 0
1024 -20 730 851 90 912 0
1025 -10 280 507 90 579 0
1026 -10 705 870 90 908 0
1027 -10 1114 1198 90 515 0
1028 -20 739 894 90 397 0
1029 -10 396 589 90 910 0
1030 -20 389 586 90 386 0
1031 -20 382 419 90 628 0
1032 -10 553 683 90 984 0
1033 -30 255 336 90 174 0
1034 -40 850 1073 90 815 0
1035 -20 768 915 90 316 0
1036 -30 469 687 90 808 0
1037 -10 848 1022 90 98 0
1038 -30 710 849 90 24 0
1039 -30 378 489 90 130 0
1040 -30 611 620 90 921 0
1041 -20 920 993 90 890 0
1042 -20 904 1010 90 918 0
1043 -30 804 926 90 511 0
1044 -30 452 756 90 931 0
1045 -30 306 500 90 283 0
1046 -10 500 692 90 280 0
1047 -10 592 773 90 596 0
1048 -20 439 536 90 946 0
1049 -20 907 1162 90 187 0
1050 -20 286 450 90 366 0
1051 -20 671 814 90 567 0
1052 -20 761 875 90 752 0
1053 -10 477 643 90 439 0
1054 -20 573 850 90 738 0
1055 -20 194 450 90 927 0
DEPOT_SECTION
1
-1
EOF
