NAME: lc1_10_8
TYPE: PDPTW
COMMENT: Li & Lim PDPTW benchmark converted from SINTEF format
DIMENSION: 1053
VEHICLES: 250
CAPACITY: 200
EDGE_WEIGHT_TYPE: EUC_2D
NODE_COORD_SECTION
1 250 250
2 387 297
3 5 297
4 355 177
5 78 346
6 286 159
7 322 465
8 393 408
9 89 216
10 76 345
11 410 285
12 472 189
13 270 49
14 219 325
15 437 12
16 418 218
17 20 488
18 77 347
19 73 346
20 480 455
21 129 292
22 337 257
23 237 254
24 131 220
25 417 417
26 287 143
27 379 80
28 87 285
29 374 489
30 440 247
31 281 137
32 379 196
33 297 102
34 39 76
35 35 306
36 435 68
37 245 251
38 409 88
39 273 55
40 163 340
41 129 223
42 371 200
43 357 26
44 470 473
45 77 344
46 478 461
47 128 291
48 111 113
49 164 21
50 21 485
51 108 26
52 424 286
53 200 270
54 7 300
55 433 31
56 420 295
57 451 367
58 118 157
59 489 101
60 200 261
61 476 483
62 30 302
63 8 300
64 275 45
65 238 46
66 152 206
67 99 218
68 393 410
69 480 460
70 337 256
71 389 300
72 90 237
73 321 280
74 417 218
75 64 108
76 57 432
77 356 24
78 143 207
79 221 325
80 22 483
81 24 65
82 141 431
83 202 9
84 20 48
85 457 163
86 470 290
87 268 400
88 337 251
89 366 20
90 72 344
91 149 203
92 55 428
93 189 7
94 397 18
95 481 122
96 20 73
97 54 430
98 74 350
99 202 8
100 406 285
101 460 2
102 441 244
103 1 293
104 115 465
105 422 420
106 75 347
107 141 428
108 404 264
109 398 23
110 148 211
111 362 22
112 479 127
113 443 246
114 22 37
115 65 100
116 404 447
117 102 264
118 444 271
119 325 466
120 124 219
121 335 243
122 26 42
123 113 106
124 399 450
125 146 439
126 162 336
127 2 295
128 122 35
129 346 60
130 93 213
131 218 316
132 116 156
133 419 422
134 467 141
135 187 491
136 433 25
137 286 137
138 370 82
139 132 290
140 435 11
141 206 261
142 428 291
143 95 384
144 205 223
145 463 140
146 343 47
147 435 62
148 387 488
149 121 157
150 182 463
151 92 216
152 370 83
153 444 242
154 90 285
155 446 64
156 312 264
157 208 11
158 442 247
159 140 431
160 118 153
161 134 428
162 91 235
163 406 257
164 377 76
165 474 96
166 346 57
167 393 301
168 412 214
169 210 398
170 346 150
171 62 453
172 437 61
173 87 96
174 367 83
175 91 268
176 459 145
177 63 444
178 433 27
179 60 454
180 478 99
181 485 454
182 6 292
183 398 20
184 248 251
185 433 15
186 64 426
187 154 207
188 481 456
189 380 498
190 88 286
191 111 23
192 199 187
193 269 48
194 367 178
195 452 163
196 431 28
197 8 116
198 233 47
199 237 43
200 320 262
201 188 4
202 180 6
203 328 466
204 393 12
205 409 90
206 406 87
207 394 407
208 358 183
209 186 461
210 38 72
211 323 471
212 224 192
213 278 46
214 272 403
215 232 42
216 18 63
217 58 458
218 416 417
219 205 230
220 65 453
221 421 294
222 434 245
223 2 116
224 411 421
225 315 260
226 136 288
227 173 490
228 90 232
229 402 265
230 361 14
231 348 147
232 385 295
233 394 23
234 466 295
235 71 103
236 125 29
237 25 65
238 58 449
239 246 398
240 423 294
241 59 459
242 348 145
243 477 97
244 307 102
245 169 31
246 381 495
247 95 234
248 22 33
249 435 268
250 135 293
251 439 266
252 269 402
253 267 400
254 473 196
255 445 237
256 461 284
257 167 339
258 26 43
259 101 386
260 342 54
261 243 399
262 288 44
263 274 48
264 360 184
265 23 67
266 6 296
267 249 258
268 421 415
269 319 468
270 50 438
271 440 61
272 17 65
273 323 118
274 402 281
275 71 153
276 52 432
277 378 199
278 238 204
279 208 184
280 376 195
281 473 475
282 215 395
283 123 222
284 436 241
285 70 100
286 73 328
287 241 205
288 250 405
289 483 14
290 466 287
291 467 114
292 120 159
293 408 84
294 413 217
295 338 142
296 483 457
297 479 169
298 95 224
299 122 216
300 477 179
301 406 99
302 44 47
303 487 450
304 172 488
305 460 374
306 279 138
307 338 147
308 395 295
309 195 185
310 463 194
311 30 72
312 244 254
313 317 261
314 67 108
315 442 310
316 63 336
317 109 107
318 100 387
319 494 94
320 343 49
321 40 52
322 319 124
323 94 97
324 476 94
325 283 47
326 398 325
327 460 13
328 305 107
329 188 12
330 136 290
331 439 268
332 112 467
333 181 469
334 358 18
335 459 10
336 199 268
337 436 237
338 318 280
339 64 99
340 394 333
341 366 93
342 95 391
343 391 425
344 344 146
345 198 12
346 186 472
347 390 408
348 19 43
349 307 108
350 59 457
351 49 451
352 125 39
353 61 147
354 317 123
355 392 426
356 237 213
357 71 333
358 304 97
359 196 462
360 224 191
361 37 51
362 491 25
363 270 401
364 474 461
365 66 448
366 337 241
367 269 46
368 22 41
369 198 271
370 287 43
371 446 63
372 200 229
373 48 72
374 465 142
375 123 155
376 16 497
377 220 319
378 484 171
379 55 431
380 428 24
381 80 342
382 16 68
383 124 56
384 95 218
385 481 26
386 145 434
387 335 57
388 26 490
389 324 127
390 109 114
391 72 148
392 220 392
393 442 243
394 69 336
395 131 226
396 150 204
397 423 217
398 419 459
399 285 163
400 203 7
401 54 445
402 109 463
403 355 180
404 13 455
405 165 337
406 314 124
407 9 124
408 3 292
409 16 462
410 189 464
411 288 154
412 90 296
413 138 438
414 13 459
415 461 8
416 96 97
417 68 99
418 146 205
419 117 152
420 481 96
421 338 260
422 285 44
423 111 464
424 468 291
425 148 206
426 184 464
427 197 11
428 396 410
429 133 53
430 132 30
431 464 13
432 100 394
433 483 22
434 93 235
435 174 26
436 436 264
437 24 492
438 406 94
439 234 246
440 315 287
441 408 453
442 128 225
443 226 191
444 391 407
445 198 264
446 179 7
447 425 215
448 483 27
449 22 40
450 479 176
451 476 102
452 386 405
453 22 38
454 440 241
455 182 14
456 266 405
457 357 181
458 395 332
459 423 290
460 104 28
461 131 56
462 111 110
463 97 93
464 90 274
465 214 394
466 6 114
467 375 191
468 356 21
469 466 165
470 415 223
471 397 20
472 241 403
473 69 334
474 152 210
475 67 335
476 126 30
477 390 423
478 285 162
479 285 158
480 406 96
481 459 374
482 67 109
483 468 475
484 438 31
485 168 24
486 267 394
487 406 450
488 460 288
489 224 203
490 21 487
491 21 488
492 87 217
493 67 452
494 119 223
495 398 428
496 344 262
497 390 301
498 167 27
499 236 247
500 313 119
501 13 51
502 200 13
503 0 120
504 202 4
505 343 144
506 94 383
507 250 411
508 464 134
509 443 237
510 4 114
511 169 336
512 200 178
513 412 453
514 121 151
515 403 93
516 399 301
517 97 387
518 176 8
519 62 326
520 151 207
521 299 98
522 334 240
523 92 270
524 444 269
525 132 223
526 428 25
527 413 421
528 382 498
529 391 429
530 398 97
531 192 265
532 438 26
533 44 79
534 137 290
535 446 319
536 175 487
537 26 45
538 147 435
539 111 459
540 472 132
541 349 158
542 86 268
543 415 216
544 121 218
545 210 185
546 98 215
547 484 174
548 328 458
549 313 126
550 390 415
551 459 17
552 481 124
553 386 414
554 116 466
555 468 295
556 391 426
557 408 279
558 15 68
559 392 424
560 88 95
561 116 151
562 240 250
563 123 159
564 89 290
565 39 50
566 359 179
567 338 257
568 92 236
569 413 417
570 91 101
571 55 449
572 57 425
573 465 287
574 320 280
575 322 468
576 483 458
577 312 267
578 139 291
579 388 408
580 110 459
581 459 372
582 204 269
583 407 98
584 335 256
585 471 484
586 339 244
587 89 272
588 488 96
589 316 286
590 235 50
591 316 258
592 425 288
593 213 397
594 113 156
595 199 9
596 463 167
597 129 27
598 248 404
599 405 276
600 400 288
601 61 156
602 393 20
603 484 177
604 108 116
605 112 217
606 389 404
607 102 391
608 434 26
609 488 26
610 477 120
611 126 220
612 439 310
613 212 319
614 320 283
615 17 459
616 236 213
617 68 108
618 390 294
619 275 42
620 423 214
621 460 367
622 272 402
623 478 102
624 400 260
625 181 6
626 470 475
627 245 408
628 93 96
629 218 318
630 441 265
631 21 64
632 356 23
633 267 44
634 277 50
635 182 4
636 26 36
637 384 491
638 418 290
639 321 277
640 358 16
641 389 334
642 48 78
643 24 68
644 206 225
645 290 141
646 439 15
647 359 182
648 413 287
649 230 49
650 407 280
651 459 295
652 468 199
653 101 384
654 170 26
655 197 270
656 415 289
657 203 390
658 443 272
659 210 391
660 363 22
661 352 176
662 212 223
663 8 120
664 244 250
665 18 484
666 379 82
667 84 346
668 233 207
669 344 62
670 20 489
671 361 181
672 174 494
673 49 76
674 390 325
675 7 118
676 107 26
677 312 270
678 399 102
679 109 108
680 115 218
681 88 287
682 54 424
683 125 32
684 199 12
685 457 374
686 391 413
687 304 102
688 391 293
689 66 336
690 132 291
691 18 462
692 347 62
693 466 142
694 389 17
695 342 254
696 92 223
697 404 83
698 290 46
699 95 92
700 200 265
701 435 16
702 25 499
703 319 260
704 116 225
705 402 284
706 108 105
707 386 13
708 472 129
709 132 57
710 43 71
711 493 91
712 12 451
713 201 188
714 60 428
715 243 248
716 230 197
717 389 11
718 401 281
719 459 14
720 411 95
721 0 297
722 476 196
723 458 16
724 92 230
725 432 24
726 215 317
727 371 192
728 481 20
729 152 207
730 14 459
731 361 17
732 8 497
733 206 186
734 421 218
735 402 264
736 388 325
737 35 304
738 321 263
739 444 313
740 188 462
741 400 103
742 418 221
743 112 219
744 408 452
745 30 301
746 205 228
747 407 88
748 380 489
749 395 331
750 133 26
751 21 68
752 313 282
753 53 440
754 458 130
755 437 15
756 400 286
757 346 144
758 440 244
759 280 162
760 488 173
761 326 118
762 207 400
763 391 18
764 37 55
765 204 15
766 173 28
767 343 148
768 231 43
769 445 273
770 432 27
771 439 305
772 208 396
773 249 407
774 107 112
775 279 159
776 376 494
777 403 262
778 41 47
779 96 213
780 461 167
781 391 99
782 116 221
783 165 343
784 388 334
785 130 57
786 422 409
787 66 156
788 485 86
789 389 428
790 117 467
791 475 477
792 429 27
793 339 60
794 381 494
795 218 321
796 64 101
797 343 254
798 478 464
799 423 286
800 198 9
801 225 196
802 374 190
803 462 14
804 347 54
805 231 195
806 72 96
807 489 87
808 443 313
809 233 204
810 477 483
811 459 368
812 95 277
813 16 460
814 100 266
815 288 53
816 211 386
817 144 439
818 224 314
819 79 291
820 95 235
821 7 123
822 91 217
823 105 27
824 101 385
825 238 210
826 439 67
827 435 267
828 443 64
829 92 234
830 450 265
831 102 27
832 492 94
833 440 63
834 453 367
835 15 69
836 489 17
837 335 255
838 419 418
839 292 41
840 489 27
841 96 270
842 461 369
843 105 22
844 479 121
845 207 223
846 17 458
847 186 7
848 465 168
849 416 288
850 388 418
851 92 233
852 179 492
853 132 55
854 485 24
855 388 331
856 217 323
857 281 164
858 169 340
859 491 20
860 279 42
861 439 243
862 391 334
863 96 244
864 441 273
865 477 478
866 56 434
867 12 463
868 458 164
869 446 65
870 71 156
871 65 153
872 8 118
873 102 29
874 315 265
875 343 62
876 384 16
877 67 105
878 478 118
879 73 101
880 200 14
881 114 225
882 460 293
883 51 447
884 418 295
885 282 139
886 477 122
887 91 266
888 16 463
889 228 199
890 435 20
891 467 195
892 469 132
893 465 136
894 246 255
895 49 75
896 66 98
897 166 32
898 326 466
899 202 186
900 467 285
901 290 136
902 341 58
903 121 219
904 107 35
905 216 319
906 134 288
907 89 270
908 136 52
909 462 167
910 340 54
911 80 286
912 38 301
913 25 307
914 470 139
915 270 400
916 204 187
917 460 171
918 399 106
919 197 267
920 77 350
921 91 231
922 398 103
923 35 303
924 231 204
925 311 266
926 416 420
927 231 203
928 4 116
929 417 217
930 268 52
931 345 144
932 368 85
933 441 65
934 201 270
935 0 293
936 167 24
937 186 464
938 7 292
939 80 290
940 405 455
941 439 312
942 300 108
943 478 121
944 92 232
945 111 463
946 132 294
947 134 285
948 316 284
949 56 428
950 232 47
951 466 291
952 341 257
953 420 213
954 116 152
955 163 337
956 440 7
957 208 222
958 485 95
959 97 385
960 462 367
961 455 365
962 492 95
963 405 450
964 371 193
965 234 202
966 404 103
967 24 41
968 67 334
969 207 227
970 277 403
971 15 457
972 217 319
973 111 467
974 378 493
975 112 465
976 173 25
977 421 292
978 74 146
979 178 491
980 204 185
981 319 470
982 163 331
983 470 125
984 315 121
985 166 34
986 284 140
987 85 288
988 376 190
989 238 203
990 399 104
991 472 481
992 46 74
993 401 255
994 475 480
995 485 27
996 476 174
997 330 242
998 332 249
999 375 80
1000 94 235
1001 287 144
1002 428 24
1003 22 38
1004 25 65
1005 435 20
1006 121 151
1007 492 94
1008 56 434
1009 8 120
1010 386 13
1011 476 94
1012 440 63
1013 102 29
1014 315 260
1015 220 392
1016 6 296
1017 108 105
1018 463 140
1019 71 103
1020 367 83
1021 418 218
1022 392 424
1023 233 204
1024 460 171
1025 125 39
1026 466 291
1027 147 435
1028 483 458
1029 328 466
1030 317 123
1031 283 47
1032 442 310
1033 94 383
1034 287 144
1035 476 196
1036 208 11
1037 119 223
1038 338 147
1039 121 219
1040 95 218
1041 250 411
1042 403 262
1043 116 152
1044 244 250
1045 95 277
1046 146 205
1047 162 336
1048 459 372
1049 406 285
1050 189 464
1051 288 154
1052 361 14
1053 197 267
PICKUP_AND_DELIVERY_SECTION
1 0 0 1824 0 0 0
2 -10 144 390 90 639 0
3 -10 857 1116 90 721 0
4 20 141 298 90 0 588
5 -10 261 497 90 381 0
6 20 434 693 90 0 287
7 10 226 417 90 0 269
8 -30 534 805 90 347 0
9 10 399 658 90 0 822
10 30 431 694 90 0 906
11 20 400 655 90 0 650
12 30 290 534 90 0 652
13 30 837 1057 90 0 930
14 10 434 648 90 0 79
15 20 463 706 90 0 646
16 20 898 1106 0 0 1021
17 -10 665 909 90 665 0
18 20 393 549 90 0 190
19 10 642 857 90 0 28
20 -20 980 1321 90 296 0
21 -10 450 712 90 578 0
22 -20 698 970 90 599 0
23 -20 545 771 90 499 0
24 -20 653 907 90 395 0
25 10 888 1086 90 0 569
26 -20 646 894 90 901 0
27 20 655 871 90 0 341
28 -10 609 864 90 19 0
29 20 269 545 90 0 189
30 -10 593 904 90 158 0
31 10 255 531 90 0 137
32 20 590 789 90 0 277
33 10 155 362 90 0 358
34 10 273 533 90 0 210
35 20 309 500 90 0 947
36 10 259 461 90 0 371
37 10 5 246 90 0 464
38 -20 575 796 90 205 0
39 20 196 377 90 0 193
40 -10 417 565 90 955 0
41 20 191 423 90 0 611
42 -20 763 996 90 802 0
43 -20 1065 1299 90 876 0
44 -30 1146 1345 90 994 0
45 10 196 385 90 0 226
46 10 347 644 90 0 303
47 -20 549 797 90 330 0
48 -20 531 794 90 512 0
49 -20 479 737 90 985 0
50 30 393 633 90 0 491
51 10 340 575 90 0 904
52 10 412 676 90 0 221
53 20 139 328 90 0 60
54 30 959 1201 90 0 63
55 10 285 554 90 0 532
56 20 867 1153 90 0 884
57 -10 1047 1283 90 685 0
58 -10 303 565 90 969 0
59 20 917 1154 90 0 291
60 -20 876 1087 90 53 0
61 10 584 796 90 0 810
62 10 450 753 90 0 745
63 -30 1056 1286 90 54 0
64 20 359 600 90 0 367
65 40 620 900 90 0 590
66 -20 824 1059 90 474 0
67 30 154 366 90 0 492
68 -10 813 1082 90 428 0
69 -10 482 693 90 786 0
70 20 87 315 90 0 695
71 10 225 432 90 0 497
72 -10 1122 1390 90 542 0
73 30 77 362 90 0 338
74 10 938 1249 90 0 742
75 -20 386 627 90 482 0
76 -20 889 1116 90 351 0
77 20 249 546 90 0 640
78 30 173 420 90 0 91
79 -10 529 738 90 14 0
80 30 325 540 90 0 388
81 -10 810 1070 90 558 0
82 -20 263 522 90 107 0
83 -20 1145 1362 90 400 0
84 -20 1098 1428 90 122 0
85 20 224 445 90 0 909
86 -10 738 993 90 290 0
87 20 780 1016 90 0 486
88 10 87 299 90 0 849
89 -20 760 1042 90 632 0
90 20 505 809 90 0 519
91 -30 460 690 90 78 0
92 20 398 681 90 0 97
93 -30 250 489 90 329 0
94 10 449 645 90 0 204
95 30 486 774 90 0 844
96 10 290 537 90 0 216
97 -20 512 750 90 92 0
98 -10 817 1052 90 318 0
99 -10 1036 1288 90 504 0
100 20 346 522 0 0 1049
101 -20 568 807 90 719 0
102 10 845 1019 90 0 827
103 -10 384 662 90 938 0
104 -10 305 569 90 790 0
105 20 416 619 90 0 133
106 10 696 987 90 0 920
107 20 208 407 90 0 82
108 -40 340 517 90 624 0
109 10 270 485 90 0 694
110 20 131 268 90 0 729
111 -20 965 1206 90 717 0
112 20 331 558 90 0 552
113 -20 434 695 90 509 0
114 -10 748 978 90 258 0
115 10 679 895 90 0 896
116 20 250 444 90 0 553
117 10 148 425 90 0 841
118 10 541 780 90 0 638
119 -30 563 824 90 211 0
120 -20 476 710 90 184 0
121 20 326 596 90 0 478
122 20 384 589 90 0 84
123 20 198 424 90 0 462
124 -10 908 1120 90 513 0
125 -30 531 818 90 159 0
126 20 123 366 0 0 1047
127 -10 676 925 90 182 0
128 -20 250 471 90 383 0
129 -10 941 1171 90 902 0
130 -20 319 548 90 546 0
131 20 73 315 90 0 905
132 -10 434 619 90 292 0
133 -20 446 777 90 105 0
134 -40 506 705 90 176 0
135 -10 696 929 90 672 0
136 20 801 1072 90 0 233
137 -10 353 622 90 31 0
138 -20 372 586 90 152 0
139 -20 741 975 90 946 0
140 40 302 597 90 0 792
141 -30 932 1223 90 582 0
142 10 613 849 90 0 240
143 -30 634 871 90 959 0
144 -20 359 677 90 616 0
145 10 239 480 0 0 1018
146 20 639 905 90 0 166
147 -10 1086 1289 90 933 0
148 -10 884 1149 90 528 0
149 10 159 369 90 0 617
150 -10 275 537 90 426 0
151 -10 726 886 90 228 0
152 20 280 497 90 0 138
153 -20 343 599 90 337 0
154 -10 903 1119 90 175 0
155 -10 517 748 90 826 0
156 20 63 326 90 0 756
157 20 1226 1473 0 0 1036
158 10 517 795 90 0 30
159 30 211 424 90 0 125
160 -20 884 1092 90 419 0
161 -20 845 1081 90 386 0
162 10 1025 1303 90 0 863
163 -20 518 715 90 735 0
164 20 561 776 90 0 666
165 30 271 496 90 0 243
166 -20 808 1119 90 146 0
167 -20 401 625 90 232 0
168 10 165 454 90 0 543
169 -20 502 737 90 762 0
170 -10 911 1036 90 505 0
171 10 449 651 90 0 217
172 -30 954 1235 90 271 0
173 -20 637 917 90 628 0
174 30 203 499 0 0 1020
175 10 778 1021 90 0 154
176 40 233 479 90 0 134
177 -10 1014 1216 90 365 0
178 20 556 766 90 0 725
179 10 829 1016 90 0 238
180 10 540 753 90 0 754
181 10 720 1012 90 0 188
182 10 250 425 90 0 127
183 20 273 532 90 0 471
184 20 2 279 90 0 120
185 20 297 569 90 0 755
186 -20 1058 1326 90 270 0
187 -20 920 1149 90 396 0
188 -10 924 1194 90 181 0
189 -20 418 687 90 29 0
190 -20 740 914 90 18 0
191 10 266 439 90 0 460
192 -30 338 585 90 219 0
193 -20 761 951 90 39 0
194 20 453 737 90 0 647
195 30 219 486 90 0 693
196 20 617 890 90 0 763
197 -10 782 1069 90 466 0
198 20 292 479 90 0 215
199 -10 565 768 90 950 0
200 -20 559 681 90 591 0
201 20 314 555 90 0 635
202 10 691 921 90 0 455
203 30 720 1033 0 0 1029
204 -10 527 762 90 94 0
205 20 481 706 90 0 38
206 -20 871 1064 90 301 0
207 -20 687 834 90 452 0
208 -20 867 1070 90 457 0
209 -30 220 467 90 659 0
210 -10 317 599 90 34 0
211 30 372 643 90 0 119
212 10 109 381 90 0 805
213 20 205 399 90 0 422
214 -10 404 646 90 970 0
215 -20 468 676 90 198 0
216 -10 648 860 90 96 0
217 -10 605 870 90 171 0
218 -10 977 1180 90 527 0
219 30 90 377 90 0 192
220 30 330 584 90 0 241
221 -10 794 1042 90 52 0
222 -20 1292 1502 90 861 0
223 -20 445 667 90 407 0
224 -20 782 997 90 926 0
225 10 87 414 0 0 1014
226 -10 939 1146 90 45 0
227 20 336 531 90 0 979
228 10 648 765 90 0 151
229 20 208 464 90 0 567
230 10 609 815 0 0 1052
231 -20 768 991 90 242 0
232 20 142 327 90 0 167
233 -20 1184 1414 90 136 0
234 -10 901 1204 90 488 0
235 20 1259 1503 0 0 1019
236 -30 499 738 90 683 0
237 10 919 1143 0 0 1004
238 -10 917 1119 90 179 0
239 40 148 409 90 0 598
240 -10 678 974 90 142 0
241 -30 478 814 90 220 0
242 20 700 875 90 0 231
243 -30 302 614 90 165 0
244 -30 497 753 90 687 0
245 20 290 543 90 0 485
246 20 592 882 90 0 748
247 10 244 433 90 0 921
248 -10 632 906 90 636 0
249 -10 1010 1244 90 331 0
250 -10 252 538 90 534 0
251 -20 189 399 90 436 0
252 20 512 723 90 0 253
253 -20 728 887 90 252 0
254 10 480 727 90 0 393
255 10 236 514 90 0 718
256 10 215 400 90 0 424
257 10 564 794 90 0 858
258 10 305 575 90 0 114
259 -20 242 522 90 824 0
260 -20 414 756 90 793 0
261 -10 721 899 90 472 0
262 20 580 767 90 0 815
263 -10 270 502 90 634 0
264 -20 763 989 90 671 0
265 -10 1016 1233 90 835 0
266 10 720 1070 0 0 1016
267 -10 823 1061 90 627 0
268 30 237 495 90 0 838
269 -10 228 478 90 7 0
270 20 634 870 90 0 186
271 30 871 1133 90 0 172
272 -20 553 771 90 382 0
273 20 212 460 90 0 549
274 -10 777 1034 90 758 0
275 -20 641 922 90 391 0
276 -10 689 942 90 883 0
277 -20 670 895 90 32 0
278 -10 459 741 90 989 0
279 20 91 246 90 0 908
280 -30 488 704 90 727 0
281 -20 1022 1283 90 791 0
282 -20 768 1026 90 816 0
283 30 289 517 90 0 299
284 -20 1180 1425 90 868 0
285 -20 1031 1279 90 673 0
286 20 193 328 90 0 475
287 -20 553 833 90 6 0
288 20 211 463 90 0 773
289 10 558 838 90 0 836
290 10 386 606 90 0 86
291 -20 1093 1288 90 59 0
292 10 265 418 90 0 132
293 10 640 919 90 0 747
294 20 166 401 90 0 470
295 40 139 358 90 0 541
296 20 653 892 90 0 20
297 -10 683 925 90 378 0
298 -30 983 1194 90 779 0
299 -30 375 622 90 283 0
300 20 237 456 90 0 760
301 20 303 501 90 0 206
302 20 289 583 90 0 778
303 -10 822 1099 90 46 0
304 -20 250 455 90 536 0
305 -10 649 935 90 811 0
306 40 159 442 90 0 521
307 10 135 446 0 0 1038
308 20 577 836 90 0 677
309 20 280 455 90 0 916
310 20 220 466 90 0 891
311 -20 1277 1452 90 751 0
312 -10 641 870 90 439 0
313 20 315 557 90 0 703
314 10 231 494 90 0 796
315 20 570 772 0 0 1032
316 -10 701 982 90 689 0
317 20 246 527 90 0 679
318 10 334 613 90 0 98
319 -10 524 802 90 958 0
320 -10 529 830 90 942 0
321 -30 462 674 90 565 0
322 -10 300 565 90 761 0
323 20 218 410 90 0 533
324 20 274 499 0 0 1011
325 10 287 505 0 0 1031
326 30 675 941 90 0 674
327 20 397 596 90 0 335
328 20 611 830 90 0 349
329 30 245 466 90 0 93
330 20 194 410 90 0 47
331 10 905 1161 90 0 249
332 10 410 651 90 0 580
333 20 379 625 90 0 937
334 -30 430 623 90 387 0
335 -20 457 723 90 327 0
336 20 181 471 90 0 369
337 20 186 408 90 0 153
338 -30 215 489 90 73 0
339 -30 740 1017 90 373 0
340 20 372 686 90 0 458
341 -20 860 1065 90 27 0
342 -20 806 1075 90 379 0
343 -10 768 983 90 556 0
344 -20 390 635 90 767 0
345 10 455 758 90 0 800
346 20 453 744 90 0 740
347 30 375 596 90 0 8
348 -30 1086 1375 90 537 0
349 -20 666 958 90 328 0
350 -30 706 952 90 493 0
351 20 284 548 90 0 76
352 20 245 509 0 0 1025
353 -30 278 518 90 978 0
354 20 434 617 0 0 1030
355 -10 576 812 90 850 0
356 -40 789 974 90 716 0
357 10 201 376 90 0 394
358 -10 328 546 90 33 0
359 -10 875 1083 90 852 0
360 -10 243 429 90 668 0
361 10 536 787 90 0 764
362 -20 870 1097 90 728 0
363 -10 152 387 90 915 0
364 30 307 534 90 0 798
365 10 270 582 90 0 177
366 20 236 500 90 0 399
367 -20 643 885 90 64 0
368 10 997 1278 90 0 501
369 -20 285 554 90 336 0
370 10 457 708 90 0 698
371 -10 616 831 90 36 0
372 30 211 446 90 0 899
373 30 604 876 90 0 339
374 10 307 540 90 0 893
375 -10 1077 1276 90 594 0
376 20 979 1183 90 0 702
377 -40 849 1158 90 657 0
378 10 597 820 90 0 297
379 20 611 835 90 0 342
380 10 998 1247 0 0 1002
381 10 193 521 90 0 5
382 20 395 742 90 0 272
383 20 231 537 90 0 128
384 20 796 1003 0 0 1040
385 30 321 471 90 0 859
386 20 384 592 90 0 161
387 30 210 406 90 0 334
388 -30 1159 1406 90 80 0
389 30 143 392 90 0 984
390 -30 763 937 90 774 0
391 20 207 387 90 0 275
392 20 867 1118 0 0 1015
393 -10 906 1142 90 254 0
394 -10 323 624 90 357 0
395 20 121 336 90 0 24
396 20 537 796 90 0 187
397 -20 666 967 90 620 0
398 -10 682 941 90 744 0
399 -20 614 880 90 366 0
400 20 972 1170 90 0 83
401 10 407 719 90 0 753
402 -20 861 1117 90 945 0
403 30 228 396 90 0 566
404 -20 313 538 90 712 0
405 -40 254 541 90 982 0
406 -30 696 916 90 500 0
407 20 271 581 90 0 223
408 20 276 586 90 0 935
409 -20 843 1079 90 888 0
410 10 778 985 0 0 1050
411 10 319 617 0 0 1051
412 20 166 436 90 0 913
413 -30 720 1004 90 817 0
414 20 520 844 90 0 615
415 20 703 866 90 0 803
416 20 217 484 90 0 604
417 10 973 1153 90 0 806
418 10 271 509 0 0 1046
419 20 768 1026 90 0 160
420 -20 451 652 90 661 0
421 20 534 765 90 0 874
422 -20 392 589 90 213 0
423 -10 672 940 90 975 0
424 -10 654 891 90 256 0
425 20 347 617 90 0 520
426 10 223 464 90 0 150
427 -20 589 808 90 684 0
428 10 717 991 90 0 68
429 -40 538 850 90 785 0
430 -10 768 1033 90 750 0
431 20 782 978 90 0 526
432 -20 927 1146 90 949 0
433 10 388 630 90 0 840
434 -10 886 1077 90 911 0
435 -20 970 1171 90 976 0
436 20 186 419 90 0 251
437 -10 1197 1356 90 490 0
438 -10 275 530 90 583 0
439 10 424 695 90 0 312
440 30 593 853 90 0 752
441 10 483 754 90 0 940
442 10 124 314 90 0 696
443 -10 295 561 90 801 0
444 -10 441 712 90 579 0
445 -30 665 925 90 655 0
446 -20 853 941 90 625 0
447 10 605 843 90 0 734
448 -30 1113 1412 90 609 0
449 -10 944 1149 90 967 0
450 20 240 489 90 0 547
451 20 677 985 90 0 610
452 20 206 411 90 0 207
453 20 854 1055 0 0 1003
454 -10 986 1247 90 848 0
455 -10 986 1193 90 202 0
456 -10 599 826 90 622 0
457 20 282 527 90 0 208
458 -20 505 736 90 340 0
459 -30 228 490 90 600 0
460 -10 594 869 90 191 0
461 -20 406 615 90 545 0
462 -20 480 660 90 123 0
463 20 391 600 90 0 570
464 -10 308 560 90 37 0
465 10 682 929 90 0 818
466 10 712 952 90 0 197
467 -30 346 658 90 988 0
468 20 301 564 90 0 731
469 -10 663 889 90 596 0
470 -20 1139 1420 90 294 0
471 -20 326 583 90 183 0
472 10 608 823 90 0 261
473 30 266 497 90 0 968
474 20 105 281 90 0 66
475 -20 536 777 90 286 0
476 10 411 643 90 0 597
477 10 222 489 90 0 550
478 -20 512 801 90 121 0
479 -30 261 485 90 759 0
480 20 219 480 90 0 720
481 20 800 966 90 0 834
482 20 322 504 90 0 75
483 10 313 570 90 0 865
484 10 288 538 90 0 770
485 -20 641 945 90 245 0
486 -20 870 1118 90 87 0
487 -20 305 563 90 963 0
488 10 213 441 90 0 234
489 20 53 237 90 0 654
490 10 480 730 90 0 437
491 -30 548 845 90 50 0
492 -30 486 756 90 67 0
493 30 272 474 90 0 350
494 10 750 1009 0 0 1037
495 10 523 672 90 0 686
496 -20 419 688 90 837 0
497 -10 326 515 90 71 0
498 30 404 618 90 0 766
499 20 379 555 90 0 23
500 30 635 786 90 0 406
501 -10 1223 1425 90 368 0
502 10 321 528 90 0 595
503 -30 323 601 90 821 0
504 10 836 1118 90 0 99
505 10 181 471 90 0 170
506 10 590 732 0 0 1033
507 30 374 672 0 0 1041
508 -10 946 1209 90 892 0
509 20 193 375 90 0 113
510 10 614 867 90 0 872
511 -10 742 988 90 783 0
512 20 172 365 90 0 48
513 10 624 801 90 0 124
514 20 971 1192 0 0 1006
515 -30 1050 1261 90 697 0
516 30 490 729 90 0 688
517 10 735 957 90 0 607
518 -20 908 1074 90 847 0
519 -20 799 1084 90 90 0
520 -20 675 845 90 425 0
521 -40 232 451 90 306 0
522 30 460 648 90 0 997
523 -20 877 1106 90 814 0
524 20 432 706 90 0 658
525 -20 760 985 90 704 0
526 -20 1106 1321 90 431 0
527 10 689 906 90 0 218
528 10 549 739 90 0 148
529 -20 400 600 90 789 0
530 10 212 411 90 0 741
531 -10 596 802 90 934 0
532 -10 360 591 90 55 0
533 -20 267 463 90 323 0
534 10 119 398 90 0 250
535 30 292 489 90 0 618
536 20 248 469 90 0 304
537 30 303 558 90 0 348
538 20 418 743 0 0 1027
539 -10 1066 1282 90 726 0
540 -10 656 936 90 914 0
541 -40 994 1149 90 295 0
542 10 597 827 90 0 72
543 -10 266 437 90 168 0
544 20 132 388 90 0 680
545 20 76 295 90 0 461
546 20 155 375 90 0 130
547 -20 376 664 90 450 0
548 -10 833 1116 90 981 0
549 -20 781 1016 90 273 0
550 -10 928 1205 90 477 0
551 -20 929 1203 90 723 0
552 -20 401 675 90 112 0
553 -20 997 1274 90 116 0
554 20 254 536 90 0 973
555 10 876 1046 90 0 882
556 10 684 885 90 0 343
557 -30 560 870 90 705 0
558 10 311 644 90 0 81
559 10 853 1081 0 0 1022
560 -20 522 848 90 699 0
561 -20 679 932 90 563 0
562 -30 237 508 90 715 0
563 20 156 457 90 0 561
564 20 165 457 90 0 819
565 30 370 582 90 0 321
566 -30 395 600 90 403 0
567 -20 609 876 90 229 0
568 -10 914 1232 90 939 0
569 -10 1027 1315 90 25 0
570 -20 728 1019 90 463 0
571 20 278 497 90 0 714
572 20 260 542 90 0 682
573 -20 483 690 90 900 0
574 10 134 386 90 0 614
575 20 466 735 90 0 898
576 10 539 825 0 0 1028
577 -20 804 999 90 952 0
578 10 118 458 90 0 21
579 10 289 497 90 0 444
580 -10 973 1192 90 332 0
581 20 580 819 0 0 1048
582 30 49 314 90 0 141
583 10 218 468 90 0 438
584 -30 827 1025 90 993 0
585 -30 473 716 90 626 0
586 -30 151 399 90 998 0
587 10 434 620 90 0 907
588 -20 829 1053 90 4 0
589 -20 499 765 90 948 0
590 -40 763 947 90 65 0
591 20 232 454 90 0 200
592 -20 513 760 90 977 0
593 -20 585 839 90 772 0
594 10 483 756 90 0 375
595 -10 799 965 90 502 0
596 10 561 804 90 0 469
597 -10 584 841 90 476 0
598 -40 154 432 90 239 0
599 20 678 941 90 0 22
600 30 154 400 90 0 459
601 30 364 631 90 0 870
602 -10 1059 1352 90 608 0
603 20 318 535 90 0 996
604 -20 813 1071 90 416 0
605 20 260 565 90 0 743
606 10 207 426 90 0 991
607 -10 1001 1259 90 517 0
608 10 462 676 90 0 602
609 30 1056 1280 90 0 448
610 -20 845 1150 90 451 0
611 -20 539 831 90 41 0
612 10 198 471 90 0 771
613 30 141 380 90 0 856
614 -10 324 567 90 574 0
615 -20 1112 1363 90 414 0
616 20 39 250 90 0 144
617 -10 230 468 90 149 0
618 -30 762 1023 90 535 0
619 30 458 687 90 0 633
620 20 558 705 90 0 397
621 20 326 516 90 0 960
622 10 216 454 90 0 456
623 10 617 862 90 0 878
624 40 150 393 90 0 108
625 20 577 853 90 0 446
626 30 314 548 90 0 585
627 10 472 765 90 0 267
628 20 317 483 90 0 173
629 20 777 1046 90 0 894
630 40 252 493 90 0 830
631 20 757 937 90 0 643
632 20 250 507 90 0 89
633 -30 555 786 90 619 0
634 10 210 375 90 0 263
635 -20 513 732 90 201 0
636 10 549 799 90 0 248
637 -10 807 1039 90 794 0
638 -10 1080 1314 90 118 0
639 10 75 261 90 0 2
640 -20 512 725 90 77 0
641 20 233 455 90 0 862
642 -20 901 1132 90 895 0
643 -20 1190 1428 90 631 0
644 10 334 516 90 0 845
645 -20 566 787 90 775 0
646 -20 559 798 90 15 0
647 -20 642 926 90 194 0
648 -20 1296 1469 90 651 0
649 20 201 415 90 0 768
650 -20 498 749 90 11 0
651 20 1110 1372 90 0 648
652 -30 584 814 90 12 0
653 30 200 476 90 0 667
654 -20 735 1037 90 489 0
655 30 374 648 90 0 445
656 20 169 437 90 0 799
657 40 232 436 90 0 377
658 -20 723 967 90 524 0
659 30 146 466 90 0 209
660 20 843 1146 90 0 875
661 20 126 328 90 0 420
662 -30 661 929 90 957 0
663 10 1095 1306 0 0 1009
664 10 47 327 0 0 1044
665 10 329 605 90 0 17
666 -20 751 960 90 164 0
667 -30 1042 1209 90 653 0
668 10 46 329 90 0 360
669 -10 1130 1352 90 692 0
670 10 757 999 90 0 732
671 20 599 785 90 0 264
672 10 382 675 90 0 135
673 20 794 1054 90 0 285
674 -30 770 1042 90 326 0
675 -10 913 1121 90 928 0
676 -30 437 660 90 843 0
677 -20 889 1101 90 308 0
678 -20 592 773 90 781 0
679 -20 345 610 90 317 0
680 -20 169 471 90 544 0
681 -20 798 1039 90 912 0
682 -20 262 575 90 572 0
683 30 298 570 90 0 236
684 20 398 633 90 0 427
685 10 864 1086 90 0 57
686 -10 920 1161 90 495 0
687 30 431 632 90 0 244
688 -30 685 916 90 516 0
689 10 623 873 90 0 316
690 10 668 866 90 0 700
691 -20 936 1170 90 867 0
692 10 1089 1207 90 0 669
693 -30 403 625 90 195 0
694 -10 930 1111 90 109 0
695 -20 136 409 90 70 0
696 -10 894 1096 90 442 0
697 30 755 992 90 0 515
698 -10 739 990 90 370 0
699 20 446 730 90 0 560
700 -10 729 1045 90 690 0
701 -20 762 963 90 956 0
702 -20 1048 1312 90 376 0
703 -20 412 643 90 313 0
704 20 683 889 90 0 525
705 30 229 450 90 0 557
706 20 202 414 0 0 1017
707 10 739 924 0 0 1010
708 -20 259 437 90 983 0
709 20 294 545 90 0 853
710 40 425 681 90 0 992
711 -20 442 698 90 788 0
712 20 311 554 90 0 404
713 10 411 697 90 0 980
714 -20 976 1220 90 571 0
715 30 150 408 90 0 562
716 40 513 721 90 0 356
717 20 610 867 90 0 111
718 -10 877 1115 90 255 0
719 20 315 510 90 0 101
720 -20 373 623 90 480 0
721 10 586 829 90 0 3
722 30 404 617 0 0 1035
723 20 313 462 90 0 551
724 -10 433 614 90 820 0
725 -20 925 1131 90 178 0
726 10 75 327 90 0 539
727 30 134 352 90 0 280
728 20 486 718 90 0 362
729 -20 727 974 90 110 0
730 20 422 759 90 0 813
731 -20 663 947 90 468 0
732 -10 834 1132 90 670 0
733 -10 826 1020 90 746 0
734 -10 820 999 90 447 0
735 20 152 435 90 0 163
736 -20 911 1085 90 749 0
737 -20 221 456 90 923 0
738 -20 632 791 90 797 0
739 -30 361 612 90 941 0
740 -20 662 917 90 346 0
741 -10 479 702 90 530 0
742 -10 1046 1327 90 74 0
743 -20 423 586 90 605 0
744 10 397 657 90 0 398
745 -10 581 804 90 62 0
746 10 50 274 90 0 733
747 -10 943 1176 90 293 0
748 -20 1012 1216 90 246 0
749 20 572 851 90 0 736
750 10 714 900 90 0 430
751 20 1091 1341 90 0 311
752 -30 708 928 90 440 0
753 -10 539 778 90 401 0
754 -10 1059 1290 90 180 0
755 -20 642 898 90 185 0
756 -20 154 416 90 156 0
757 -30 565 825 90 931 0
758 10 746 936 90 0 274
759 30 92 310 90 0 479
760 -20 512 716 90 300 0
761 10 152 343 90 0 322
762 20 412 640 90 0 169
763 -20 993 1233 90 196 0
764 -10 627 884 90 361 0
765 20 239 575 90 0 880
766 -30 1023 1302 90 498 0
767 20 297 543 90 0 344
768 -20 365 596 90 649 0
769 20 598 908 90 0 864
770 -10 753 936 90 484 0
771 -10 647 887 90 612 0
772 20 316 547 90 0 593
773 -20 356 502 90 288 0
774 30 614 901 90 0 390
775 20 132 421 90 0 645
776 30 274 481 90 0 974
777 30 404 637 0 0 1042
778 -20 291 494 90 302 0
779 30 209 472 90 0 298
780 -20 400 602 90 964 0
781 20 206 574 90 0 678
782 30 487 712 90 0 881
783 10 445 724 90 0 511
784 -20 161 394 90 855 0
785 40 227 459 90 0 429
786 10 234 482 90 0 69
787 -30 561 809 90 871 0
788 20 286 487 90 0 711
789 20 275 541 90 0 529
790 10 254 460 90 0 104
791 20 903 1217 90 0 281
792 -40 1179 1431 90 140 0
793 20 209 450 90 0 260
794 10 708 949 90 0 637
795 20 617 839 90 0 972
796 -10 594 797 90 314 0
797 20 226 502 90 0 738
798 -30 312 590 90 364 0
799 -20 323 583 90 656 0
800 -10 656 926 90 345 0
801 10 59 347 90 0 443
802 20 185 451 90 0 42
803 -20 900 1045 90 415 0
804 -10 762 979 90 910 0
805 -10 415 633 90 212 0
806 -10 1158 1341 90 417 0
807 20 319 630 90 0 962
808 -10 478 677 90 925 0
809 20 91 368 0 0 1023
810 -10 667 894 90 61 0
811 10 240 438 90 0 305
812 20 954 1224 0 0 1045
813 -20 1001 1290 90 730 0
814 20 150 413 90 0 523
815 -20 872 1050 90 262 0
816 20 141 357 90 0 282
817 30 655 877 90 0 413
818 -10 921 1279 90 465 0
819 -20 427 661 90 564 0
820 10 155 388 90 0 724
821 30 274 547 90 0 503
822 -10 607 823 90 9 0
823 10 509 772 90 0 831
824 20 201 423 90 0 259
825 -20 642 936 90 857 0
826 10 263 450 90 0 155
827 -10 1110 1325 90 102 0
828 -20 701 933 90 869 0
829 -20 797 982 90 987 0
830 -40 360 583 90 630 0
831 -10 717 931 90 823 0
832 10 625 886 0 0 1007
833 20 808 1012 0 0 1012
834 -20 961 1184 90 481 0
835 10 296 549 90 0 265
836 -10 689 901 90 289 0
837 20 85 378 90 0 496
838 -30 292 556 90 268 0
839 -40 625 913 90 860 0
840 -10 1001 1152 90 433 0
841 -10 214 461 90 117 0
842 -20 469 742 90 961 0
843 30 273 452 90 0 676
844 -30 592 853 90 95 0
845 -10 500 719 90 644 0
846 -20 1110 1422 90 971 0
847 20 391 664 90 0 518
848 10 740 998 90 0 454
849 -10 1151 1428 90 88 0
850 10 217 446 90 0 355
851 -10 691 907 90 887 0
852 10 590 839 90 0 359
853 -20 510 694 90 709 0
854 20 326 562 90 0 995
855 20 160 434 90 0 784
856 -30 330 566 90 613 0
857 20 91 375 90 0 825
858 -10 667 875 90 257 0
859 -30 786 991 90 385 0
860 40 210 428 90 0 839
861 20 1082 1335 90 0 222
862 -20 296 577 90 641 0
863 -10 1191 1521 90 162 0
864 -20 830 1045 90 769 0
865 -10 833 1101 90 483 0
866 20 797 1023 0 0 1008
867 20 686 865 90 0 691
868 20 297 515 90 0 284
869 20 408 675 90 0 828
870 -30 754 995 90 601 0
871 30 428 757 90 0 787
872 -10 1006 1211 90 510 0
873 30 793 1040 0 0 1013
874 -20 698 918 90 421 0
875 -20 1254 1410 90 660 0
876 20 817 1035 90 0 43
877 10 479 721 90 0 879
878 -10 984 1194 90 623 0
879 -10 1236 1453 90 877 0
880 -20 241 445 90 765 0
881 -30 587 801 90 782 0
882 -10 990 1308 90 555 0
883 10 343 596 90 0 276
884 -20 978 1225 90 56 0
885 -40 115 458 90 986 0
886 -40 818 993 90 943 0
887 10 672 943 90 0 851
888 20 776 964 90 0 409
889 10 577 842 90 0 924
890 20 839 1073 0 0 1005
891 -20 223 592 90 310 0
892 10 755 1023 90 0 508
893 -10 874 1096 90 374 0
894 -20 704 991 90 629 0
895 20 721 945 90 0 642
896 -10 853 1088 90 115 0
897 10 233 530 90 0 936
898 -20 634 936 90 575 0
899 -30 551 742 90 372 0
900 20 270 538 90 0 573
901 20 479 685 90 0 26
902 10 265 532 90 0 129
903 20 132 389 0 0 1039
904 -10 909 1118 90 51 0
905 -20 232 477 90 131 0
906 -30 821 1081 90 10 0
907 -10 510 728 90 587 0
908 -20 661 914 90 279 0
909 -20 447 736 90 85 0
910 10 347 638 90 0 804
911 10 507 770 90 0 434
912 20 652 929 90 0 681
913 -20 409 599 90 412 0
914 10 568 831 90 0 540
915 10 151 451 90 0 363
916 -20 735 925 90 309 0
917 30 869 1062 0 0 1024
918 -20 852 1062 90 966 0
919 10 504 704 0 0 1053
920 -10 920 1135 90 106 0
921 -10 462 768 90 247 0
922 30 650 896 90 0 990
923 20 221 408 90 0 737
924 -10 678 933 90 889 0
925 10 63 222 90 0 808
926 20 580 830 90 0 224
927 -10 183 461 90 965 0
928 10 544 752 90 0 675
929 30 319 568 90 0 953
930 -30 927 1155 90 13 0
931 30 475 734 90 0 757
932 30 202 456 90 0 999
933 10 307 586 90 0 147
934 10 52 306 90 0 531
935 -20 508 719 90 408 0
936 -10 601 804 90 897 0
937 -20 564 828 90 333 0
938 10 246 492 90 0 103
939 10 331 573 90 0 568
940 -10 796 1036 90 441 0
941 30 198 521 90 0 739
942 10 150 318 90 0 320
943 40 705 922 90 0 886
944 -20 288 575 90 1000 0
945 20 797 997 90 0 402
946 20 357 618 90 0 139
947 -20 1066 1207 90 35 0
948 20 424 655 90 0 589
949 20 323 574 90 0 432
950 10 203 387 90 0 199
951 10 543 819 0 0 1026
952 20 352 563 90 0 577
953 -30 432 645 90 929 0
954 20 589 839 0 0 1043
955 10 155 455 90 0 40
956 20 420 557 90 0 701
957 30 590 811 90 0 662
958 10 281 512 90 0 319
959 30 456 679 90 0 143
960 -20 415 611 90 621 0
961 20 235 476 90 0 842
962 -20 722 971 90 807 0
963 20 253 448 90 0 487
964 20 133 373 90 0 780
965 10 279 550 90 0 927
966 20 358 636 90 0 918
967 10 441 716 90 0 449
968 -30 422 710 90 473 0
969 10 48 328 90 0 58
970 10 320 539 90 0 214
971 20 365 631 90 0 846
972 -20 681 959 90 795 0
973 -20 515 728 90 554 0
974 -30 335 578 90 776 0
975 10 592 836 90 0 423
976 20 881 1077 90 0 435
977 20 176 456 90 0 592
978 30 204 534 90 0 353
979 -20 494 752 90 227 0
980 -10 630 846 90 713 0
981 10 260 565 90 0 548
982 40 118 338 90 0 405
983 20 253 501 90 0 708
984 -30 473 764 90 389 0
985 20 231 508 90 0 49
986 40 115 326 90 0 885
987 20 211 504 90 0 829
988 30 295 526 90 0 467
989 10 377 641 90 0 278
990 -30 743 987 90 922 0
991 -10 338 665 90 606 0
992 -40 507 788 90 710 0
993 30 608 814 90 0 584
994 30 745 1003 90 0 44
995 -20 1137 1385 90 854 0
996 -20 797 1001 90 603 0
997 -30 525 772 90 522 0
998 30 82 328 90 0 586
999 -30 447 701 90 932 0
1000 20 156 362 90 0 944
1001 20 753 969 0 0 1034
1002 -10 998 1247 90 380 0
1003 -20 854 1055 90 453 0
1004 -10 919 1143 90 237 0
1005 -20 839 1073 90 890 0
1006 -20 971 1192 90 514 0
1007 -10 625 886 90 832 0
1008 -20 797 1023 90 866 0
1009 -10 1095 1306 90 663 0
1010 -10 739 924 90 707 0
1011 -20 274 499 90 324 0
1012 -20 808 1012 90 833 0
1013 -30 793 1040 90 873 0
1014 -10 87 414 90 225 0
1015 -20 867 1118 90 392 0
1016 -10 720 1070 90 266 0
1017 -20 202 414 90 706 0
1018 -10 239 480 90 145 0
1019 -20 1259 1503 90 235 0
1020 -30 203 499 90 174 0
1021 -20 898 1106 90 16 0
1022 -10 853 1081 90 559 0
1023 -20 91 368 90 809 0
1024 -30 869 1062 90 917 0
1025 -20 245 509 90 352 0
1026 -10 543 819 90 951 0
1027 -20 418 743 90 538 0
1028 -10 539 825 90 576 0
1029 -30 720 1033 90 203 0
1030 -20 434 617 90 354 0
1031 -10 287 505 90 325 0
1032 -20 570 772 90 315 0
1033 -10 590 732 90 506 0
1034 -20 753 969 90 1001 0
1035 -30 404 617 90 722 0
1036 -20 1226 1473 90 157 0
1037 -10 750 1009 90 494 0
1038 -10 135 446 90 307 0
1039 -20 132 389 90 903 0
1040 -20 796 1003 90 384 0
1041 -30 374 672 90 507 0
1042 -30 404 637 90 777 0
1043 -20 589 839 90 954 0
1044 -10 47 327 90 664 0
1045 -20 954 1224 90 812 0
1046 -10 271 509 90 418 0
1047 -20 123 366 90 126 0
1048 -20 580 819 90 581 0
1049 -20 346 522 90 100 0
1050 -10 778 985 90 410 0
1051 -10 319 617 90 411 0
1052 -10 609 815 90 230 0
1053 -10 504 704 90 919 0
DEPOT_SECTION
1
-1
EOF
