NAME: lc2_10_10
TYPE: PDPTW
COMMENT: Li & Lim PDPTW benchmark converted from SINTEF format
DIMENSION: 1009
VEHICLES: 250
CAPACITY: 700
EDGE_WEIGHT_TYPE: EUC_2D
NODE_COORD_SECTION
1 250 250
2 212 101
3 266 231
4 89 284
5 430 298
6 435 77
7 25 293
8 43 269
9 216 117
10 294 437
11 79 479
12 365 18
13 225 125
14 448 103
15 143 266
16 252 347
17 403 390
18 67 153
19 90 168
20 302 235
21 259 355
22 149 183
23 19 297
24 209 358
25 56 388
26 115 269
27 377 356
28 113 229
29 205 343
30 48 137
31 467 157
32 220 394
33 436 54
34 54 357
35 456 154
36 216 307
37 280 224
38 90 270
39 166 452
40 17 283
41 196 192
42 94 275
43 292 445
44 329 471
45 326 57
46 95 466
47 429 282
48 229 364
49 457 160
50 452 154
51 113 289
52 67 387
53 368 17
54 341 367
55 410 364
56 80 281
57 321 224
58 73 395
59 259 76
60 121 203
61 118 256
62 236 361
63 78 371
64 301 53
65 382 197
66 491 160
67 453 164
68 277 371
69 272 212
70 386 218
71 353 32
72 59 389
73 414 62
74 278 357
75 101 179
76 396 234
77 74 390
78 332 55
79 272 365
80 418 355
81 216 380
82 440 173
83 89 358
84 66 491
85 317 234
86 439 297
87 394 367
88 58 364
89 290 75
90 346 344
91 131 269
92 236 96
93 29 282
94 418 385
95 148 225
96 166 464
97 266 373
98 201 273
99 255 245
100 220 379
101 85 317
102 125 264
103 131 253
104 184 188
105 128 209
106 373 364
107 389 342
108 420 20
109 132 218
110 32 256
111 406 339
112 191 397
113 72 341
114 35 308
115 169 360
116 222 381
117 96 292
118 311 496
119 220 384
120 259 243
121 349 476
122 63 159
123 112 243
124 448 302
125 343 27
126 67 485
127 220 359
128 147 435
129 317 235
130 43 355
131 368 340
132 450 72
133 400 364
134 355 480
135 450 153
136 126 188
137 380 223
138 71 453
139 54 287
140 420 168
141 219 89
142 189 327
143 191 309
144 301 67
145 484 161
146 77 483
147 241 375
148 428 64
149 403 361
150 257 336
151 131 241
152 63 166
153 71 368
154 272 228
155 25 290
156 441 157
157 13 266
158 251 376
159 61 170
160 386 357
161 95 475
162 90 298
163 71 388
164 383 246
165 352 38
166 395 1
167 120 210
168 46 383
169 202 198
170 358 365
171 191 352
172 470 152
173 228 124
174 402 230
175 323 229
176 331 486
177 112 208
178 172 435
179 326 498
180 460 183
181 95 279
182 76 456
183 242 350
184 152 196
185 268 351
186 360 356
187 39 296
188 262 368
189 204 90
190 149 273
191 446 86
192 139 269
193 483 170
194 39 278
195 201 307
196 395 378
197 139 262
198 176 447
199 67 380
200 35 358
201 294 455
202 351 33
203 216 316
204 261 96
205 238 57
206 383 18
207 152 460
208 94 479
209 337 453
210 135 460
211 260 104
212 337 63
213 32 247
214 394 205
215 95 294
216 253 241
217 223 90
218 64 473
219 275 431
220 261 84
221 176 296
222 361 349
223 168 433
224 394 10
225 308 60
226 94 456
227 73 484
228 277 434
229 119 232
230 78 375
231 366 346
232 125 181
233 69 493
234 432 80
235 72 391
236 85 486
237 204 371
238 173 328
239 280 423
240 200 327
241 241 98
242 96 356
243 332 491
244 81 283
245 373 22
246 255 371
247 358 359
248 216 93
249 73 360
250 305 212
251 151 462
252 47 389
253 155 198
254 152 457
255 329 48
256 88 394
257 153 295
258 81 373
259 163 453
260 378 25
261 401 385
262 184 340
263 402 362
264 70 482
265 357 445
266 212 71
267 231 81
268 379 208
269 236 95
270 386 344
271 189 200
272 296 253
273 73 303
274 30 162
275 230 95
276 57 131
277 379 245
278 107 221
279 154 458
280 290 417
281 272 243
282 94 130
283 222 356
284 243 108
285 224 93
286 155 242
287 440 302
288 221 102
289 52 484
290 111 244
291 132 273
292 228 186
293 221 374
294 406 286
295 390 9
296 335 52
297 189 368
298 397 40
299 408 305
300 156 434
301 180 335
302 327 483
303 363 62
304 375 342
305 16 280
306 277 431
307 110 241
308 48 385
309 152 260
310 255 120
311 214 382
312 414 384
313 232 378
314 80 141
315 188 330
316 157 192
317 101 237
318 74 360
319 267 260
320 378 46
321 420 311
322 384 217
323 418 300
324 356 77
325 253 244
326 323 258
327 293 454
328 231 97
329 316 234
330 207 196
331 321 228
332 382 17
333 206 326
334 198 284
335 137 186
336 229 396
337 268 235
338 95 243
339 297 430
340 393 368
341 66 391
342 189 339
343 280 351
344 241 77
345 134 265
346 420 95
347 111 279
348 367 358
349 239 373
350 384 235
351 284 360
352 325 75
353 279 369
354 340 449
355 275 448
356 447 88
357 314 279
358 434 377
359 67 377
360 370 353
361 57 367
362 332 486
363 386 361
364 55 282
365 317 467
366 335 54
367 348 466
368 132 314
369 328 216
370 416 48
371 370 55
372 149 434
373 466 169
374 141 267
375 258 350
376 428 312
377 211 188
378 50 343
379 107 311
380 178 441
381 232 85
382 391 23
383 137 227
384 161 203
385 363 212
386 384 346
387 166 434
388 274 248
389 156 421
390 346 211
391 265 358
392 96 407
393 443 70
394 125 212
395 361 337
396 322 78
397 481 156
398 188 293
399 76 408
400 130 304
401 378 363
402 185 301
403 385 235
404 261 350
405 389 33
406 151 214
407 265 94
408 65 164
409 293 81
410 363 55
411 465 176
412 428 298
413 75 379
414 404 378
415 203 203
416 259 88
417 362 17
418 320 258
419 59 358
420 316 453
421 225 192
422 140 206
423 83 151
424 366 196
425 108 245
426 129 267
427 57 379
428 329 56
429 213 363
430 76 391
431 330 259
432 136 217
433 165 333
434 160 431
435 338 489
436 335 64
437 412 361
438 259 90
439 265 77
440 460 173
441 83 301
442 201 331
443 118 214
444 395 30
445 125 444
446 283 248
447 391 334
448 212 215
449 276 428
450 96 152
451 425 85
452 336 7
453 196 219
454 210 94
455 310 81
456 341 37
457 344 478
458 406 37
459 69 346
460 80 376
461 314 449
462 209 201
463 88 379
464 352 500
465 65 357
466 345 15
467 125 245
468 52 369
469 449 140
470 430 310
471 109 325
472 446 139
473 229 214
474 197 301
475 146 245
476 401 368
477 116 259
478 374 55
479 249 251
480 325 490
481 59 159
482 186 177
483 319 229
484 26 269
485 53 139
486 471 154
487 301 247
488 388 220
489 235 81
490 347 479
491 367 59
492 261 370
493 441 287
494 44 153
495 263 351
496 444 157
497 374 17
498 448 295
499 446 297
500 347 40
501 318 493
502 399 352
503 51 364
504 250 217
505 107 225
506 173 208
507 204 189
508 399 379
509 79 346
510 360 338
511 390 17
512 207 337
513 409 361
514 206 377
515 429 294
516 375 31
517 426 80
518 74 374
519 408 20
520 239 369
521 420 308
522 254 357
523 53 297
524 434 382
525 204 171
526 173 169
527 190 332
528 274 231
529 207 194
530 315 232
531 425 87
532 312 64
533 129 244
534 278 230
535 351 75
536 185 293
537 364 364
538 432 369
539 128 249
540 221 179
541 194 296
542 413 350
543 214 372
544 379 229
545 91 298
546 226 120
547 344 46
548 238 84
549 138 276
550 346 487
551 95 160
552 103 266
553 98 286
554 77 172
555 147 199
556 210 98
557 428 292
558 121 236
559 336 479
560 203 369
561 296 232
562 87 369
563 247 88
564 104 246
565 67 302
566 114 296
567 394 356
568 192 306
569 16 285
570 419 310
571 389 221
572 129 264
573 172 483
574 325 251
575 151 436
576 263 91
577 401 15
578 253 382
579 247 89
580 283 229
581 366 341
582 392 213
583 167 304
584 477 154
585 234 383
586 199 327
587 140 220
588 144 266
589 432 105
590 368 325
591 202 386
592 325 246
593 430 86
594 200 195
595 440 295
596 77 287
597 187 362
598 131 207
599 405 5
600 125 226
601 254 335
602 212 168
603 281 279
604 326 241
605 152 241
606 71 139
607 46 277
608 393 13
609 87 454
610 86 359
611 220 192
612 426 279
613 131 267
614 200 297
615 299 442
616 265 218
617 398 231
618 312 74
619 99 307
620 22 283
621 67 160
622 390 42
623 44 279
624 200 182
625 458 303
626 298 438
627 62 301
628 112 251
629 184 354
630 140 180
631 269 428
632 123 206
633 36 284
634 272 233
635 320 231
636 211 180
637 114 169
638 245 239
639 117 204
640 316 254
641 169 443
642 212 96
643 119 285
644 71 163
645 78 361
646 354 219
647 389 233
648 90 391
649 209 307
650 363 351
651 405 47
652 278 329
653 261 371
654 302 470
655 373 205
656 381 20
657 90 277
658 46 341
659 50 138
660 61 437
661 331 252
662 440 81
663 384 206
664 232 87
665 59 471
666 174 304
667 106 248
668 410 287
669 206 313
670 412 367
671 412 300
672 206 295
673 329 459
674 177 436
675 266 264
676 308 235
677 260 330
678 49 136
679 356 28
680 428 384
681 220 362
682 437 61
683 365 360
684 107 168
685 220 177
686 347 21
687 293 245
688 267 436
689 216 96
690 383 351
691 289 240
692 129 185
693 291 450
694 387 21
695 116 255
696 50 368
697 121 249
698 404 346
699 77 360
700 447 102
701 366 16
702 348 16
703 353 346
704 54 485
705 319 77
706 83 282
707 384 24
708 52 469
709 199 200
710 273 234
711 16 281
712 151 442
713 223 114
714 191 308
715 448 297
716 386 28
717 106 295
718 387 224
719 96 377
720 86 361
721 211 107
722 43 125
723 369 351
724 388 228
725 325 228
726 490 159
727 420 78
728 396 4
729 222 317
730 389 198
731 322 454
732 241 391
733 256 117
734 298 255
735 74 363
736 345 496
737 167 169
738 23 306
739 317 62
740 319 257
741 129 255
742 59 377
743 138 272
744 317 251
745 279 436
746 371 207
747 263 372
748 50 347
749 275 236
750 334 47
751 50 383
752 170 338
753 245 109
754 69 475
755 54 372
756 198 334
757 380 228
758 425 118
759 80 398
760 366 57
761 67 463
762 226 86
763 59 480
764 40 378
765 250 367
766 157 436
767 463 161
768 266 250
769 51 162
770 194 353
771 383 41
772 247 82
773 457 142
774 244 94
775 441 63
776 244 371
777 174 444
778 94 247
779 320 225
780 316 80
781 155 447
782 211 308
783 297 442
784 200 342
785 44 325
786 438 60
787 80 374
788 59 163
789 236 92
790 414 66
791 34 279
792 475 156
793 404 310
794 367 239
795 210 359
796 133 278
797 446 169
798 188 356
799 312 252
800 69 485
801 413 353
802 54 446
803 56 357
804 230 105
805 196 302
806 391 373
807 101 295
808 234 350
809 215 108
810 142 457
811 283 425
812 77 397
813 105 317
814 382 213
815 213 76
816 417 56
817 183 340
818 123 242
819 475 136
820 377 246
821 310 484
822 47 280
823 57 456
824 313 266
825 475 145
826 400 376
827 290 416
828 277 369
829 91 303
830 194 301
831 254 238
832 215 91
833 500 162
834 56 287
835 289 452
836 378 326
837 197 350
838 243 88
839 250 72
840 101 290
841 351 480
842 67 357
843 128 240
844 253 81
845 307 227
846 233 441
847 311 47
848 292 456
849 183 187
850 392 31
851 103 251
852 300 443
853 420 295
854 427 64
855 372 354
856 101 263
857 141 454
858 146 461
859 298 430
860 148 270
861 76 287
862 308 55
863 143 257
864 393 2
865 385 28
866 204 291
867 132 272
868 206 379
869 69 383
870 245 96
871 431 301
872 448 94
873 199 305
874 95 356
875 328 498
876 108 222
877 341 26
878 63 454
879 222 357
880 416 364
881 127 278
882 140 252
883 218 298
884 432 87
885 216 300
886 438 72
887 184 178
888 345 468
889 150 435
890 395 365
891 208 371
892 190 292
893 78 479
894 104 198
895 346 13
896 47 388
897 315 57
898 110 199
899 323 60
900 308 82
901 216 374
902 326 253
903 308 232
904 118 223
905 149 444
906 95 395
907 117 319
908 262 352
909 468 135
910 351 31
911 361 15
912 195 300
913 397 27
914 179 311
915 77 133
916 66 397
917 366 352
918 221 87
919 347 23
920 176 358
921 229 78
922 272 246
923 293 67
924 140 265
925 238 83
926 136 296
927 218 98
928 290 440
929 29 302
930 290 425
931 124 247
932 442 287
933 294 64
934 74 165
935 382 245
936 405 24
937 211 97
938 88 390
939 37 295
940 359 371
941 186 372
942 116 446
943 293 249
944 83 228
945 96 269
946 179 284
947 368 219
948 66 359
949 189 338
950 163 277
951 5 296
952 152 478
953 366 34
954 429 80
955 464 178
956 138 196
957 87 481
958 425 99
959 241 362
960 207 289
961 264 365
962 102 289
963 233 346
964 78 141
965 196 348
966 216 92
967 444 309
968 313 263
969 211 198
970 314 436
971 217 189
972 197 178
973 60 497
974 206 312
975 197 351
976 305 233
977 297 250
978 71 348
979 11 269
980 247 447
981 386 213
982 292 434
983 436 301
984 145 221
985 224 96
986 59 128
987 489 150
988 152 225
989 426 85
990 415 73
991 440 70
992 320 476
993 57 132
994 405 311
995 109 250
996 428 314
997 40 288
998 175 282
999 298 456
1000 208 101
1001 342 52
1002 59 377
1003 432 105
1004 340 449
1005 293 67
1006 62 301
1007 137 186
1008 358 365
1009 272 233
PICKUP_AND_DELIVERY_SECTION
1 0 0 3914 0 0 0
2 -20 2302 3182 90 489 0
3 -30 1576 2456 90 580 0
4 -20 1076 1956 90 840 0
5 -10 1202 2082 90 323 0
6 -10 642 1522 90 35 0
7 20 2604 3484 90 0 114
8 30 327 1207 90 0 23
9 -20 137 1017 90 13 0
10 30 301 1181 90 0 501
11 30 638 1518 90 0 227
12 -10 1853 2733 90 407 0
13 20 127 1007 90 0 9
14 -20 2698 3578 90 593 0
15 10 108 988 90 0 181
16 10 2551 3431 90 0 150
17 10 2200 3080 90 0 261
18 -10 552 1432 90 915 0
19 -30 2720 3600 90 159 0
20 20 683 1563 90 0 504
21 -10 1557 2437 90 961 0
22 20 2748 3628 90 0 316
23 -30 1922 2802 90 8 0
24 -10 1117 1997 90 560 0
25 20 1431 2311 90 0 735
26 -20 2596 3476 90 425 0
27 -20 1486 2366 90 263 0
28 -20 763 1643 90 944 0
29 -20 542 1422 90 512 0
30 20 1437 2317 90 0 644
31 -50 1947 2827 90 987 0
32 10 2423 3303 90 0 336
33 20 1631 2511 90 0 872
34 -30 1336 2216 90 252 0
35 10 227 1107 90 0 6
36 -40 2156 3036 90 246 0
37 -10 1866 2746 90 768 0
38 -10 205 1085 90 860 0
39 -20 239 1119 90 112 0
40 -10 2224 3104 90 110 0
41 30 1730 2610 90 0 709
42 10 157 1037 90 0 945
43 -20 1356 2236 90 631 0
44 -20 2423 3303 90 457 0
45 20 1004 1884 90 0 771
46 -10 2664 3544 90 973 0
47 -40 2658 3538 90 493 0
48 -10 2152 3032 90 585 0
49 10 2631 3511 90 0 797
50 30 223 1103 90 0 854
51 10 142 1022 90 0 829
52 10 2016 2896 90 0 459
53 20 1661 2541 90 0 780
54 -10 2170 3050 90 186 0
55 30 1482 2362 90 0 312
56 10 1357 2237 90 0 162
57 -20 1746 2626 90 799 0
58 -30 863 1743 90 182 0
59 -10 568 1448 90 220 0
60 -20 1432 2312 90 338 0
61 -10 2159 3039 90 229 0
62 -10 1353 2233 90 543 0
63 20 210 1090 90 0 200
64 20 609 1489 90 0 753
65 -20 280 1160 90 120 0
66 -30 1629 2509 90 172 0
67 -10 2724 3604 90 884 0
68 30 235 1115 90 0 185
69 20 1970 2850 90 0 616
70 -30 1541 2421 90 718 0
71 10 545 1425 90 0 833
72 20 1338 2218 90 0 468
73 -30 1326 2206 90 862 0
74 10 110 990 90 0 79
75 -10 2052 2932 90 394 0
76 -10 2030 2910 90 214 0
77 -40 437 1317 90 609 0
78 30 211 1091 90 0 165
79 -10 333 1213 90 74 0
80 -30 1677 2557 90 513 0
81 -30 1940 2820 90 315 0
82 -20 2739 3619 90 397 0
83 -10 2751 3631 90 465 0
84 20 1710 2590 90 0 264
85 10 2119 2999 90 0 676
86 -10 1683 2563 90 557 0
87 30 185 1065 90 0 94
88 -20 1902 2782 90 130 0
89 20 179 1059 90 0 919
90 -10 2810 3690 90 222 0
91 -30 2028 2908 90 867 0
92 20 1244 2124 90 0 248
93 -10 1050 1930 90 979 0
94 -30 2397 3277 90 87 0
95 40 253 1133 90 0 286
96 10 434 1314 90 0 279
97 -10 433 1313 90 353 0
98 30 54 934 90 0 962
99 10 7 887 90 0 730
100 -20 2034 2914 90 891 0
101 -20 2247 3127 90 441 0
102 -10 2495 3375 90 613 0
103 -30 2449 3329 90 197 0
104 -20 900 1780 90 849 0
105 20 733 1613 90 0 632
106 -10 2777 3657 90 414 0
107 10 785 1665 90 0 537
108 30 286 1166 90 0 608
109 10 122 1002 90 0 639
110 10 541 1421 90 0 40
111 20 179 1059 90 0 376
112 20 158 1038 90 0 39
113 -20 2506 3386 90 785 0
114 -20 2712 3592 90 7 0
115 20 1812 2692 90 0 479
116 -20 2229 3109 90 297 0
117 10 502 1382 90 0 553
118 -30 368 1248 90 992 0
119 10 2323 3203 90 0 183
120 20 11 891 90 0 65
121 -20 2123 3003 90 736 0
122 20 649 1529 90 0 993
123 -10 1961 2841 90 851 0
124 -20 1967 2847 90 983 0
125 -10 836 1716 90 847 0
126 -20 1806 2686 90 666 0
127 -30 1064 1944 90 429 0
128 10 1751 2631 90 0 372
129 -20 2210 3090 90 824 0
130 20 1235 2115 90 0 88
131 -30 148 1028 90 590 0
132 -20 2201 3081 90 472 0
133 -30 210 1090 90 890 0
134 -10 1256 2136 90 480 0
135 20 222 1102 90 0 786
136 20 1738 2618 90 0 898
137 10 1254 2134 90 0 757
138 -10 325 1205 90 914 0
139 20 199 1079 90 0 633
140 -20 2756 3636 90 440 0
141 20 2332 3212 90 0 689
142 10 98 978 90 0 171
143 -30 1070 1950 90 946 0
144 40 189 1069 90 0 547
145 -20 1336 2216 90 819 0
146 -10 2179 3059 90 218 0
147 10 1638 2518 90 0 677
148 20 841 1721 90 0 775
149 10 1092 1972 90 0 683
150 -10 2746 3626 90 16 0
151 -10 2825 3705 90 741 0
152 -30 2142 3022 90 606 0
153 -20 2730 3610 90 755 0
154 10 1673 2553 90 0 325
155 -30 2511 3391 90 569 0
156 10 212 1092 90 0 758
157 -20 844 1724 90 213 0
158 -10 2818 3698 90 280 0
159 30 2048 2928 90 0 19
160 20 1073 1953 90 0 855
161 -20 2565 3445 90 708 0
162 -10 1744 2624 90 56 0
163 -10 1145 2025 90 759 0
164 -30 2508 3388 90 281 0
165 -30 266 1146 90 78 0
166 -10 527 1407 90 936 0
167 -30 922 1802 90 778 0
168 -20 928 1808 90 896 0
169 -20 1918 2798 90 594 0
170 30 1966 2846 0 0 1008
171 -10 117 997 90 142 0
172 30 866 1746 90 0 66
173 20 127 1007 90 0 546
174 -10 1842 2722 90 724 0
175 -20 1358 2238 90 604 0
176 -20 1643 2523 90 875 0
177 -20 1241 2121 90 443 0
178 -40 2701 3581 90 387 0
179 10 661 1541 90 0 362
180 -20 2427 3307 90 750 0
181 -10 157 1037 90 15 0
182 30 420 1300 90 0 58
183 -10 2451 3331 90 119 0
184 10 111 991 90 0 314
185 -30 1090 1970 90 68 0
186 10 2373 3253 90 0 54
187 -20 1623 2503 90 861 0
188 30 802 1682 90 0 495
189 -20 734 1614 90 713 0
190 20 103 983 90 0 379
191 10 2689 3569 90 0 356
192 -30 1368 2248 90 347 0
193 -10 1837 2717 90 909 0
194 10 1241 2121 90 0 565
195 -20 1353 2233 90 568 0
196 -20 1276 2156 90 690 0
197 30 1090 1970 90 0 103
198 20 210 1090 90 0 858
199 20 1919 2799 90 0 413
200 -20 1137 2017 90 63 0
201 30 2066 2946 90 0 355
202 20 361 1241 90 0 910
203 -10 1959 2839 90 404 0
204 -20 154 1034 90 211 0
205 30 976 1856 90 0 838
206 20 1283 2163 90 0 260
207 -10 950 1830 90 251 0
208 -10 2470 3350 90 289 0
209 -20 2625 3505 90 365 0
210 -10 1425 2305 90 254 0
211 20 146 1026 90 0 204
212 -20 1685 2565 90 296 0
213 20 442 1322 90 0 157
214 10 150 1030 90 0 76
215 10 410 1290 90 0 717
216 -10 2475 3355 90 337 0
217 -10 2427 3307 90 762 0
218 10 924 1804 90 0 146
219 10 882 1762 90 0 928
220 10 374 1254 90 0 59
221 20 870 1750 90 0 873
222 10 2656 3536 90 0 90
223 -20 2744 3624 90 766 0
224 40 809 1689 90 0 707
225 20 416 1296 90 0 727
226 20 2686 3566 90 0 389
227 -30 2085 2965 90 11 0
228 -20 1067 1947 90 449 0
229 10 1579 2459 90 0 61
230 -10 212 1092 90 258 0
231 20 288 1168 90 0 304
232 -20 2358 3238 90 383 0
233 -30 1617 2497 90 761 0
234 40 548 1428 90 0 700
235 10 1052 1932 90 0 518
236 -20 2278 3158 90 665 0
237 30 389 1269 90 0 283
238 -20 2121 3001 90 433 0
239 -30 591 1471 90 827 0
240 -10 2790 3670 90 586 0
241 -20 2627 3507 90 686 0
242 -20 186 1066 90 583 0
243 -20 851 1731 90 731 0
244 -40 1264 2144 90 566 0
245 -20 1952 2832 90 332 0
246 40 1849 2729 90 0 36
247 20 2279 3159 90 0 940
248 -20 2113 2993 90 92 0
249 -20 2587 3467 90 764 0
250 20 796 1676 90 0 831
251 10 1042 1922 90 0 207
252 30 742 1622 90 0 34
253 30 108 988 90 0 788
254 10 857 1737 90 0 210
255 -20 1195 2075 90 897 0
256 -30 367 1247 90 938 0
257 -10 2838 3718 90 400 0
258 10 230 1110 90 0 230
259 10 333 1213 90 0 810
260 -20 2048 2928 90 206 0
261 -10 2504 3384 90 17 0
262 10 2408 3288 90 0 866
263 20 1001 1881 90 0 27
264 -20 1991 2871 90 84 0
265 -30 2722 3602 90 821 0
266 -20 844 1724 90 540 0
267 -10 2043 2923 90 789 0
268 10 475 1355 90 0 488
269 30 1757 2637 90 0 507
270 20 879 1759 90 0 502
271 10 1629 2509 90 0 415
272 -20 474 1354 90 388 0
273 10 2037 2917 90 0 471
274 -10 1742 2622 90 282 0
275 20 1539 2419 90 0 985
276 -30 1043 1923 90 964 0
277 -10 2413 3293 90 403 0
278 -10 174 1054 90 406 0
279 -10 765 1645 90 96 0
280 10 171 1051 90 0 158
281 30 23 903 90 0 164
282 10 241 1121 90 0 274
283 -30 1248 2128 90 237 0
284 -10 2701 3581 90 417 0
285 -20 1831 2711 90 937 0
286 -40 526 1406 90 95 0
287 -10 919 1799 90 299 0
288 -20 2498 3378 90 921 0
289 10 1321 2201 90 0 208
290 -20 1869 2749 90 605 0
291 -30 1843 2723 90 588 0
292 20 67 947 90 0 918
293 30 770 1650 90 0 311
294 -10 2784 3664 90 715 0
295 30 903 1783 90 0 382
296 20 1401 2281 90 0 212
297 20 132 1012 90 0 116
298 40 2131 3011 90 0 455
299 10 167 1047 90 0 287
300 -30 2505 3385 90 641 0
301 -20 2221 3101 90 805 0
302 -30 1738 2618 90 841 0
303 -20 2725 3605 90 816 0
304 -20 579 1459 90 231 0
305 -20 2407 3287 90 738 0
306 30 974 1854 90 0 745
307 -20 1776 2656 90 667 0
308 20 648 1528 90 0 361
309 10 98 978 90 0 863
310 10 130 1010 90 0 416
311 -30 2131 3011 90 293 0
312 -30 2302 3182 90 55 0
313 -10 1834 2714 90 868 0
314 -10 201 1081 90 184 0
315 30 153 1033 90 0 81
316 -20 2835 3715 90 22 0
317 -30 1471 2351 90 988 0
318 40 2496 3376 90 0 610
319 20 149 1029 90 0 360
320 -20 2704 3584 90 405 0
321 30 533 1413 90 0 595
322 20 1449 2329 90 0 647
323 10 251 1131 90 0 5
324 -20 1889 2769 90 576 0
325 -10 2382 3262 90 154 0
326 10 968 1848 90 0 976
327 20 2251 3131 90 0 980
328 20 2527 3407 90 0 804
329 10 2301 3181 90 0 487
330 -10 2205 3085 90 529 0
331 -20 1840 2720 90 725 0
332 20 1374 2254 90 0 245
333 -20 2857 3737 90 905 0
334 10 62 942 90 0 720
335 10 2552 3432 0 0 1007
336 -10 2522 3402 90 32 0
337 10 1482 2362 90 0 216
338 20 399 1279 90 0 60
339 20 186 1066 90 0 732
340 10 185 1065 90 0 538
341 -10 1241 2121 90 916 0
342 -10 2503 3383 90 920 0
343 30 105 985 90 0 391
344 30 865 1745 90 0 664
345 -10 2306 3186 90 549 0
346 30 230 1110 90 0 519
347 30 141 1021 90 0 192
348 -50 1773 2653 90 395 0
349 -20 1545 2425 90 514 0
350 20 2312 3192 90 0 646
351 30 115 995 90 0 852
352 -20 2010 2890 90 466 0
353 10 142 1022 90 0 97
354 10 2720 3600 0 0 1004
355 -30 2542 3422 90 201 0
356 -10 2603 3483 90 191 0
357 10 70 950 90 0 515
358 10 1985 2865 90 0 703
359 -10 1826 2706 90 812 0
360 -20 386 1266 90 319 0
361 -20 1809 2689 90 308 0
362 -10 1552 2432 90 179 0
363 -20 1167 2047 90 386 0
364 40 197 1077 90 0 929
365 20 227 1107 90 0 209
366 -10 1493 2373 90 899 0
367 -10 2223 3103 90 490 0
368 -10 2810 3690 90 869 0
369 -30 1552 2432 90 675 0
370 10 1520 2400 90 0 622
371 10 2526 3406 90 0 760
372 -10 1843 2723 90 128 0
373 -20 2142 3022 90 773 0
374 10 1275 2155 90 0 426
375 20 1462 2342 90 0 729
376 -20 724 1604 90 111 0
377 -20 300 1180 90 971 0
378 -10 2394 3274 90 658 0
379 -20 2453 3333 90 190 0
380 20 204 1084 90 0 889
381 -20 1949 2829 90 925 0
382 -30 2338 3218 90 295 0
383 20 115 995 90 0 232
384 20 100 980 90 0 475
385 30 2825 3705 90 0 687
386 20 971 1851 90 0 363
387 40 2605 3485 90 0 178
388 20 24 904 90 0 272
389 -20 2749 3629 90 226 0
390 10 103 983 90 0 663
391 -30 992 1872 90 343 0
392 20 219 1099 90 0 751
393 -10 2104 2984 90 991 0
394 10 827 1707 90 0 75
395 50 141 1021 90 0 348
396 -30 2104 2984 90 702 0
397 20 1240 2120 90 0 82
398 30 477 1357 90 0 649
399 30 660 1540 90 0 893
400 10 2813 3693 90 0 257
401 -20 1389 2269 90 723 0
402 -10 970 1850 90 892 0
403 10 2221 3101 90 0 277
404 10 1369 2249 90 0 203
405 20 2623 3503 90 0 320
406 10 151 1031 90 0 278
407 10 156 1036 90 0 12
408 20 2235 3115 90 0 630
409 10 174 1054 90 0 478
410 -20 2623 3503 90 656 0
411 -10 2239 3119 90 584 0
412 30 1294 2174 90 0 853
413 -20 2207 3087 90 199 0
414 10 497 1377 90 0 106
415 -10 2490 3370 90 271 0
416 -10 185 1065 90 310 0
417 10 1524 2404 90 0 284
418 20 204 1084 90 0 902
419 20 1998 2878 90 0 842
420 -10 213 1093 90 626 0
421 20 63 943 90 0 602
422 -30 118 998 90 555 0
423 -10 194 1074 90 551 0
424 10 127 1007 90 0 989
425 20 1370 2250 90 0 26
426 -10 2120 3000 90 374 0
427 20 547 1427 90 0 645
428 20 1097 1977 90 0 990
429 30 874 1754 90 0 127
430 -20 958 1838 90 660 0
431 30 871 1751 90 0 592
432 30 538 1418 90 0 697
433 20 2021 2901 90 0 238
434 -20 2742 3622 90 712 0
435 30 948 1828 90 0 673
436 10 1593 2473 90 0 790
437 -20 1388 2268 90 670 0
438 30 277 1157 90 0 844
439 20 472 1352 90 0 774
440 20 2527 3407 90 0 140
441 20 1937 2817 90 0 101
442 20 347 1227 90 0 960
443 20 136 1016 90 0 177
444 -30 2436 3316 90 511 0
445 -20 1637 2517 90 591 0
446 -10 33 913 90 922 0
447 -10 687 1567 90 510 0
448 -10 2800 3680 90 887 0
449 20 688 1568 90 0 228
450 20 182 1062 90 0 986
451 10 240 1120 90 0 694
452 -10 1224 2104 90 877 0
453 -20 2694 3574 90 684 0
454 20 637 1517 90 0 927
455 -40 2486 3366 90 298 0
456 20 231 1111 90 0 516
457 20 1936 2816 90 0 44
458 40 264 1144 90 0 865
459 -10 2602 3482 90 52 0
460 40 211 1091 90 0 503
461 -30 209 1089 90 930 0
462 30 2393 3273 90 0 638
463 20 329 1209 90 0 823
464 30 1145 2025 90 0 550
465 10 2094 2974 90 0 83
466 20 1122 2002 90 0 352
467 20 2642 3522 90 0 477
468 -20 1713 2593 90 72 0
469 -10 370 1250 90 1001 0
470 -30 816 1696 90 994 0
471 -10 2648 3528 90 273 0
472 20 277 1157 90 0 132
473 20 41 921 90 0 506
474 10 73 953 90 0 817
475 -20 336 1216 90 384 0
476 20 304 1184 90 0 524
477 -20 2253 3133 90 467 0
478 -10 2432 3312 90 409 0
479 -20 2676 3556 90 115 0
480 10 563 1443 90 0 134
481 10 743 1623 90 0 494
482 -20 1001 1881 90 972 0
483 -20 1932 2812 90 640 0
484 -10 645 1525 90 623 0
485 30 854 1734 90 0 722
486 -30 959 1839 90 825 0
487 -10 2878 3758 90 329 0
488 -10 1063 1943 90 268 0
489 20 1090 1970 90 0 2
490 10 2029 2909 90 0 367
491 10 2721 3601 90 0 900
492 -10 709 1589 90 747 0
493 40 2555 3435 90 0 47
494 -10 1635 2515 90 481 0
495 -30 1185 2065 90 188 0
496 10 215 1095 90 0 662
497 10 1565 2445 90 0 953
498 -20 2364 3244 90 967 0
499 10 1872 2752 90 0 625
500 30 231 1111 90 0 679
501 -30 465 1345 90 10 0
502 -20 900 1780 90 270 0
503 -40 1527 2407 90 460 0
504 -20 2174 3054 90 20 0
505 30 145 1025 90 0 600
506 -20 1521 2401 90 473 0
507 -30 2018 2898 90 269 0
508 -10 2600 3480 90 542 0
509 -10 2748 3628 90 978 0
510 10 140 1020 90 0 447
511 30 1093 1973 90 0 444
512 20 445 1325 90 0 29
513 30 697 1577 90 0 80
514 20 199 1079 90 0 349
515 -10 1583 2463 90 357 0
516 -20 1825 2705 90 456 0
517 20 362 1242 90 0 886
518 -10 2302 3182 90 235 0
519 -30 279 1159 90 346 0
520 -10 1451 2331 90 795 0
521 30 349 1229 90 0 668
522 20 1652 2532 90 0 808
523 -10 2742 3622 90 711 0
524 -20 1890 2770 90 476 0
525 20 598 1478 90 0 737
526 -10 1198 2078 90 624 0
527 -20 246 1126 90 714 0
528 -10 1766 2646 90 534 0
529 10 2113 2993 90 0 330
530 -20 2393 3273 90 740 0
531 20 239 1119 90 0 716
532 20 222 1102 90 0 739
533 -20 2548 3428 90 572 0
534 10 1106 1986 90 0 528
535 -20 1794 2674 90 701 0
536 -20 570 1450 90 541 0
537 -10 1870 2750 90 107 0
538 -10 1787 2667 90 340 0
539 20 983 1863 90 0 950
540 20 76 956 90 0 266
541 20 290 1170 90 0 536
542 10 1197 2077 90 0 508
543 10 583 1463 90 0 62
544 10 685 1565 90 0 571
545 10 1653 2533 90 0 619
546 -20 132 1012 90 173 0
547 -40 1300 2180 90 144 0
548 10 1274 2154 90 0 772
549 10 1555 2435 90 0 345
550 -30 1448 2328 90 464 0
551 10 179 1059 90 0 423
552 30 702 1582 90 0 881
553 -10 977 1857 90 117 0
554 -20 2616 3496 90 769 0
555 30 114 994 90 0 422
556 -10 361 1241 90 1000 0
557 10 1491 2371 90 0 86
558 10 1674 2554 90 0 643
559 20 1838 2718 90 0 888
560 10 481 1361 90 0 24
561 -20 908 1788 90 691 0
562 10 201 1081 90 0 803
563 30 1564 2444 90 0 579
564 10 993 1873 90 0 598
565 -10 2133 3013 90 194 0
566 40 143 1023 90 0 244
567 30 178 1058 90 0 826
568 20 1163 2043 90 0 195
569 30 2132 3012 90 0 155
570 10 442 1322 90 0 996
571 -10 972 1852 90 544 0
572 20 2401 3281 90 0 533
573 -10 544 1424 90 777 0
574 -30 1065 1945 90 744 0
575 10 2026 2906 90 0 781
576 20 159 1039 90 0 324
577 -20 325 1205 90 958 0
578 -30 2730 3610 90 688 0
579 -30 1655 2535 90 563 0
580 30 1011 1891 90 0 3
581 20 193 1073 90 0 698
582 20 1732 2612 90 0 935
583 20 99 979 90 0 242
584 10 1146 2026 90 0 411
585 10 1739 2619 90 0 48
586 10 2699 3579 90 0 240
587 30 443 1323 90 0 984
588 30 107 987 90 0 291
589 10 2712 3592 0 0 1003
590 30 139 1019 90 0 131
591 20 144 1024 90 0 445
592 -30 1160 2040 90 431 0
593 20 2406 3286 90 0 14
594 20 1825 2705 90 0 169
595 -30 1776 2656 90 321 0
596 10 1545 2425 90 0 791
597 -20 1426 2306 90 941 0
598 -10 639 1519 90 564 0
599 -10 426 1306 90 651 0
600 -30 1029 1909 90 505 0
601 -30 2653 3533 90 901 0
602 -20 500 1380 90 421 0
603 20 354 1234 90 0 845
604 20 1255 2135 90 0 175
605 20 433 1313 90 0 290
606 30 447 1327 90 0 152
607 10 229 1109 90 0 620
608 -30 998 1878 90 108 0
609 40 522 1402 90 0 77
610 -40 2748 3628 90 318 0
611 20 65 945 90 0 636
612 -30 2752 3632 90 836 0
613 10 2212 3092 90 0 102
614 30 193 1073 90 0 912
615 10 1544 2424 90 0 999
616 -20 2069 2949 90 69 0
617 -40 1936 2816 90 655 0
618 -30 2389 3269 90 705 0
619 -10 2354 3234 90 545 0
620 -10 953 1833 90 607 0
621 10 2330 3210 90 0 934
622 -10 2228 3108 90 370 0
623 10 208 1088 90 0 484
624 10 793 1673 90 0 526
625 -10 2171 3051 90 499 0
626 10 207 1087 90 0 420
627 20 2750 3630 0 0 1006
628 10 1273 2153 90 0 931
629 30 1616 2496 90 0 752
630 -20 2649 3529 90 408 0
631 20 785 1665 90 0 43
632 -20 1525 2405 90 105 0
633 -20 1338 2218 90 139 0
634 10 1387 2267 0 0 1009
635 20 2024 2904 90 0 903
636 -20 398 1278 90 611 0
637 -10 2252 3132 90 876 0
638 -30 2573 3453 90 462 0
639 -10 1338 2218 90 109 0
640 20 390 1270 90 0 483
641 30 209 1089 90 0 300
642 10 544 1424 90 0 809
643 -10 2703 3583 90 558 0
644 -20 2425 3305 90 30 0
645 -20 2740 3620 90 427 0
646 -20 2836 3716 90 350 0
647 -20 2127 3007 90 322 0
648 10 213 1093 90 0 906
649 -30 1451 2331 90 398 0
650 -10 2563 3443 90 680 0
651 10 255 1135 90 0 599
652 10 83 963 90 0 765
653 -30 618 1498 90 828 0
654 -20 1867 2747 90 783 0
655 40 130 1010 90 0 617
656 20 1468 2348 90 0 410
657 30 302 1182 90 0 796
658 10 2299 3179 90 0 378
659 -10 1529 2409 90 678 0
660 20 265 1145 90 0 430
661 -20 774 1654 90 968 0
662 -10 2305 3185 90 496 0
663 -10 379 1259 90 390 0
664 -30 1144 2024 90 344 0
665 20 1124 2004 90 0 236
666 20 93 973 90 0 126
667 20 1086 1966 90 0 307
668 -30 2780 3660 90 521 0
669 20 1731 2611 90 0 883
670 20 600 1480 90 0 437
671 20 169 1049 90 0 871
672 -10 2449 3329 90 949 0
673 -30 2525 3405 90 435 0
674 20 199 1079 90 0 857
675 30 243 1123 90 0 369
676 -10 2775 3655 90 85 0
677 -10 2843 3723 90 147 0
678 10 1345 2225 90 0 659
679 -30 640 1520 90 500 0
680 10 2084 2964 90 0 650
681 20 971 1851 90 0 879
682 -20 1728 2608 90 954 0
683 -10 1680 2560 90 149 0
684 20 2155 3035 90 0 453
685 20 101 981 90 0 969
686 20 1026 1906 90 0 241
687 -30 2901 3781 90 385 0
688 30 2647 3527 90 0 578
689 -20 2206 3086 90 141 0
690 20 167 1047 90 0 196
691 20 579 1459 90 0 561
692 -20 2454 3334 90 894 0
693 10 2345 3225 90 0 835
694 -10 1188 2068 90 451 0
695 20 879 1759 90 0 995
696 30 1621 2501 90 0 699
697 -30 2061 2941 90 432 0
698 -20 803 1683 90 581 0
699 -30 2739 3619 90 696 0
700 -40 2698 3578 90 234 0
701 20 1618 2498 90 0 535
702 30 1420 2300 90 0 396
703 -10 2754 3634 90 358 0
704 30 1413 2293 90 0 800
705 30 2198 3078 90 0 618
706 10 1172 2052 90 0 907
707 -40 2241 3121 90 224 0
708 20 1027 1907 90 0 161
709 -30 2585 3465 90 41 0
710 -10 1296 2176 90 943 0
711 10 2316 3196 90 0 523
712 20 2122 3002 90 0 434
713 20 138 1018 90 0 189
714 20 82 962 90 0 527
715 10 2272 3152 90 0 294
716 -20 2147 3027 90 531 0
717 -10 693 1573 90 215 0
718 30 1157 2037 90 0 70
719 10 199 1079 90 0 754
720 -10 2746 3626 90 334 0
721 10 171 1051 90 0 815
722 -30 1243 2123 90 485 0
723 20 478 1358 90 0 401
724 10 875 1755 90 0 174
725 20 1450 2330 90 0 331
726 -40 1537 2417 90 792 0
727 -20 1038 1918 90 225 0
728 10 713 1593 90 0 850
729 -20 2055 2935 90 375 0
730 -10 183 1063 90 99 0
731 20 216 1096 90 0 243
732 -20 2625 3505 90 339 0
733 -20 2807 3687 90 911 0
734 10 48 928 90 0 749
735 -20 2403 3283 90 25 0
736 20 1047 1927 90 0 121
737 -20 1294 2174 90 525 0
738 20 1822 2702 90 0 305
739 -20 317 1197 90 532 0
740 20 296 1176 90 0 530
741 10 2356 3236 90 0 151
742 20 1728 2608 0 0 1002
743 -40 1461 2341 90 924 0
744 30 580 1460 90 0 574
745 -30 1159 2039 90 306 0
746 10 128 1008 90 0 814
747 10 526 1406 90 0 492
748 -20 2202 3082 90 787 0
749 -10 1203 2083 90 734 0
750 20 219 1099 90 0 180
751 -20 1529 2409 90 392 0
752 -30 1924 2804 90 629 0
753 -20 2729 3609 90 64 0
754 -10 829 1709 90 719 0
755 20 1631 2511 90 0 153
756 -20 1843 2723 90 798 0
757 -10 777 1657 90 137 0
758 -10 219 1099 90 156 0
759 10 466 1346 90 0 163
760 -10 2716 3596 90 371 0
761 30 280 1160 90 0 233
762 10 2235 3115 90 0 217
763 -20 1223 2103 90 802 0
764 20 1026 1906 90 0 249
765 -10 1753 2633 90 652 0
766 20 2413 3293 90 0 223
767 30 2043 2923 90 0 955
768 10 49 929 90 0 37
769 20 1853 2733 90 0 554
770 -30 1011 1891 90 830 0
771 -20 2325 3205 90 45 0
772 -10 1468 2348 90 548 0
773 20 469 1349 90 0 373
774 -20 1435 2315 90 439 0
775 -20 1914 2794 90 148 0
776 20 1950 2830 90 0 959
777 10 208 1088 90 0 573
778 30 493 1373 90 0 167
779 20 1654 2534 90 0 977
780 -20 2292 3172 90 53 0
781 -10 2312 3192 90 575 0
782 -10 1543 2423 90 998 0
783 20 1452 2332 90 0 654
784 10 637 1517 90 0 975
785 20 2725 3605 90 0 113
786 -20 1820 2700 90 135 0
787 20 210 1090 90 0 748
788 -30 1951 2831 90 253 0
789 10 1850 2730 90 0 267
790 -10 1232 2112 90 436 0
791 -10 1146 2026 90 596 0
792 40 1053 1933 90 0 726
793 20 165 1045 90 0 932
794 -20 2796 3676 90 947 0
795 10 1208 2088 90 0 520
796 -30 1650 2530 90 657 0
797 -10 2732 3612 90 49 0
798 20 1522 2402 90 0 756
799 20 485 1365 90 0 57
800 -30 1898 2778 90 704 0
801 10 1290 2170 90 0 880
802 20 277 1157 90 0 763
803 -10 1428 2308 90 562 0
804 -20 2598 3478 90 328 0
805 20 74 954 90 0 301
806 10 2700 3580 90 0 917
807 30 598 1478 90 0 997
808 -20 2257 3137 90 522 0
809 -10 2400 3280 90 642 0
810 -10 1233 2113 90 259 0
811 -10 498 1378 90 982 0
812 10 559 1439 90 0 359
813 10 2549 3429 90 0 926
814 -10 1355 2235 90 746 0
815 -10 940 1820 90 721 0
816 20 1422 2302 90 0 303
817 -10 2317 3197 90 474 0
818 20 2817 3697 90 0 843
819 20 669 1549 90 0 145
820 -20 2694 3574 90 981 0
821 30 266 1146 90 0 265
822 -20 205 1085 90 834 0
823 -20 282 1162 90 463 0
824 20 65 945 90 0 129
825 30 768 1648 90 0 486
826 -30 402 1282 90 567 0
827 30 170 1050 90 0 239
828 30 122 1002 90 0 653
829 -10 1839 2719 90 51 0
830 30 75 955 90 0 770
831 -20 2286 3166 90 250 0
832 -20 1930 2810 90 966 0
833 -10 1728 2608 90 71 0
834 20 197 1077 90 0 822
835 -10 2438 3318 90 693 0
836 30 148 1028 90 0 612
837 -10 826 1706 90 965 0
838 -30 1371 2251 90 205 0
839 20 765 1645 90 0 870
840 20 790 1670 90 0 4
841 30 1350 2230 90 0 302
842 -20 2684 3564 90 419 0
843 -20 2822 3702 90 818 0
844 -30 666 1546 90 438 0
845 -20 2493 3373 90 603 0
846 -20 2753 3633 90 848 0
847 10 710 1590 90 0 125
848 20 2158 3038 90 0 846
849 20 1408 2288 90 0 104
850 -10 2530 3410 90 728 0
851 10 898 1778 90 0 123
852 -30 1636 2516 90 351 0
853 -30 1392 2272 90 412 0
854 -30 932 1812 90 50 0
855 -20 1581 2461 90 160 0
856 -20 796 1676 90 882 0
857 -20 1326 2206 90 674 0
858 -20 1137 2017 90 198 0
859 30 186 1066 90 0 970
860 10 103 983 90 0 38
861 20 1454 2334 90 0 187
862 30 511 1391 90 0 73
863 -10 141 1021 90 309 0
864 30 619 1499 90 0 913
865 -40 1926 2806 90 458 0
866 -10 2543 3423 90 262 0
867 30 1934 2814 90 0 91
868 10 136 1016 90 0 313
869 10 2110 2990 90 0 368
870 -20 1343 2223 90 839 0
871 -20 1108 1988 90 671 0
872 -20 2692 3572 90 33 0
873 -20 1260 2140 90 221 0
874 -20 2757 3637 90 948 0
875 20 753 1633 90 0 176
876 10 1137 2017 90 0 637
877 10 928 1808 90 0 452
878 10 276 1156 90 0 957
879 -20 1157 2037 90 681 0
880 -10 1578 2458 90 801 0
881 -30 1746 2626 90 552 0
882 20 237 1117 90 0 856
883 -20 2346 3226 90 669 0
884 10 2498 3378 90 0 67
885 -40 2253 3133 90 974 0
886 -20 738 1618 90 517 0
887 10 1094 1974 90 0 448
888 -20 2317 3197 90 559 0
889 -20 1935 2815 90 380 0
890 30 185 1065 90 0 133
891 20 295 1175 90 0 100
892 10 385 1265 90 0 402
893 -30 729 1609 90 399 0
894 20 1943 2823 90 0 692
895 -10 1326 2206 90 933 0
896 20 833 1713 90 0 168
897 20 811 1691 90 0 255
898 -20 1847 2727 90 136 0
899 10 910 1790 90 0 366
900 -10 2579 3459 90 491 0
901 30 675 1555 90 0 601
902 -20 679 1559 90 418 0
903 -20 2588 3468 90 635 0
904 10 134 1014 90 0 956
905 20 2215 3095 90 0 333
906 -10 212 1092 90 648 0
907 -10 2748 3628 90 706 0
908 10 1276 2156 90 0 963
909 10 572 1452 90 0 193
910 -20 453 1333 90 202 0
911 20 1758 2638 90 0 733
912 -30 98 978 90 614 0
913 -30 2028 2908 90 864 0
914 10 93 973 90 0 138
915 10 349 1229 90 0 18
916 10 765 1645 90 0 341
917 -10 2470 3350 90 806 0
918 -20 1043 1923 90 292 0
919 -20 740 1620 90 89 0
920 10 1715 2595 90 0 342
921 20 2136 3016 90 0 288
922 10 22 902 90 0 446
923 20 187 1067 0 0 1005
924 40 1183 2063 90 0 743
925 20 1183 2063 90 0 381
926 -10 2822 3702 90 813 0
927 -20 1642 2522 90 454 0
928 -10 1261 2141 90 219 0
929 -40 1725 2605 90 364 0
930 30 179 1059 90 0 461
931 -10 2735 3615 90 628 0
932 -20 2464 3344 90 793 0
933 10 191 1071 90 0 895
934 -10 2518 3398 90 621 0
935 -20 2599 3479 90 582 0
936 10 274 1154 90 0 166
937 20 452 1332 90 0 285
938 30 273 1153 90 0 256
939 20 1531 2411 90 0 951
940 -20 2062 2942 90 247 0
941 20 1325 2205 90 0 597
942 -20 1538 2418 90 952 0
943 10 43 923 90 0 710
944 20 289 1169 90 0 28
945 -10 605 1485 90 42 0
946 30 671 1551 90 0 143
947 20 580 1460 90 0 794
948 20 2731 3611 90 0 874
949 10 2594 3474 90 0 672
950 -20 2853 3733 90 539 0
951 -20 2026 2906 90 939 0
952 20 655 1535 90 0 942
953 -10 1726 2606 90 497 0
954 20 455 1335 90 0 682
955 -30 2331 3211 90 767 0
956 -10 1633 2513 90 904 0
957 -10 2373 3253 90 878 0
958 20 231 1111 90 0 577
959 -20 2050 2930 90 776 0
960 -20 2637 3517 90 442 0
961 10 895 1775 90 0 21
962 -30 882 1762 90 98 0
963 -10 2351 3231 90 908 0
964 30 203 1083 90 0 276
965 10 734 1614 90 0 837
966 20 2022 2902 90 0 832
967 20 2065 2945 90 0 498
968 20 106 986 90 0 661
969 -20 2300 3180 90 685 0
970 -30 1741 2621 90 859 0
971 20 204 1084 90 0 377
972 20 698 1578 90 0 482
973 10 1517 2397 90 0 46
974 40 1640 2520 90 0 885
975 -10 917 1797 90 784 0
976 -10 2681 3561 90 326 0
977 -20 2897 3777 90 779 0
978 10 2695 3575 90 0 509
979 10 750 1630 90 0 93
980 -20 2747 3627 90 327 0
981 20 1636 2516 90 0 820
982 10 395 1275 90 0 811
983 20 1013 1893 90 0 124
984 -30 348 1228 90 587 0
985 -20 1738 2618 90 275 0
986 -20 1136 2016 90 450 0
987 50 1438 2318 90 0 31
988 30 634 1514 90 0 317
989 -10 267 1147 90 424 0
990 -20 1135 2015 90 428 0
991 10 2011 2891 90 0 393
992 30 236 1116 90 0 118
993 -20 952 1832 90 122 0
994 30 166 1046 90 0 470
995 -20 1180 2060 90 695 0
996 -10 632 1512 90 570 0
997 -30 1433 2313 90 807 0
998 10 766 1646 90 0 782
999 -10 1972 2852 90 615 0
1000 10 267 1147 90 0 556
1001 10 218 1098 90 0 469
1002 -20 1728 2608 90 742 0
1003 -10 2712 3592 90 589 0
1004 -10 2720 3600 90 354 0
1005 -20 187 1067 90 923 0
1006 -20 2750 3630 90 627 0
1007 -10 2552 3432 90 335 0
1008 -30 1966 2846 90 170 0
1009 -10 1387 2267 90 634 0
DEPOT_SECTION
1
-1
EOF
