NAME: lc2_10_9
TYPE: PDPTW
COMMENT: Li & Lim PDPTW benchmark converted from SINTEF format
DIMENSION: 1023
VEHICLES: 250
CAPACITY: 700
EDGE_WEIGHT_TYPE: EUC_2D
NODE_COORD_SECTION
1 250 250
2 212 101
3 266 231
4 89 284
5 430 298
6 435 77
7 25 293
8 43 269
9 216 117
10 294 437
11 79 479
12 365 18
13 225 125
14 448 103
15 143 266
16 252 347
17 403 390
18 67 153
19 90 168
20 302 235
21 259 355
22 149 183
23 19 297
24 209 358
25 56 388
26 115 269
27 377 356
28 113 229
29 205 343
30 48 137
31 467 157
32 220 394
33 436 54
34 54 357
35 456 154
36 216 307
37 280 224
38 90 270
39 166 452
40 17 283
41 196 192
42 94 275
43 292 445
44 329 471
45 326 57
46 95 466
47 429 282
48 229 364
49 457 160
50 452 154
51 113 289
52 67 387
53 368 17
54 341 367
55 410 364
56 80 281
57 321 224
58 73 395
59 259 76
60 121 203
61 118 256
62 236 361
63 78 371
64 301 53
65 382 197
66 491 160
67 453 164
68 277 371
69 272 212
70 386 218
71 353 32
72 59 389
73 414 62
74 278 357
75 101 179
76 396 234
77 74 390
78 332 55
79 272 365
80 418 355
81 216 380
82 440 173
83 89 358
84 66 491
85 317 234
86 439 297
87 394 367
88 58 364
89 290 75
90 346 344
91 131 269
92 236 96
93 29 282
94 418 385
95 148 225
96 166 464
97 266 373
98 201 273
99 255 245
100 220 379
101 85 317
102 125 264
103 131 253
104 184 188
105 128 209
106 373 364
107 389 342
108 420 20
109 132 218
110 32 256
111 406 339
112 191 397
113 72 341
114 35 308
115 169 360
116 222 381
117 96 292
118 311 496
119 220 384
120 259 243
121 349 476
122 63 159
123 112 243
124 448 302
125 343 27
126 67 485
127 220 359
128 147 435
129 317 235
130 43 355
131 368 340
132 450 72
133 400 364
134 355 480
135 450 153
136 126 188
137 380 223
138 71 453
139 54 287
140 420 168
141 219 89
142 189 327
143 191 309
144 301 67
145 484 161
146 77 483
147 241 375
148 428 64
149 403 361
150 257 336
151 131 241
152 63 166
153 71 368
154 272 228
155 25 290
156 441 157
157 13 266
158 251 376
159 61 170
160 386 357
161 95 475
162 90 298
163 71 388
164 383 246
165 352 38
166 395 1
167 120 210
168 46 383
169 202 198
170 358 365
171 191 352
172 470 152
173 228 124
174 402 230
175 323 229
176 331 486
177 112 208
178 172 435
179 326 498
180 460 183
181 95 279
182 76 456
183 242 350
184 152 196
185 268 351
186 360 356
187 39 296
188 262 368
189 204 90
190 149 273
191 446 86
192 139 269
193 483 170
194 39 278
195 201 307
196 395 378
197 139 262
198 176 447
199 67 380
200 35 358
201 294 455
202 351 33
203 216 316
204 261 96
205 238 57
206 383 18
207 152 460
208 94 479
209 337 453
210 135 460
211 260 104
212 337 63
213 32 247
214 394 205
215 95 294
216 253 241
217 223 90
218 64 473
219 275 431
220 261 84
221 176 296
222 361 349
223 168 433
224 394 10
225 308 60
226 94 456
227 73 484
228 277 434
229 119 232
230 78 375
231 366 346
232 125 181
233 69 493
234 432 80
235 72 391
236 85 486
237 204 371
238 173 328
239 280 423
240 200 327
241 241 98
242 96 356
243 332 491
244 81 283
245 373 22
246 255 371
247 358 359
248 216 93
249 73 360
250 305 212
251 151 462
252 47 389
253 155 198
254 152 457
255 329 48
256 88 394
257 153 295
258 81 373
259 163 453
260 378 25
261 401 385
262 184 340
263 402 362
264 70 482
265 357 445
266 212 71
267 231 81
268 379 208
269 236 95
270 386 344
271 189 200
272 296 253
273 73 303
274 30 162
275 230 95
276 57 131
277 379 245
278 107 221
279 154 458
280 290 417
281 272 243
282 94 130
283 222 356
284 243 108
285 224 93
286 155 242
287 440 302
288 221 102
289 52 484
290 111 244
291 132 273
292 228 186
293 221 374
294 406 286
295 390 9
296 335 52
297 189 368
298 397 40
299 408 305
300 156 434
301 180 335
302 327 483
303 363 62
304 375 342
305 16 280
306 277 431
307 110 241
308 48 385
309 152 260
310 255 120
311 214 382
312 414 384
313 232 378
314 80 141
315 188 330
316 157 192
317 101 237
318 74 360
319 267 260
320 378 46
321 420 311
322 384 217
323 418 300
324 356 77
325 253 244
326 323 258
327 293 454
328 231 97
329 316 234
330 207 196
331 321 228
332 382 17
333 206 326
334 198 284
335 137 186
336 229 396
337 268 235
338 95 243
339 297 430
340 393 368
341 66 391
342 189 339
343 280 351
344 241 77
345 134 265
346 420 95
347 111 279
348 367 358
349 239 373
350 384 235
351 284 360
352 325 75
353 279 369
354 340 449
355 275 448
356 447 88
357 314 279
358 434 377
359 67 377
360 370 353
361 57 367
362 332 486
363 386 361
364 55 282
365 317 467
366 335 54
367 348 466
368 132 314
369 328 216
370 416 48
371 370 55
372 149 434
373 466 169
374 141 267
375 258 350
376 428 312
377 211 188
378 50 343
379 107 311
380 178 441
381 232 85
382 391 23
383 137 227
384 161 203
385 363 212
386 384 346
387 166 434
388 274 248
389 156 421
390 346 211
391 265 358
392 96 407
393 443 70
394 125 212
395 361 337
396 322 78
397 481 156
398 188 293
399 76 408
400 130 304
401 378 363
402 185 301
403 385 235
404 261 350
405 389 33
406 151 214
407 265 94
408 65 164
409 293 81
410 363 55
411 465 176
412 428 298
413 75 379
414 404 378
415 203 203
416 259 88
417 362 17
418 320 258
419 59 358
420 316 453
421 225 192
422 140 206
423 83 151
424 366 196
425 108 245
426 129 267
427 57 379
428 329 56
429 213 363
430 76 391
431 330 259
432 136 217
433 165 333
434 160 431
435 338 489
436 335 64
437 412 361
438 259 90
439 265 77
440 460 173
441 83 301
442 201 331
443 118 214
444 395 30
445 125 444
446 283 248
447 391 334
448 212 215
449 276 428
450 96 152
451 425 85
452 336 7
453 196 219
454 210 94
455 310 81
456 341 37
457 344 478
458 406 37
459 69 346
460 80 376
461 314 449
462 209 201
463 88 379
464 352 500
465 65 357
466 345 15
467 125 245
468 52 369
469 449 140
470 430 310
471 109 325
472 446 139
473 229 214
474 197 301
475 146 245
476 401 368
477 116 259
478 374 55
479 249 251
480 325 490
481 59 159
482 186 177
483 319 229
484 26 269
485 53 139
486 471 154
487 301 247
488 388 220
489 235 81
490 347 479
491 367 59
492 261 370
493 441 287
494 44 153
495 263 351
496 444 157
497 374 17
498 448 295
499 446 297
500 347 40
501 318 493
502 399 352
503 51 364
504 250 217
505 107 225
506 173 208
507 204 189
508 399 379
509 79 346
510 360 338
511 390 17
512 207 337
513 409 361
514 206 377
515 429 294
516 375 31
517 426 80
518 74 374
519 408 20
520 239 369
521 420 308
522 254 357
523 53 297
524 434 382
525 204 171
526 173 169
527 190 332
528 274 231
529 207 194
530 315 232
531 425 87
532 312 64
533 129 244
534 278 230
535 351 75
536 185 293
537 364 364
538 432 369
539 128 249
540 221 179
541 194 296
542 413 350
543 214 372
544 379 229
545 91 298
546 226 120
547 344 46
548 238 84
549 138 276
550 346 487
551 95 160
552 103 266
553 98 286
554 77 172
555 147 199
556 210 98
557 428 292
558 121 236
559 336 479
560 203 369
561 296 232
562 87 369
563 247 88
564 104 246
565 67 302
566 114 296
567 394 356
568 192 306
569 16 285
570 419 310
571 389 221
572 129 264
573 172 483
574 325 251
575 151 436
576 263 91
577 401 15
578 253 382
579 247 89
580 283 229
581 366 341
582 392 213
583 167 304
584 477 154
585 234 383
586 199 327
587 140 220
588 144 266
589 432 105
590 368 325
591 202 386
592 325 246
593 430 86
594 200 195
595 440 295
596 77 287
597 187 362
598 131 207
599 405 5
600 125 226
601 254 335
602 212 168
603 281 279
604 326 241
605 152 241
606 71 139
607 46 277
608 393 13
609 87 454
610 86 359
611 220 192
612 426 279
613 131 267
614 200 297
615 299 442
616 265 218
617 398 231
618 312 74
619 99 307
620 22 283
621 67 160
622 390 42
623 44 279
624 200 182
625 458 303
626 298 438
627 62 301
628 112 251
629 184 354
630 140 180
631 269 428
632 123 206
633 36 284
634 272 233
635 320 231
636 211 180
637 114 169
638 245 239
639 117 204
640 316 254
641 169 443
642 212 96
643 119 285
644 71 163
645 78 361
646 354 219
647 389 233
648 90 391
649 209 307
650 363 351
651 405 47
652 278 329
653 261 371
654 302 470
655 373 205
656 381 20
657 90 277
658 46 341
659 50 138
660 61 437
661 331 252
662 440 81
663 384 206
664 232 87
665 59 471
666 174 304
667 106 248
668 410 287
669 206 313
670 412 367
671 412 300
672 206 295
673 329 459
674 177 436
675 266 264
676 308 235
677 260 330
678 49 136
679 356 28
680 428 384
681 220 362
682 437 61
683 365 360
684 107 168
685 220 177
686 347 21
687 293 245
688 267 436
689 216 96
690 383 351
691 289 240
692 129 185
693 291 450
694 387 21
695 116 255
696 50 368
697 121 249
698 404 346
699 77 360
700 447 102
701 366 16
702 348 16
703 353 346
704 54 485
705 319 77
706 83 282
707 384 24
708 52 469
709 199 200
710 273 234
711 16 281
712 151 442
713 223 114
714 191 308
715 448 297
716 386 28
717 106 295
718 387 224
719 96 377
720 86 361
721 211 107
722 43 125
723 369 351
724 388 228
725 325 228
726 490 159
727 420 78
728 396 4
729 222 317
730 389 198
731 322 454
732 241 391
733 256 117
734 298 255
735 74 363
736 345 496
737 167 169
738 23 306
739 317 62
740 319 257
741 129 255
742 59 377
743 138 272
744 317 251
745 279 436
746 371 207
747 263 372
748 50 347
749 275 236
750 334 47
751 50 383
752 170 338
753 245 109
754 69 475
755 54 372
756 198 334
757 380 228
758 425 118
759 80 398
760 366 57
761 67 463
762 226 86
763 59 480
764 40 378
765 250 367
766 157 436
767 463 161
768 266 250
769 51 162
770 194 353
771 383 41
772 247 82
773 457 142
774 244 94
775 441 63
776 244 371
777 174 444
778 94 247
779 320 225
780 316 80
781 155 447
782 211 308
783 297 442
784 200 342
785 44 325
786 438 60
787 80 374
788 59 163
789 236 92
790 414 66
791 34 279
792 475 156
793 404 310
794 367 239
795 210 359
796 133 278
797 446 169
798 188 356
799 312 252
800 69 485
801 413 353
802 54 446
803 56 357
804 230 105
805 196 302
806 391 373
807 101 295
808 234 350
809 215 108
810 142 457
811 283 425
812 77 397
813 105 317
814 382 213
815 213 76
816 417 56
817 183 340
818 123 242
819 475 136
820 377 246
821 310 484
822 47 280
823 57 456
824 313 266
825 475 145
826 400 376
827 290 416
828 277 369
829 91 303
830 194 301
831 254 238
832 215 91
833 500 162
834 56 287
835 289 452
836 378 326
837 197 350
838 243 88
839 250 72
840 101 290
841 351 480
842 67 357
843 128 240
844 253 81
845 307 227
846 233 441
847 311 47
848 292 456
849 183 187
850 392 31
851 103 251
852 300 443
853 420 295
854 427 64
855 372 354
856 101 263
857 141 454
858 146 461
859 298 430
860 148 270
861 76 287
862 308 55
863 143 257
864 393 2
865 385 28
866 204 291
867 132 272
868 206 379
869 69 383
870 245 96
871 431 301
872 448 94
873 199 305
874 95 356
875 328 498
876 108 222
877 341 26
878 63 454
879 222 357
880 416 364
881 127 278
882 140 252
883 218 298
884 432 87
885 216 300
886 438 72
887 184 178
888 345 468
889 150 435
890 395 365
891 208 371
892 190 292
893 78 479
894 104 198
895 346 13
896 47 388
897 315 57
898 110 199
899 323 60
900 308 82
901 216 374
902 326 253
903 308 232
904 118 223
905 149 444
906 95 395
907 117 319
908 262 352
909 468 135
910 351 31
911 361 15
912 195 300
913 397 27
914 179 311
915 77 133
916 66 397
917 366 352
918 221 87
919 347 23
920 176 358
921 229 78
922 272 246
923 293 67
924 140 265
925 238 83
926 136 296
927 218 98
928 290 440
929 29 302
930 290 425
931 124 247
932 442 287
933 294 64
934 74 165
935 382 245
936 405 24
937 211 97
938 88 390
939 37 295
940 359 371
941 186 372
942 116 446
943 293 249
944 83 228
945 96 269
946 179 284
947 368 219
948 66 359
949 189 338
950 163 277
951 5 296
952 152 478
953 366 34
954 429 80
955 464 178
956 138 196
957 87 481
958 425 99
959 241 362
960 207 289
961 264 365
962 102 289
963 233 346
964 78 141
965 196 348
966 216 92
967 444 309
968 313 263
969 211 198
970 314 436
971 217 189
972 197 178
973 60 497
974 206 312
975 197 351
976 305 233
977 297 250
978 71 348
979 11 269
980 247 447
981 386 213
982 292 434
983 436 301
984 145 221
985 224 96
986 59 128
987 489 150
988 152 225
989 426 85
990 415 73
991 440 70
992 320 476
993 57 132
994 405 311
995 109 250
996 428 314
997 40 288
998 175 282
999 298 456
1000 208 101
1001 342 52
1002 366 16
1003 432 105
1004 337 453
1005 441 157
1006 90 391
1007 390 42
1008 40 288
1009 428 292
1010 125 245
1011 252 347
1012 74 165
1013 77 287
1014 426 279
1015 232 85
1016 197 351
1017 71 388
1018 221 102
1019 325 228
1020 125 264
1021 222 357
1022 262 368
1023 123 206
PICKUP_AND_DELIVERY_SECTION
1 0 0 3914 0 0 0
2 -10 2528 2955 90 789 0
3 -30 1254 2779 90 528 0
4 20 1341 1691 90 0 978
5 -10 1219 2065 90 323 0
6 -40 1065 1100 90 234 0
7 20 2807 3281 90 0 785
8 -10 567 968 90 607 0
9 -20 311 707 90 540 0
10 30 192 1518 90 0 228
11 30 645 1510 90 0 665
12 20 1588 2999 90 0 53
13 20 127 697 90 0 454
14 -10 2474 3578 90 191 0
15 -20 126 839 90 190 0
16 10 2543 3439 0 0 1011
17 -10 1923 3356 90 312 0
18 -30 500 1483 90 964 0
19 -20 2762 3558 90 408 0
20 20 610 1636 90 0 325
21 -10 1096 2898 90 404 0
22 -30 2528 3703 90 485 0
23 -10 1721 3004 90 194 0
24 30 1271 1842 90 0 585
25 20 957 2784 90 0 742
26 -20 2699 3374 90 192 0
27 10 1534 2317 90 0 855
28 -10 305 2100 90 394 0
29 20 862 1102 90 0 195
30 20 1467 2286 90 0 494
31 20 1889 2886 90 0 373
32 10 2611 3114 90 0 732
33 -30 1547 2595 90 854 0
34 10 1378 2175 90 0 200
35 10 227 864 90 0 773
36 -20 2072 3120 90 514 0
37 -20 2082 2530 90 65 0
38 -10 383 907 90 863 0
39 20 364 995 90 0 952
40 -20 2075 3253 90 213 0
41 -20 1749 2591 90 972 0
42 -20 333 765 90 856 0
43 10 1620 1972 90 0 970
44 -10 2513 3213 90 179 0
45 20 983 1904 90 0 515
46 10 2901 3307 90 0 389
47 -30 2118 3643 90 321 0
48 10 1915 3268 90 0 672
49 -10 2015 3599 90 496 0
50 30 299 525 90 0 180
51 -30 142 993 90 588 0
52 10 2330 2581 90 0 518
53 -20 1905 2297 90 12 0
54 30 2338 2883 90 0 650
55 -10 1221 2622 90 340 0
56 10 1459 2134 90 0 861
57 -20 1690 2682 90 388 0
58 20 719 1886 90 0 905
59 10 513 1502 90 0 772
60 -20 1392 2351 90 598 0
61 10 2181 3017 90 0 741
62 -30 1322 2263 90 614 0
63 20 210 1804 90 0 471
64 -20 925 1172 90 416 0
65 20 353 1088 90 0 37
66 -20 1970 2168 90 397 0
67 -20 2298 3604 90 411 0
68 30 284 1067 90 0 747
69 20 1819 3002 90 0 616
70 -10 1638 2324 90 390 0
71 10 657 1313 90 0 466
72 20 1469 2087 90 0 645
73 10 1392 2140 90 0 872
74 10 110 633 90 0 522
75 -20 2045 2940 90 136 0
76 20 1636 3304 90 0 350
77 -10 262 1492 90 256 0
78 30 211 1699 90 0 687
79 30 180 1366 90 0 495
80 -10 1931 2303 90 542 0
81 -20 2313 2447 90 597 0
82 -20 2388 3619 90 469 0
83 -10 3272 3631 90 751 0
84 -20 1700 2600 90 802 0
85 -10 2334 2784 90 734 0
86 -30 1765 2482 90 994 0
87 30 223 697 90 0 414
88 10 2165 2519 90 0 378
89 20 179 998 90 0 428
90 -20 2922 3661 90 261 0
91 -10 1971 2965 90 892 0
92 -20 1423 1945 90 918 0
93 -10 1054 1927 90 822 0
94 -30 2552 3122 90 133 0
95 40 369 1017 90 0 969
96 -30 606 1141 90 641 0
97 10 258 1487 90 0 776
98 30 54 490 90 0 896
99 10 7 1158 90 0 500
100 -10 2295 2653 90 254 0
101 -10 2543 2831 90 244 0
102 20 2490 3380 0 0 1020
103 -20 2621 3157 90 443 0
104 -20 638 2043 90 605 0
105 -20 1167 1178 90 384 0
106 -20 2915 3586 90 508 0
107 10 604 1846 90 0 247
108 30 286 1620 90 0 166
109 10 122 1422 90 0 151
110 10 434 1527 90 0 633
111 20 179 578 90 0 513
112 20 158 1293 90 0 629
113 10 2413 3478 90 0 509
114 30 2932 3372 90 0 627
115 20 1733 2771 90 0 240
116 20 2208 3130 90 0 158
117 10 460 1424 90 0 696
118 10 320 1296 90 0 490
119 10 2374 3152 90 0 578
120 20 11 818 90 0 728
121 -20 2398 2729 90 875 0
122 20 637 1541 90 0 993
123 -10 1863 2938 90 229 0
124 -20 1545 3269 90 967 0
125 -20 1008 1545 90 202 0
126 -10 1567 2926 90 973 0
127 30 979 2029 90 0 795
128 -10 1500 2883 90 759 0
129 -10 2339 2961 90 326 0
130 -20 556 2794 90 962 0
131 10 148 1013 90 0 940
132 -30 1990 3293 90 786 0
133 30 188 1547 90 0 94
134 20 1097 2294 90 0 367
135 20 222 1104 90 0 955
136 20 1691 2665 90 0 75
137 10 1308 2081 90 0 488
138 20 550 979 90 0 704
139 -20 199 1464 90 834 0
140 -10 2472 3636 90 797 0
141 20 2368 3177 90 0 966
142 10 98 1791 90 0 752
143 10 1181 1839 90 0 301
144 40 399 721 90 0 739
145 10 1404 2148 90 0 976
146 20 2433 2805 90 0 226
147 -10 1546 2610 90 543 0
148 -10 910 1651 90 758 0
149 -40 1011 2053 90 826 0
150 10 2778 3594 90 0 677
151 -10 2539 3705 90 109 0
152 -20 2271 2893 90 450 0
153 -30 3083 3592 90 252 0
154 -10 1595 2630 90 710 0
155 -10 2335 3566 90 951 0
156 10 212 1343 0 0 1005
157 20 941 1626 90 0 738
158 -20 2928 3605 90 116 0
159 -20 2336 2640 90 659 0
160 -10 1255 1770 90 304 0
161 -20 2315 3551 90 208 0
162 10 1393 2974 90 0 565
163 20 896 2274 0 0 1017
164 -20 2583 3312 90 532 0
165 10 235 1588 90 0 245
166 -30 628 1305 90 108 0
167 -10 1041 1684 90 184 0
168 -20 1022 1714 90 308 0
169 30 1768 2949 90 0 709
170 30 1821 2990 90 0 222
171 20 117 1000 90 0 520
172 30 857 1756 90 0 792
173 20 127 408 90 0 266
174 -10 1988 2575 90 899 0
175 10 1432 2163 90 0 676
176 -30 1640 2526 90 243 0
177 -20 992 2371 90 600 0
178 -10 2782 3501 90 210 0
179 10 468 1735 90 0 44
180 -30 2829 2905 90 50 0
181 -20 157 1285 90 882 0
182 -20 622 1099 90 660 0
183 -20 2221 3560 90 846 0
184 10 160 425 90 0 167
185 10 1210 1850 90 0 246
186 -20 2691 2934 90 581 0
187 20 1541 2586 90 0 939
188 30 968 1516 0 0 1022
189 20 429 1918 90 0 753
190 20 120 465 90 0 15
191 10 2690 3569 90 0 14
192 20 1382 2234 90 0 26
193 -20 1956 2598 90 472 0
194 10 1153 2209 90 0 23
195 -20 1387 2199 90 29 0
196 10 1187 2244 90 0 880
197 -10 1142 1918 90 334 0
198 20 210 1282 90 0 858
199 20 1824 2893 90 0 735
200 -10 1226 1928 90 34 0
201 -10 2094 2919 90 280 0
202 20 386 1216 90 0 125
203 -30 2074 2724 90 293 0
204 40 154 1370 90 0 296
205 30 1148 1684 90 0 563
206 -30 1618 1828 90 519 0
207 -10 1169 1610 90 251 0
208 20 2889 2932 90 0 161
209 30 2475 3604 0 0 1004
210 10 1447 2282 90 0 178
211 20 146 1186 90 0 877
212 -10 1827 2424 90 255 0
213 20 600 1163 90 0 40
214 10 150 1106 90 0 544
215 10 398 1302 90 0 658
216 -20 2383 3447 90 396 0
217 -30 2382 3351 90 267 0
218 10 822 1907 90 0 763
219 10 638 2006 90 0 306
220 -10 731 897 90 310 0
221 20 953 1667 90 0 743
222 -30 2994 3197 90 170 0
223 -20 2635 3624 90 781 0
224 -20 481 2016 90 599 0
225 20 198 1651 90 0 853
226 -20 2361 3566 90 146 0
227 -30 2419 2632 90 761 0
228 -30 1256 1757 90 10 0
229 10 1833 2205 90 0 123
230 -20 212 1453 90 787 0
231 20 194 1262 90 0 270
232 -30 2290 3306 90 432 0
233 20 1532 2582 90 0 264
234 40 454 1523 90 0 6
235 10 908 2075 90 0 413
236 30 2338 3097 90 0 957
237 -10 374 1283 90 868 0
238 10 2284 2837 90 0 949
239 10 769 1293 90 0 601
240 -20 2469 3733 90 115 0
241 20 2842 3293 90 0 284
242 10 186 781 90 0 258
243 30 750 1832 90 0 176
244 10 1260 2148 90 0 101
245 -10 1931 2853 90 165 0
246 -10 1701 2877 90 185 0
247 -10 2353 3086 90 107 0
248 -20 2191 2914 90 285 0
249 -40 2521 3533 90 566 0
250 -20 1205 1267 90 691 0
251 10 1096 1869 90 0 207
252 30 902 1463 90 0 153
253 30 108 613 90 0 876
254 10 746 1847 90 0 100
255 10 1432 1839 90 0 212
256 10 325 1289 90 0 77
257 -10 2460 3718 90 545 0
258 -10 232 1108 90 242 0
259 10 494 1051 90 0 311
260 -10 1822 3155 90 452 0
261 20 2449 3438 90 0 90
262 -20 2599 3096 90 433 0
263 -30 1170 1712 90 890 0
264 -20 1801 3061 90 233 0
265 -10 2696 3602 90 550 0
266 -20 882 1686 90 173 0
267 30 1975 2990 90 0 217
268 10 558 1271 90 0 663
269 -10 1666 2728 90 642 0
270 -20 948 1689 90 231 0
271 -10 1543 2595 90 887 0
272 10 375 1453 90 0 640
273 10 2198 2757 90 0 459
274 -10 1775 2589 90 423 0
275 -10 1618 2340 90 721 0
276 -10 766 2199 90 481 0
277 -10 2454 3252 90 403 0
278 -20 179 1050 90 383 0
279 -20 786 1623 90 380 0
280 10 171 998 90 0 201
281 30 23 423 90 0 504
282 10 279 1083 90 0 606
283 -20 1625 1751 90 891 0
284 -20 2818 3463 90 241 0
285 20 2095 2447 90 0 248
286 10 540 1392 90 0 507
287 20 780 1939 90 0 499
288 20 2914 2963 0 0 1018
289 -20 1378 2145 90 708 0
290 -20 2073 2545 90 425 0
291 -10 1758 2808 90 474 0
292 20 67 913 90 0 556
293 30 809 1612 90 0 203
294 -10 2551 3664 90 570 0
295 30 1113 1573 90 0 656
296 -40 1218 2465 90 204 0
297 20 132 1330 90 0 429
298 -10 2099 3042 90 382 0
299 10 167 1607 90 0 521
300 -10 2500 3390 90 575 0
301 -10 1967 3355 90 143 0
302 20 1742 2615 90 0 673
303 -10 2384 3605 90 694 0
304 10 845 1192 90 0 160
305 10 2720 2974 90 0 400
306 -10 1218 1610 90 219 0
307 -10 2123 2309 90 628 0
308 20 587 1590 90 0 168
309 10 98 461 90 0 945
310 10 130 1078 90 0 220
311 -10 2259 2884 90 259 0
312 10 2453 3032 90 0 17
313 20 1839 2709 90 0 479
314 30 201 1240 90 0 915
315 -20 101 1324 90 442 0
316 -20 2659 3715 90 630 0
317 -10 1508 2314 90 851 0
318 -30 2556 3316 90 553 0
319 20 445 733 90 0 580
320 -10 2322 3584 90 865 0
321 30 452 1494 90 0 47
322 -40 1680 2098 90 655 0
323 10 175 1340 90 0 5
324 -10 2189 2469 90 535 0
325 -20 2314 3329 90 20 0
326 10 1131 1685 90 0 129
327 -10 2247 3134 90 626 0
328 -40 2487 3448 90 985 0
329 -20 2255 3228 90 604 0
330 20 2298 2992 90 0 462
331 30 1754 2805 90 0 530
332 -10 1336 2293 90 936 0
333 -40 2569 3737 90 387 0
334 10 62 1139 90 0 197
335 10 2772 3213 90 0 453
336 -20 1722 3677 90 941 0
337 -20 1416 2428 90 603 0
338 20 160 1517 90 0 995
339 -30 186 1143 90 827 0
340 10 185 1396 90 0 55
341 20 1003 2359 90 0 869
342 50 2397 3488 90 0 586
343 30 105 1263 90 0 808
344 30 904 1706 90 0 832
345 -10 2541 2950 90 998 0
346 30 230 706 90 0 531
347 30 141 607 90 0 807
348 30 1823 2603 90 0 683
349 10 1548 2422 90 0 866
350 -20 2472 3033 90 76 0
351 30 115 854 90 0 653
352 30 2004 2896 90 0 900
353 10 561 603 90 0 765
354 -10 2296 3606 90 888 0
355 -30 2784 3181 90 999 0
356 -20 2828 3258 90 816 0
357 10 70 742 90 0 932
358 -20 2003 2847 90 476 0
359 -40 1455 3076 90 460 0
360 10 520 1131 90 0 703
361 20 1700 2798 90 0 748
362 20 1862 2122 90 0 841
363 -10 972 2241 90 698 0
364 40 197 1069 90 0 623
365 20 227 893 90 0 821
366 -10 1505 2361 90 407 0
367 -20 1945 3382 90 134 0
368 -10 2307 3690 90 813 0
369 -20 1285 2699 90 981 0
370 -20 1545 2376 90 727 0
371 10 2911 3021 90 0 760
372 -10 1832 2735 90 719 0
373 -20 2125 3039 90 31 0
374 -10 1288 2141 90 912 0
375 -10 918 2886 90 961 0
376 -20 662 1666 90 793 0
377 10 341 1139 90 0 636
378 -10 2260 3408 90 88 0
379 -30 2808 2977 90 657 0
380 20 204 1559 90 0 279
381 10 1993 2784 0 0 1015
382 10 2200 3356 90 0 298
383 20 115 953 90 0 278
384 20 100 1008 90 0 105
385 30 3130 3577 90 0 487
386 -50 1185 1637 90 395 0
387 40 2354 3622 90 0 333
388 20 24 1128 90 0 57
389 -10 3369 3501 90 46 0
390 10 103 940 90 0 70
391 20 848 2016 90 0 885
392 20 219 1030 90 0 889
393 -10 2121 2968 90 989 0
394 10 711 1823 90 0 28
395 50 141 1661 90 0 386
396 20 2054 3034 90 0 216
397 20 1213 2148 90 0 66
398 -30 590 1245 90 830 0
399 30 685 1516 90 0 810
400 -10 1886 3693 90 305 0
401 30 1400 2258 90 0 537
402 -20 1394 1426 90 714 0
403 10 2035 3288 90 0 277
404 10 1609 2008 90 0 21
405 20 2157 3567 90 0 491
406 10 221 962 90 0 415
407 10 156 610 90 0 366
408 20 2083 3268 90 0 19
409 10 174 930 90 0 923
410 -20 2968 3157 90 913 0
411 20 2234 3124 90 0 67
412 -10 1187 2280 90 871 0
413 -10 1718 3577 90 235 0
414 -30 661 1213 90 87 0
415 -10 2440 3419 90 406 0
416 20 296 955 90 0 64
417 -20 1536 2391 90 750 0
418 -20 70 1855 90 740 0
419 20 1962 2915 90 0 948
420 20 213 798 90 0 731
421 20 63 1146 90 0 579
422 30 118 1002 90 0 587
423 10 194 1288 90 0 274
424 10 127 351 90 0 718
425 20 1601 2020 90 0 290
426 -10 1866 3254 90 881 0
427 20 726 1249 90 0 610
428 -20 1095 1980 90 89 0
429 -20 1088 1541 90 297 0
430 -30 1154 1641 90 906 0
431 30 640 1983 90 0 661
432 30 457 1499 90 0 232
433 20 2054 2868 90 0 262
434 -10 3089 3578 90 812 0
435 30 931 1844 90 0 457
436 10 1316 2751 90 0 794
437 10 1526 2130 90 0 538
438 30 491 943 90 0 847
439 20 830 994 90 0 862
440 -30 1996 3601 90 825 0
441 20 1929 2825 90 0 619
442 20 94 1508 90 0 315
443 20 136 1320 90 0 103
444 -10 2579 3174 90 651 0
445 -10 1451 2704 90 914 0
446 30 33 563 90 0 744
447 -30 358 1895 90 836 0
448 -20 2762 3718 90 482 0
449 20 635 1621 90 0 835
450 20 182 1146 90 0 152
451 -20 240 1237 90 958 0
452 10 1573 1755 90 0 260
453 -10 2781 3486 90 335 0
454 -20 831 1323 90 13 0
455 -20 2692 3161 90 576 0
456 20 231 1483 90 0 679
457 -30 2284 2468 90 435 0
458 40 264 1378 90 0 511
459 -10 2575 3508 90 273 0
460 40 211 1741 90 0 359
461 30 209 545 90 0 930
462 -20 2425 3241 90 330 0
463 20 655 884 90 0 764
464 30 1406 1765 90 0 559
465 -20 1707 3362 90 755 0
466 -10 1276 1849 90 71 0
467 20 2870 3294 0 0 1010
468 30 2065 2242 90 0 803
469 20 264 1356 90 0 82
470 30 748 1765 90 0 715
471 -20 2575 3602 90 63 0
472 20 312 1123 90 0 193
473 20 41 52 90 0 611
474 10 73 1620 90 0 291
475 20 104 1508 90 0 904
476 20 301 1186 90 0 358
477 -30 2221 3165 90 505 0
478 -20 2453 3290 90 577 0
479 -20 2856 3375 90 313 0
480 -10 290 1717 90 501 0
481 10 931 1435 90 0 276
482 20 1043 1839 90 0 448
483 10 2166 2579 90 0 635
484 30 815 1356 90 0 523
485 30 907 1681 90 0 22
486 20 860 1938 90 0 767
487 -30 2860 3773 90 385 0
488 -10 1164 1842 90 137 0
489 -30 987 2072 90 546 0
490 -10 2240 2698 90 118 0
491 -20 1945 3601 90 405 0
492 30 578 1721 90 0 883
493 40 2292 3630 90 0 977
494 -20 1902 2248 90 30 0
495 -30 994 2255 90 79 0
496 10 215 576 90 0 49
497 -30 1532 2479 90 919 0
498 10 2413 3196 90 0 668
499 -20 2113 2511 90 287 0
500 -10 231 1334 90 99 0
501 10 358 1452 90 0 480
502 -30 1167 1514 90 567 0
503 -20 1334 2601 90 717 0
504 -30 2099 3129 90 281 0
505 30 203 838 90 0 477
506 -30 1585 2337 90 988 0
507 -10 2222 2694 90 286 0
508 20 2421 3627 90 0 106
509 -10 2560 3628 90 113 0
510 10 243 461 90 0 723
511 -40 1406 1659 90 458 0
512 20 681 1089 90 0 965
513 -20 870 1403 90 111 0
514 20 134 1356 90 0 36
515 -20 1479 2566 90 45 0
516 20 1466 3064 90 0 850
517 20 244 1637 90 0 991
518 -10 2479 3005 90 52 0
519 30 279 1422 90 0 206
520 -20 1496 2286 90 171 0
521 -10 586 993 90 299 0
522 -10 1562 2623 90 74 0
523 -30 1986 3622 90 484 0
524 30 1832 2829 90 0 680
525 20 661 1415 90 0 762
526 10 1172 2104 90 0 529
527 20 514 857 90 0 756
528 30 1750 2662 90 0 3
529 -10 2003 3103 90 526 0
530 -30 2406 3261 90 331 0
531 -30 239 971 90 346 0
532 20 274 1049 90 0 164
533 -10 2395 3581 90 843 0
534 -30 1163 1930 90 675 0
535 10 2079 2389 90 0 324
536 10 601 1419 90 0 796
537 -30 1844 2775 90 401 0
538 -10 1632 2821 90 437 0
539 20 1083 1763 90 0 558
540 20 163 735 90 0 9
541 20 72 1830 90 0 924
542 10 1171 2104 90 0 80
543 10 986 1060 90 0 147
544 -10 707 1543 90 214 0
545 10 1926 2260 90 0 257
546 30 132 1157 90 0 489
547 30 1277 2203 90 0 705
548 -20 1481 1947 90 925 0
549 10 1614 2376 90 0 643
550 10 1340 2437 90 0 265
551 10 179 763 90 0 554
552 30 630 1654 90 0 829
553 30 1107 1727 90 0 318
554 -10 2585 3526 90 551 0
555 30 114 1531 90 0 984
556 -20 256 1345 90 292 0
557 10 1662 2199 0 0 1009
558 -20 1576 2651 90 539 0
559 -30 2079 2477 90 464 0
560 -20 325 1517 90 591 0
561 10 1146 1549 90 0 634
562 -20 201 497 90 583 0
563 -30 1411 2596 90 205 0
564 10 1054 1812 90 0 667
565 -10 2292 2854 90 162 0
566 40 143 1192 90 0 249
567 30 178 1252 90 0 502
568 -10 1043 2163 90 652 0
569 -20 2146 2998 90 929 0
570 10 184 1579 90 0 294
571 -10 1148 1675 90 746 0
572 -20 2286 3396 90 666 0
573 -20 677 1291 90 674 0
574 -10 1015 1996 90 943 0
575 10 1982 2951 90 0 300
576 20 159 805 90 0 455
577 20 363 1168 90 0 478
578 -10 2672 3669 90 119 0
579 -20 1862 2328 90 421 0
580 -20 816 2087 90 319 0
581 20 369 896 90 0 186
582 -30 1945 2400 90 757 0
583 20 99 814 90 0 562
584 10 1010 2162 90 0 833
585 -30 1876 2482 90 24 0
586 -50 2828 3450 90 342 0
587 -30 625 1141 90 422 0
588 30 107 1069 90 0 51
589 10 3469 3590 0 0 1003
590 30 139 1635 90 0 670
591 20 246 651 90 0 560
592 -10 1091 2109 90 902 0
593 -20 2217 3476 90 662 0
594 -20 1559 2971 90 737 0
595 -20 1561 2871 90 625 0
596 10 1520 2450 0 0 1013
597 20 1520 2211 90 0 81
598 20 543 1616 90 0 60
599 20 608 1123 90 0 224
600 20 1408 1530 90 0 177
601 -10 2833 3354 90 239 0
602 20 504 1375 90 0 713
603 20 505 1084 90 0 337
604 20 1276 2115 90 0 329
605 20 389 1357 90 0 104
606 -10 371 1403 90 282 0
607 10 405 933 90 0 8
608 -30 745 2130 90 864 0
609 40 709 1215 90 0 754
610 -20 2635 3628 90 427 0
611 -20 65 1095 90 473 0
612 30 2750 3635 0 0 1014
613 -30 2224 3080 90 867 0
614 30 68 1232 90 0 62
615 -20 1775 2194 90 745 0
616 -20 2301 2718 90 69 0
617 -10 1913 2840 90 724 0
618 -10 2355 3304 90 933 0
619 -20 2277 3311 90 441 0
620 30 1236 1550 90 0 791
621 10 2688 2852 90 0 644
622 20 2126 3210 0 0 1007
623 -40 208 1040 90 364 0
624 -20 1042 1424 90 849 0
625 20 2189 3032 90 0 595
626 10 194 1126 90 0 327
627 -30 2935 3630 90 114 0
628 10 1274 2151 90 0 307
629 -20 1432 2681 90 112 0
630 20 2410 3694 90 0 316
631 20 626 1823 90 0 928
632 10 1456 2475 0 0 1023
633 -10 1471 2084 90 110 0
634 -10 1454 2201 90 561 0
635 -10 1839 3090 90 483 0
636 -10 371 1304 90 377 0
637 -20 2107 3277 90 788 0
638 -20 2397 3629 90 921 0
639 30 1453 2103 90 0 684
640 -10 618 1043 90 272 0
641 30 461 699 90 0 96
642 10 476 1492 90 0 269
643 -10 2862 3424 90 549 0
644 -10 2551 3179 90 621 0
645 -20 2651 3620 90 72 0
646 -20 3390 3519 90 820 0
647 20 2039 3095 90 0 935
648 10 213 1224 0 0 1006
649 -30 1276 2506 90 873 0
650 -30 2479 3527 90 54 0
651 10 255 1038 90 0 444
652 10 83 1205 90 0 568
653 -30 592 1524 90 351 0
654 20 1603 3011 90 0 848
655 40 130 1466 90 0 322
656 -30 1433 2382 90 295 0
657 30 234 1251 90 0 379
658 -10 2386 3093 90 215 0
659 20 1876 2061 90 0 159
660 20 265 1330 90 0 182
661 -30 871 1556 90 431 0
662 20 2277 3212 90 0 593
663 -10 141 1631 90 268 0
664 30 932 2236 90 0 838
665 -30 1311 1817 90 11 0
666 20 93 1013 90 0 572
667 -10 901 2151 90 564 0
668 -10 2200 3660 90 498 0
669 -10 1812 2529 90 784 0
670 -30 607 1473 90 590 0
671 20 169 2097 90 0 996
672 -10 2387 3391 90 48 0
673 -20 2837 3092 90 302 0
674 20 199 458 90 0 573
675 30 335 1030 90 0 534
676 -10 2917 3513 90 175 0
677 -10 3041 3525 90 150 0
678 10 1418 2152 90 0 769
679 -20 354 1807 90 456 0
680 -30 2209 2840 90 524 0
681 -30 961 1861 90 901 0
682 20 1523 2814 90 0 775
683 -30 1509 2732 90 348 0
684 -30 2398 2791 90 639 0
685 20 78 1039 90 0 1000
686 20 956 1977 90 0 707
687 -30 3021 3781 90 78 0
688 -10 2940 3234 90 852 0
689 10 2400 2892 90 0 733
690 20 167 1003 90 0 917
691 20 687 1350 90 0 250
692 -30 2514 3273 90 956 0
693 -10 2248 3322 90 982 0
694 10 1197 2058 90 0 303
695 20 779 1860 90 0 818
696 -10 1690 2433 90 117 0
697 20 2309 2694 90 0 931
698 10 740 1745 90 0 363
699 -10 2863 3619 90 842 0
700 -20 2590 3578 90 990 0
701 20 1823 2292 0 0 1002
702 30 1497 2223 90 0 911
703 -10 2985 3403 90 360 0
704 -20 1693 2014 90 138 0
705 -30 2601 2675 90 547 0
706 10 1147 2078 90 0 907
707 -20 2011 3351 90 686 0
708 20 1105 1829 90 0 289
709 -30 2573 3477 90 169 0
710 10 1623 1849 90 0 154
711 -10 2586 2926 90 979 0
712 -10 2054 3071 90 916 0
713 -20 138 1246 90 602 0
714 20 82 1031 90 0 402
715 -30 2134 3291 90 470 0
716 20 1573 3564 90 0 771
717 20 459 1807 90 0 503
718 -10 863 2332 90 424 0
719 10 199 926 90 0 372
720 20 3081 3626 90 0 874
721 10 163 1059 90 0 275
722 -20 1289 2076 90 986 0
723 -10 248 1589 90 510 0
724 10 905 1724 90 0 617
725 20 1472 2309 0 0 1019
726 -20 1552 2402 90 819 0
727 20 1053 1903 90 0 370
728 -20 1055 1251 90 120 0
729 30 2076 2914 90 0 960
730 20 148 1176 90 0 947
731 -20 216 1228 90 420 0
732 -10 2807 3324 90 32 0
733 -10 2825 3669 90 689 0
734 10 48 923 90 0 85
735 -20 2460 3226 90 199 0
736 -30 1246 1729 90 992 0
737 20 1235 2232 90 0 594
738 -20 1743 2782 90 157 0
739 -40 255 1260 90 144 0
740 20 424 1047 90 0 418
741 -10 2448 3145 90 61 0
742 -20 1899 2436 90 25 0
743 -20 1267 2535 90 221 0
744 -30 681 1358 90 446 0
745 20 1478 1720 90 0 615
746 10 128 648 90 0 571
747 -30 491 1441 90 68 0
748 -20 2261 3023 90 361 0
749 -10 1361 1924 90 768 0
750 20 219 1207 90 0 417
751 10 1732 2206 90 0 83
752 -10 2064 2664 90 142 0
753 -20 2964 3374 90 189 0
754 -40 757 1781 90 609 0
755 20 1023 3118 90 0 465
756 -20 1622 2944 90 527 0
757 30 567 1867 90 0 582
758 10 219 342 90 0 148
759 10 533 1279 90 0 128
760 -10 2957 3355 90 371 0
761 30 570 757 90 0 227
762 -20 2291 3059 90 525 0
763 -10 1302 2024 90 218 0
764 -20 1170 1762 90 463 0
765 -10 1740 2645 90 353 0
766 -20 2138 3568 90 857 0
767 -20 2005 2961 90 486 0
768 10 181 796 90 0 749
769 -10 1791 2794 90 678 0
770 20 1216 1686 90 0 920
771 -20 2116 3415 90 716 0
772 -10 1368 2448 90 59 0
773 -10 233 1632 90 35 0
774 -20 1767 1983 90 870 0
775 -20 1632 3076 90 682 0
776 -10 1813 2967 90 97 0
777 10 208 784 90 0 798
778 -20 585 1280 90 944 0
779 20 1257 2931 90 0 845
780 30 2254 3209 90 0 831
781 20 2447 3056 90 0 223
782 -30 1369 2597 90 837 0
783 20 1411 2374 90 0 980
784 10 797 1356 90 0 669
785 -20 3241 3280 90 7 0
786 30 2095 2424 90 0 132
787 20 279 878 90 0 230
788 20 2249 2532 90 0 637
789 10 2034 2546 90 0 2
790 30 1368 1976 90 0 884
791 -30 1481 1691 90 620 0
792 -30 1404 1582 90 172 0
793 20 165 1321 90 0 376
794 -10 2628 3707 90 436 0
795 -30 1191 2106 90 127 0
796 -10 1538 2642 90 536 0
797 10 2920 3609 90 0 140
798 -10 1333 2590 90 777 0
799 20 393 1456 90 0 903
800 -30 2300 2377 90 893 0
801 10 1176 2285 90 0 806
802 20 343 391 90 0 84
803 -30 1128 2608 90 468 0
804 -10 2692 3384 90 844 0
805 20 74 832 90 0 950
806 -10 2695 3585 90 801 0
807 -30 543 1534 90 347 0
808 -30 2302 3092 90 343 0
809 -30 2068 3612 90 927 0
810 -30 1252 2094 90 399 0
811 -30 567 1308 90 859 0
812 10 446 1552 90 0 434
813 10 2718 3260 90 0 368
814 -20 1450 2140 90 897 0
815 -20 996 1763 90 937 0
816 20 1172 2553 90 0 356
817 -40 1978 3535 90 974 0
818 -20 2296 3697 90 695 0
819 20 739 1479 90 0 726
820 20 2316 3697 90 0 646
821 -20 480 931 90 365 0
822 10 341 624 90 0 93
823 20 282 724 90 0 878
824 20 68 838 90 0 983
825 30 759 1657 90 0 440
826 40 475 1210 90 0 149
827 30 170 588 90 0 339
828 30 264 716 90 0 963
829 -30 1857 2701 90 552 0
830 30 110 782 90 0 398
831 -30 1703 3748 90 780 0
832 -30 1699 3042 90 344 0
833 -10 1756 2581 90 584 0
834 20 197 1381 90 0 139
835 -20 2254 3501 90 449 0
836 30 148 1110 90 0 447
837 30 1122 1411 90 0 782
838 -30 1509 2112 90 664 0
839 -20 967 1444 90 971 0
840 -10 999 1462 90 860 0
841 -20 1171 2408 90 362 0
842 10 2418 3613 90 0 699
843 10 3148 3582 90 0 533
844 10 529 1682 90 0 804
845 -20 2504 3361 90 779 0
846 20 2468 3633 90 0 183
847 -30 712 1589 90 438 0
848 -20 2155 3041 90 654 0
849 20 1054 2642 90 0 624
850 -20 2515 3425 90 516 0
851 10 1077 1599 90 0 317
852 10 1886 2266 90 0 688
853 -20 1478 2187 90 225 0
854 30 1154 1589 90 0 33
855 -10 1825 2216 90 27 0
856 20 458 2013 90 0 42
857 20 1465 2068 90 0 766
858 -20 1128 2027 90 198 0
859 30 186 1377 90 0 811
860 10 103 328 90 0 840
861 -10 1469 2319 90 56 0
862 -20 382 1520 90 439 0
863 10 107 1834 90 0 38
864 30 424 1693 90 0 608
865 10 1609 3123 90 0 320
866 -10 2750 3217 90 349 0
867 30 1676 3072 90 0 613
868 10 136 1309 90 0 237
869 -20 2406 2695 90 341 0
870 20 1321 2245 90 0 774
871 10 1081 2016 90 0 412
872 -10 2970 3498 90 73 0
873 30 1106 2294 90 0 649
874 -20 3340 3637 90 720 0
875 20 786 1601 90 0 121
876 -30 1320 1834 90 253 0
877 -20 880 1857 90 211 0
878 -20 276 915 90 823 0
879 30 981 2212 0 0 1021
880 -10 1470 2565 90 196 0
881 10 1902 2470 90 0 426
882 20 110 1243 90 0 181
883 -30 2319 3253 90 492 0
884 -30 2402 3475 90 790 0
885 -20 2249 3137 90 391 0
886 -20 765 1592 90 954 0
887 10 1178 1890 90 0 271
888 10 2597 2916 90 0 354
889 -20 2148 2602 90 392 0
890 30 185 1571 90 0 263
891 20 135 1335 90 0 283
892 10 415 1236 90 0 91
893 30 671 1666 90 0 800
894 -10 1922 2844 90 898 0
895 20 1245 2288 90 0 953
896 -30 1015 1532 90 98 0
897 20 863 1639 90 0 814
898 10 1672 2902 90 0 894
899 10 827 1872 90 0 174
900 -30 2605 3433 90 352 0
901 30 128 2131 90 0 681
902 10 928 1309 90 0 592
903 -20 2884 3171 90 799 0
904 -20 134 1382 90 475 0
905 -20 2066 3244 90 58 0
906 30 212 988 90 0 430
907 -10 2885 3492 90 706 0
908 10 1106 2327 90 0 959
909 10 695 1328 90 0 987
910 -10 584 1202 90 1001 0
911 -30 1810 2587 90 702 0
912 10 208 867 90 0 374
913 20 1861 3075 90 0 410
914 10 93 788 90 0 445
915 -30 208 1578 90 314 0
916 10 847 1563 90 0 712
917 -20 2461 3358 90 690 0
918 20 1182 1784 90 0 92
919 30 1108 1252 90 0 497
920 -20 1742 2569 90 770 0
921 20 1765 3388 90 0 638
922 10 89 507 90 0 968
923 -10 187 1432 90 409 0
924 -20 957 2288 90 541 0
925 20 1082 2165 90 0 548
926 -30 2988 3702 90 946 0
927 30 1435 2729 90 0 809
928 -20 895 2508 90 631 0
929 20 1523 2808 90 0 569
930 -30 179 1381 90 461 0
931 -20 2175 3698 90 697 0
932 -10 2360 3448 90 357 0
933 10 191 1579 90 0 618
934 10 2620 3296 0 0 1012
935 -20 2781 3297 90 647 0
936 10 274 904 90 0 332
937 20 526 1258 90 0 815
938 30 214 1248 90 0 942
939 -20 1361 2581 90 187 0
940 -10 2163 2841 90 131 0
941 20 1328 2203 90 0 336
942 -30 1381 2575 90 938 0
943 10 43 533 90 0 574
944 20 466 993 90 0 778
945 -10 341 1748 90 309 0
946 30 919 1304 90 0 926
947 -20 652 1388 90 730 0
948 -20 3020 3454 90 419 0
949 -10 2389 3679 90 238 0
950 -20 2784 3733 90 805 0
951 10 2207 2726 90 0 155
952 -20 712 1478 90 39 0
953 -20 1649 2683 90 895 0
954 20 659 1132 90 0 886
955 -20 2562 2980 90 135 0
956 30 1763 2384 90 0 692
957 -30 2105 3522 90 236 0
958 20 231 935 90 0 451
959 -10 2284 2695 90 908 0
960 -30 2895 3259 90 729 0
961 10 943 1727 90 0 375
962 20 725 1918 90 0 130
963 -30 2170 3411 90 828 0
964 30 452 512 90 0 18
965 -20 800 1548 90 512 0
966 -20 1884 3039 90 141 0
967 20 2004 3006 90 0 124
968 -10 64 1044 90 922 0
969 -40 2312 3167 90 95 0
970 -10 1552 2810 90 43 0
971 20 253 1034 90 0 839
972 20 543 1733 90 0 41
973 10 1698 2215 90 0 126
974 40 1748 2412 90 0 817
975 20 378 2337 0 0 1016
976 -10 2564 3678 90 145 0
977 -40 3048 3777 90 493 0
978 -20 2628 3620 90 4 0
979 10 850 1531 90 0 711
980 -20 2880 3519 90 783 0
981 20 1497 2656 90 0 369
982 10 722 949 90 0 693
983 -20 785 2122 90 824 0
984 -30 434 1141 90 555 0
985 40 1980 2376 90 0 328
986 20 948 2205 90 0 722
987 -10 1449 2307 90 909 0
988 30 445 1702 90 0 506
989 10 263 1152 90 0 393
990 20 1339 1811 90 0 700
991 -20 1525 3378 90 517 0
992 30 338 869 90 0 736
993 -20 1096 1688 90 122 0
994 30 166 1060 90 0 86
995 -20 1142 2098 90 338 0
996 -20 502 1642 90 671 0
997 20 1363 2383 0 0 1008
998 10 761 1651 90 0 345
999 30 2152 2671 90 0 355
1000 -20 154 1436 90 685 0
1001 10 218 613 90 0 910
1002 -20 1823 2292 90 701 0
1003 -10 3469 3590 90 589 0
1004 -30 2475 3604 90 209 0
1005 -10 212 1343 90 156 0
1006 -10 213 1224 90 648 0
1007 -20 2126 3210 90 622 0
1008 -20 1363 2383 90 997 0
1009 -10 1662 2199 90 557 0
1010 -20 2870 3294 90 467 0
1011 -10 2543 3439 90 16 0
1012 -10 2620 3296 90 934 0
1013 -10 1520 2450 90 596 0
1014 -30 2750 3635 90 612 0
1015 -10 1993 2784 90 381 0
1016 -20 378 2337 90 975 0
1017 -20 896 2274 90 163 0
1018 -20 2914 2963 90 288 0
1019 -20 1472 2309 90 725 0
1020 -20 2490 3380 90 102 0
1021 -30 981 2212 90 879 0
1022 -30 968 1516 90 188 0
1023 -10 1456 2475 90 632 0
DEPOT_SECTION
1
-1
EOF
