NAME: lc2_10_7
TYPE: PDPTW
COMMENT: Li & Lim PDPTW benchmark converted from SINTEF format
DIMENSION: 1019
VEHICLES: 250
CAPACITY: 700
EDGE_WEIGHT_TYPE: EUC_2D
NODE_COORD_SECTION
1 250 250
2 212 101
3 266 231
4 89 284
5 430 298
6 435 77
7 25 293
8 43 269
9 216 117
10 294 437
11 79 479
12 365 18
13 225 125
14 448 103
15 143 266
16 252 347
17 403 390
18 67 153
19 90 168
20 302 235
21 259 355
22 149 183
23 19 297
24 209 358
25 56 388
26 115 269
27 377 356
28 113 229
29 205 343
30 48 137
31 467 157
32 220 394
33 436 54
34 54 357
35 456 154
36 216 307
37 280 224
38 90 270
39 166 452
40 17 283
41 196 192
42 94 275
43 292 445
44 329 471
45 326 57
46 95 466
47 429 282
48 229 364
49 457 160
50 452 154
51 113 289
52 67 387
53 368 17
54 341 367
55 410 364
56 80 281
57 321 224
58 73 395
59 259 76
60 121 203
61 118 256
62 236 361
63 78 371
64 301 53
65 382 197
66 491 160
67 453 164
68 277 371
69 272 212
70 386 218
71 353 32
72 59 389
73 414 62
74 278 357
75 101 179
76 396 234
77 74 390
78 332 55
79 272 365
80 418 355
81 216 380
82 440 173
83 89 358
84 66 491
85 317 234
86 439 297
87 394 367
88 58 364
89 290 75
90 346 344
91 131 269
92 236 96
93 29 282
94 418 385
95 148 225
96 166 464
97 266 373
98 201 273
99 255 245
100 220 379
101 85 317
102 125 264
103 131 253
104 184 188
105 128 209
106 373 364
107 389 342
108 420 20
109 132 218
110 32 256
111 406 339
112 191 397
113 72 341
114 35 308
115 169 360
116 222 381
117 96 292
118 311 496
119 220 384
120 259 243
121 349 476
122 63 159
123 112 243
124 448 302
125 343 27
126 67 485
127 220 359
128 147 435
129 317 235
130 43 355
131 368 340
132 450 72
133 400 364
134 355 480
135 450 153
136 126 188
137 380 223
138 71 453
139 54 287
140 420 168
141 219 89
142 189 327
143 191 309
144 301 67
145 484 161
146 77 483
147 241 375
148 428 64
149 403 361
150 257 336
151 131 241
152 63 166
153 71 368
154 272 228
155 25 290
156 441 157
157 13 266
158 251 376
159 61 170
160 386 357
161 95 475
162 90 298
163 71 388
164 383 246
165 352 38
166 395 1
167 120 210
168 46 383
169 202 198
170 358 365
171 191 352
172 470 152
173 228 124
174 402 230
175 323 229
176 331 486
177 112 208
178 172 435
179 326 498
180 460 183
181 95 279
182 76 456
183 242 350
184 152 196
185 268 351
186 360 356
187 39 296
188 262 368
189 204 90
190 149 273
191 446 86
192 139 269
193 483 170
194 39 278
195 201 307
196 395 378
197 139 262
198 176 447
199 67 380
200 35 358
201 294 455
202 351 33
203 216 316
204 261 96
205 238 57
206 383 18
207 152 460
208 94 479
209 337 453
210 135 460
211 260 104
212 337 63
213 32 247
214 394 205
215 95 294
216 253 241
217 223 90
218 64 473
219 275 431
220 261 84
221 176 296
222 361 349
223 168 433
224 394 10
225 308 60
226 94 456
227 73 484
228 277 434
229 119 232
230 78 375
231 366 346
232 125 181
233 69 493
234 432 80
235 72 391
236 85 486
237 204 371
238 173 328
239 280 423
240 200 327
241 241 98
242 96 356
243 332 491
244 81 283
245 373 22
246 255 371
247 358 359
248 216 93
249 73 360
250 305 212
251 151 462
252 47 389
253 155 198
254 152 457
255 329 48
256 88 394
257 153 295
258 81 373
259 163 453
260 378 25
261 401 385
262 184 340
263 402 362
264 70 482
265 357 445
266 212 71
267 231 81
268 379 208
269 236 95
270 386 344
271 189 200
272 296 253
273 73 303
274 30 162
275 230 95
276 57 131
277 379 245
278 107 221
279 154 458
280 290 417
281 272 243
282 94 130
283 222 356
284 243 108
285 224 93
286 155 242
287 440 302
288 221 102
289 52 484
290 111 244
291 132 273
292 228 186
293 221 374
294 406 286
295 390 9
296 335 52
297 189 368
298 397 40
299 408 305
300 156 434
301 180 335
302 327 483
303 363 62
304 375 342
305 16 280
306 277 431
307 110 241
308 48 385
309 152 260
310 255 120
311 214 382
312 414 384
313 232 378
314 80 141
315 188 330
316 157 192
317 101 237
318 74 360
319 267 260
320 378 46
321 420 311
322 384 217
323 418 300
324 356 77
325 253 244
326 323 258
327 293 454
328 231 97
329 316 234
330 207 196
331 321 228
332 382 17
333 206 326
334 198 284
335 137 186
336 229 396
337 268 235
338 95 243
339 297 430
340 393 368
341 66 391
342 189 339
343 280 351
344 241 77
345 134 265
346 420 95
347 111 279
348 367 358
349 239 373
350 384 235
351 284 360
352 325 75
353 279 369
354 340 449
355 275 448
356 447 88
357 314 279
358 434 377
359 67 377
360 370 353
361 57 367
362 332 486
363 386 361
364 55 282
365 317 467
366 335 54
367 348 466
368 132 314
369 328 216
370 416 48
371 370 55
372 149 434
373 466 169
374 141 267
375 258 350
376 428 312
377 211 188
378 50 343
379 107 311
380 178 441
381 232 85
382 391 23
383 137 227
384 161 203
385 363 212
386 384 346
387 166 434
388 274 248
389 156 421
390 346 211
391 265 358
392 96 407
393 443 70
394 125 212
395 361 337
396 322 78
397 481 156
398 188 293
399 76 408
400 130 304
401 378 363
402 185 301
403 385 235
404 261 350
405 389 33
406 151 214
407 265 94
408 65 164
409 293 81
410 363 55
411 465 176
412 428 298
413 75 379
414 404 378
415 203 203
416 259 88
417 362 17
418 320 258
419 59 358
420 316 453
421 225 192
422 140 206
423 83 151
424 366 196
425 108 245
426 129 267
427 57 379
428 329 56
429 213 363
430 76 391
431 330 259
432 136 217
433 165 333
434 160 431
435 338 489
436 335 64
437 412 361
438 259 90
439 265 77
440 460 173
441 83 301
442 201 331
443 118 214
444 395 30
445 125 444
446 283 248
447 391 334
448 212 215
449 276 428
450 96 152
451 425 85
452 336 7
453 196 219
454 210 94
455 310 81
456 341 37
457 344 478
458 406 37
459 69 346
460 80 376
461 314 449
462 209 201
463 88 379
464 352 500
465 65 357
466 345 15
467 125 245
468 52 369
469 449 140
470 430 310
471 109 325
472 446 139
473 229 214
474 197 301
475 146 245
476 401 368
477 116 259
478 374 55
479 249 251
480 325 490
481 59 159
482 186 177
483 319 229
484 26 269
485 53 139
486 471 154
487 301 247
488 388 220
489 235 81
490 347 479
491 367 59
492 261 370
493 441 287
494 44 153
495 263 351
496 444 157
497 374 17
498 448 295
499 446 297
500 347 40
501 318 493
502 399 352
503 51 364
504 250 217
505 107 225
506 173 208
507 204 189
508 399 379
509 79 346
510 360 338
511 390 17
512 207 337
513 409 361
514 206 377
515 429 294
516 375 31
517 426 80
518 74 374
519 408 20
520 239 369
521 420 308
522 254 357
523 53 297
524 434 382
525 204 171
526 173 169
527 190 332
528 274 231
529 207 194
530 315 232
531 425 87
532 312 64
533 129 244
534 278 230
535 351 75
536 185 293
537 364 364
538 432 369
539 128 249
540 221 179
541 194 296
542 413 350
543 214 372
544 379 229
545 91 298
546 226 120
547 344 46
548 238 84
549 138 276
550 346 487
551 95 160
552 103 266
553 98 286
554 77 172
555 147 199
556 210 98
557 428 292
558 121 236
559 336 479
560 203 369
561 296 232
562 87 369
563 247 88
564 104 246
565 67 302
566 114 296
567 394 356
568 192 306
569 16 285
570 419 310
571 389 221
572 129 264
573 172 483
574 325 251
575 151 436
576 263 91
577 401 15
578 253 382
579 247 89
580 283 229
581 366 341
582 392 213
583 167 304
584 477 154
585 234 383
586 199 327
587 140 220
588 144 266
589 432 105
590 368 325
591 202 386
592 325 246
593 430 86
594 200 195
595 440 295
596 77 287
597 187 362
598 131 207
599 405 5
600 125 226
601 254 335
602 212 168
603 281 279
604 326 241
605 152 241
606 71 139
607 46 277
608 393 13
609 87 454
610 86 359
611 220 192
612 426 279
613 131 267
614 200 297
615 299 442
616 265 218
617 398 231
618 312 74
619 99 307
620 22 283
621 67 160
622 390 42
623 44 279
624 200 182
625 458 303
626 298 438
627 62 301
628 112 251
629 184 354
630 140 180
631 269 428
632 123 206
633 36 284
634 272 233
635 320 231
636 211 180
637 114 169
638 245 239
639 117 204
640 316 254
641 169 443
642 212 96
643 119 285
644 71 163
645 78 361
646 354 219
647 389 233
648 90 391
649 209 307
650 363 351
651 405 47
652 278 329
653 261 371
654 302 470
655 373 205
656 381 20
657 90 277
658 46 341
659 50 138
660 61 437
661 331 252
662 440 81
663 384 206
664 232 87
665 59 471
666 174 304
667 106 248
668 410 287
669 206 313
670 412 367
671 412 300
672 206 295
673 329 459
674 177 436
675 266 264
676 308 235
677 260 330
678 49 136
679 356 28
680 428 384
681 220 362
682 437 61
683 365 360
684 107 168
685 220 177
686 347 21
687 293 245
688 267 436
689 216 96
690 383 351
691 289 240
692 129 185
693 291 450
694 387 21
695 116 255
696 50 368
697 121 249
698 404 346
699 77 360
700 447 102
701 366 16
702 348 16
703 353 346
704 54 485
705 319 77
706 83 282
707 384 24
708 52 469
709 199 200
710 273 234
711 16 281
712 151 442
713 223 114
714 191 308
715 448 297
716 386 28
717 106 295
718 387 224
719 96 377
720 86 361
721 211 107
722 43 125
723 369 351
724 388 228
725 325 228
726 490 159
727 420 78
728 396 4
729 222 317
730 389 198
731 322 454
732 241 391
733 256 117
734 298 255
735 74 363
736 345 496
737 167 169
738 23 306
739 317 62
740 319 257
741 129 255
742 59 377
743 138 272
744 317 251
745 279 436
746 371 207
747 263 372
748 50 347
749 275 236
750 334 47
751 50 383
752 170 338
753 245 109
754 69 475
755 54 372
756 198 334
757 380 228
758 425 118
759 80 398
760 366 57
761 67 463
762 226 86
763 59 480
764 40 378
765 250 367
766 157 436
767 463 161
768 266 250
769 51 162
770 194 353
771 383 41
772 247 82
773 457 142
774 244 94
775 441 63
776 244 371
777 174 444
778 94 247
779 320 225
780 316 80
781 155 447
782 211 308
783 297 442
784 200 342
785 44 325
786 438 60
787 80 374
788 59 163
789 236 92
790 414 66
791 34 279
792 475 156
793 404 310
794 367 239
795 210 359
796 133 278
797 446 169
798 188 356
799 312 252
800 69 485
801 413 353
802 54 446
803 56 357
804 230 105
805 196 302
806 391 373
807 101 295
808 234 350
809 215 108
810 142 457
811 283 425
812 77 397
813 105 317
814 382 213
815 213 76
816 417 56
817 183 340
818 123 242
819 475 136
820 377 246
821 310 484
822 47 280
823 57 456
824 313 266
825 475 145
826 400 376
827 290 416
828 277 369
829 91 303
830 194 301
831 254 238
832 215 91
833 500 162
834 56 287
835 289 452
836 378 326
837 197 350
838 243 88
839 250 72
840 101 290
841 351 480
842 67 357
843 128 240
844 253 81
845 307 227
846 233 441
847 311 47
848 292 456
849 183 187
850 392 31
851 103 251
852 300 443
853 420 295
854 427 64
855 372 354
856 101 263
857 141 454
858 146 461
859 298 430
860 148 270
861 76 287
862 308 55
863 143 257
864 393 2
865 385 28
866 204 291
867 132 272
868 206 379
869 69 383
870 245 96
871 431 301
872 448 94
873 199 305
874 95 356
875 328 498
876 108 222
877 341 26
878 63 454
879 222 357
880 416 364
881 127 278
882 140 252
883 218 298
884 432 87
885 216 300
886 438 72
887 184 178
888 345 468
889 150 435
890 395 365
891 208 371
892 190 292
893 78 479
894 104 198
895 346 13
896 47 388
897 315 57
898 110 199
899 323 60
900 308 82
901 216 374
902 326 253
903 308 232
904 118 223
905 149 444
906 95 395
907 117 319
908 262 352
909 468 135
910 351 31
911 361 15
912 195 300
913 397 27
914 179 311
915 77 133
916 66 397
917 366 352
918 221 87
919 347 23
920 176 358
921 229 78
922 272 246
923 293 67
924 140 265
925 238 83
926 136 296
927 218 98
928 290 440
929 29 302
930 290 425
931 124 247
932 442 287
933 294 64
934 74 165
935 382 245
936 405 24
937 211 97
938 88 390
939 37 295
940 359 371
941 186 372
942 116 446
943 293 249
944 83 228
945 96 269
946 179 284
947 368 219
948 66 359
949 189 338
950 163 277
951 5 296
952 152 478
953 366 34
954 429 80
955 464 178
956 138 196
957 87 481
958 425 99
959 241 362
960 207 289
961 264 365
962 102 289
963 233 346
964 78 141
965 196 348
966 216 92
967 444 309
968 313 263
969 211 198
970 314 436
971 217 189
972 197 178
973 60 497
974 206 312
975 197 351
976 305 233
977 297 250
978 71 348
979 11 269
980 247 447
981 386 213
982 292 434
983 436 301
984 145 221
985 224 96
986 59 128
987 489 150
988 152 225
989 426 85
990 415 73
991 440 70
992 320 476
993 57 132
994 405 311
995 109 250
996 428 314
997 40 288
998 175 282
999 298 456
1000 208 101
1001 342 52
1002 156 421
1003 383 41
1004 57 367
1005 297 442
1006 327 483
1007 446 169
1008 448 103
1009 62 301
1010 278 230
1011 63 166
1012 420 295
1013 284 360
1014 365 360
1015 247 82
1016 101 290
1017 129 185
1018 128 249
1019 132 273
PICKUP_AND_DELIVERY_SECTION
1 0 0 3914 0 0 0
2 -10 2507 2976 90 689 0
3 -10 1617 2416 90 561 0
4 -20 1109 1922 90 962 0
5 10 1179 2104 90 0 595
6 20 822 1343 90 0 816
7 -20 2667 3420 90 834 0
8 30 362 1173 90 0 23
9 10 201 817 90 0 1000
10 -20 474 1008 90 339 0
11 -20 707 1448 90 802 0
12 -20 2036 2551 90 686 0
13 20 127 1025 90 0 721
14 30 3190 3578 0 0 1008
15 10 108 868 90 0 717
16 10 2465 3517 90 0 601
17 -30 2146 3133 90 567 0
18 20 653 1330 90 0 993
19 -10 3003 3317 90 934 0
20 20 901 1345 90 0 250
21 20 1811 2183 90 0 522
22 -30 2911 3466 90 964 0
23 -30 2188 2536 90 8 0
24 30 1088 2025 90 0 975
25 -20 1435 2307 90 163 0
26 -20 2988 3085 90 619 0
27 10 1319 2533 90 0 54
28 30 802 1603 90 0 426
29 20 572 1392 90 0 442
30 -30 1429 2324 90 314 0
31 -30 2134 2640 90 193 0
32 -10 2514 3211 90 207 0
33 -40 1867 2276 90 234 0
34 -30 1428 2125 90 938 0
35 10 227 1087 90 0 773
36 20 2160 3032 90 0 883
37 -30 1943 2669 90 528 0
38 -20 617 674 90 190 0
39 20 305 1054 90 0 254
40 -30 2193 3134 90 569 0
41 -10 1894 2445 90 624 0
42 10 173 924 90 0 657
43 10 1639 1954 90 0 980
44 -10 2700 3026 90 490 0
45 20 1061 1826 90 0 366
46 -10 2567 3559 90 957 0
47 20 2906 3290 90 0 294
48 -20 2283 2901 90 765 0
49 -30 2577 3564 90 767 0
50 30 223 1033 90 0 66
51 10 142 690 90 0 807
52 -30 2145 2767 90 399 0
53 -20 1814 2389 90 679 0
54 -10 2083 3138 90 27 0
55 30 1524 2319 90 0 222
56 10 1355 2238 90 0 273
57 -10 1843 2529 90 326 0
58 20 917 1688 90 0 699
59 -20 654 1362 90 439 0
60 10 1712 2031 90 0 232
61 -10 2154 3044 90 628 0
62 -20 1723 1863 90 591 0
63 20 210 1033 90 0 460
64 20 917 1181 90 0 205
65 20 203 1238 90 0 584
66 -30 1808 2330 90 50 0
67 -20 2842 3490 90 411 0
68 30 325 1025 90 0 908
69 20 2198 2622 90 0 616
70 20 1642 2320 90 0 164
71 10 795 1175 90 0 296
72 20 1232 2323 90 0 359
73 10 1470 2061 90 0 393
74 10 110 645 90 0 808
75 20 2011 2974 90 0 637
76 -10 1875 3065 90 571 0
77 -20 424 1330 90 787 0
78 -10 211 640 90 99 0
79 30 446 1099 90 0 97
80 -10 1864 2371 90 542 0
81 -30 2345 2415 90 98 0
82 -10 2658 3619 90 214 0
83 -10 2905 3631 90 503 0
84 -30 1642 2658 90 906 0
85 10 2150 2967 90 0 129
86 30 1785 2462 90 0 932
87 -30 303 617 90 890 0
88 -30 2026 2659 90 946 0
89 20 179 413 90 0 862
90 -20 2917 3667 90 650 0
91 -30 2231 2705 90 197 0
92 -20 1612 1756 90 870 0
93 10 1269 1712 90 0 187
94 -30 2687 2987 90 133 0
95 40 105 1306 90 0 192
96 10 431 1317 90 0 712
97 -30 737 1008 90 79 0
98 30 54 913 90 0 81
99 10 7 787 90 0 78
100 -30 2158 2790 90 879 0
101 -10 2133 3241 90 309 0
102 -40 2776 3095 90 566 0
103 -20 2347 3430 90 425 0
104 -20 1001 1679 90 636 0
105 20 696 1650 90 0 684
106 -30 2717 3657 90 524 0
107 -20 718 1732 90 447 0
108 30 430 880 90 0 320
109 10 122 1194 90 0 600
110 10 635 1327 90 0 979
111 20 179 796 90 0 977
112 20 158 774 90 0 514
113 -20 2693 3199 90 605 0
114 -20 2683 3602 90 213 0
115 -30 2056 2448 90 629 0
116 20 2320 3019 90 0 336
117 10 389 1496 90 0 553
118 -30 432 1183 90 461 0
119 -30 2502 3024 90 520 0
120 20 11 518 90 0 746
121 10 2402 2724 90 0 673
122 20 1051 1126 90 0 621
123 -10 2215 2586 90 851 0
124 -10 2025 2789 90 323 0
125 -20 1183 1369 90 954 0
126 40 1768 2725 90 0 264
127 -10 1331 1678 90 914 0
128 -20 1855 2527 90 952 0
129 -10 2310 2989 90 85 0
130 20 1454 1896 90 0 509
131 -30 296 785 90 590 0
132 -20 2562 2721 90 727 0
133 30 574 725 90 0 94
134 -20 1545 1846 90 736 0
135 -10 372 854 90 156 0
136 -10 1672 2683 90 551 0
137 10 1265 2124 90 0 724
138 -10 639 890 90 719 0
139 20 199 1177 90 0 364
140 -50 2900 3636 90 987 0
141 -10 2564 2981 90 762 0
142 10 98 958 90 0 920
143 10 1265 1755 90 0 203
144 40 189 1042 90 0 532
145 -20 1350 2203 90 833 0
146 -20 2577 2661 90 823 0
147 -20 1808 2349 90 681 0
148 20 1124 1438 90 0 990
149 -20 1190 1875 90 476 0
150 -30 2802 3570 90 732 0
151 -20 2739 3705 90 695 0
152 30 2349 2816 0 0 1011
153 -20 3239 3435 90 518 0
154 -10 1832 2394 90 710 0
155 -10 2406 3495 90 194 0
156 10 212 850 90 0 135
157 20 821 1747 90 0 791
158 -30 2901 3631 90 999 0
159 -10 1990 2985 90 274 0
160 20 1118 1907 90 0 186
161 -10 2654 3355 90 878 0
162 10 1967 2401 90 0 471
163 20 1200 1970 90 0 25
164 -20 2377 3518 90 70 0
165 10 563 848 90 0 547
166 -40 912 1021 90 458 0
167 -20 975 1749 90 443 0
168 -20 1043 1693 90 308 0
169 -20 1736 2980 90 685 0
170 -30 1946 2866 90 855 0
171 20 117 582 90 0 677
172 -20 1088 1525 90 730 0
173 20 127 883 90 0 556
174 -20 2148 2415 90 947 0
175 10 1544 2052 90 0 483
176 10 1559 2607 90 0 559
177 -20 1494 1868 90 598 0
178 -20 2648 3624 90 223 0
179 -30 773 1429 90 992 0
180 10 2720 3015 90 0 385
181 20 182 727 90 0 945
182 30 342 1379 90 0 249
183 -20 2392 3389 90 766 0
184 -30 122 462 90 253 0
185 10 926 2133 90 0 246
186 -20 2642 2983 90 160 0
187 -10 1600 2526 90 93 0
188 -10 1184 1299 90 652 0
189 20 827 1521 90 0 921
190 20 103 731 90 0 38
191 -10 2922 3350 90 884 0
192 -40 1442 2174 90 95 0
193 30 1897 2656 90 0 31
194 10 1474 1889 90 0 155
195 10 1467 2119 90 0 479
196 -10 1501 1931 90 360 0
197 30 1145 1915 90 0 91
198 20 210 1241 90 0 259
199 20 2183 2534 90 0 645
200 -10 1097 2056 90 258 0
201 -10 2402 2611 90 280 0
202 20 324 1277 90 0 255
203 -10 2148 2649 90 143 0
204 -10 254 801 90 310 0
205 -20 1104 1728 90 64 0
206 -40 1151 2294 90 224 0
207 10 885 1894 90 0 32
208 -30 2430 3390 90 704 0
209 -30 2947 3183 90 464 0
210 -30 1738 1992 90 573 0
211 20 146 1220 90 0 985
212 -10 1825 2426 90 899 0
213 20 489 1274 90 0 114
214 10 331 718 90 0 82
215 -30 705 996 90 588 0
216 -20 2514 3316 90 428 0
217 -10 2646 3087 90 381 0
218 10 840 1889 90 0 973
219 10 849 1794 90 0 631
220 10 503 1124 90 0 774
221 20 1027 1592 90 0 419
222 -30 2598 3594 90 55 0
223 20 2923 3548 90 0 178
224 40 792 1705 90 0 206
225 20 363 1349 90 0 733
226 -20 2864 3544 90 665 0
227 -10 2226 2825 90 800 0
228 -20 1043 1971 90 449 0
229 -30 1536 2502 90 432 0
230 10 273 516 90 0 463
231 20 591 864 90 0 270
232 -10 2351 3245 90 60 0
233 20 1562 2552 90 0 434
234 40 613 1363 90 0 33
235 -20 1096 1888 90 392 0
236 -10 2275 3161 90 763 0
237 -20 509 1148 90 527 0
238 10 2218 2904 90 0 333
239 -30 741 1322 90 930 0
240 -10 2620 3733 90 586 0
241 -10 2998 3136 90 789 0
242 -20 186 579 90 583 0
243 -10 1014 1568 90 501 0
244 -10 1373 2035 90 706 0
245 -20 2036 2748 90 332 0
246 -10 2076 2503 90 185 0
247 -30 2273 3165 90 363 0
248 -30 2082 3023 90 438 0
249 -30 2711 3344 90 182 0
250 -20 938 1533 90 20 0
251 -10 1043 1921 90 777 0
252 30 1054 1310 90 0 978
253 30 108 332 90 0 184
254 -20 971 1623 90 39 0
255 -20 1327 1943 90 202 0
256 10 723 891 90 0 842
257 -10 3398 3526 90 658 0
258 10 520 820 90 0 200
259 -20 296 1249 90 198 0
260 -20 2086 2890 90 911 0
261 -30 2674 3214 90 513 0
262 -20 2500 3195 90 752 0
263 -20 1005 1876 90 670 0
264 -40 2298 2564 90 126 0
265 -10 3082 3452 90 550 0
266 -10 1044 1524 90 642 0
267 30 2153 2812 90 0 809
268 10 851 978 90 0 487
269 -10 1944 2451 90 409 0
270 -20 1210 1427 90 231 0
271 10 1486 2653 90 0 594
272 -30 662 1167 90 675 0
273 -10 2036 2919 90 56 0
274 10 2001 2363 90 0 159
275 -10 1578 2380 90 407 0
276 -30 1165 1800 90 606 0
277 -20 2734 2972 90 617 0
278 40 145 1242 90 0 453
279 20 903 1507 90 0 445
280 10 171 725 90 0 201
281 30 23 626 90 0 922
282 10 651 712 90 0 986
283 20 1494 1882 90 0 585
284 -10 2869 3412 90 933 0
285 -20 2055 2486 90 416 0
286 10 891 1041 90 0 907
287 -10 693 2026 90 299 0
288 20 2392 3484 90 0 804
289 -20 1284 2238 90 660 0
290 10 1955 2663 90 0 931
291 10 2103 2464 0 0 1019
292 20 67 717 90 0 918
293 -20 796 1625 90 297 0
294 -20 3157 3631 90 47 0
295 30 770 1916 90 0 913
296 -10 1435 2248 90 71 0
297 20 132 1109 90 0 293
298 -10 2249 2893 90 382 0
299 10 167 1044 90 0 287
300 -10 2845 3046 90 810 0
301 20 2023 3299 90 0 342
302 20 1855 2501 0 0 1006
303 -10 2533 3605 90 371 0
304 -50 715 1323 90 395 0
305 -10 2515 3179 90 822 0
306 30 1053 1774 90 0 688
307 -30 1967 2464 90 552 0
308 20 963 1214 90 0 168
309 10 98 588 90 0 101
310 10 130 1051 90 0 204
311 30 2265 2878 90 0 959
312 10 2497 2988 90 0 806
313 -10 1737 2811 90 868 0
314 30 356 792 90 0 30
315 -20 565 621 90 805 0
316 -20 2830 3715 90 894 0
317 20 1739 2082 90 0 558
318 -30 2595 3278 90 413 0
319 20 37 1141 90 0 603
320 -30 3101 3240 90 108 0
321 30 769 1177 90 0 515
322 -10 1638 2140 90 544 0
323 10 590 792 90 0 124
324 20 2312 2347 90 0 455
325 -30 2698 2946 90 580 0
326 10 1095 1721 90 0 57
327 20 2653 2729 90 0 693
328 -30 2408 3527 90 563 0
329 -20 2309 3173 90 635 0
330 -10 2521 2769 90 507 0
331 -20 1917 2643 90 725 0
332 20 1624 2004 90 0 245
333 -10 3271 3381 90 238 0
334 10 62 603 90 0 830
335 -30 2840 3145 90 956 0
336 -20 2681 3244 90 116 0
337 -20 1558 2286 90 749 0
338 20 698 980 90 0 898
339 20 196 721 90 0 10
340 10 185 1462 90 0 502
341 -10 1344 2017 90 648 0
342 -20 2423 3463 90 301 0
343 30 105 952 90 0 745
344 -20 915 1696 90 923 0
345 -10 2493 2998 90 876 0
346 30 230 1162 90 0 577
347 30 141 866 90 0 995
348 30 1937 2489 90 0 940
349 -10 1321 2650 90 543 0
350 -40 2669 2836 90 655 0
351 30 214 564 0 0 1013
352 -10 2162 2738 90 436 0
353 10 229 935 90 0 828
354 -10 2418 3606 90 480 0
355 10 2743 3221 90 0 846
356 -10 2453 3569 90 991 0
357 10 70 1003 90 0 574
358 -10 2132 2719 90 698 0
359 -20 2008 2523 90 72 0
360 10 717 934 90 0 196
361 20 1890 2607 0 0 1004
362 20 1754 2231 90 0 888
363 30 1139 2075 90 0 247
364 -20 289 480 90 139 0
365 -30 227 1237 90 859 0
366 -20 1621 2245 90 45 0
367 -30 2360 2967 90 841 0
368 -10 2679 3690 90 874 0
369 -20 1688 2296 90 799 0
370 10 1630 2290 90 0 775
371 10 2370 3562 90 0 303
372 -30 2041 2526 90 641 0
373 30 2443 2720 90 0 440
374 -30 1327 2103 90 587 0
375 -20 1688 2116 90 653 0
376 10 939 1388 90 0 499
377 -20 301 1179 90 473 0
378 -10 2570 3097 90 536 0
379 -20 2603 3183 90 861 0
380 20 204 551 90 0 889
381 10 2324 2453 90 0 217
382 10 2325 3232 90 0 298
383 20 115 291 90 0 632
384 20 100 898 90 0 422
385 -10 2911 3705 90 180 0
386 -20 964 1858 90 581 0
387 -20 2956 3134 90 942 0
388 20 274 507 90 0 687
389 30 2797 3629 0 0 1002
390 10 103 834 90 0 718
391 20 1156 1709 90 0 404
392 20 313 715 90 0 235
393 -10 2469 2619 90 73 0
394 -30 1162 1371 90 505 0
395 50 141 1011 90 0 304
396 -10 2300 2788 90 535 0
397 -10 1244 2116 90 943 0
398 30 482 1353 90 0 541
399 30 640 1561 90 0 52
400 -20 3045 3465 90 402 0
401 30 1621 2036 90 0 537
402 20 1210 1611 90 0 400
403 -20 2408 2914 90 582 0
404 -20 1387 2231 90 391 0
405 -20 3038 3088 90 716 0
406 10 402 781 90 0 743
407 10 192 485 90 0 275
408 -20 2276 3074 90 659 0
409 10 174 318 90 0 269
410 -20 2681 3445 90 850 0
411 20 2652 2705 90 0 67
412 -20 1356 2111 90 983 0
413 30 2217 3078 90 0 318
414 10 718 1155 90 0 801
415 -20 2579 3281 90 540 0
416 20 162 1090 90 0 285
417 -30 1535 2392 90 919 0
418 20 509 780 90 0 744
419 -20 2381 2496 90 221 0
420 20 213 1055 90 0 435
421 20 63 720 90 0 506
422 -20 409 566 90 384 0
423 10 194 1265 90 0 494
424 10 127 906 90 0 469
425 20 1459 2162 90 0 103
426 -30 2342 2778 90 28 0
427 20 560 1415 90 0 465
428 20 1311 1763 90 0 216
429 30 954 1674 90 0 837
430 -10 1076 1719 90 812 0
431 -20 834 1788 90 968 0
432 30 678 1278 90 0 229
433 -20 2339 2583 90 714 0
434 -20 3006 3622 90 233 0
435 -20 1168 1607 90 420 0
436 10 1740 2326 90 0 352
437 10 1554 2103 90 0 917
438 30 239 1195 90 0 248
439 20 739 1085 90 0 59
440 -30 2694 3241 90 373 0
441 20 2148 2606 90 0 572
442 -20 311 1263 90 29 0
443 20 136 566 90 0 167
444 -20 2459 3293 90 516 0
445 -20 1667 2488 90 279 0
446 30 33 448 90 0 825
447 20 885 1368 90 0 107
448 -30 3177 3303 90 969 0
449 20 1007 1248 90 0 228
450 20 182 789 90 0 644
451 10 353 880 90 0 466
452 10 1509 1820 90 0 701
453 -40 2864 3404 90 278 0
454 -30 676 1478 90 546 0
455 -20 2501 3352 90 324 0
456 20 231 1079 90 0 618
457 -30 2002 2751 90 821 0
458 40 264 1247 90 0 166
459 -20 2786 3297 90 764 0
460 -20 211 1467 90 63 0
461 30 209 1063 90 0 118
462 -20 2292 3375 90 611 0
463 -10 603 936 90 230 0
464 30 1282 1889 90 0 209
465 -20 2087 2981 90 427 0
466 -10 1178 1946 90 451 0
467 -10 2907 3258 90 564 0
468 30 1482 2824 90 0 948
469 -10 539 1082 90 424 0
470 30 666 1846 90 0 557
471 -10 2987 3190 90 162 0
472 20 292 1143 90 0 958
473 20 41 767 90 0 377
474 10 146 380 90 0 795
475 20 464 1089 90 0 881
476 20 316 1171 90 0 149
477 -20 2493 2893 90 667 0
478 -20 2785 2958 90 622 0
479 -10 2717 3515 90 195 0
480 10 771 1236 90 0 354
481 10 789 1577 90 0 788
482 -20 1264 1618 90 602 0
483 -10 2038 2707 90 175 0
484 30 828 1342 90 0 620
485 -10 1093 1494 90 915 0
486 20 1123 1675 90 0 792
487 -10 2797 3773 90 268 0
488 20 1161 1845 90 0 814
489 -20 1081 1978 90 713 0
490 10 2278 2661 90 0 44
491 -20 3045 3453 90 656 0
492 -10 1019 1279 90 747 0
493 -10 2850 3140 90 498 0
494 -10 1746 2405 90 423 0
495 -10 1571 1679 90 961 0
496 10 215 1022 90 0 886
497 -10 1406 2604 90 989 0
498 10 2533 3075 90 0 493
499 -10 1991 2633 90 376 0
500 -10 231 1089 90 1001 0
501 10 643 1167 90 0 243
502 -10 897 1783 90 340 0
503 10 1390 2545 90 0 83
504 -30 2237 2991 90 832 0
505 30 228 813 90 0 394
506 -20 1942 1981 90 421 0
507 10 2409 2507 90 0 330
508 -10 2562 3518 90 538 0
509 -20 3062 3398 90 130 0
510 10 140 920 90 0 703
511 -30 1086 1979 90 519 0
512 20 97 1687 90 0 568
513 30 661 1612 90 0 261
514 -20 134 1290 90 112 0
515 -30 1878 2167 90 321 0
516 20 2136 2395 90 0 444
517 20 426 1178 90 0 877
518 20 2716 2768 90 0 153
519 30 495 612 90 0 511
520 30 1521 2261 90 0 119
521 -20 569 1009 90 793 0
522 -20 1545 2639 90 21 0
523 -20 3289 3471 90 997 0
524 30 1930 2730 90 0 106
525 -20 799 1278 90 971 0
526 10 1276 2000 90 0 529
527 20 314 1057 90 0 237
528 30 1816 2596 90 0 37
529 -10 2068 3039 90 526 0
530 -20 2421 3246 90 640 0
531 20 239 1115 90 0 865
532 -40 246 1078 90 144 0
533 -20 2767 3210 90 856 0
534 10 1456 1637 0 0 1010
535 10 1696 2772 90 0 396
536 10 614 1406 90 0 378
537 -30 2298 2321 90 401 0
538 10 1880 2574 90 0 508
539 20 1285 1561 0 0 1018
540 20 227 671 90 0 415
541 -30 348 1111 90 398 0
542 10 1209 2066 90 0 80
543 10 574 1472 90 0 349
544 10 1030 1220 90 0 322
545 -10 1598 2587 90 998 0
546 30 132 838 90 0 454
547 -10 1458 2022 90 165 0
548 -20 1406 2023 90 937 0
549 10 1485 2505 90 0 813
550 10 1397 2379 90 0 265
551 10 179 419 90 0 136
552 30 968 1316 90 0 307
553 -10 1183 1651 90 117 0
554 -30 2730 3382 90 722 0
555 30 228 548 90 0 988
556 -20 503 1099 90 173 0
557 -30 1892 1970 90 470 0
558 -20 1829 2399 90 317 0
559 -10 2220 2337 90 176 0
560 10 624 1218 90 0 949
561 10 1030 1666 90 0 3
562 10 201 785 90 0 869
563 30 1662 2346 90 0 328
564 10 973 1893 90 0 467
565 30 2257 2889 90 0 643
566 40 143 1067 90 0 102
567 30 178 813 90 0 17
568 -20 1546 1660 90 512 0
569 30 2298 2845 90 0 40
570 -20 599 1165 90 671 0
571 10 1045 1778 90 0 76
572 -20 2317 3366 90 441 0
573 30 627 1340 90 0 210
574 -10 1309 1702 90 357 0
575 10 1984 2948 90 0 905
576 20 159 934 90 0 844
577 -30 503 1027 90 346 0
578 -20 2611 3692 90 835 0
579 -20 1985 2205 90 739 0
580 30 1069 1833 90 0 325
581 20 311 955 90 0 386
582 20 2014 2331 90 0 403
583 20 99 1020 90 0 242
584 -20 1545 1626 90 65 0
585 -20 1946 2411 90 283 0
586 10 3096 3182 90 0 240
587 30 633 1133 90 0 374
588 30 119 664 90 0 215
589 -10 2534 3592 90 758 0
590 30 139 690 90 0 131
591 20 144 1324 90 0 62
592 10 1441 1760 90 0 779
593 20 2452 3241 90 0 872
594 -10 2136 2393 90 271 0
595 -10 1890 2541 90 5 0
596 10 1449 2521 90 0 829
597 -30 1662 2069 90 614 0
598 20 663 1495 90 0 177
599 20 556 1175 90 0 864
600 -10 1157 1781 90 109 0
601 -10 2688 3498 90 16 0
602 20 649 1231 90 0 482
603 -20 559 1030 90 319 0
604 -20 1357 2034 90 740 0
605 20 549 1197 90 0 113
606 30 338 1437 90 0 276
607 -10 434 904 90 623 0
608 20 1103 1772 90 0 694
609 40 565 1358 90 0 735
610 -10 2759 3628 90 759 0
611 20 65 780 90 0 462
612 30 2777 3608 90 0 668
613 -30 2514 2791 90 867 0
614 30 68 1308 90 0 597
615 -10 1647 2322 90 626 0
616 -20 2428 2590 90 69 0
617 20 1898 2854 90 0 277
618 -20 2800 2858 90 456 0
619 20 2656 2931 90 0 26
620 -30 1197 1590 90 484 0
621 -20 2640 2899 90 122 0
622 20 2435 2901 90 0 478
623 10 368 785 90 0 607
624 10 837 1630 90 0 41
625 -20 2315 2906 90 967 0
626 10 453 841 90 0 615
627 20 3016 3630 0 0 1009
628 10 1476 1950 90 0 61
629 30 1833 2279 90 0 115
630 20 2929 3249 90 0 709
631 -10 561 1889 90 219 0
632 -20 1688 2242 90 383 0
633 10 1606 1950 90 0 929
634 10 1531 2123 90 0 831
635 20 2332 2596 90 0 329
636 20 662 1013 90 0 104
637 -20 2279 3106 90 75 0
638 -20 2708 3319 90 925 0
639 -30 1335 2221 90 778 0
640 20 385 1275 90 0 530
641 30 293 867 90 0 372
642 10 784 1184 90 0 266
643 -30 2677 3609 90 565 0
644 -20 2781 2948 90 450 0
645 -20 3011 3620 90 199 0
646 -20 2736 3716 90 820 0
647 -30 2142 2991 90 757 0
648 10 331 911 90 0 341
649 10 1615 2167 90 0 782
650 20 2555 3452 90 0 90
651 10 255 847 90 0 936
652 10 83 935 90 0 188
653 20 679 1437 90 0 375
654 -10 1971 2643 90 852 0
655 40 211 616 90 0 350
656 20 1655 2161 90 0 491
657 -10 471 1013 90 42 0
658 10 2342 3136 90 0 257
659 20 1596 2342 90 0 408
660 20 265 1177 90 0 289
661 10 1195 1233 90 0 902
662 20 2397 3093 90 0 700
663 20 375 1263 90 0 794
664 -20 1362 1807 90 815 0
665 20 946 2183 90 0 226
666 20 93 597 90 0 901
667 20 1073 1980 90 0 477
668 -30 2773 3660 90 612 0
669 -30 1726 2616 90 873 0
670 20 765 1315 90 0 263
671 20 174 1016 90 0 570
672 -10 2802 2975 90 892 0
673 -10 2744 3185 90 121 0
674 20 199 1084 90 0 858
675 30 332 1034 90 0 272
676 -30 2999 3431 90 845 0
677 -20 2971 3595 90 171 0
678 10 1476 2094 90 0 769
679 20 954 1207 90 0 53
680 -20 2208 2841 90 880 0
681 20 1025 1797 90 0 147
682 -30 1713 2624 90 790 0
683 20 1708 2533 0 0 1014
684 -20 2159 3031 90 105 0
685 20 78 1366 90 0 169
686 20 998 1935 90 0 12
687 -20 3365 3654 90 388 0
688 -30 2924 3249 90 306 0
689 10 2368 2924 90 0 2
690 20 167 809 90 0 826
691 -10 751 1287 90 734 0
692 20 2837 2951 0 0 1017
693 -20 2641 2929 90 327 0
694 -20 1230 2025 90 608 0
695 20 1171 1468 90 0 151
696 -20 1648 2474 90 896 0
697 20 2466 2537 90 0 818
698 10 950 1536 90 0 358
699 -20 2959 3619 90 58 0
700 -20 2954 3578 90 662 0
701 -10 1655 2461 90 452 0
702 -20 1399 2320 90 895 0
703 -10 2990 3398 90 510 0
704 30 1643 2063 90 0 208
705 -20 2215 3061 90 750 0
706 10 1095 2129 90 0 244
707 10 1962 3400 90 0 760
708 -30 1167 1766 90 754 0
709 -20 2584 3465 90 630 0
710 10 1600 1872 90 0 154
711 -20 2406 3107 90 738 0
712 -10 1971 3153 90 96 0
713 20 231 593 90 0 489
714 20 82 723 90 0 433
715 -10 2272 3153 90 871 0
716 20 1892 3282 90 0 405
717 -10 785 1481 90 15 0
718 -10 1263 1931 90 390 0
719 10 199 754 90 0 138
720 -10 3024 3626 90 916 0
721 -20 167 1055 90 13 0
722 30 1387 1979 90 0 554
723 -30 664 1172 90 836 0
724 -10 892 1738 90 137 0
725 20 1337 2443 90 0 331
726 -10 1954 2000 90 909 0
727 20 1148 1808 90 0 132
728 10 827 1478 90 0 953
729 -40 2381 2609 90 974 0
730 20 449 798 90 0 172
731 20 216 698 90 0 875
732 30 2878 3253 90 0 150
733 -20 2929 3565 90 225 0
734 10 48 847 90 0 691
735 -40 2798 2888 90 609 0
736 20 963 2012 90 0 134
737 20 1388 2079 90 0 849
738 20 1723 2801 90 0 711
739 20 372 1142 90 0 579
740 20 69 1469 90 0 604
741 10 2402 3190 90 0 843
742 20 1815 2520 90 0 755
743 -10 1680 2121 90 406 0
744 -20 618 1421 90 418 0
745 -30 1543 1656 90 343 0
746 -20 128 891 90 120 0
747 10 784 1149 90 0 492
748 -10 2423 2861 90 796 0
749 20 1514 1772 90 0 337
750 20 219 1330 90 0 705
751 -10 1702 2236 90 803 0
752 20 2126 2603 90 0 262
753 -10 2861 3477 90 847 0
754 30 1121 1416 90 0 708
755 -20 1486 2656 90 742 0
756 -10 1971 2596 90 912 0
757 30 1041 1393 90 0 647
758 10 219 844 90 0 589
759 10 406 1407 90 0 610
760 -10 2883 3430 90 707 0
761 30 496 832 90 0 893
762 10 2297 3052 90 0 141
763 10 1560 1766 90 0 236
764 20 1019 1914 90 0 459
765 20 1937 2449 90 0 48
766 20 2677 3029 90 0 183
767 30 2109 2857 90 0 49
768 10 151 827 90 0 824
769 -10 1915 2671 90 678 0
770 -20 1059 1842 90 891 0
771 20 2314 3216 0 0 1003
772 30 1630 2185 0 0 1015
773 -10 750 1068 90 35 0
774 -10 1554 2197 90 220 0
775 -10 2066 2643 90 370 0
776 20 1943 2837 90 0 963
777 10 208 875 90 0 251
778 30 719 1146 90 0 639
779 -10 1718 2471 90 592 0
780 30 2531 2932 90 0 900
781 -20 2585 2918 90 857 0
782 -10 1741 2226 90 649 0
783 20 1473 2312 0 0 1005
784 10 579 1574 90 0 885
785 -20 2974 3547 90 939 0
786 -30 1967 2552 90 854 0
787 20 210 1043 90 0 77
788 -10 2014 2768 90 481 0
789 10 1905 2676 90 0 241
790 30 1327 2016 90 0 682
791 -20 1415 1758 90 157 0
792 -20 1260 1727 90 486 0
793 20 165 1030 90 0 521
794 -20 2765 3707 90 663 0
795 -10 1112 2184 90 474 0
796 10 1718 2463 90 0 748
797 10 2680 3612 0 0 1007
798 -10 1942 1981 90 965 0
799 20 668 1181 90 0 369
800 10 2254 2422 90 0 227
801 -10 1299 2161 90 414 0
802 20 277 1173 90 0 11
803 10 1705 2032 90 0 751
804 -20 2708 3367 90 288 0
805 20 242 466 90 0 315
806 -10 2680 3600 90 312 0
807 -10 868 1208 90 51 0
808 -10 2554 2839 90 74 0
809 -30 2597 3082 90 267 0
810 10 1293 2052 90 0 300
811 20 408 1468 90 0 970
812 10 440 1558 90 0 430
813 -10 2647 3331 90 549 0
814 -20 1391 2199 90 488 0
815 20 1171 1589 90 0 664
816 -20 1485 2239 90 6 0
817 -20 2469 3044 90 941 0
818 -20 3163 3376 90 697 0
819 20 666 1551 90 0 955
820 20 2846 3423 90 0 646
821 30 327 1084 90 0 457
822 10 205 1155 90 0 305
823 20 282 1202 90 0 146
824 -10 339 566 90 768 0
825 -30 798 1618 90 446 0
826 -20 723 962 90 690 0
827 30 170 712 90 0 848
828 -10 437 543 90 353 0
829 -10 1946 2612 90 596 0
830 -10 75 1016 90 334 0
831 -10 2565 2887 90 634 0
832 30 2112 2628 90 0 504
833 20 1838 2499 90 0 145
834 20 197 858 90 0 7
835 20 2460 3295 90 0 578
836 30 148 506 90 0 723
837 -30 874 1659 90 429 0
838 -20 1561 2060 90 839 0
839 20 1064 1346 90 0 838
840 20 861 1599 0 0 1016
841 30 1423 2157 90 0 367
842 -10 2727 3521 90 256 0
843 -10 3064 3666 90 741 0
844 -20 853 1358 90 576 0
845 30 2523 3343 90 0 676
846 -10 2748 3633 90 355 0
847 10 791 1510 90 0 753
848 -30 2529 2668 90 827 0
849 -20 1639 2057 90 737 0
850 20 2930 3010 90 0 410
851 10 905 1771 90 0 123
852 10 1570 2581 90 0 654
853 10 1530 2135 0 0 1012
854 30 1132 1612 90 0 786
855 30 1543 2498 90 0 170
856 20 851 1621 90 0 533
857 20 1653 1879 90 0 781
858 -20 1534 1620 90 674 0
859 30 186 1329 90 0 365
860 10 103 358 90 0 951
861 20 1512 2276 90 0 379
862 -20 689 1214 90 89 0
863 10 304 858 90 0 882
864 -20 527 1591 90 599 0
865 -20 1933 2799 90 531 0
866 20 2776 3190 90 0 960
867 30 2026 2722 90 0 613
868 10 234 860 90 0 313
869 -10 2272 2828 90 562 0
870 20 1560 2006 90 0 92
871 10 1444 1653 90 0 715
872 -20 2902 3566 90 593 0
873 30 1403 1997 90 0 669
874 10 3124 3637 90 0 368
875 -20 780 1607 90 731 0
876 10 1347 1806 90 0 345
877 -20 1249 1487 90 517 0
878 10 276 1531 90 0 161
879 30 1234 1959 90 0 100
880 20 1867 2169 90 0 680
881 -20 1723 2650 90 475 0
882 -10 653 700 90 863 0
883 -20 2498 3074 90 36 0
884 10 2784 3092 90 0 191
885 -10 2285 3102 90 784 0
886 -10 1121 1235 90 496 0
887 -20 1171 1897 90 972 0
888 -20 2514 3000 90 362 0
889 -20 2055 2695 90 380 0
890 30 185 690 90 0 87
891 20 360 1109 90 0 770
892 10 362 1289 90 0 672
893 -30 865 1473 90 761 0
894 20 2137 2630 90 0 316
895 20 1291 2241 90 0 702
896 20 788 1759 90 0 696
897 -20 1014 1488 90 910 0
898 -20 2007 2568 90 338 0
899 10 955 1745 90 0 212
900 -30 2832 3205 90 780 0
901 -20 826 1405 90 666 0
902 -10 832 1406 90 661 0
903 30 2615 3440 90 0 976
904 10 134 841 90 0 944
905 -10 2463 2846 90 575 0
906 30 212 1071 90 0 84
907 -10 2641 3675 90 286 0
908 -30 1085 2347 90 68 0
909 10 996 1027 90 0 726
910 20 859 927 90 0 897
911 20 1975 2422 90 0 260
912 10 385 691 90 0 756
913 -30 2224 2712 90 295 0
914 10 175 607 90 0 127
915 10 388 1189 90 0 485
916 10 1068 1342 90 0 720
917 -10 2229 3591 90 437 0
918 -20 1215 1751 90 292 0
919 30 740 1620 90 0 417
920 -10 1742 2569 90 142 0
921 -20 2340 2813 90 189 0
922 -30 22 781 90 281 0
923 20 187 1446 90 0 344
924 -20 1176 2070 90 984 0
925 20 1381 1865 90 0 638
926 30 2421 3702 90 0 950
927 -20 1668 2496 90 966 0
928 -10 1362 2040 90 982 0
929 -10 1949 2382 90 633 0
930 30 190 530 90 0 239
931 -10 3086 3264 90 290 0
932 -30 2488 3321 90 86 0
933 10 423 503 90 0 284
934 10 2683 3234 90 0 19
935 -20 2436 3642 90 981 0
936 -10 274 727 90 651 0
937 20 668 1116 90 0 548
938 30 358 1069 90 0 34
939 20 1460 2482 90 0 785
940 -30 2258 2746 90 348 0
941 20 1444 2087 90 0 817
942 20 1655 2302 90 0 387
943 10 43 457 90 0 397
944 -10 175 1283 90 904 0
945 -20 786 1303 90 181 0
946 30 643 1579 90 0 88
947 20 588 1452 90 0 174
948 -30 2910 3563 90 468 0
949 -10 2794 3274 90 560 0
950 -30 2920 3733 90 926 0
951 -10 2283 2650 90 860 0
952 20 991 1198 90 0 128
953 -10 2042 2289 90 728 0
954 20 523 1267 90 0 125
955 -20 2404 3137 90 819 0
956 30 1887 2259 90 0 335
957 10 2466 3161 90 0 46
958 -20 231 1005 90 472 0
959 -30 1921 3059 90 311 0
960 -20 2787 3367 90 866 0
961 10 1323 1348 90 0 495
962 20 815 1829 90 0 4
963 -20 2478 3103 90 776 0
964 30 364 600 90 0 22
965 10 680 1669 90 0 798
966 20 2042 2881 90 0 927
967 20 2302 2709 90 0 625
968 20 388 703 90 0 431
969 30 2319 3161 90 0 448
970 -20 1723 2640 90 811 0
971 20 357 930 90 0 525
972 20 824 1453 90 0 887
973 -10 1698 2216 90 218 0
974 40 1726 2434 90 0 729
975 -30 1086 1628 90 24 0
976 -30 3002 3240 90 903 0
977 -20 3080 3746 90 111 0
978 -30 2976 3294 90 252 0
979 -10 882 1498 90 110 0
980 -10 3081 3319 90 43 0
981 20 1707 2445 90 0 935
982 10 454 1217 90 0 928
983 20 941 1965 90 0 412
984 20 373 1202 90 0 924
985 -20 1915 2441 90 211 0
986 -10 1390 1762 90 282 0
987 50 1476 2280 90 0 140
988 -30 766 1382 90 555 0
989 10 314 1100 90 0 497
990 -20 1315 1834 90 148 0
991 10 2165 2738 90 0 356
992 30 491 716 90 0 179
993 -20 1240 1543 90 18 0
994 30 169 344 90 0 996
995 -30 1449 1791 90 347 0
996 -30 880 1264 90 994 0
997 20 1548 2198 90 0 523
998 10 602 1809 90 0 545
999 30 2137 2687 90 0 158
1000 -10 257 1157 90 9 0
1001 10 218 877 90 0 500
1002 -30 2797 3629 90 389 0
1003 -20 2314 3216 90 771 0
1004 -20 1890 2607 90 361 0
1005 -20 1473 2312 90 783 0
1006 -20 1855 2501 90 302 0
1007 -10 2680 3612 90 797 0
1008 -30 3190 3578 90 14 0
1009 -20 3016 3630 90 627 0
1010 -10 1456 1637 90 534 0
1011 -30 2349 2816 90 152 0
1012 -10 1530 2135 90 853 0
1013 -30 214 564 90 351 0
1014 -20 1708 2533 90 683 0
1015 -30 1630 2185 90 772 0
1016 -20 861 1599 90 840 0
1017 -20 2837 2951 90 692 0
1018 -20 1285 1561 90 539 0
1019 -10 2103 2464 90 291 0
DEPOT_SECTION
1
-1
EOF
