NAME: lc2_10_2
TYPE: PDPTW
COMMENT: Li & Lim PDPTW benchmark converted from SINTEF format
DIMENSION: 1017
VEHICLES: 250
CAPACITY: 700
EDGE_WEIGHT_TYPE: EUC_2D
NODE_COORD_SECTION
1 250 250
2 212 101
3 266 231
4 89 284
5 430 298
6 435 77
7 25 293
8 43 269
9 216 117
10 294 437
11 79 479
12 365 18
13 225 125
14 448 103
15 143 266
16 252 347
17 403 390
18 67 153
19 90 168
20 302 235
21 259 355
22 149 183
23 19 297
24 209 358
25 56 388
26 115 269
27 377 356
28 113 229
29 205 343
30 48 137
31 467 157
32 220 394
33 436 54
34 54 357
35 456 154
36 216 307
37 280 224
38 90 270
39 166 452
40 17 283
41 196 192
42 94 275
43 292 445
44 329 471
45 326 57
46 95 466
47 429 282
48 229 364
49 457 160
50 452 154
51 113 289
52 67 387
53 368 17
54 341 367
55 410 364
56 80 281
57 321 224
58 73 395
59 259 76
60 121 203
61 118 256
62 236 361
63 78 371
64 301 53
65 382 197
66 491 160
67 453 164
68 277 371
69 272 212
70 386 218
71 353 32
72 59 389
73 414 62
74 278 357
75 101 179
76 396 234
77 74 390
78 332 55
79 272 365
80 418 355
81 216 380
82 440 173
83 89 358
84 66 491
85 317 234
86 439 297
87 394 367
88 58 364
89 290 75
90 346 344
91 131 269
92 236 96
93 29 282
94 418 385
95 148 225
96 166 464
97 266 373
98 201 273
99 255 245
100 220 379
101 85 317
102 125 264
103 131 253
104 184 188
105 128 209
106 373 364
107 389 342
108 420 20
109 132 218
110 32 256
111 406 339
112 191 397
113 72 341
114 35 308
115 169 360
116 222 381
117 96 292
118 311 496
119 220 384
120 259 243
121 349 476
122 63 159
123 112 243
124 448 302
125 343 27
126 67 485
127 220 359
128 147 435
129 317 235
130 43 355
131 368 340
132 450 72
133 400 364
134 355 480
135 450 153
136 126 188
137 380 223
138 71 453
139 54 287
140 420 168
141 219 89
142 189 327
143 191 309
144 301 67
145 484 161
146 77 483
147 241 375
148 428 64
149 403 361
150 257 336
151 131 241
152 63 166
153 71 368
154 272 228
155 25 290
156 441 157
157 13 266
158 251 376
159 61 170
160 386 357
161 95 475
162 90 298
163 71 388
164 383 246
165 352 38
166 395 1
167 120 210
168 46 383
169 202 198
170 358 365
171 191 352
172 470 152
173 228 124
174 402 230
175 323 229
176 331 486
177 112 208
178 172 435
179 326 498
180 460 183
181 95 279
182 76 456
183 242 350
184 152 196
185 268 351
186 360 356
187 39 296
188 262 368
189 204 90
190 149 273
191 446 86
192 139 269
193 483 170
194 39 278
195 201 307
196 395 378
197 139 262
198 176 447
199 67 380
200 35 358
201 294 455
202 351 33
203 216 316
204 261 96
205 238 57
206 383 18
207 152 460
208 94 479
209 337 453
210 135 460
211 260 104
212 337 63
213 32 247
214 394 205
215 95 294
216 253 241
217 223 90
218 64 473
219 275 431
220 261 84
221 176 296
222 361 349
223 168 433
224 394 10
225 308 60
226 94 456
227 73 484
228 277 434
229 119 232
230 78 375
231 366 346
232 125 181
233 69 493
234 432 80
235 72 391
236 85 486
237 204 371
238 173 328
239 280 423
240 200 327
241 241 98
242 96 356
243 332 491
244 81 283
245 373 22
246 255 371
247 358 359
248 216 93
249 73 360
250 305 212
251 151 462
252 47 389
253 155 198
254 152 457
255 329 48
256 88 394
257 153 295
258 81 373
259 163 453
260 378 25
261 401 385
262 184 340
263 402 362
264 70 482
265 357 445
266 212 71
267 231 81
268 379 208
269 236 95
270 386 344
271 189 200
272 296 253
273 73 303
274 30 162
275 230 95
276 57 131
277 379 245
278 107 221
279 154 458
280 290 417
281 272 243
282 94 130
283 222 356
284 243 108
285 224 93
286 155 242
287 440 302
288 221 102
289 52 484
290 111 244
291 132 273
292 228 186
293 221 374
294 406 286
295 390 9
296 335 52
297 189 368
298 397 40
299 408 305
300 156 434
301 180 335
302 327 483
303 363 62
304 375 342
305 16 280
306 277 431
307 110 241
308 48 385
309 152 260
310 255 120
311 214 382
312 414 384
313 232 378
314 80 141
315 188 330
316 157 192
317 101 237
318 74 360
319 267 260
320 378 46
321 420 311
322 384 217
323 418 300
324 356 77
325 253 244
326 323 258
327 293 454
328 231 97
329 316 234
330 207 196
331 321 228
332 382 17
333 206 326
334 198 284
335 137 186
336 229 396
337 268 235
338 95 243
339 297 430
340 393 368
341 66 391
342 189 339
343 280 351
344 241 77
345 134 265
346 420 95
347 111 279
348 367 358
349 239 373
350 384 235
351 284 360
352 325 75
353 279 369
354 340 449
355 275 448
356 447 88
357 314 279
358 434 377
359 67 377
360 370 353
361 57 367
362 332 486
363 386 361
364 55 282
365 317 467
366 335 54
367 348 466
368 132 314
369 328 216
370 416 48
371 370 55
372 149 434
373 466 169
374 141 267
375 258 350
376 428 312
377 211 188
378 50 343
379 107 311
380 178 441
381 232 85
382 391 23
383 137 227
384 161 203
385 363 212
386 384 346
387 166 434
388 274 248
389 156 421
390 346 211
391 265 358
392 96 407
393 443 70
394 125 212
395 361 337
396 322 78
397 481 156
398 188 293
399 76 408
400 130 304
401 378 363
402 185 301
403 385 235
404 261 350
405 389 33
406 151 214
407 265 94
408 65 164
409 293 81
410 363 55
411 465 176
412 428 298
413 75 379
414 404 378
415 203 203
416 259 88
417 362 17
418 320 258
419 59 358
420 316 453
421 225 192
422 140 206
423 83 151
424 366 196
425 108 245
426 129 267
427 57 379
428 329 56
429 213 363
430 76 391
431 330 259
432 136 217
433 165 333
434 160 431
435 338 489
436 335 64
437 412 361
438 259 90
439 265 77
440 460 173
441 83 301
442 201 331
443 118 214
444 395 30
445 125 444
446 283 248
447 391 334
448 212 215
449 276 428
450 96 152
451 425 85
452 336 7
453 196 219
454 210 94
455 310 81
456 341 37
457 344 478
458 406 37
459 69 346
460 80 376
461 314 449
462 209 201
463 88 379
464 352 500
465 65 357
466 345 15
467 125 245
468 52 369
469 449 140
470 430 310
471 109 325
472 446 139
473 229 214
474 197 301
475 146 245
476 401 368
477 116 259
478 374 55
479 249 251
480 325 490
481 59 159
482 186 177
483 319 229
484 26 269
485 53 139
486 471 154
487 301 247
488 388 220
489 235 81
490 347 479
491 367 59
492 261 370
493 441 287
494 44 153
495 263 351
496 444 157
497 374 17
498 448 295
499 446 297
500 347 40
501 318 493
502 399 352
503 51 364
504 250 217
505 107 225
506 173 208
507 204 189
508 399 379
509 79 346
510 360 338
511 390 17
512 207 337
513 409 361
514 206 377
515 429 294
516 375 31
517 426 80
518 74 374
519 408 20
520 239 369
521 420 308
522 254 357
523 53 297
524 434 382
525 204 171
526 173 169
527 190 332
528 274 231
529 207 194
530 315 232
531 425 87
532 312 64
533 129 244
534 278 230
535 351 75
536 185 293
537 364 364
538 432 369
539 128 249
540 221 179
541 194 296
542 413 350
543 214 372
544 379 229
545 91 298
546 226 120
547 344 46
548 238 84
549 138 276
550 346 487
551 95 160
552 103 266
553 98 286
554 77 172
555 147 199
556 210 98
557 428 292
558 121 236
559 336 479
560 203 369
561 296 232
562 87 369
563 247 88
564 104 246
565 67 302
566 114 296
567 394 356
568 192 306
569 16 285
570 419 310
571 389 221
572 129 264
573 172 483
574 325 251
575 151 436
576 263 91
577 401 15
578 253 382
579 247 89
580 283 229
581 366 341
582 392 213
583 167 304
584 477 154
585 234 383
586 199 327
587 140 220
588 144 266
589 432 105
590 368 325
591 202 386
592 325 246
593 430 86
594 200 195
595 440 295
596 77 287
597 187 362
598 131 207
599 405 5
600 125 226
601 254 335
602 212 168
603 281 279
604 326 241
605 152 241
606 71 139
607 46 277
608 393 13
609 87 454
610 86 359
611 220 192
612 426 279
613 131 267
614 200 297
615 299 442
616 265 218
617 398 231
618 312 74
619 99 307
620 22 283
621 67 160
622 390 42
623 44 279
624 200 182
625 458 303
626 298 438
627 62 301
628 112 251
629 184 354
630 140 180
631 269 428
632 123 206
633 36 284
634 272 233
635 320 231
636 211 180
637 114 169
638 245 239
639 117 204
640 316 254
641 169 443
642 212 96
643 119 285
644 71 163
645 78 361
646 354 219
647 389 233
648 90 391
649 209 307
650 363 351
651 405 47
652 278 329
653 261 371
654 302 470
655 373 205
656 381 20
657 90 277
658 46 341
659 50 138
660 61 437
661 331 252
662 440 81
663 384 206
664 232 87
665 59 471
666 174 304
667 106 248
668 410 287
669 206 313
670 412 367
671 412 300
672 206 295
673 329 459
674 177 436
675 266 264
676 308 235
677 260 330
678 49 136
679 356 28
680 428 384
681 220 362
682 437 61
683 365 360
684 107 168
685 220 177
686 347 21
687 293 245
688 267 436
689 216 96
690 383 351
691 289 240
692 129 185
693 291 450
694 387 21
695 116 255
696 50 368
697 121 249
698 404 346
699 77 360
700 447 102
701 366 16
702 348 16
703 353 346
704 54 485
705 319 77
706 83 282
707 384 24
708 52 469
709 199 200
710 273 234
711 16 281
712 151 442
713 223 114
714 191 308
715 448 297
716 386 28
717 106 295
718 387 224
719 96 377
720 86 361
721 211 107
722 43 125
723 369 351
724 388 228
725 325 228
726 490 159
727 420 78
728 396 4
729 222 317
730 389 198
731 322 454
732 241 391
733 256 117
734 298 255
735 74 363
736 345 496
737 167 169
738 23 306
739 317 62
740 319 257
741 129 255
742 59 377
743 138 272
744 317 251
745 279 436
746 371 207
747 263 372
748 50 347
749 275 236
750 334 47
751 50 383
752 170 338
753 245 109
754 69 475
755 54 372
756 198 334
757 380 228
758 425 118
759 80 398
760 366 57
761 67 463
762 226 86
763 59 480
764 40 378
765 250 367
766 157 436
767 463 161
768 266 250
769 51 162
770 194 353
771 383 41
772 247 82
773 457 142
774 244 94
775 441 63
776 244 371
777 174 444
778 94 247
779 320 225
780 316 80
781 155 447
782 211 308
783 297 442
784 200 342
785 44 325
786 438 60
787 80 374
788 59 163
789 236 92
790 414 66
791 34 279
792 475 156
793 404 310
794 367 239
795 210 359
796 133 278
797 446 169
798 188 356
799 312 252
800 69 485
801 413 353
802 54 446
803 56 357
804 230 105
805 196 302
806 391 373
807 101 295
808 234 350
809 215 108
810 142 457
811 283 425
812 77 397
813 105 317
814 382 213
815 213 76
816 417 56
817 183 340
818 123 242
819 475 136
820 377 246
821 310 484
822 47 280
823 57 456
824 313 266
825 475 145
826 400 376
827 290 416
828 277 369
829 91 303
830 194 301
831 254 238
832 215 91
833 500 162
834 56 287
835 289 452
836 378 326
837 197 350
838 243 88
839 250 72
840 101 290
841 351 480
842 67 357
843 128 240
844 253 81
845 307 227
846 233 441
847 311 47
848 292 456
849 183 187
850 392 31
851 103 251
852 300 443
853 420 295
854 427 64
855 372 354
856 101 263
857 141 454
858 146 461
859 298 430
860 148 270
861 76 287
862 308 55
863 143 257
864 393 2
865 385 28
866 204 291
867 132 272
868 206 379
869 69 383
870 245 96
871 431 301
872 448 94
873 199 305
874 95 356
875 328 498
876 108 222
877 341 26
878 63 454
879 222 357
880 416 364
881 127 278
882 140 252
883 218 298
884 432 87
885 216 300
886 438 72
887 184 178
888 345 468
889 150 435
890 395 365
891 208 371
892 190 292
893 78 479
894 104 198
895 346 13
896 47 388
897 315 57
898 110 199
899 323 60
900 308 82
901 216 374
902 326 253
903 308 232
904 118 223
905 149 444
906 95 395
907 117 319
908 262 352
909 468 135
910 351 31
911 361 15
912 195 300
913 397 27
914 179 311
915 77 133
916 66 397
917 366 352
918 221 87
919 347 23
920 176 358
921 229 78
922 272 246
923 293 67
924 140 265
925 238 83
926 136 296
927 218 98
928 290 440
929 29 302
930 290 425
931 124 247
932 442 287
933 294 64
934 74 165
935 382 245
936 405 24
937 211 97
938 88 390
939 37 295
940 359 371
941 186 372
942 116 446
943 293 249
944 83 228
945 96 269
946 179 284
947 368 219
948 66 359
949 189 338
950 163 277
951 5 296
952 152 478
953 366 34
954 429 80
955 464 178
956 138 196
957 87 481
958 425 99
959 241 362
960 207 289
961 264 365
962 102 289
963 233 346
964 78 141
965 196 348
966 216 92
967 444 309
968 313 263
969 211 198
970 314 436
971 217 189
972 197 178
973 60 497
974 206 312
975 197 351
976 305 233
977 297 250
978 71 348
979 11 269
980 247 447
981 386 213
982 292 434
983 436 301
984 145 221
985 224 96
986 59 128
987 489 150
988 152 225
989 426 85
990 415 73
991 440 70
992 320 476
993 57 132
994 405 311
995 109 250
996 428 314
997 40 288
998 175 282
999 298 456
1000 208 101
1001 342 52
1002 396 4
1003 432 105
1004 328 216
1005 62 301
1006 151 462
1007 308 82
1008 418 300
1009 113 289
1010 272 243
1011 226 86
1012 149 183
1013 252 347
1014 124 247
1015 201 307
1016 274 248
1017 76 287
PICKUP_AND_DELIVERY_SECTION
1 0 0 3914 0 0 0
2 -30 2662 2822 90 927 0
3 -10 1936 2096 90 634 0
4 -20 1436 1596 90 717 0
5 -30 0 3638 90 470 0
6 20 1002 1162 90 0 393
7 20 2964 3124 90 0 785
8 30 687 847 90 0 997
9 -10 0 3687 90 689 0
10 -30 661 821 90 930 0
11 30 998 1158 90 0 161
12 -10 2213 2373 90 899 0
13 20 127 287 90 0 173
14 30 0 3578 90 0 700
15 10 402 562 90 0 539
16 10 2911 3071 0 0 1013
17 10 2560 2720 90 0 603
18 20 912 1072 90 0 722
19 20 3080 3240 90 0 894
20 20 1043 1203 90 0 504
21 20 1917 2077 90 0 100
22 20 3108 3268 0 0 1012
23 20 2282 2442 90 0 523
24 30 1477 1637 90 0 798
25 -20 1791 1951 90 163 0
26 10 2956 3116 90 0 950
27 10 0 3659 90 0 170
28 30 1123 1283 90 0 613
29 20 902 1062 90 0 975
30 20 0 3593 90 0 494
31 -20 2307 2467 90 833 0
32 10 2783 2943 90 0 522
33 -20 1991 2151 90 954 0
34 10 1696 1856 90 0 503
35 -10 0 3597 90 496 0
36 20 2516 2676 90 0 883
37 -30 2226 2386 90 580 0
38 10 565 725 90 0 962
39 20 599 759 90 0 756
40 -20 2584 2744 90 834 0
41 30 0 3745 90 0 330
42 10 469 629 90 0 117
43 10 1716 1876 90 0 201
44 -20 2783 2943 90 367 0
45 20 1364 1524 90 0 705
46 -20 0 3559 90 84 0
47 20 3018 3178 90 0 612
48 -10 2512 2672 90 543 0
49 10 2991 3151 90 0 67
50 30 332 492 90 0 397
51 10 0 3682 0 0 1009
52 10 2376 2536 90 0 153
53 -20 2021 2181 90 466 0
54 -10 2530 2690 90 131 0
55 30 1842 2002 90 0 80
56 -10 0 3652 90 860 0
57 30 2106 2266 90 0 331
58 -20 1223 1383 90 463 0
59 -20 0 3650 90 910 0
60 10 1792 1952 90 0 956
61 10 2519 2679 90 0 572
62 -20 1713 1873 90 891 0
63 20 220 380 90 0 460
64 -20 969 1129 90 532 0
65 20 640 800 90 0 70
66 20 1989 2149 90 0 955
67 -10 0 3604 90 49 0
68 30 595 755 90 0 188
69 -20 2330 2490 90 749 0
70 -20 1901 2061 90 65 0
71 -10 905 1065 90 165 0
72 -30 1698 1858 90 430 0
73 -30 0 3575 90 346 0
74 10 212 372 90 0 492
75 -30 2412 2572 90 422 0
76 20 2390 2550 90 0 403
77 -10 797 957 90 719 0
78 30 211 371 90 0 295
79 30 693 853 90 0 908
80 -30 2037 2197 90 55 0
81 -20 2300 2460 90 391 0
82 -20 3282 3442 90 440 0
83 20 0 3631 90 0 874
84 20 0 3521 90 0 46
85 -20 2479 2639 90 574 0
86 -10 2043 2203 90 871 0
87 30 380 540 90 0 312
88 10 2262 2422 90 0 378
89 -10 191 351 90 310 0
90 -10 3212 3372 90 107 0
91 -20 0 3704 90 192 0
92 -30 1604 1764 90 205 0
93 -20 1410 1570 90 157 0
94 -20 2757 2917 90 670 0
95 40 613 773 90 0 898
96 10 794 954 90 0 858
97 10 793 953 90 0 404
98 30 54 214 90 0 812
99 10 7 167 90 0 655
100 -20 0 3692 90 21 0
101 -20 0 3646 90 441 0
102 -10 2855 3015 90 109 0
103 -20 2809 2969 90 345 0
104 10 1260 1420 90 0 415
105 -30 1093 1253 90 555 0
106 -30 3170 3330 90 524 0
107 10 1145 1305 90 0 90
108 -10 575 735 90 651 0
109 10 136 296 90 0 102
110 -40 901 1061 90 364 0
111 20 295 455 90 0 287
112 -20 263 423 90 171 0
113 10 0 3625 90 0 720
114 -30 3072 3232 90 155 0
115 -10 2172 2332 90 920 0
116 -10 0 3691 90 185 0
117 -10 862 1022 90 42 0
118 -30 0 3571 90 821 0
119 10 2683 2843 90 0 158
120 20 22 182 90 0 724
121 10 2483 2643 90 0 673
122 -30 1009 1169 90 314 0
123 -10 2321 2481 90 229 0
124 -10 2327 2487 90 557 0
125 -20 0 3583 90 750 0
126 40 2166 2326 90 0 800
127 30 1424 1584 90 0 520
128 10 2111 2271 90 0 781
129 20 2570 2730 90 0 530
130 20 1595 1755 90 0 735
131 10 461 621 90 0 54
132 -30 2561 2721 90 786 0
133 -30 570 730 90 890 0
134 -20 1616 1776 90 420 0
135 20 533 693 90 0 819
136 20 2098 2258 90 0 684
137 -10 1614 1774 90 571 0
138 20 685 845 90 0 708
139 20 209 369 90 0 566
140 -10 3393 3553 90 797 0
141 -30 2692 2852 90 772 0
142 10 420 580 90 0 342
143 -20 1430 1590 90 402 0
144 40 480 640 90 0 428
145 10 1696 1856 90 0 726
146 20 0 3534 90 0 433
147 -10 1998 2158 90 652 0
148 -40 1201 1361 90 234 0
149 10 1452 1612 90 0 880
150 -30 0 3738 90 336 0
151 -20 3378 3538 90 605 0
152 -30 0 3619 90 964 0
153 -10 3257 3417 90 52 0
154 10 2033 2193 90 0 831
155 30 2871 3031 90 0 114
156 10 433 593 90 0 373
157 20 0 3587 90 0 93
158 -10 3186 3346 90 119 0
159 30 0 3619 90 0 644
160 20 1433 1593 90 0 401
161 -30 2925 3085 90 11 0
162 10 2104 2264 90 0 471
163 20 1505 1665 90 0 25
164 20 0 3691 90 0 794
165 10 626 786 90 0 71
166 -10 0 3536 90 865 0
167 -10 1282 1442 90 406 0
168 30 1288 1448 90 0 318
169 -20 0 3754 90 737 0
170 -10 2326 2486 90 27 0
171 20 117 277 90 0 112
172 -10 1226 1386 90 214 0
173 -20 141 301 90 13 0
174 -20 0 3671 90 582 0
175 -30 1718 1878 90 431 0
176 -30 2003 2163 90 243 0
177 10 1601 1761 90 0 692
178 -10 3061 3221 90 575 0
179 -10 1021 1181 90 480 0
180 -50 0 3604 90 987 0
181 20 375 535 90 0 706
182 -30 780 940 90 761 0
183 -10 2811 2971 90 959 0
184 10 212 372 90 0 598
185 10 0 3722 90 0 116
186 -20 2733 2893 90 581 0
187 -20 1983 2143 90 213 0
188 -30 1162 1322 90 68 0
189 20 1094 1254 90 0 774
190 20 212 372 90 0 549
191 -10 3056 3216 90 884 0
192 20 1728 1888 90 0 91
193 -10 2197 2357 90 584 0
194 10 1601 1761 90 0 620
195 10 0 3749 0 0 1015
196 -20 1636 1796 90 386 0
197 -20 1450 1610 90 475 0
198 20 311 471 90 0 573
199 -20 0 3600 90 200 0
200 20 1497 1657 90 0 199
201 -10 2426 2586 90 43 0
202 -10 0 3585 90 409 0
203 -10 2319 2479 90 210 0
204 40 0 3670 90 0 839
205 30 1336 1496 90 0 92
206 20 1643 1803 90 0 953
207 -30 1310 1470 90 641 0
208 20 0 3547 90 0 912
209 -10 0 3604 90 888 0
210 10 1785 1945 90 0 203
211 20 157 317 90 0 407
212 -30 2045 2205 90 547 0
213 20 802 962 90 0 187
214 10 0 3674 90 0 172
215 10 770 930 90 0 829
216 -10 2835 2995 90 534 0
217 -30 2787 2947 90 664 0
218 -20 1284 1444 90 823 0
219 10 0 3642 90 0 848
220 10 734 894 90 0 966
221 -10 1230 1390 90 892 0
222 10 3016 3176 90 0 703
223 20 3156 3316 90 0 597
224 40 1169 1329 90 0 511
225 -10 776 936 90 933 0
226 -30 3124 3284 90 236 0
227 -20 2445 2605 90 665 0
228 -10 1427 1587 90 280 0
229 10 1939 2099 90 0 123
230 10 0 3612 90 0 427
231 -10 648 808 90 510 0
232 -30 2718 2878 90 639 0
233 -40 1977 2137 90 609 0
234 40 908 1068 90 0 148
235 10 0 3597 90 0 978
236 30 0 3537 90 0 226
237 30 0 3695 90 0 560
238 10 2481 2641 90 0 586
239 10 951 1111 90 0 654
240 -30 3150 3310 90 629 0
241 20 2987 3147 90 0 284
242 10 186 346 90 0 916
243 30 1211 1371 90 0 176
244 10 1624 1784 90 0 368
245 10 0 3565 90 0 260
246 -30 2209 2369 90 901 0
247 -20 2639 2799 90 537 0
248 -20 0 3664 90 328 0
249 20 0 3616 90 0 699
250 -20 0 3758 90 872 0
251 10 1402 1562 0 0 1006
252 30 1102 1262 90 0 468
253 30 118 278 90 0 587
254 10 0 3595 90 0 259
255 10 1555 1715 90 0 296
256 -30 727 887 90 938 0
257 -10 3382 3542 90 400 0
258 10 590 750 90 0 764
259 -10 0 3604 90 254 0
260 -10 2408 2568 90 245 0
261 -30 2864 3024 90 567 0
262 -20 2768 2928 90 527 0
263 -10 0 3636 90 340 0
264 20 2351 2511 90 0 957
265 -20 0 3602 90 559 0
266 -30 0 3642 90 546 0
267 30 2403 2563 90 0 921
268 10 835 995 90 0 322
269 30 0 3669 90 0 638
270 20 0 3659 90 0 683
271 -20 1989 2149 90 473 0
272 10 834 994 90 0 337
273 -20 2397 2557 90 840 0
274 -20 2102 2262 90 659 0
275 -20 1899 2059 90 439 0
276 -20 1403 1563 90 450 0
277 10 2773 2933 90 0 935
278 40 0 3679 90 0 425
279 20 0 3595 90 0 380
280 10 0 3653 90 0 228
281 30 0 3801 0 0 1010
282 -10 0 3628 90 551 0
283 20 1608 1768 90 0 776
284 -20 3061 3221 90 241 0
285 -30 2191 2351 90 344 0
286 10 886 1046 90 0 988
287 -20 1279 1439 90 111 0
288 -20 2858 3018 90 918 0
289 -30 0 3518 90 754 0
290 -30 2229 2389 90 778 0
291 -10 2203 2363 90 374 0
292 20 269 429 90 0 540
293 -10 1130 1290 90 868 0
294 -10 3314 3474 90 498 0
295 -30 1263 1423 90 78 0
296 -10 1761 1921 90 255 0
297 20 144 304 90 0 677
298 40 2491 2651 90 0 771
299 10 419 579 90 0 668
300 -30 2865 3025 90 372 0
301 -10 0 3714 90 965 0
302 -20 2098 2258 90 362 0
303 -30 0 3605 90 478 0
304 10 939 1099 90 0 363
305 -20 0 3589 90 929 0
306 -10 0 3641 90 626 0
307 -20 2136 2296 90 317 0
308 20 1008 1168 90 0 896
309 -20 0 3726 90 818 0
310 10 130 290 90 0 89
311 -30 0 3688 90 343 0
312 -30 0 3613 90 87 0
313 -10 2194 2354 90 353 0
314 30 494 654 90 0 122
315 30 0 3723 90 0 817
316 -20 3210 3370 90 637 0
317 20 1831 1991 90 0 307
318 -30 2856 3016 90 168 0
319 -10 509 669 90 768 0
320 -10 3090 3250 90 707 0
321 30 893 1053 90 0 996
322 -10 1809 1969 90 268 0
323 10 611 771 0 0 1008
324 -20 2249 2409 90 739 0
325 -20 2742 2902 90 616 0
326 -20 1328 1488 90 799 0
327 -10 0 3616 90 615 0
328 20 0 3670 90 0 248
329 10 2661 2821 90 0 976
330 -30 2565 2725 90 41 0
331 -30 0 3750 90 57 0
332 -10 1734 1894 90 1001 0
333 -20 3246 3406 90 752 0
334 -10 0 3762 90 645 0
335 10 2912 3072 90 0 630
336 30 2882 3042 90 0 150
337 -10 1842 2002 90 272 0
338 20 759 919 90 0 643
339 20 378 538 90 0 852
340 10 472 632 90 0 263
341 20 0 3593 90 0 398
342 -10 2863 3023 90 142 0
343 30 116 276 90 0 311
344 30 1225 1385 90 0 285
345 20 2666 2826 90 0 103
346 30 345 505 90 0 73
347 30 141 301 90 0 807
348 30 2133 2293 90 0 650
349 -20 1905 2065 90 375 0
350 -20 2672 2832 90 617 0
351 30 309 469 90 0 828
352 30 2370 2530 90 0 396
353 10 0 3702 90 0 313
354 -20 3080 3240 90 736 0
355 -30 2902 3062 90 827 0
356 -40 2963 3123 90 458 0
357 10 270 430 90 0 740
358 -10 2345 2505 90 437 0
359 10 0 3602 90 0 803
360 10 746 906 90 0 447
361 -20 2169 2329 90 755 0
362 20 1912 2072 90 0 302
363 -10 1527 1687 90 304 0
364 40 305 465 90 0 110
365 20 424 584 90 0 992
366 -20 1853 2013 90 923 0
367 20 0 3587 90 0 44
368 -10 3214 3374 90 244 0
369 10 0 3739 0 0 1004
370 10 1880 2040 90 0 622
371 -10 2886 3046 90 989 0
372 30 0 3615 90 0 300
373 -10 2502 2662 90 156 0
374 10 1635 1795 90 0 291
375 20 1822 1982 90 0 349
376 10 1084 1244 90 0 515
377 10 660 820 90 0 602
378 -10 2754 2914 90 88 0
379 40 2813 2973 90 0 926
380 -20 0 3620 90 279 0
381 -20 2309 2469 90 925 0
382 -20 2698 2858 90 577 0
383 20 115 275 90 0 876
384 20 100 260 90 0 432
385 30 3274 3434 90 0 646
386 20 1331 1491 90 0 196
387 -20 2965 3125 90 666 0
388 20 0 3800 0 0 1016
389 -20 0 3629 90 712 0
390 10 0 3721 90 0 488
391 20 1352 1512 90 0 81
392 20 434 594 90 0 905
393 -20 2464 2624 90 6 0
394 -10 0 3694 90 621 0
395 50 363 523 90 0 723
396 -30 2464 2624 90 352 0
397 -30 1600 1760 90 50 0
398 -20 0 3749 90 341 0
399 30 0 3589 90 0 445
400 10 3175 3335 90 0 257
401 -20 1749 1909 90 160 0
402 20 1330 1490 90 0 143
403 -20 2581 2741 90 76 0
404 -10 0 3724 90 97 0
405 20 0 3567 90 0 491
406 10 511 671 90 0 167
407 -20 258 418 90 211 0
408 -10 2595 2755 90 481 0
409 10 174 334 90 0 202
410 -20 2983 3143 90 727 0
411 20 2599 2759 90 0 424
412 -30 1654 1814 90 994 0
413 30 2567 2727 90 0 948
414 -10 0 3624 90 502 0
415 -10 2850 3010 90 104 0
416 -20 0 3662 90 733 0
417 -30 1884 2044 90 702 0
418 -10 564 724 90 734 0
419 -20 2358 2518 90 714 0
420 20 224 384 90 0 134
421 20 74 234 90 0 972
422 30 408 568 90 0 75
423 10 300 460 90 0 788
424 -20 0 3697 90 411 0
425 -40 1730 1890 90 278 0
426 10 2480 2640 90 0 467
427 -10 907 1067 90 230 0
428 -40 1457 1617 90 144 0
429 30 0 3706 90 0 810
430 30 0 3601 90 0 72
431 30 1231 1391 90 0 175
432 -20 898 1058 90 384 0
433 -20 0 3706 90 146 0
434 30 3254 3414 90 0 782
435 -30 1308 1468 90 461 0
436 10 0 3620 90 0 535
437 10 1748 1908 90 0 358
438 30 0 3664 90 0 832
439 20 832 992 90 0 275
440 20 2887 3047 90 0 82
441 20 2297 2457 90 0 101
442 20 707 867 90 0 837
443 20 0 3688 90 0 632
444 -20 2796 2956 90 608 0
445 -30 1997 2157 90 399 0
446 30 33 193 90 0 943
447 -10 1047 1207 90 360 0
448 -30 3160 3320 90 969 0
449 -10 1048 1208 90 982 0
450 20 197 357 90 0 276
451 10 536 696 90 0 469
452 -20 0 3567 90 686 0
453 -30 3054 3214 90 462 0
454 20 997 1157 90 0 789
455 -30 2846 3006 90 780 0
456 20 434 594 90 0 911
457 -10 2296 2456 90 550 0
458 40 275 435 90 0 356
459 10 0 3620 90 0 610
460 -20 407 567 90 63 0
461 30 209 369 90 0 435
462 30 2753 2913 90 0 453
463 20 689 849 90 0 58
464 30 1505 1665 90 0 841
465 -10 0 3611 90 842 0
466 20 0 3571 90 0 53
467 -10 3002 3162 90 426 0
468 -30 2073 2233 90 252 0
469 -10 730 890 90 451 0
470 30 1176 1336 90 0 5
471 -10 3008 3168 90 162 0
472 20 637 797 90 0 593
473 20 41 201 90 0 271
474 10 0 3751 90 0 805
475 20 696 856 90 0 197
476 20 664 824 90 0 801
477 -10 2613 2773 90 564 0
478 30 2792 2952 90 0 303
479 -10 3036 3196 90 649 0
480 10 923 1083 90 0 179
481 10 0 3613 90 0 408
482 -20 1361 1521 90 611 0
483 -20 2292 2452 90 604 0
484 -10 1005 1165 90 822 0
485 30 1214 1374 90 0 993
486 -30 0 3584 90 825 0
487 -30 0 3773 90 977 0
488 -10 1423 1583 90 390 0
489 20 1450 1610 90 0 809
490 -20 2389 2549 90 875 0
491 -20 0 3601 90 405 0
492 -10 1069 1229 90 74 0
493 -20 2915 3075 90 983 0
494 -20 0 3597 90 30 0
495 -20 1545 1705 90 653 0
496 10 215 375 90 0 35
497 10 1925 2085 90 0 516
498 10 2724 2884 90 0 294
499 -10 2232 2392 90 853 0
500 30 530 690 90 0 844
501 -20 825 985 90 731 0
502 10 1260 1420 90 0 414
503 -10 1887 2047 90 34 0
504 -20 2534 2694 90 20 0
505 30 440 600 90 0 944
506 -20 0 3737 90 600 0
507 10 0 3748 90 0 529
508 20 2960 3120 90 0 826
509 -10 3150 3310 90 748 0
510 10 272 432 90 0 231
511 -40 0 3553 90 224 0
512 20 805 965 90 0 770
513 -20 0 3631 90 793 0
514 -20 559 719 90 591 0
515 -10 0 3640 90 376 0
516 -10 2185 2345 90 497 0
517 20 0 3580 90 0 990
518 -10 0 3609 90 869 0
519 -10 473 633 90 936 0
520 -30 1811 1971 90 127 0
521 30 709 869 90 0 595
522 -10 0 3717 90 32 0
523 -20 0 3622 90 23 0
524 30 2250 2410 90 0 106
525 20 0 3733 90 0 624
526 -20 1558 1718 90 971 0
527 20 606 766 90 0 262
528 -10 2126 2286 90 561 0
529 -10 0 3754 90 507 0
530 -20 0 3757 90 129 0
531 -20 444 604 90 958 0
532 20 582 742 90 0 64
533 30 2908 3068 90 0 882
534 10 1466 1626 90 0 216
535 -10 2154 2314 90 436 0
536 10 930 1090 90 0 669
537 20 0 3663 90 0 247
538 10 2147 2307 90 0 675
539 -10 1343 1503 90 15 0
540 -20 369 529 90 292 0
541 -30 0 3752 90 614 0
542 10 0 3633 90 0 680
543 10 0 3697 90 0 48
544 10 1045 1205 90 0 757
545 10 2013 2173 90 0 813
546 30 0 3692 90 0 266
547 30 1660 1820 90 0 212
548 10 1634 1794 90 0 838
549 -20 1915 2075 90 190 0
550 10 1808 1968 90 0 457
551 10 0 3645 90 0 282
552 -10 1062 1222 90 945 0
553 30 1337 1497 90 0 907
554 20 2976 3136 90 0 984
555 30 308 468 90 0 105
556 10 721 881 90 0 937
557 10 0 3642 90 0 124
558 -20 2034 2194 90 667 0
559 20 2198 2358 90 0 265
560 -30 841 1001 90 237 0
561 10 1268 1428 90 0 528
562 10 201 361 90 0 787
563 30 1924 2084 90 0 579
564 10 1353 1513 90 0 477
565 -10 2493 2653 90 596 0
566 -20 0 3681 90 139 0
567 30 0 3646 90 0 261
568 20 1523 1683 90 0 960
569 -20 2492 2652 90 939 0
570 -30 802 962 90 590 0
571 10 0 3683 90 0 137
572 -10 0 3703 90 61 0
573 -20 904 1064 90 198 0
574 20 1425 1585 90 0 85
575 10 2386 2546 90 0 178
576 20 352 512 90 0 985
577 20 685 845 90 0 382
578 -30 3090 3250 90 732 0
579 -30 2015 2175 90 563 0
580 30 1371 1531 90 0 37
581 20 553 713 90 0 186
582 20 2092 2252 90 0 174
583 20 207 367 90 0 759
584 10 1506 1666 90 0 193
585 -10 0 3691 90 980 0
586 -10 0 3732 90 238 0
587 -30 0 3710 90 253 0
588 30 311 471 90 0 924
589 10 3432 3592 0 0 1003
590 30 139 299 90 0 570
591 20 0 3680 90 0 514
592 10 1520 1680 90 0 676
593 -20 0 3581 90 472 0
594 20 0 3750 90 0 709
595 -30 2136 2296 90 521 0
596 10 1905 2065 90 0 565
597 -20 0 3696 90 223 0
598 -10 999 1159 90 184 0
599 20 786 946 90 0 716
600 20 1389 1549 90 0 506
601 -10 3013 3173 90 808 0
602 -10 860 1020 90 377 0
603 -10 0 3782 90 17 0
604 20 1615 1775 90 0 483
605 20 793 953 90 0 151
606 -10 807 967 90 915 0
607 10 589 749 90 0 623
608 20 1358 1518 90 0 444
609 40 882 1042 90 0 233
610 -10 3255 3415 90 459 0
611 20 169 329 90 0 482
612 -20 3112 3272 90 47 0
613 -30 2572 2732 90 28 0
614 30 553 713 90 0 541
615 10 1904 2064 90 0 327
616 20 2429 2589 90 0 325
617 20 2296 2456 90 0 350
618 20 0 3638 90 0 656
619 -30 0 3663 90 657 0
620 -10 0 3594 90 194 0
621 10 2690 2850 90 0 394
622 -10 2588 2748 90 370 0
623 -10 0 3616 90 607 0
624 -20 0 3740 90 525 0
625 20 0 3610 90 0 932
626 10 567 727 90 0 306
627 20 3400 3560 0 0 1005
628 -10 1633 1793 90 995 0
629 30 0 3701 90 0 240
630 -10 0 3694 90 335 0
631 20 1145 1305 90 0 835
632 -20 1885 2045 90 443 0
633 10 1698 1858 90 0 738
634 10 0 3797 90 0 3
635 20 2384 2544 90 0 687
636 -20 758 918 90 685 0
637 20 2612 2772 90 0 316
638 -30 2933 3093 90 269 0
639 30 0 3684 90 0 232
640 20 0 3758 90 0 744
641 30 500 660 90 0 207
642 -10 904 1064 90 1000 0
643 -20 3063 3223 90 338 0
644 -30 2785 2945 90 159 0
645 10 0 3620 90 0 334
646 -30 3375 3535 90 385 0
647 -20 0 3684 90 663 0
648 10 541 701 90 0 885
649 10 1811 1971 90 0 479
650 -30 2923 3083 90 348 0
651 10 255 415 90 0 108
652 10 83 243 90 0 147
653 20 978 1138 90 0 495
654 -10 2227 2387 90 239 0
655 -10 0 3694 90 99 0
656 -20 1828 1988 90 618 0
657 30 662 822 90 0 619
658 -10 2659 2819 90 751 0
659 20 0 3595 90 0 274
660 20 265 425 90 0 878
661 -20 1134 1294 90 968 0
662 -10 2665 2825 90 991 0
663 20 739 899 90 0 647
664 30 0 3661 90 0 217
665 20 0 3532 90 0 227
666 20 110 270 90 0 387
667 20 0 3680 90 0 558
668 -10 0 3660 90 299 0
669 -10 2091 2251 90 536 0
670 20 960 1120 90 0 94
671 20 515 675 90 0 715
672 -40 2809 2969 90 974 0
673 -10 2885 3045 90 121 0
674 20 199 359 90 0 857
675 -10 0 3803 90 538 0
676 -10 3135 3295 90 592 0
677 -20 3203 3363 90 297 0
678 10 1705 1865 90 0 769
679 20 1000 1160 90 0 919
680 -10 2444 2604 90 542 0
681 20 1331 1491 90 0 879
682 -10 0 3559 90 886 0
683 -20 2040 2200 90 270 0
684 -20 0 3660 90 136 0
685 20 0 3746 90 0 636
686 20 1386 1546 90 0 452
687 -20 3430 3590 90 635 0
688 -10 3007 3167 90 693 0
689 10 2566 2726 90 0 9
690 20 167 327 90 0 698
691 -20 0 3784 90 820 0
692 -10 2814 2974 90 177 0
693 10 2705 2865 90 0 688
694 -30 1548 1708 90 864 0
695 20 1239 1399 90 0 796
696 30 0 3592 90 0 742
697 -10 2421 2581 90 851 0
698 -20 0 3643 90 690 0
699 -20 0 3619 90 249 0
700 -30 0 3578 90 14 0
701 20 0 3563 90 0 847
702 30 1780 1940 90 0 417
703 -10 3114 3274 90 222 0
704 30 1773 1933 90 0 973
705 -20 0 3638 90 45 0
706 -20 1532 1692 90 181 0
707 10 2601 2761 90 0 320
708 -20 1387 1547 90 138 0
709 -20 2945 3105 90 594 0
710 -10 0 3796 90 922 0
711 -20 2676 2836 90 791 0
712 20 2482 2642 90 0 389
713 20 332 492 90 0 721
714 20 82 242 90 0 419
715 -20 2632 2792 90 671 0
716 -20 2507 2667 90 599 0
717 20 1053 1213 90 0 4
718 -20 1517 1677 90 730 0
719 10 0 3625 90 0 77
720 -10 3347 3507 90 113 0
721 -20 531 691 90 713 0
722 -20 1603 1763 90 18 0
723 -50 0 3668 90 395 0
724 -20 1235 1395 90 120 0
725 -20 1810 1970 90 824 0
726 -10 1897 2057 90 145 0
727 20 1398 1558 90 0 410
728 10 0 3538 0 0 1002
729 -10 2415 2575 90 777 0
730 20 543 703 90 0 718
731 20 320 480 90 0 501
732 30 2985 3145 90 0 578
733 20 0 3691 90 0 416
734 10 151 311 90 0 418
735 -20 2763 2923 90 130 0
736 20 1407 1567 90 0 354
737 20 1654 1814 90 0 169
738 -10 2182 2342 90 633 0
739 20 677 837 90 0 324
740 -10 656 816 90 357 0
741 -20 2716 2876 90 743 0
742 -30 2088 2248 90 696 0
743 20 1821 1981 90 0 741
744 -20 940 1100 90 640 0
745 20 0 3636 90 0 783
746 10 241 401 90 0 814
747 10 886 1046 90 0 961
748 10 2562 2722 90 0 509
749 20 1563 1723 90 0 69
750 20 331 491 90 0 125
751 10 1889 2049 90 0 658
752 20 2284 2444 90 0 333
753 -10 0 3683 90 877 0
754 30 1189 1349 90 0 289
755 20 1991 2151 90 0 361
756 -20 2203 2363 90 39 0
757 -10 0 3693 90 544 0
758 10 219 379 90 0 816
759 -20 0 3599 90 583 0
760 -30 3076 3236 90 790 0
761 30 584 744 90 0 182
762 10 2595 2755 0 0 1011
763 -20 1583 1743 90 802 0
764 -10 1386 1546 90 258 0
765 20 2113 2273 90 0 963
766 -30 2773 2933 90 906 0
767 -40 2403 2563 90 792 0
768 10 409 569 90 0 319
769 -10 2213 2373 90 678 0
770 -20 1371 1531 90 512 0
771 -40 2685 2845 90 298 0
772 30 1828 1988 90 0 141
773 20 829 989 90 0 909
774 -20 1795 1955 90 189 0
775 -30 2274 2434 90 854 0
776 -20 2310 2470 90 283 0
777 10 0 3616 90 0 729
778 30 853 1013 90 0 290
779 -10 0 3750 90 902 0
780 30 0 3642 90 0 455
781 -10 2672 2832 90 128 0
782 -30 0 3755 90 434 0
783 -20 1812 1972 90 745 0
784 -30 997 1157 90 830 0
785 -20 3181 3341 90 7 0
786 30 2180 2340 90 0 132
787 -10 0 3614 90 562 0
788 -10 2311 2471 90 423 0
789 -20 2210 2370 90 454 0
790 30 1592 1752 90 0 760
791 20 0 3607 90 0 711
792 40 0 3581 90 0 767
793 20 0 3659 90 0 513
794 -20 3156 3316 90 164 0
795 10 1568 1728 90 0 949
796 -20 0 3704 90 695 0
797 10 3185 3345 90 0 140
798 -30 1882 2042 90 24 0
799 20 845 1005 90 0 326
800 -40 0 3528 90 126 0
801 -20 1650 1810 90 476 0
802 20 287 447 90 0 763
803 -10 1788 1948 90 359 0
804 -20 0 3678 90 815 0
805 -10 274 434 90 474 0
806 10 0 3637 90 0 855
807 -30 958 1118 90 347 0
808 10 2617 2777 90 0 601
809 -20 2760 2920 90 489 0
810 -30 0 3591 90 429 0
811 20 0 3646 90 0 928
812 -30 919 1079 90 98 0
813 -10 2909 3069 90 545 0
814 -10 1715 1875 90 746 0
815 20 0 3647 90 0 804
816 -10 0 3569 90 758 0
817 -30 2677 2837 90 315 0
818 20 3190 3350 90 0 309
819 -20 1029 1189 90 135 0
820 20 3054 3214 90 0 691
821 30 626 786 90 0 118
822 10 403 563 90 0 484
823 20 388 548 90 0 218
824 20 373 533 90 0 725
825 30 1128 1288 90 0 486
826 -20 0 3629 90 508 0
827 30 0 3654 90 0 355
828 -30 0 3702 90 351 0
829 -10 0 3657 90 215 0
830 30 366 526 90 0 784
831 -10 2646 2806 90 154 0
832 -30 2290 2450 90 438 0
833 20 2088 2248 90 0 31
834 20 197 357 90 0 40
835 -20 2798 2958 90 631 0
836 30 160 320 90 0 967
837 -20 1186 1346 90 442 0
838 -10 1731 1891 90 548 0
839 -40 1125 1285 90 204 0
840 20 1150 1310 90 0 273
841 -30 0 3573 90 464 0
842 10 3044 3204 90 0 465
843 -10 3285 3445 90 863 0
844 -30 0 3655 90 500 0
845 30 2853 3013 90 0 903
846 -30 0 3633 90 999 0
847 -20 0 3613 90 701 0
848 -10 0 3614 90 219 0
849 -10 0 3733 90 887 0
850 -20 2890 3050 90 913 0
851 10 1258 1418 90 0 697
852 -20 1996 2156 90 339 0
853 10 1752 1912 90 0 499
854 30 1292 1452 90 0 775
855 -10 1941 2101 90 806 0
856 -10 1156 1316 90 904 0
857 -20 1686 1846 90 674 0
858 -10 1497 1657 90 96 0
859 30 469 629 90 0 970
860 10 119 279 90 0 56
861 20 1814 1974 0 0 1017
862 30 871 1031 90 0 897
863 10 501 661 90 0 843
864 30 979 1139 90 0 694
865 10 0 3565 90 0 166
866 20 0 3763 90 0 873
867 -10 2294 2454 90 881 0
868 10 467 627 90 0 293
869 10 0 3600 90 0 518
870 -20 0 3670 90 895 0
871 10 0 3636 90 0 86
872 20 3154 3314 90 0 250
873 -20 0 3749 90 866 0
874 -20 3447 3607 90 83 0
875 20 1113 1273 90 0 490
876 -20 0 3680 90 383 0
877 10 1288 1448 90 0 753
878 -20 0 3548 90 660 0
879 -20 0 3714 90 681 0
880 -10 1938 2098 90 149 0
881 10 2106 2266 90 0 867
882 -30 0 3714 90 533 0
883 -20 2706 2866 90 36 0
884 10 2858 3018 90 0 191
885 -10 0 3764 90 648 0
886 10 1098 1258 90 0 682
887 10 1454 1614 90 0 849
888 10 2677 2837 90 0 209
889 -20 0 3614 90 942 0
890 30 0 3639 90 0 133
891 20 655 815 90 0 62
892 10 745 905 90 0 221
893 30 1089 1249 90 0 914
894 -20 0 3670 90 19 0
895 20 1686 1846 90 0 870
896 -20 1193 1353 90 308 0
897 -30 0 3621 90 862 0
898 -40 2207 2367 90 95 0
899 10 0 3621 90 0 12
900 30 0 3647 0 0 1007
901 30 1035 1195 90 0 246
902 10 1039 1199 90 0 779
903 -30 2948 3108 90 845 0
904 10 339 499 90 0 856
905 -20 0 3606 90 392 0
906 30 0 3612 90 0 766
907 -30 0 3675 90 553 0
908 -30 0 3722 90 79 0
909 -20 932 1092 90 773 0
910 20 813 973 90 0 59
911 -20 2118 2278 90 456 0
912 -20 0 3750 90 208 0
913 20 0 3557 90 0 850
914 -30 0 3731 90 893 0
915 10 709 869 90 0 606
916 -10 1125 1285 90 242 0
917 -10 2830 2990 90 940 0
918 20 1403 1563 90 0 288
919 -20 0 3578 90 679 0
920 10 2075 2235 90 0 115
921 -30 2496 2656 90 267 0
922 10 218 378 90 0 710
923 20 0 3637 90 0 366
924 -30 1543 1703 90 588 0
925 20 1543 1703 90 0 381
926 -40 3275 3435 90 379 0
927 30 2002 2162 90 0 2
928 -20 1621 1781 90 811 0
929 20 2085 2245 90 0 305
930 30 280 440 90 0 10
931 20 3095 3255 0 0 1014
932 -20 0 3629 90 625 0
933 10 383 543 90 0 225
934 -20 2878 3038 90 986 0
935 -10 2959 3119 90 277 0
936 10 378 538 90 0 519
937 -10 812 972 90 556 0
938 30 0 3610 90 0 256
939 20 1891 2051 90 0 569
940 10 0 3662 90 0 917
941 -20 0 3687 90 952 0
942 20 1898 2058 90 0 889
943 -30 53 213 90 446 0
944 -30 649 809 90 505 0
945 10 965 1125 90 0 552
946 -10 0 3746 90 998 0
947 20 0 3702 90 0 981
948 -30 3157 3317 90 413 0
949 -10 2954 3114 90 795 0
950 -10 3492 3652 90 26 0
951 -10 0 3575 90 979 0
952 20 0 3576 90 0 941
953 -20 2086 2246 90 206 0
954 20 0 3578 90 0 33
955 -20 2691 2851 90 66 0
956 -10 1993 2153 90 60 0
957 -20 2733 2893 90 264 0
958 20 248 408 90 0 531
959 10 2410 2570 90 0 183
960 -20 2997 3157 90 568 0
961 -10 1255 1415 90 747 0
962 -10 1242 1402 90 38 0
963 -20 2711 2871 90 765 0
964 30 0 3621 90 0 152
965 10 1094 1254 90 0 301
966 -10 2382 2542 90 220 0
967 -30 2425 2585 90 836 0
968 20 466 626 90 0 661
969 30 2660 2820 90 0 448
970 -30 2101 2261 90 859 0
971 20 0 3755 90 0 526
972 -20 1058 1218 90 421 0
973 -30 0 3513 90 704 0
974 40 2000 2160 90 0 672
975 -20 1277 1437 90 29 0
976 -10 3041 3201 90 329 0
977 30 0 3777 90 0 487
978 -10 3055 3215 90 235 0
979 10 1110 1270 90 0 951
980 10 3120 3280 90 0 585
981 -20 1996 2156 90 947 0
982 10 755 915 90 0 449
983 20 1373 1533 90 0 493
984 -20 0 3716 90 554 0
985 -20 2098 2258 90 576 0
986 20 1496 1656 90 0 934
987 50 1798 1958 90 0 180
988 -10 994 1154 90 286 0
989 10 0 3583 90 0 371
990 -20 1495 1655 90 517 0
991 10 2371 2531 90 0 662
992 -20 0 3588 90 365 0
993 -30 1312 1472 90 485 0
994 30 0 3658 90 0 412
995 10 1540 1700 90 0 628
996 -30 992 1152 90 321 0
997 -30 1793 1953 90 8 0
998 10 0 3743 90 0 946
999 30 2332 2492 90 0 846
1000 10 0 3670 90 0 642
1001 10 0 3606 90 0 332
1002 -10 0 3538 90 728 0
1003 -10 3432 3592 90 589 0
1004 -10 0 3739 90 369 0
1005 -20 3400 3560 90 627 0
1006 -10 1402 1562 90 251 0
1007 -30 0 3647 90 900 0
1008 -10 611 771 90 323 0
1009 -10 0 3682 90 51 0
1010 -30 0 3801 90 281 0
1011 -10 2595 2755 90 762 0
1012 -20 3108 3268 90 22 0
1013 -10 2911 3071 90 16 0
1014 -20 3095 3255 90 931 0
1015 -10 0 3749 90 195 0
1016 -20 0 3800 90 388 0
1017 -20 1814 1974 90 861 0
DEPOT_SECTION
1
-1
EOF
