NAME: lc2_10_4
TYPE: PDPTW
COMMENT: Li & Lim PDPTW benchmark converted from SINTEF format
DIMENSION: 1019
VEHICLES: 250
CAPACITY: 700
EDGE_WEIGHT_TYPE: EUC_2D
NODE_COORD_SECTION
1 250 250
2 212 101
3 266 231
4 89 284
5 430 298
6 435 77
7 25 293
8 43 269
9 216 117
10 294 437
11 79 479
12 365 18
13 225 125
14 448 103
15 143 266
16 252 347
17 403 390
18 67 153
19 90 168
20 302 235
21 259 355
22 149 183
23 19 297
24 209 358
25 56 388
26 115 269
27 377 356
28 113 229
29 205 343
30 48 137
31 467 157
32 220 394
33 436 54
34 54 357
35 456 154
36 216 307
37 280 224
38 90 270
39 166 452
40 17 283
41 196 192
42 94 275
43 292 445
44 329 471
45 326 57
46 95 466
47 429 282
48 229 364
49 457 160
50 452 154
51 113 289
52 67 387
53 368 17
54 341 367
55 410 364
56 80 281
57 321 224
58 73 395
59 259 76
60 121 203
61 118 256
62 236 361
63 78 371
64 301 53
65 382 197
66 491 160
67 453 164
68 277 371
69 272 212
70 386 218
71 353 32
72 59 389
73 414 62
74 278 357
75 101 179
76 396 234
77 74 390
78 332 55
79 272 365
80 418 355
81 216 380
82 440 173
83 89 358
84 66 491
85 317 234
86 439 297
87 394 367
88 58 364
89 290 75
90 346 344
91 131 269
92 236 96
93 29 282
94 418 385
95 148 225
96 166 464
97 266 373
98 201 273
99 255 245
100 220 379
101 85 317
102 125 264
103 131 253
104 184 188
105 128 209
106 373 364
107 389 342
108 420 20
109 132 218
110 32 256
111 406 339
112 191 397
113 72 341
114 35 308
115 169 360
116 222 381
117 96 292
118 311 496
119 220 384
120 259 243
121 349 476
122 63 159
123 112 243
124 448 302
125 343 27
126 67 485
127 220 359
128 147 435
129 317 235
130 43 355
131 368 340
132 450 72
133 400 364
134 355 480
135 450 153
136 126 188
137 380 223
138 71 453
139 54 287
140 420 168
141 219 89
142 189 327
143 191 309
144 301 67
145 484 161
146 77 483
147 241 375
148 428 64
149 403 361
150 257 336
151 131 241
152 63 166
153 71 368
154 272 228
155 25 290
156 441 157
157 13 266
158 251 376
159 61 170
160 386 357
161 95 475
162 90 298
163 71 388
164 383 246
165 352 38
166 395 1
167 120 210
168 46 383
169 202 198
170 358 365
171 191 352
172 470 152
173 228 124
174 402 230
175 323 229
176 331 486
177 112 208
178 172 435
179 326 498
180 460 183
181 95 279
182 76 456
183 242 350
184 152 196
185 268 351
186 360 356
187 39 296
188 262 368
189 204 90
190 149 273
191 446 86
192 139 269
193 483 170
194 39 278
195 201 307
196 395 378
197 139 262
198 176 447
199 67 380
200 35 358
201 294 455
202 351 33
203 216 316
204 261 96
205 238 57
206 383 18
207 152 460
208 94 479
209 337 453
210 135 460
211 260 104
212 337 63
213 32 247
214 394 205
215 95 294
216 253 241
217 223 90
218 64 473
219 275 431
220 261 84
221 176 296
222 361 349
223 168 433
224 394 10
225 308 60
226 94 456
227 73 484
228 277 434
229 119 232
230 78 375
231 366 346
232 125 181
233 69 493
234 432 80
235 72 391
236 85 486
237 204 371
238 173 328
239 280 423
240 200 327
241 241 98
242 96 356
243 332 491
244 81 283
245 373 22
246 255 371
247 358 359
248 216 93
249 73 360
250 305 212
251 151 462
252 47 389
253 155 198
254 152 457
255 329 48
256 88 394
257 153 295
258 81 373
259 163 453
260 378 25
261 401 385
262 184 340
263 402 362
264 70 482
265 357 445
266 212 71
267 231 81
268 379 208
269 236 95
270 386 344
271 189 200
272 296 253
273 73 303
274 30 162
275 230 95
276 57 131
277 379 245
278 107 221
279 154 458
280 290 417
281 272 243
282 94 130
283 222 356
284 243 108
285 224 93
286 155 242
287 440 302
288 221 102
289 52 484
290 111 244
291 132 273
292 228 186
293 221 374
294 406 286
295 390 9
296 335 52
297 189 368
298 397 40
299 408 305
300 156 434
301 180 335
302 327 483
303 363 62
304 375 342
305 16 280
306 277 431
307 110 241
308 48 385
309 152 260
310 255 120
311 214 382
312 414 384
313 232 378
314 80 141
315 188 330
316 157 192
317 101 237
318 74 360
319 267 260
320 378 46
321 420 311
322 384 217
323 418 300
324 356 77
325 253 244
326 323 258
327 293 454
328 231 97
329 316 234
330 207 196
331 321 228
332 382 17
333 206 326
334 198 284
335 137 186
336 229 396
337 268 235
338 95 243
339 297 430
340 393 368
341 66 391
342 189 339
343 280 351
344 241 77
345 134 265
346 420 95
347 111 279
348 367 358
349 239 373
350 384 235
351 284 360
352 325 75
353 279 369
354 340 449
355 275 448
356 447 88
357 314 279
358 434 377
359 67 377
360 370 353
361 57 367
362 332 486
363 386 361
364 55 282
365 317 467
366 335 54
367 348 466
368 132 314
369 328 216
370 416 48
371 370 55
372 149 434
373 466 169
374 141 267
375 258 350
376 428 312
377 211 188
378 50 343
379 107 311
380 178 441
381 232 85
382 391 23
383 137 227
384 161 203
385 363 212
386 384 346
387 166 434
388 274 248
389 156 421
390 346 211
391 265 358
392 96 407
393 443 70
394 125 212
395 361 337
396 322 78
397 481 156
398 188 293
399 76 408
400 130 304
401 378 363
402 185 301
403 385 235
404 261 350
405 389 33
406 151 214
407 265 94
408 65 164
409 293 81
410 363 55
411 465 176
412 428 298
413 75 379
414 404 378
415 203 203
416 259 88
417 362 17
418 320 258
419 59 358
420 316 453
421 225 192
422 140 206
423 83 151
424 366 196
425 108 245
426 129 267
427 57 379
428 329 56
429 213 363
430 76 391
431 330 259
432 136 217
433 165 333
434 160 431
435 338 489
436 335 64
437 412 361
438 259 90
439 265 77
440 460 173
441 83 301
442 201 331
443 118 214
444 395 30
445 125 444
446 283 248
447 391 334
448 212 215
449 276 428
450 96 152
451 425 85
452 336 7
453 196 219
454 210 94
455 310 81
456 341 37
457 344 478
458 406 37
459 69 346
460 80 376
461 314 449
462 209 201
463 88 379
464 352 500
465 65 357
466 345 15
467 125 245
468 52 369
469 449 140
470 430 310
471 109 325
472 446 139
473 229 214
474 197 301
475 146 245
476 401 368
477 116 259
478 374 55
479 249 251
480 325 490
481 59 159
482 186 177
483 319 229
484 26 269
485 53 139
486 471 154
487 301 247
488 388 220
489 235 81
490 347 479
491 367 59
492 261 370
493 441 287
494 44 153
495 263 351
496 444 157
497 374 17
498 448 295
499 446 297
500 347 40
501 318 493
502 399 352
503 51 364
504 250 217
505 107 225
506 173 208
507 204 189
508 399 379
509 79 346
510 360 338
511 390 17
512 207 337
513 409 361
514 206 377
515 429 294
516 375 31
517 426 80
518 74 374
519 408 20
520 239 369
521 420 308
522 254 357
523 53 297
524 434 382
525 204 171
526 173 169
527 190 332
528 274 231
529 207 194
530 315 232
531 425 87
532 312 64
533 129 244
534 278 230
535 351 75
536 185 293
537 364 364
538 432 369
539 128 249
540 221 179
541 194 296
542 413 350
543 214 372
544 379 229
545 91 298
546 226 120
547 344 46
548 238 84
549 138 276
550 346 487
551 95 160
552 103 266
553 98 286
554 77 172
555 147 199
556 210 98
557 428 292
558 121 236
559 336 479
560 203 369
561 296 232
562 87 369
563 247 88
564 104 246
565 67 302
566 114 296
567 394 356
568 192 306
569 16 285
570 419 310
571 389 221
572 129 264
573 172 483
574 325 251
575 151 436
576 263 91
577 401 15
578 253 382
579 247 89
580 283 229
581 366 341
582 392 213
583 167 304
584 477 154
585 234 383
586 199 327
587 140 220
588 144 266
589 432 105
590 368 325
591 202 386
592 325 246
593 430 86
594 200 195
595 440 295
596 77 287
597 187 362
598 131 207
599 405 5
600 125 226
601 254 335
602 212 168
603 281 279
604 326 241
605 152 241
606 71 139
607 46 277
608 393 13
609 87 454
610 86 359
611 220 192
612 426 279
613 131 267
614 200 297
615 299 442
616 265 218
617 398 231
618 312 74
619 99 307
620 22 283
621 67 160
622 390 42
623 44 279
624 200 182
625 458 303
626 298 438
627 62 301
628 112 251
629 184 354
630 140 180
631 269 428
632 123 206
633 36 284
634 272 233
635 320 231
636 211 180
637 114 169
638 245 239
639 117 204
640 316 254
641 169 443
642 212 96
643 119 285
644 71 163
645 78 361
646 354 219
647 389 233
648 90 391
649 209 307
650 363 351
651 405 47
652 278 329
653 261 371
654 302 470
655 373 205
656 381 20
657 90 277
658 46 341
659 50 138
660 61 437
661 331 252
662 440 81
663 384 206
664 232 87
665 59 471
666 174 304
667 106 248
668 410 287
669 206 313
670 412 367
671 412 300
672 206 295
673 329 459
674 177 436
675 266 264
676 308 235
677 260 330
678 49 136
679 356 28
680 428 384
681 220 362
682 437 61
683 365 360
684 107 168
685 220 177
686 347 21
687 293 245
688 267 436
689 216 96
690 383 351
691 289 240
692 129 185
693 291 450
694 387 21
695 116 255
696 50 368
697 121 249
698 404 346
699 77 360
700 447 102
701 366 16
702 348 16
703 353 346
704 54 485
705 319 77
706 83 282
707 384 24
708 52 469
709 199 200
710 273 234
711 16 281
712 151 442
713 223 114
714 191 308
715 448 297
716 386 28
717 106 295
718 387 224
719 96 377
720 86 361
721 211 107
722 43 125
723 369 351
724 388 228
725 325 228
726 490 159
727 420 78
728 396 4
729 222 317
730 389 198
731 322 454
732 241 391
733 256 117
734 298 255
735 74 363
736 345 496
737 167 169
738 23 306
739 317 62
740 319 257
741 129 255
742 59 377
743 138 272
744 317 251
745 279 436
746 371 207
747 263 372
748 50 347
749 275 236
750 334 47
751 50 383
752 170 338
753 245 109
754 69 475
755 54 372
756 198 334
757 380 228
758 425 118
759 80 398
760 366 57
761 67 463
762 226 86
763 59 480
764 40 378
765 250 367
766 157 436
767 463 161
768 266 250
769 51 162
770 194 353
771 383 41
772 247 82
773 457 142
774 244 94
775 441 63
776 244 371
777 174 444
778 94 247
779 320 225
780 316 80
781 155 447
782 211 308
783 297 442
784 200 342
785 44 325
786 438 60
787 80 374
788 59 163
789 236 92
790 414 66
791 34 279
792 475 156
793 404 310
794 367 239
795 210 359
796 133 278
797 446 169
798 188 356
799 312 252
800 69 485
801 413 353
802 54 446
803 56 357
804 230 105
805 196 302
806 391 373
807 101 295
808 234 350
809 215 108
810 142 457
811 283 425
812 77 397
813 105 317
814 382 213
815 213 76
816 417 56
817 183 340
818 123 242
819 475 136
820 377 246
821 310 484
822 47 280
823 57 456
824 313 266
825 475 145
826 400 376
827 290 416
828 277 369
829 91 303
830 194 301
831 254 238
832 215 91
833 500 162
834 56 287
835 289 452
836 378 326
837 197 350
838 243 88
839 250 72
840 101 290
841 351 480
842 67 357
843 128 240
844 253 81
845 307 227
846 233 441
847 311 47
848 292 456
849 183 187
850 392 31
851 103 251
852 300 443
853 420 295
854 427 64
855 372 354
856 101 263
857 141 454
858 146 461
859 298 430
860 148 270
861 76 287
862 308 55
863 143 257
864 393 2
865 385 28
866 204 291
867 132 272
868 206 379
869 69 383
870 245 96
871 431 301
872 448 94
873 199 305
874 95 356
875 328 498
876 108 222
877 341 26
878 63 454
879 222 357
880 416 364
881 127 278
882 140 252
883 218 298
884 432 87
885 216 300
886 438 72
887 184 178
888 345 468
889 150 435
890 395 365
891 208 371
892 190 292
893 78 479
894 104 198
895 346 13
896 47 388
897 315 57
898 110 199
899 323 60
900 308 82
901 216 374
902 326 253
903 308 232
904 118 223
905 149 444
906 95 395
907 117 319
908 262 352
909 468 135
910 351 31
911 361 15
912 195 300
913 397 27
914 179 311
915 77 133
916 66 397
917 366 352
918 221 87
919 347 23
920 176 358
921 229 78
922 272 246
923 293 67
924 140 265
925 238 83
926 136 296
927 218 98
928 290 440
929 29 302
930 290 425
931 124 247
932 442 287
933 294 64
934 74 165
935 382 245
936 405 24
937 211 97
938 88 390
939 37 295
940 359 371
941 186 372
942 116 446
943 293 249
944 83 228
945 96 269
946 179 284
947 368 219
948 66 359
949 189 338
950 163 277
951 5 296
952 152 478
953 366 34
954 429 80
955 464 178
956 138 196
957 87 481
958 425 99
959 241 362
960 207 289
961 264 365
962 102 289
963 233 346
964 78 141
965 196 348
966 216 92
967 444 309
968 313 263
969 211 198
970 314 436
971 217 189
972 197 178
973 60 497
974 206 312
975 197 351
976 305 233
977 297 250
978 71 348
979 11 269
980 247 447
981 386 213
982 292 434
983 436 301
984 145 221
985 224 96
986 59 128
987 489 150
988 152 225
989 426 85
990 415 73
991 440 70
992 320 476
993 57 132
994 405 311
995 109 250
996 428 314
997 40 288
998 175 282
999 298 456
1000 208 101
1001 342 52
1002 94 456
1003 386 28
1004 420 168
1005 71 348
1006 198 284
1007 63 159
1008 316 80
1009 425 85
1010 323 258
1011 96 377
1012 194 353
1013 121 203
1014 381 20
1015 229 78
1016 215 108
1017 107 225
1018 191 309
1019 184 178
PICKUP_AND_DELIVERY_SECTION
1 0 0 3914 0 0 0
2 30 0 3671 90 0 789
3 40 0 3800 90 0 120
4 -20 1436 1596 90 962 0
5 10 0 3638 90 0 715
6 -10 0 3571 90 589 0
7 20 0 3595 90 0 23
8 30 687 847 90 0 177
9 10 0 3687 90 0 453
10 30 661 821 90 0 848
11 30 998 1158 90 0 754
12 20 0 3566 90 0 771
13 20 127 287 90 0 713
14 30 0 3578 90 0 356
15 10 0 3716 90 0 374
16 -30 0 3727 90 336 0
17 -30 0 3617 90 55 0
18 20 0 3617 90 0 539
19 20 3080 3240 90 0 406
20 -30 0 3770 90 580 0
21 20 1917 2077 90 0 650
22 -10 3108 3268 90 564 0
23 -20 0 3589 90 7 0
24 -20 1477 1637 90 81 0
25 20 0 3586 90 0 359
26 10 0 3688 90 0 181
27 10 0 3659 90 0 360
28 -20 0 3686 90 443 0
29 20 902 1062 90 0 975
30 20 0 3593 90 0 659
31 -20 0 3588 90 819 0
32 10 0 3677 90 0 246
33 20 0 3554 90 0 682
34 10 0 3601 90 0 130
35 -10 0 3597 90 156 0
36 -10 0 3758 90 104 0
37 -20 0 3785 90 303 0
38 10 565 725 90 0 998
39 20 0 3606 90 0 573
40 20 0 3589 90 0 711
41 -20 0 3745 90 737 0
42 10 469 629 90 0 856
43 10 0 3625 90 0 928
44 -10 0 3590 90 121 0
45 -30 0 3617 90 500 0
46 -20 0 3559 90 264 0
47 -10 3018 3178 90 272 0
48 -10 0 3709 90 543 0
49 -10 0 3599 90 584 0
50 30 332 492 90 0 767
51 10 0 3682 90 0 565
52 -40 0 3596 90 460 0
53 20 2021 2181 90 0 911
54 -10 0 3676 90 747 0
55 30 1842 2002 90 0 17
56 10 0 3652 90 0 706
57 30 0 3749 90 0 691
58 20 1223 1383 90 0 742
59 10 0 3650 90 0 563
60 10 0 3687 0 0 1013
61 -20 0 3692 90 695 0
62 -30 0 3713 90 855 0
63 -10 0 3614 90 235 0
64 20 0 3621 90 0 847
65 20 0 3682 90 0 390
66 20 0 3567 90 0 172
67 10 0 3604 90 0 955
68 -50 595 755 90 395 0
69 -20 0 3781 90 923 0
70 -10 1901 2061 90 137 0
71 10 0 3583 90 0 478
72 20 0 3588 90 0 645
73 10 0 3575 90 0 786
74 -20 0 3714 90 386 0
75 20 2412 2572 90 0 184
76 20 0 3678 90 0 977
77 20 797 957 90 0 252
78 30 211 371 90 0 491
79 30 0 3707 90 0 348
80 -30 2037 2197 90 133 0
81 20 0 3690 90 0 24
82 -20 3282 3442 90 397 0
83 -20 0 3631 90 419 0
84 -20 0 3521 90 665 0
85 10 2479 2639 90 0 903
86 -20 0 3630 90 625 0
87 30 380 540 90 0 149
88 10 0 3601 90 0 610
89 20 191 351 90 0 933
90 -10 0 3690 90 97 0
91 10 0 3704 90 0 98
92 20 1604 1764 90 0 972
93 -10 1410 1570 90 951 0
94 -30 0 3609 90 524 0
95 40 613 773 90 0 330
96 10 0 3595 90 0 279
97 10 0 3700 90 0 90
98 -10 0 3770 90 91 0
99 10 0 3817 90 0 225
100 -20 0 3692 90 283 0
101 -20 0 3646 90 441 0
102 20 0 3699 90 0 881
103 -20 0 3705 90 477 0
104 10 1260 1420 90 0 36
105 -10 0 3696 90 481 0
106 -10 0 3657 90 437 0
107 -20 1145 1305 90 671 0
108 30 575 735 90 0 900
109 10 136 296 90 0 432
110 -20 0 3606 90 200 0
111 20 295 455 90 0 567
112 -30 0 3666 90 901 0
113 -10 0 3625 90 503 0
114 -10 3072 3232 90 803 0
115 -10 2172 2332 90 142 0
116 20 0 3691 90 0 578
117 10 0 3665 90 0 553
118 -20 0 3571 90 420 0
119 -10 0 3687 90 185 0
120 -40 0 3813 90 3 0
121 10 0 3578 90 0 44
122 20 0 3617 0 0 1007
123 20 0 3686 90 0 931
124 20 2327 2487 90 0 498
125 -30 0 3583 90 166 0
126 40 2166 2326 90 0 912
127 30 1424 1584 90 0 429
128 -20 2111 2271 90 198 0
129 20 0 3756 90 0 582
130 -10 0 3592 90 34 0
131 -10 461 621 90 510 0
132 10 0 3557 90 0 517
133 30 0 3636 90 0 80
134 20 0 3572 90 0 354
135 20 533 693 90 0 411
136 -30 0 3686 90 956 0
137 10 0 3692 90 0 70
138 -20 685 845 90 823 0
139 20 209 369 90 0 898
140 10 3393 3553 0 0 1004
141 20 0 3661 90 0 636
142 10 0 3726 90 0 115
143 10 0 3741 0 0 1018
144 -20 0 3635 90 618 0
145 -10 0 3574 90 909 0
146 -20 0 3534 90 233 0
147 -20 0 3699 90 723 0
148 -10 0 3567 90 758 0
149 -30 0 3635 90 87 0
150 -30 0 3738 90 520 0
151 10 3378 3538 90 0 475
152 30 0 3619 90 0 697
153 -10 0 3610 90 648 0
154 10 2033 2193 90 0 749
155 30 0 3596 90 0 157
156 10 0 3612 90 0 35
157 -30 0 3587 90 155 0
158 -10 0 3698 90 183 0
159 30 0 3619 90 0 167
160 20 1433 1593 90 0 261
161 -30 0 3551 90 236 0
162 10 2104 2264 90 0 400
163 20 0 3598 90 0 168
164 20 0 3691 90 0 668
165 10 0 3589 90 0 212
166 30 0 3536 90 0 125
167 -30 0 3688 90 159 0
168 -20 0 3581 90 163 0
169 30 0 3754 90 0 883
170 -10 0 3667 90 940 0
171 -10 0 3707 90 575 0
172 -20 0 3584 90 66 0
173 20 141 301 90 0 721
174 10 0 3671 90 0 935
175 -10 0 3749 90 687 0
176 10 0 3575 90 0 888
177 -30 0 3680 90 8 0
178 30 0 3624 90 0 223
179 10 0 3565 90 0 243
180 -20 0 3604 90 833 0
181 -10 0 3667 90 26 0
182 -20 0 3555 90 541 0
183 10 0 3724 90 0 158
184 -20 0 3713 90 75 0
185 10 0 3722 90 0 119
186 10 0 3672 90 0 776
187 -20 1983 2143 90 791 0
188 30 1162 1322 90 0 683
189 -20 1094 1254 90 421 0
190 20 212 372 90 0 273
191 10 0 3569 90 0 989
192 -20 0 3712 90 572 0
193 30 0 3578 90 0 486
194 -10 1601 1761 90 305 0
195 -20 0 3749 90 402 0
196 -40 0 3631 90 826 0
197 30 0 3713 90 0 860
198 20 311 471 90 0 128
199 -30 0 3600 90 399 0
200 20 0 3584 90 0 110
201 -30 0 3615 90 930 0
202 20 0 3585 90 0 428
203 -20 0 3750 90 984 0
204 40 0 3670 90 0 416
205 30 0 3631 90 0 548
206 20 1643 1803 90 0 497
207 -10 0 3593 90 777 0
208 20 0 3547 90 0 866
209 30 0 3604 90 0 351
210 -20 0 3585 90 674 0
211 20 157 317 90 0 839
212 -10 0 3618 90 165 0
213 -10 0 3606 90 633 0
214 -20 0 3674 90 663 0
215 -10 0 3663 90 796 0
216 -20 2835 2995 90 838 0
217 -10 0 3662 90 556 0
218 10 0 3534 90 0 957
219 -30 0 3642 90 306 0
220 10 0 3658 90 0 844
221 -30 1230 1390 90 837 0
222 -20 3016 3176 90 391 0
223 -30 0 3624 90 178 0
224 40 0 3545 90 0 382
225 -10 776 936 90 99 0
226 20 0 3566 0 0 1002
227 -30 0 3531 90 704 0
228 -20 0 3639 90 745 0
229 -20 1939 2099 90 630 0
230 10 0 3612 90 0 256
231 -20 0 3674 90 690 0
232 -20 0 3682 90 338 0
233 20 0 3521 90 0 146
234 40 908 1068 90 0 990
235 10 0 3597 90 0 63
236 30 0 3537 90 0 161
237 -20 0 3695 90 681 0
238 -30 0 3715 90 906 0
239 10 0 3649 90 0 302
240 -30 3150 3310 90 315 0
241 -20 0 3672 90 774 0
242 10 186 346 90 0 465
243 -10 1211 1371 90 179 0
244 10 1624 1784 90 0 829
245 10 0 3565 90 0 452
246 -10 0 3703 90 32 0
247 -10 0 3671 90 304 0
248 -20 0 3664 90 540 0
249 20 0 3616 90 0 258
250 -10 0 3758 90 797 0
251 10 0 3591 90 0 858
252 -20 0 3578 90 77 0
253 -20 0 3716 90 834 0
254 10 0 3595 90 0 942
255 10 0 3608 90 0 701
256 -10 0 3608 90 230 0
257 -20 3382 3542 90 471 0
258 -20 0 3615 90 249 0
259 10 0 3604 90 0 952
260 -20 0 3566 90 332 0
261 -20 0 3622 90 160 0
262 10 0 3713 90 0 586
263 -30 0 3636 90 836 0
264 20 2351 2511 90 0 46
265 -20 0 3602 90 362 0
266 -10 0 3642 90 1000 0
267 -30 0 3654 90 269 0
268 10 835 995 90 0 757
269 30 0 3669 90 0 267
270 -10 0 3659 90 357 0
271 10 1989 2149 90 0 969
272 10 0 3778 90 0 47
273 -20 0 3640 90 190 0
274 -30 0 3588 90 494 0
275 -20 1899 2059 90 815 0
276 -10 0 3598 90 709 0
277 10 0 3695 90 0 617
278 -10 0 3679 90 851 0
279 -10 0 3595 90 96 0
280 10 0 3653 90 0 615
281 30 0 3801 90 0 634
282 10 0 3628 90 0 422
283 20 0 3715 90 0 100
284 -30 0 3682 90 438 0
285 -20 2191 2351 90 602 0
286 -10 0 3729 90 843 0
287 20 0 3628 90 0 493
288 20 0 3674 90 0 804
289 10 0 3518 90 0 800
290 -10 0 3685 90 904 0
291 10 0 3704 90 0 863
292 20 0 3757 90 0 685
293 30 0 3697 90 0 795
294 -10 0 3664 90 943 0
295 30 1263 1423 90 0 608
296 20 0 3609 90 0 324
297 -20 0 3692 90 941 0
298 -30 0 3568 90 519 0
299 10 0 3657 90 0 967
300 10 0 3618 90 0 782
301 20 0 3714 90 0 817
302 -10 2098 2258 90 239 0
303 20 0 3605 90 0 37
304 10 939 1099 90 0 247
305 10 0 3589 90 0 194
306 30 0 3641 90 0 219
307 20 0 3684 90 0 316
308 20 0 3582 90 0 842
309 10 0 3726 90 0 924
310 -30 0 3694 90 772 0
311 -20 0 3688 90 963 0
312 -10 0 3613 90 680 0
313 -20 0 3695 90 765 0
314 -10 494 654 90 551 0
315 30 0 3723 90 0 240
316 -20 3210 3370 90 307 0
317 -20 1831 1991 90 667 0
318 40 2856 3016 90 0 699
319 20 0 3805 90 0 323
320 -20 0 3584 90 599 0
321 30 0 3644 90 0 994
322 -30 1809 1969 90 718 0
323 -20 611 771 90 319 0
324 -20 2249 2409 90 296 0
325 -30 0 3818 90 831 0
326 10 0 3751 0 0 1010
327 -30 0 3616 90 999 0
328 20 0 3670 90 0 525
329 10 0 3757 90 0 676
330 -40 2565 2725 90 95 0
331 -10 0 3750 90 337 0
332 20 1734 1894 90 0 260
333 -20 0 3737 90 889 0
334 10 0 3762 0 0 1006
335 -20 2912 3072 90 425 0
336 30 2882 3042 90 0 16
337 10 1842 2002 90 0 331
338 20 0 3669 90 0 232
339 20 378 538 90 0 982
340 10 0 3639 90 0 880
341 -40 0 3593 90 609 0
342 -20 2863 3023 90 669 0
343 -20 0 3719 90 457 0
344 -20 1225 1385 90 576 0
345 -10 2666 2826 90 549 0
346 30 345 505 90 0 886
347 30 141 301 90 0 869
348 -30 0 3665 90 79 0
349 10 0 3701 90 0 732
350 -20 0 3690 90 647 0
351 -30 0 3709 90 209 0
352 -10 0 3634 90 1001 0
353 10 0 3702 90 0 537
354 -20 0 3606 90 134 0
355 -30 0 3625 90 827 0
356 -30 2963 3123 90 14 0
357 10 270 430 90 0 270
358 10 0 3601 90 0 508
359 -20 0 3602 90 25 0
360 -10 746 906 90 27 0
361 20 0 3599 90 0 948
362 20 1912 2072 90 0 265
363 -30 1527 1687 90 513 0
364 40 305 465 90 0 822
365 -20 0 3597 90 731 0
366 -20 1853 2013 90 910 0
367 -30 0 3587 90 435 0
368 -10 0 3690 90 874 0
369 -30 0 3739 90 385 0
370 -20 0 3563 90 727 0
371 10 0 3596 90 0 760
372 30 0 3615 90 0 629
373 30 0 3594 90 0 987
374 -10 0 3714 90 15 0
375 -10 1822 1982 90 404 0
376 10 0 3636 90 0 470
377 10 0 3751 90 0 971
378 -20 0 3604 90 785 0
379 -30 2813 2973 90 807 0
380 20 0 3620 90 0 905
381 -40 0 3659 90 504 0
382 -40 0 3557 90 224 0
383 20 0 3709 90 0 988
384 20 0 3724 90 0 506
385 30 3274 3434 90 0 369
386 20 0 3660 90 0 74
387 40 2965 3125 90 0 597
388 20 0 3800 90 0 725
389 -20 0 3629 90 766 0
390 -20 0 3721 90 65 0
391 20 1352 1512 90 0 222
392 20 0 3605 90 0 878
393 20 2464 2624 90 0 531
394 -10 0 3694 90 934 0
395 50 363 523 90 0 68
396 -10 2464 2624 90 899 0
397 20 0 3575 90 0 82
398 30 0 3749 90 0 756
399 30 0 3589 90 0 199
400 -10 0 3693 90 162 0
401 30 0 3654 90 0 959
402 20 0 3742 90 0 195
403 -20 2581 2741 90 968 0
404 10 0 3724 90 0 375
405 -10 0 3567 90 707 0
406 -20 0 3719 90 19 0
407 10 0 3668 90 0 479
408 20 0 3620 90 0 628
409 -20 0 3650 90 532 0
410 10 0 3599 90 0 577
411 -20 0 3597 90 135 0
412 30 1654 1814 90 0 515
413 30 0 3607 90 0 764
414 10 0 3624 90 0 806
415 10 0 3758 90 0 993
416 -40 0 3662 90 204 0
417 10 0 3566 90 0 865
418 20 564 724 90 0 592
419 20 0 3605 90 0 83
420 20 224 384 90 0 118
421 20 0 3761 90 0 189
422 -10 0 3706 90 282 0
423 10 0 3630 90 0 554
424 -10 0 3697 90 544 0
425 20 0 3682 90 0 335
426 -10 2480 2640 90 945 0
427 20 0 3592 90 0 787
428 -20 1457 1617 90 202 0
429 -30 0 3706 90 127 0
430 30 0 3601 90 0 720
431 -20 0 3744 90 604 0
432 -10 0 3706 90 109 0
433 -40 0 3706 90 735 0
434 -20 0 3622 90 857 0
435 30 0 3570 90 0 367
436 -10 0 3620 90 953 0
437 10 0 3628 90 0 106
438 30 0 3664 90 0 284
439 20 0 3651 90 0 579
440 -20 0 3601 90 726 0
441 20 0 3650 90 0 101
442 -20 0 3730 90 781 0
443 20 0 3688 90 0 28
444 -20 2796 2956 90 913 0
445 10 1997 2157 90 0 712
446 30 0 3791 90 0 734
447 20 0 3660 90 0 595
448 20 3160 3320 90 0 638
449 20 1048 1208 90 0 980
450 20 0 3642 90 0 485
451 10 0 3584 0 0 1009
452 -10 0 3567 90 245 0
453 -10 3054 3214 90 9 0
454 -30 0 3663 90 546 0
455 -20 0 3645 90 850 0
456 20 434 594 90 0 877
457 20 2296 2456 90 0 343
458 40 0 3560 90 0 511
459 -10 0 3620 90 509 0
460 40 407 567 90 0 52
461 30 0 3615 90 0 875
462 30 0 3761 90 0 915
463 -30 0 3617 90 938 0
464 -20 1505 1665 90 736 0
465 -10 0 3611 90 242 0
466 20 0 3571 90 0 710
467 20 3002 3162 90 0 818
468 30 0 3593 90 0 696
469 -10 730 890 90 496 0
470 -10 0 3635 90 376 0
471 20 0 3665 90 0 257
472 20 0 3599 90 0 773
473 -20 0 3783 90 611 0
474 10 0 3751 90 0 614
475 -10 0 3720 90 151 0
476 -10 0 3633 90 698 0
477 20 0 3690 90 0 103
478 -10 2792 2952 90 71 0
479 -10 3036 3196 90 407 0
480 10 0 3573 90 0 841
481 10 0 3613 90 0 105
482 20 0 3727 90 0 526
483 -10 0 3752 90 561 0
484 30 0 3600 90 0 944
485 -20 0 3598 90 450 0
486 -30 0 3584 90 193 0
487 10 0 3773 90 0 814
488 -10 0 3683 90 724 0
489 -20 0 3655 90 937 0
490 -10 0 3576 90 550 0
491 -30 0 3601 90 78 0
492 30 1069 1229 90 0 908
493 -20 0 3630 90 287 0
494 30 0 3597 90 0 274
495 -20 1545 1705 90 653 0
496 10 0 3609 90 0 469
497 -20 0 3561 90 206 0
498 -20 0 3621 90 124 0
499 -30 0 3623 90 521 0
500 30 0 3593 90 0 45
501 10 825 985 90 0 673
502 10 1260 1420 90 0 890
503 10 0 3595 90 0 113
504 40 0 3791 90 0 381
505 30 0 3679 0 0 1017
506 -20 0 3737 90 384 0
507 -20 0 3748 90 966 0
508 -10 0 3627 90 358 0
509 10 0 3628 90 0 459
510 10 272 432 90 0 131
511 -40 0 3553 90 458 0
512 -10 0 3727 90 965 0
513 30 0 3631 90 0 363
514 -10 0 3690 90 560 0
515 -30 0 3640 90 412 0
516 -10 2185 2345 90 694 0
517 -10 0 3580 90 132 0
518 20 0 3609 90 0 751
519 30 0 3545 90 0 298
520 30 1811 1971 90 0 150
521 30 0 3645 90 0 499
522 -10 0 3717 90 585 0
523 30 0 3622 90 0 569
524 30 0 3598 90 0 94
525 -20 0 3733 90 328 0
526 -20 0 3713 90 482 0
527 20 0 3723 90 0 974
528 -20 0 3794 90 679 0
529 10 0 3754 90 0 601
530 -20 0 3757 90 779 0
531 -20 0 3585 90 393 0
532 20 0 3628 90 0 409
533 -30 2908 3068 90 964 0
534 -10 0 3790 90 922 0
535 -30 0 3622 90 862 0
536 -10 0 3747 90 813 0
537 -10 0 3663 90 353 0
538 -10 0 3607 90 542 0
539 -20 0 3702 90 18 0
540 20 369 529 90 0 248
541 20 0 3752 90 0 182
542 10 0 3633 90 0 538
543 10 0 3697 90 0 48
544 10 1045 1205 90 0 424
545 -20 0 3658 90 861 0
546 30 0 3692 90 0 454
547 30 0 3600 90 0 705
548 -30 1634 1794 90 205 0
549 10 1915 2075 90 0 345
550 10 0 3569 90 0 490
551 10 0 3645 90 0 314
552 -30 0 3677 90 657 0
553 -10 0 3668 90 117 0
554 -10 0 3635 90 423 0
555 30 308 468 90 0 598
556 10 0 3667 90 0 217
557 -30 0 3642 90 932 0
558 10 0 3695 90 0 995
559 -30 0 3580 90 992 0
560 10 0 3697 90 0 514
561 10 0 3775 90 0 483
562 10 201 361 90 0 759
563 -10 0 3662 90 59 0
564 10 0 3678 90 0 22
565 -10 0 3634 90 51 0
566 40 0 3681 90 0 840
567 -20 0 3646 90 111 0
568 -10 0 3744 90 949 0
569 -30 0 3588 90 523 0
570 10 0 3645 90 0 853
571 10 0 3683 90 0 746
572 20 0 3703 90 0 192
573 -20 0 3579 90 39 0
574 20 0 3749 90 0 902
575 10 0 3614 90 0 171
576 20 0 3665 90 0 344
577 -10 0 3545 90 410 0
578 -20 3090 3250 90 116 0
579 -20 0 3663 90 439 0
580 30 0 3785 90 0 20
581 -30 0 3677 90 590 0
582 -20 2092 2252 90 129 0
583 -20 207 367 90 666 0
584 10 1506 1666 90 0 49
585 10 0 3691 90 0 522
586 -10 0 3732 90 262 0
587 30 0 3710 90 0 849
588 30 0 3717 90 0 867
589 10 0 3592 90 0 6
590 30 139 299 90 0 581
591 20 0 3680 90 0 798
592 -20 1520 1680 90 418 0
593 20 0 3581 90 0 854
594 20 0 3750 90 0 729
595 -20 0 3629 90 447 0
596 10 0 3648 90 0 926
597 -40 0 3696 90 387 0
598 -30 0 3698 90 555 0
599 20 786 946 90 0 320
600 -30 1389 1549 90 778 0
601 -10 3013 3173 90 529 0
602 20 860 1020 90 0 285
603 -30 0 3782 90 828 0
604 20 0 3748 90 0 431
605 -30 0 3726 90 639 0
606 30 0 3614 90 0 632
607 -10 0 3619 90 623 0
608 -30 0 3548 90 295 0
609 40 882 1042 90 0 341
610 -10 0 3628 90 88 0
611 20 0 3759 90 0 473
612 -20 3112 3272 90 820 0
613 -20 0 3704 90 743 0
614 -10 0 3756 90 474 0
615 -10 0 3626 90 280 0
616 -20 2429 2589 90 753 0
617 -10 0 3675 90 277 0
618 20 0 3638 90 0 144
619 -40 0 3663 90 643 0
620 -20 0 3594 90 939 0
621 -20 2690 2850 90 986 0
622 -30 2588 2748 90 919 0
623 10 0 3616 90 0 607
624 -10 0 3740 90 762 0
625 20 0 3610 90 0 86
626 10 567 727 90 0 631
627 -20 0 3630 90 717 0
628 -20 0 3686 90 408 0
629 -30 0 3701 90 372 0
630 20 0 3694 90 0 229
631 -10 0 3645 90 626 0
632 -30 0 3690 90 606 0
633 10 0 3608 90 0 213
634 -30 0 3797 90 281 0
635 20 0 3752 90 0 730
636 -20 0 3744 90 141 0
637 20 0 3666 90 0 894
638 -20 0 3812 90 448 0
639 30 0 3684 90 0 605
640 20 0 3758 90 0 799
641 30 500 660 90 0 810
642 10 0 3666 90 0 927
643 40 0 3689 90 0 619
644 -20 0 3625 90 684 0
645 -20 0 3620 90 72 0
646 10 0 3716 90 0 655
647 20 0 3684 90 0 350
648 10 541 701 90 0 153
649 10 1811 1971 90 0 752
650 -20 2923 3083 90 21 0
651 -10 0 3569 90 936 0
652 -30 0 3741 90 821 0
653 20 0 3703 90 0 495
654 20 2227 2387 90 0 693
655 -10 0 3694 90 646 0
656 20 1828 1988 0 0 1014
657 30 662 822 90 0 552
658 10 0 3601 90 0 738
659 -20 0 3595 90 30 0
660 20 0 3559 90 0 761
661 10 0 3743 90 0 794
662 20 0 3570 90 0 954
663 20 739 899 90 0 214
664 -20 0 3661 90 925 0
665 20 0 3532 90 0 84
666 20 0 3731 90 0 583
667 20 0 3680 90 0 317
668 -20 0 3660 90 164 0
669 20 0 3748 90 0 342
670 20 960 1120 90 0 801
671 20 515 675 90 0 107
672 -20 2809 2969 90 960 0
673 -10 0 3601 90 501 0
674 20 0 3625 90 0 210
675 -10 0 3803 90 917 0
676 -10 3135 3295 90 329 0
677 40 3203 3363 90 0 885
678 -30 0 3593 90 722 0
679 20 0 3578 90 0 528
680 10 0 3602 90 0 312
681 20 0 3709 90 0 237
682 -20 0 3559 90 33 0
683 -30 0 3665 90 188 0
684 20 0 3660 90 0 644
685 -20 0 3746 90 292 0
686 20 1386 1546 90 0 895
687 10 0 3781 90 0 175
688 30 0 3638 90 0 846
689 -30 0 3667 90 832 0
690 20 167 327 90 0 231
691 -30 0 3784 90 57 0
692 -10 2814 2974 90 876 0
693 -20 2705 2865 90 654 0
694 10 0 3558 90 0 516
695 20 0 3690 90 0 61
696 -30 0 3592 90 468 0
697 -30 0 3695 90 152 0
698 10 0 3643 90 0 476
699 -40 0 3619 90 318 0
700 10 0 3578 90 0 775
701 -10 0 3563 90 255 0
702 -30 0 3571 90 864 0
703 -10 0 3684 90 961 0
704 30 0 3518 90 0 227
705 -30 0 3638 90 547 0
706 -10 0 3654 90 56 0
707 10 2601 2761 90 0 405
708 -30 0 3529 90 893 0
709 10 0 3753 90 0 276
710 -20 0 3796 90 466 0
711 -20 0 3588 90 40 0
712 -10 0 3608 90 445 0
713 -20 332 492 90 13 0
714 20 0 3742 90 0 805
715 -10 0 3621 90 5 0
716 20 2507 2667 0 0 1003
717 20 0 3674 90 0 627
718 30 0 3685 90 0 322
719 10 0 3625 0 0 1011
720 -30 3347 3507 90 430 0
721 -20 531 691 90 173 0
722 30 1603 1763 90 0 678
723 20 0 3668 90 0 147
724 10 0 3685 90 0 488
725 -20 0 3746 90 388 0
726 20 1897 2057 90 0 440
727 20 0 3583 90 0 370
728 -20 0 3538 90 750 0
729 -20 0 3752 90 594 0
730 -20 0 3676 90 635 0
731 20 0 3608 90 0 365
732 -10 2985 3145 90 349 0
733 20 0 3691 90 0 870
734 -30 0 3776 90 446 0
735 40 0 3615 90 0 433
736 20 0 3561 90 0 464
737 20 1654 1814 90 0 41
738 -10 0 3591 90 658 0
739 20 0 3625 90 0 897
740 -10 0 3755 90 768 0
741 10 0 3703 90 0 950
742 -20 2088 2248 90 58 0
743 20 1821 1981 90 0 613
744 -20 0 3757 90 824 0
745 20 0 3636 90 0 228
746 -10 0 3696 90 571 0
747 10 886 1046 90 0 54
748 -20 0 3602 90 997 0
749 -10 0 3796 90 154 0
750 20 0 3605 90 0 728
751 -20 0 3584 90 518 0
752 -10 2284 2444 90 649 0
753 20 0 3683 90 0 616
754 -30 1189 1349 90 11 0
755 -10 0 3594 90 916 0
756 -30 0 3726 90 398 0
757 -10 0 3693 90 268 0
758 10 219 379 90 0 148
759 -10 0 3599 90 562 0
760 -10 0 3599 90 371 0
761 -20 0 3544 90 660 0
762 10 0 3659 90 0 624
763 10 1583 1743 90 0 830
764 -30 0 3579 90 413 0
765 20 2113 2273 90 0 313
766 20 0 3617 90 0 389
767 -30 0 3594 90 50 0
768 10 0 3808 90 0 740
769 20 0 3607 90 0 788
770 20 0 3707 0 0 1012
771 -20 2685 2845 90 12 0
772 30 0 3656 90 0 310
773 -20 0 3591 90 472 0
774 20 1795 1955 90 0 241
775 -10 0 3557 90 700 0
776 -10 0 3703 90 186 0
777 10 0 3616 90 0 207
778 30 853 1013 90 0 600
779 20 0 3750 90 0 530
780 30 0 3642 0 0 1008
781 20 2672 2832 90 0 442
782 -10 0 3755 90 300 0
783 20 0 3627 90 0 852
784 -10 0 3720 90 914 0
785 20 0 3605 90 0 378
786 -10 0 3557 90 73 0
787 -20 0 3614 90 427 0
788 -20 0 3615 90 769 0
789 -30 2210 2370 90 2 0
790 -20 1592 1752 90 958 0
791 20 0 3607 90 0 187
792 -30 0 3581 90 825 0
793 20 0 3659 90 0 871
794 -10 0 3707 90 661 0
795 -30 1568 1728 90 293 0
796 10 0 3704 90 0 215
797 10 0 3612 90 0 250
798 -20 0 3702 90 591 0
799 -20 0 3762 90 640 0
800 -10 0 3528 90 289 0
801 -20 0 3632 90 670 0
802 20 0 3547 90 0 973
803 10 0 3603 90 0 114
804 -20 0 3678 90 288 0
805 -20 0 3750 90 714 0
806 -10 0 3637 90 414 0
807 30 0 3669 90 0 379
808 10 0 3723 90 0 879
809 20 2760 2920 0 0 1016
810 -30 0 3591 90 641 0
811 20 0 3646 90 0 835
812 10 919 1079 90 0 896
813 10 0 3665 90 0 536
814 -10 1715 1875 90 487 0
815 20 0 3647 90 0 275
816 -10 0 3569 90 884 0
817 -20 0 3712 90 301 0
818 -20 3190 3350 90 467 0
819 20 0 3572 90 0 31
820 20 0 3697 90 0 612
821 30 0 3583 90 0 652
822 -40 403 563 90 364 0
823 20 0 3542 90 0 138
824 20 373 533 90 0 744
825 30 0 3576 90 0 792
826 40 0 3629 90 0 196
827 30 0 3654 90 0 355
828 30 0 3702 90 0 603
829 -10 0 3657 90 244 0
830 -10 0 3749 90 763 0
831 30 0 3812 90 0 325
832 30 0 3662 90 0 689
833 20 2088 2248 90 0 180
834 20 0 3627 90 0 253
835 -20 0 3619 90 811 0
836 30 160 320 90 0 263
837 30 1186 1346 90 0 221
838 20 0 3662 90 0 216
839 -20 1125 1285 90 211 0
840 -40 0 3670 90 566 0
841 -10 0 3573 90 480 0
842 -20 0 3613 90 308 0
843 10 0 3702 90 0 286
844 -10 0 3655 90 220 0
845 -20 0 3763 90 976 0
846 -30 0 3633 90 688 0
847 -20 0 3613 90 64 0
848 -30 0 3614 90 10 0
849 -30 0 3733 90 587 0
850 20 0 3563 90 0 455
851 10 0 3677 90 0 278
852 -20 1996 2156 90 783 0
853 -10 0 3649 90 570 0
854 -20 1292 1452 90 593 0
855 30 0 3664 90 0 62
856 -10 0 3675 90 42 0
857 20 0 3593 90 0 434
858 -10 1497 1657 90 251 0
859 30 469 629 90 0 970
860 -30 0 3721 90 197 0
861 20 0 3647 90 0 545
862 30 0 3621 90 0 535
863 -10 0 3717 90 291 0
864 30 979 1139 90 0 702
865 -10 0 3565 90 417 0
866 -20 0 3763 90 208 0
867 -30 0 3704 90 588 0
868 -20 0 3688 90 891 0
869 -30 0 3600 90 347 0
870 -20 0 3670 90 733 0
871 -20 0 3636 90 793 0
872 -10 0 3572 90 991 0
873 30 0 3749 90 0 920
874 10 3447 3607 90 0 368
875 -30 0 3565 90 461 0
876 10 0 3680 90 0 692
877 -20 0 3583 90 456 0
878 -20 0 3548 90 392 0
879 -10 0 3714 90 808 0
880 -10 0 3623 90 340 0
881 -20 2106 2266 90 102 0
882 20 0 3714 90 0 946
883 -30 0 3767 90 169 0
884 10 0 3580 90 0 816
885 -40 0 3764 90 677 0
886 -30 0 3566 90 346 0
887 10 1454 1614 0 0 1019
888 -10 2677 2837 90 176 0
889 20 0 3614 90 0 333
890 -10 0 3639 90 502 0
891 20 0 3696 90 0 868
892 -10 0 3751 90 907 0
893 30 1089 1249 90 0 708
894 -20 0 3670 90 637 0
895 -20 1686 1846 90 686 0
896 -10 1193 1353 90 812 0
897 -20 0 3621 90 739 0
898 -20 0 3675 90 139 0
899 10 0 3621 90 0 396
900 -30 0 3647 90 108 0
901 30 0 3696 90 0 112
902 -20 0 3748 90 574 0
903 -10 0 3764 90 85 0
904 10 0 3690 90 0 290
905 -20 0 3606 90 380 0
906 30 0 3612 90 0 238
907 10 0 3675 90 0 892
908 -30 0 3722 90 492 0
909 10 932 1092 90 0 145
910 20 813 973 90 0 366
911 -20 2118 2278 90 53 0
912 -40 0 3750 90 126 0
913 20 0 3557 90 0 444
914 10 0 3731 90 0 784
915 -30 0 3616 90 462 0
916 10 0 3589 90 0 755
917 10 0 3670 90 0 675
918 20 0 3659 90 0 985
919 30 0 3578 90 0 622
920 -30 0 3694 90 873 0
921 20 2496 2656 0 0 1015
922 10 218 378 90 0 534
923 20 0 3637 90 0 69
924 -10 0 3713 90 309 0
925 20 0 3657 90 0 664
926 -10 0 3702 90 596 0
927 -10 0 3669 90 642 0
928 -10 0 3630 90 43 0
929 -10 0 3597 90 979 0
930 30 280 440 90 0 201
931 -20 0 3698 90 123 0
932 30 0 3629 90 0 557
933 -20 0 3633 90 89 0
934 10 0 3629 90 0 394
935 -10 2959 3119 90 174 0
936 10 0 3550 90 0 651
937 20 0 3667 90 0 489
938 30 0 3610 90 0 463
939 20 0 3607 90 0 620
940 10 0 3662 90 0 170
941 20 0 3687 90 0 297
942 -10 1898 2058 90 254 0
943 10 0 3781 90 0 294
944 -30 0 3656 90 484 0
945 10 0 3669 90 0 426
946 -20 0 3746 90 882 0
947 -20 0 3702 90 981 0
948 -20 3157 3317 90 361 0
949 10 2954 3114 90 0 568
950 -10 0 3733 90 741 0
951 10 0 3575 90 0 93
952 -10 0 3576 90 259 0
953 10 2086 2246 90 0 436
954 -20 0 3578 90 662 0
955 -10 0 3599 90 67 0
956 30 0 3700 90 0 136
957 -10 0 3542 90 218 0
958 20 0 3593 90 0 790
959 -30 0 3712 90 401 0
960 20 0 3766 90 0 672
961 10 0 3709 90 0 703
962 20 1242 1402 90 0 4
963 20 0 3727 90 0 311
964 30 0 3621 90 0 533
965 10 0 3713 90 0 512
966 20 2382 2542 90 0 507
967 -10 2425 2585 90 299 0
968 20 0 3760 90 0 403
969 -10 2660 2820 90 271 0
970 -30 2101 2261 90 859 0
971 -10 0 3755 90 377 0
972 -20 0 3735 90 92 0
973 -20 0 3513 90 802 0
974 -20 2000 2160 90 527 0
975 -20 0 3710 90 29 0
976 20 3041 3201 90 0 845
977 -20 0 3777 90 76 0
978 10 3055 3215 0 0 1005
979 10 0 3585 90 0 929
980 -20 0 3627 90 449 0
981 20 1996 2156 90 0 947
982 -20 755 915 90 339 0
983 -20 0 3632 90 996 0
984 20 0 3716 90 0 203
985 -20 0 3668 90 918 0
986 20 0 3598 90 0 621
987 -30 0 3565 90 373 0
988 -20 994 1154 90 383 0
989 -10 0 3583 90 191 0
990 -40 1495 1655 90 234 0
991 10 2371 2531 90 0 872
992 30 0 3588 90 0 559
993 -10 1312 1472 90 415 0
994 -30 0 3658 90 321 0
995 -10 1540 1700 90 558 0
996 20 0 3635 90 0 983
997 20 1793 1953 90 0 748
998 -10 0 3743 90 38 0
999 30 0 3613 90 0 327
1000 10 0 3670 90 0 266
1001 10 0 3606 90 0 352
1002 -20 0 3566 90 226 0
1003 -20 2507 2667 90 716 0
1004 -10 3393 3553 90 140 0
1005 -10 3055 3215 90 978 0
1006 -10 0 3762 90 334 0
1007 -20 0 3617 90 122 0
1008 -30 0 3642 90 780 0
1009 -10 0 3584 90 451 0
1010 -10 0 3751 90 326 0
1011 -10 0 3625 90 719 0
1012 -20 0 3707 90 770 0
1013 -10 0 3687 90 60 0
1014 -20 1828 1988 90 656 0
1015 -20 2496 2656 90 921 0
1016 -20 2760 2920 90 809 0
1017 -30 0 3679 90 505 0
1018 -10 0 3741 90 143 0
1019 -10 1454 1614 90 887 0
DEPOT_SECTION
1
-1
EOF
