NAME: lc2_10_8
TYPE: PDPTW
COMMENT: Li & Lim PDPTW benchmark converted from SINTEF format
DIMENSION: 1015
VEHICLES: 250
CAPACITY: 700
EDGE_WEIGHT_TYPE: EUC_2D
NODE_COORD_SECTION
1 250 250
2 212 101
3 266 231
4 89 284
5 430 298
6 435 77
7 25 293
8 43 269
9 216 117
10 294 437
11 79 479
12 365 18
13 225 125
14 448 103
15 143 266
16 252 347
17 403 390
18 67 153
19 90 168
20 302 235
21 259 355
22 149 183
23 19 297
24 209 358
25 56 388
26 115 269
27 377 356
28 113 229
29 205 343
30 48 137
31 467 157
32 220 394
33 436 54
34 54 357
35 456 154
36 216 307
37 280 224
38 90 270
39 166 452
40 17 283
41 196 192
42 94 275
43 292 445
44 329 471
45 326 57
46 95 466
47 429 282
48 229 364
49 457 160
50 452 154
51 113 289
52 67 387
53 368 17
54 341 367
55 410 364
56 80 281
57 321 224
58 73 395
59 259 76
60 121 203
61 118 256
62 236 361
63 78 371
64 301 53
65 382 197
66 491 160
67 453 164
68 277 371
69 272 212
70 386 218
71 353 32
72 59 389
73 414 62
74 278 357
75 101 179
76 396 234
77 74 390
78 332 55
79 272 365
80 418 355
81 216 380
82 440 173
83 89 358
84 66 491
85 317 234
86 439 297
87 394 367
88 58 364
89 290 75
90 346 344
91 131 269
92 236 96
93 29 282
94 418 385
95 148 225
96 166 464
97 266 373
98 201 273
99 255 245
100 220 379
101 85 317
102 125 264
103 131 253
104 184 188
105 128 209
106 373 364
107 389 342
108 420 20
109 132 218
110 32 256
111 406 339
112 191 397
113 72 341
114 35 308
115 169 360
116 222 381
117 96 292
118 311 496
119 220 384
120 259 243
121 349 476
122 63 159
123 112 243
124 448 302
125 343 27
126 67 485
127 220 359
128 147 435
129 317 235
130 43 355
131 368 340
132 450 72
133 400 364
134 355 480
135 450 153
136 126 188
137 380 223
138 71 453
139 54 287
140 420 168
141 219 89
142 189 327
143 191 309
144 301 67
145 484 161
146 77 483
147 241 375
148 428 64
149 403 361
150 257 336
151 131 241
152 63 166
153 71 368
154 272 228
155 25 290
156 441 157
157 13 266
158 251 376
159 61 170
160 386 357
161 95 475
162 90 298
163 71 388
164 383 246
165 352 38
166 395 1
167 120 210
168 46 383
169 202 198
170 358 365
171 191 352
172 470 152
173 228 124
174 402 230
175 323 229
176 331 486
177 112 208
178 172 435
179 326 498
180 460 183
181 95 279
182 76 456
183 242 350
184 152 196
185 268 351
186 360 356
187 39 296
188 262 368
189 204 90
190 149 273
191 446 86
192 139 269
193 483 170
194 39 278
195 201 307
196 395 378
197 139 262
198 176 447
199 67 380
200 35 358
201 294 455
202 351 33
203 216 316
204 261 96
205 238 57
206 383 18
207 152 460
208 94 479
209 337 453
210 135 460
211 260 104
212 337 63
213 32 247
214 394 205
215 95 294
216 253 241
217 223 90
218 64 473
219 275 431
220 261 84
221 176 296
222 361 349
223 168 433
224 394 10
225 308 60
226 94 456
227 73 484
228 277 434
229 119 232
230 78 375
231 366 346
232 125 181
233 69 493
234 432 80
235 72 391
236 85 486
237 204 371
238 173 328
239 280 423
240 200 327
241 241 98
242 96 356
243 332 491
244 81 283
245 373 22
246 255 371
247 358 359
248 216 93
249 73 360
250 305 212
251 151 462
252 47 389
253 155 198
254 152 457
255 329 48
256 88 394
257 153 295
258 81 373
259 163 453
260 378 25
261 401 385
262 184 340
263 402 362
264 70 482
265 357 445
266 212 71
267 231 81
268 379 208
269 236 95
270 386 344
271 189 200
272 296 253
273 73 303
274 30 162
275 230 95
276 57 131
277 379 245
278 107 221
279 154 458
280 290 417
281 272 243
282 94 130
283 222 356
284 243 108
285 224 93
286 155 242
287 440 302
288 221 102
289 52 484
290 111 244
291 132 273
292 228 186
293 221 374
294 406 286
295 390 9
296 335 52
297 189 368
298 397 40
299 408 305
300 156 434
301 180 335
302 327 483
303 363 62
304 375 342
305 16 280
306 277 431
307 110 241
308 48 385
309 152 260
310 255 120
311 214 382
312 414 384
313 232 378
314 80 141
315 188 330
316 157 192
317 101 237
318 74 360
319 267 260
320 378 46
321 420 311
322 384 217
323 418 300
324 356 77
325 253 244
326 323 258
327 293 454
328 231 97
329 316 234
330 207 196
331 321 228
332 382 17
333 206 326
334 198 284
335 137 186
336 229 396
337 268 235
338 95 243
339 297 430
340 393 368
341 66 391
342 189 339
343 280 351
344 241 77
345 134 265
346 420 95
347 111 279
348 367 358
349 239 373
350 384 235
351 284 360
352 325 75
353 279 369
354 340 449
355 275 448
356 447 88
357 314 279
358 434 377
359 67 377
360 370 353
361 57 367
362 332 486
363 386 361
364 55 282
365 317 467
366 335 54
367 348 466
368 132 314
369 328 216
370 416 48
371 370 55
372 149 434
373 466 169
374 141 267
375 258 350
376 428 312
377 211 188
378 50 343
379 107 311
380 178 441
381 232 85
382 391 23
383 137 227
384 161 203
385 363 212
386 384 346
387 166 434
388 274 248
389 156 421
390 346 211
391 265 358
392 96 407
393 443 70
394 125 212
395 361 337
396 322 78
397 481 156
398 188 293
399 76 408
400 130 304
401 378 363
402 185 301
403 385 235
404 261 350
405 389 33
406 151 214
407 265 94
408 65 164
409 293 81
410 363 55
411 465 176
412 428 298
413 75 379
414 404 378
415 203 203
416 259 88
417 362 17
418 320 258
419 59 358
420 316 453
421 225 192
422 140 206
423 83 151
424 366 196
425 108 245
426 129 267
427 57 379
428 329 56
429 213 363
430 76 391
431 330 259
432 136 217
433 165 333
434 160 431
435 338 489
436 335 64
437 412 361
438 259 90
439 265 77
440 460 173
441 83 301
442 201 331
443 118 214
444 395 30
445 125 444
446 283 248
447 391 334
448 212 215
449 276 428
450 96 152
451 425 85
452 336 7
453 196 219
454 210 94
455 310 81
456 341 37
457 344 478
458 406 37
459 69 346
460 80 376
461 314 449
462 209 201
463 88 379
464 352 500
465 65 357
466 345 15
467 125 245
468 52 369
469 449 140
470 430 310
471 109 325
472 446 139
473 229 214
474 197 301
475 146 245
476 401 368
477 116 259
478 374 55
479 249 251
480 325 490
481 59 159
482 186 177
483 319 229
484 26 269
485 53 139
486 471 154
487 301 247
488 388 220
489 235 81
490 347 479
491 367 59
492 261 370
493 441 287
494 44 153
495 263 351
496 444 157
497 374 17
498 448 295
499 446 297
500 347 40
501 318 493
502 399 352
503 51 364
504 250 217
505 107 225
506 173 208
507 204 189
508 399 379
509 79 346
510 360 338
511 390 17
512 207 337
513 409 361
514 206 377
515 429 294
516 375 31
517 426 80
518 74 374
519 408 20
520 239 369
521 420 308
522 254 357
523 53 297
524 434 382
525 204 171
526 173 169
527 190 332
528 274 231
529 207 194
530 315 232
531 425 87
532 312 64
533 129 244
534 278 230
535 351 75
536 185 293
537 364 364
538 432 369
539 128 249
540 221 179
541 194 296
542 413 350
543 214 372
544 379 229
545 91 298
546 226 120
547 344 46
548 238 84
549 138 276
550 346 487
551 95 160
552 103 266
553 98 286
554 77 172
555 147 199
556 210 98
557 428 292
558 121 236
559 336 479
560 203 369
561 296 232
562 87 369
563 247 88
564 104 246
565 67 302
566 114 296
567 394 356
568 192 306
569 16 285
570 419 310
571 389 221
572 129 264
573 172 483
574 325 251
575 151 436
576 263 91
577 401 15
578 253 382
579 247 89
580 283 229
581 366 341
582 392 213
583 167 304
584 477 154
585 234 383
586 199 327
587 140 220
588 144 266
589 432 105
590 368 325
591 202 386
592 325 246
593 430 86
594 200 195
595 440 295
596 77 287
597 187 362
598 131 207
599 405 5
600 125 226
601 254 335
602 212 168
603 281 279
604 326 241
605 152 241
606 71 139
607 46 277
608 393 13
609 87 454
610 86 359
611 220 192
612 426 279
613 131 267
614 200 297
615 299 442
616 265 218
617 398 231
618 312 74
619 99 307
620 22 283
621 67 160
622 390 42
623 44 279
624 200 182
625 458 303
626 298 438
627 62 301
628 112 251
629 184 354
630 140 180
631 269 428
632 123 206
633 36 284
634 272 233
635 320 231
636 211 180
637 114 169
638 245 239
639 117 204
640 316 254
641 169 443
642 212 96
643 119 285
644 71 163
645 78 361
646 354 219
647 389 233
648 90 391
649 209 307
650 363 351
651 405 47
652 278 329
653 261 371
654 302 470
655 373 205
656 381 20
657 90 277
658 46 341
659 50 138
660 61 437
661 331 252
662 440 81
663 384 206
664 232 87
665 59 471
666 174 304
667 106 248
668 410 287
669 206 313
670 412 367
671 412 300
672 206 295
673 329 459
674 177 436
675 266 264
676 308 235
677 260 330
678 49 136
679 356 28
680 428 384
681 220 362
682 437 61
683 365 360
684 107 168
685 220 177
686 347 21
687 293 245
688 267 436
689 216 96
690 383 351
691 289 240
692 129 185
693 291 450
694 387 21
695 116 255
696 50 368
697 121 249
698 404 346
699 77 360
700 447 102
701 366 16
702 348 16
703 353 346
704 54 485
705 319 77
706 83 282
707 384 24
708 52 469
709 199 200
710 273 234
711 16 281
712 151 442
713 223 114
714 191 308
715 448 297
716 386 28
717 106 295
718 387 224
719 96 377
720 86 361
721 211 107
722 43 125
723 369 351
724 388 228
725 325 228
726 490 159
727 420 78
728 396 4
729 222 317
730 389 198
731 322 454
732 241 391
733 256 117
734 298 255
735 74 363
736 345 496
737 167 169
738 23 306
739 317 62
740 319 257
741 129 255
742 59 377
743 138 272
744 317 251
745 279 436
746 371 207
747 263 372
748 50 347
749 275 236
750 334 47
751 50 383
752 170 338
753 245 109
754 69 475
755 54 372
756 198 334
757 380 228
758 425 118
759 80 398
760 366 57
761 67 463
762 226 86
763 59 480
764 40 378
765 250 367
766 157 436
767 463 161
768 266 250
769 51 162
770 194 353
771 383 41
772 247 82
773 457 142
774 244 94
775 441 63
776 244 371
777 174 444
778 94 247
779 320 225
780 316 80
781 155 447
782 211 308
783 297 442
784 200 342
785 44 325
786 438 60
787 80 374
788 59 163
789 236 92
790 414 66
791 34 279
792 475 156
793 404 310
794 367 239
795 210 359
796 133 278
797 446 169
798 188 356
799 312 252
800 69 485
801 413 353
802 54 446
803 56 357
804 230 105
805 196 302
806 391 373
807 101 295
808 234 350
809 215 108
810 142 457
811 283 425
812 77 397
813 105 317
814 382 213
815 213 76
816 417 56
817 183 340
818 123 242
819 475 136
820 377 246
821 310 484
822 47 280
823 57 456
824 313 266
825 475 145
826 400 376
827 290 416
828 277 369
829 91 303
830 194 301
831 254 238
832 215 91
833 500 162
834 56 287
835 289 452
836 378 326
837 197 350
838 243 88
839 250 72
840 101 290
841 351 480
842 67 357
843 128 240
844 253 81
845 307 227
846 233 441
847 311 47
848 292 456
849 183 187
850 392 31
851 103 251
852 300 443
853 420 295
854 427 64
855 372 354
856 101 263
857 141 454
858 146 461
859 298 430
860 148 270
861 76 287
862 308 55
863 143 257
864 393 2
865 385 28
866 204 291
867 132 272
868 206 379
869 69 383
870 245 96
871 431 301
872 448 94
873 199 305
874 95 356
875 328 498
876 108 222
877 341 26
878 63 454
879 222 357
880 416 364
881 127 278
882 140 252
883 218 298
884 432 87
885 216 300
886 438 72
887 184 178
888 345 468
889 150 435
890 395 365
891 208 371
892 190 292
893 78 479
894 104 198
895 346 13
896 47 388
897 315 57
898 110 199
899 323 60
900 308 82
901 216 374
902 326 253
903 308 232
904 118 223
905 149 444
906 95 395
907 117 319
908 262 352
909 468 135
910 351 31
911 361 15
912 195 300
913 397 27
914 179 311
915 77 133
916 66 397
917 366 352
918 221 87
919 347 23
920 176 358
921 229 78
922 272 246
923 293 67
924 140 265
925 238 83
926 136 296
927 218 98
928 290 440
929 29 302
930 290 425
931 124 247
932 442 287
933 294 64
934 74 165
935 382 245
936 405 24
937 211 97
938 88 390
939 37 295
940 359 371
941 186 372
942 116 446
943 293 249
944 83 228
945 96 269
946 179 284
947 368 219
948 66 359
949 189 338
950 163 277
951 5 296
952 152 478
953 366 34
954 429 80
955 464 178
956 138 196
957 87 481
958 425 99
959 241 362
960 207 289
961 264 365
962 102 289
963 233 346
964 78 141
965 196 348
966 216 92
967 444 309
968 313 263
969 211 198
970 314 436
971 217 189
972 197 178
973 60 497
974 206 312
975 197 351
976 305 233
977 297 250
978 71 348
979 11 269
980 247 447
981 386 213
982 292 434
983 436 301
984 145 221
985 224 96
986 59 128
987 489 150
988 152 225
989 426 85
990 415 73
991 440 70
992 320 476
993 57 132
994 405 311
995 109 250
996 428 314
997 40 288
998 175 282
999 298 456
1000 208 101
1001 342 52
1002 87 481
1003 375 31
1004 440 81
1005 484 161
1006 25 290
1007 154 458
1008 69 346
1009 418 385
1010 325 75
1011 153 295
1012 249 251
1013 123 206
1014 163 277
1015 283 248
PICKUP_AND_DELIVERY_SECTION
1 0 0 3914 0 0 0
2 -20 2422 3062 90 576 0
3 -10 1696 2336 90 337 0
4 20 1196 1836 90 0 861
5 10 1322 1962 90 0 557
6 -20 762 1402 90 531 0
7 -10 2724 3364 90 711 0
8 30 447 1087 90 0 484
9 10 189 829 90 0 815
10 30 421 1061 90 0 239
11 -20 758 1398 90 823 0
12 20 1973 2613 90 0 410
13 20 127 767 90 0 642
14 -10 2938 3578 90 700 0
15 10 162 802 90 0 115
16 10 2671 3311 90 0 150
17 10 2320 2960 90 0 90
18 -10 672 1312 90 423 0
19 -30 2840 3480 90 152 0
20 -10 803 1443 90 768 0
21 -10 1677 2317 90 97 0
22 -20 2868 3508 90 630 0
23 20 2042 2682 90 0 523
24 -20 1237 1877 90 541 0
25 20 1551 2191 90 0 419
26 -10 2716 3356 90 624 0
27 10 1606 2246 90 0 617
28 30 883 1523 90 0 741
29 20 662 1302 90 0 681
30 20 1557 2197 90 0 769
31 -20 2067 2707 90 469 0
32 10 2543 3183 90 0 677
33 20 1751 2391 90 0 191
34 10 1456 2096 90 0 869
35 10 227 867 90 0 987
36 -20 2276 2916 90 568 0
37 -30 1986 2626 90 580 0
38 10 325 965 90 0 807
39 20 359 999 90 0 445
40 -10 2344 2984 90 110 0
41 -20 1850 2490 90 69 0
42 10 229 869 90 0 596
43 -20 1476 2116 90 745 0
44 30 2543 3183 90 0 209
45 20 1124 1764 90 0 900
46 -10 2784 3424 90 289 0
47 20 2778 3418 90 0 612
48 10 2272 2912 90 0 336
49 -20 2751 3391 90 773 0
50 -10 223 863 90 496 0
51 10 142 782 90 0 273
52 -30 2136 2776 90 468 0
53 -10 1781 2421 90 417 0
54 -30 2290 2930 90 492 0
55 30 1602 2242 90 0 437
56 -20 1477 2117 90 181 0
57 -20 1866 2506 90 488 0
58 20 983 1623 90 0 699
59 10 688 1328 90 0 844
60 -20 1552 2192 90 695 0
61 -20 2279 2919 90 540 0
62 -10 1473 2113 90 560 0
63 -10 210 850 90 242 0
64 20 729 1369 90 0 212
65 20 400 1040 90 0 779
66 -10 1749 2389 90 584 0
67 -10 2846 3486 90 156 0
68 30 355 995 90 0 747
69 20 2090 2730 90 0 41
70 -30 1661 2301 90 718 0
71 10 665 1305 90 0 679
72 20 1458 2098 90 0 978
73 -30 1446 2086 90 790 0
74 10 110 750 90 0 170
75 -30 2172 2812 90 778 0
76 -20 2150 2790 90 231 0
77 -20 557 1197 90 787 0
78 30 211 851 90 0 701
79 30 453 1093 90 0 940
80 -10 1797 2437 90 698 0
81 -30 2060 2700 90 98 0
82 -10 2979 3619 90 955 0
83 -10 2991 3631 90 465 0
84 20 1830 2470 90 0 161
85 10 2239 2879 90 0 129
86 -10 1803 2443 90 853 0
87 30 185 825 90 0 826
88 10 2022 2662 90 0 509
89 20 179 819 90 0 897
90 -10 2972 3612 90 17 0
91 10 2148 2788 90 0 467
92 20 1364 2004 90 0 753
93 10 1170 1810 90 0 997
94 30 2517 3157 0 0 1009
95 -30 373 1013 90 432 0
96 -20 554 1194 90 112 0
97 10 553 1193 90 0 21
98 30 54 694 90 0 81
99 10 7 647 90 0 225
100 10 2154 2794 90 0 119
101 30 2367 3007 90 0 619
102 -20 2615 3255 90 602 0
103 -10 2569 3209 90 291 0
104 -20 1020 1660 90 685 0
105 20 853 1493 90 0 374
106 20 2930 3570 90 0 703
107 -20 905 1545 90 447 0
108 30 335 975 90 0 864
109 10 122 762 90 0 851
110 10 661 1301 90 0 40
111 20 179 819 90 0 996
112 20 158 798 90 0 96
113 -10 2626 3266 90 258 0
114 -20 2832 3472 90 738 0
115 -10 1932 2572 90 15 0
116 -20 2349 2989 90 442 0
117 10 622 1262 90 0 565
118 -20 488 1128 90 420 0
119 -10 2443 3083 90 100 0
120 20 11 651 90 0 913
121 10 2243 2883 90 0 559
122 -30 769 1409 90 314 0
123 -10 2081 2721 90 229 0
124 20 2087 2727 90 0 493
125 20 956 1596 90 0 919
126 40 1926 2566 90 0 800
127 -10 1184 1824 90 334 0
128 10 1871 2511 90 0 905
129 -10 2330 2970 90 85 0
130 20 1355 1995 90 0 735
131 10 221 861 90 0 360
132 -20 2321 2961 90 816 0
133 30 330 970 90 0 806
134 20 1376 2016 90 0 327
135 20 293 933 90 0 472
136 -10 1858 2498 90 564 0
137 -10 1374 2014 90 214 0
138 20 445 1085 90 0 208
139 20 199 839 90 0 929
140 -30 2996 3636 90 193 0
141 20 2452 3092 90 0 288
142 10 180 820 90 0 433
143 -20 1190 1830 90 882 0
144 -10 240 880 90 409 0
145 10 1456 2096 0 0 1005
146 20 2299 2939 90 0 236
147 -10 1758 2398 90 349 0
148 -10 961 1601 90 886 0
149 -10 1212 1852 90 340 0
150 -10 2866 3506 90 16 0
151 -20 3065 3705 90 572 0
152 30 2262 2902 90 0 19
153 20 2970 3610 90 0 720
154 -20 1793 2433 90 799 0
155 30 2631 3271 0 0 1006
156 10 212 852 90 0 67
157 20 964 1604 90 0 785
158 -20 2946 3586 90 654 0
159 -20 2168 2808 90 986 0
160 20 1193 1833 90 0 676
161 -20 2685 3325 90 84 0
162 10 1864 2504 90 0 400
163 -30 1265 1905 90 430 0
164 -10 2628 3268 90 403 0
165 10 386 1026 90 0 865
166 30 647 1287 90 0 608
167 -30 1042 1682 90 422 0
168 30 1048 1688 90 0 658
169 -10 2038 2678 90 175 0
170 -10 2086 2726 90 74 0
171 20 117 757 90 0 808
172 30 986 1626 90 0 180
173 20 127 767 90 0 721
174 -30 1962 2602 90 363 0
175 10 1478 2118 90 0 169
176 10 1763 2403 90 0 673
177 10 1361 2001 90 0 232
178 -20 2821 3461 90 766 0
179 -30 781 1421 90 821 0
180 -30 2547 3187 90 172 0
181 20 157 797 90 0 56
182 30 540 1180 90 0 264
183 -30 2571 3211 90 732 0
184 -20 111 751 90 611 0
185 -30 1210 1850 90 343 0
186 -20 2493 3133 90 247 0
187 -10 1743 2383 90 633 0
188 30 922 1562 90 0 961
189 20 854 1494 90 0 275
190 20 103 743 90 0 914
191 -20 2816 3456 90 33 0
192 -40 1488 2128 90 924 0
193 30 1957 2597 90 0 140
194 10 1361 2001 90 0 939
195 10 1473 2113 90 0 782
196 -30 1396 2036 90 890 0
197 30 1210 1850 90 0 867
198 20 210 850 90 0 259
199 -30 2039 2679 90 252 0
200 -30 1257 1897 90 906 0
201 -10 2186 2826 90 615 0
202 20 481 1121 90 0 686
203 -10 2079 2719 90 998 0
204 40 207 847 90 0 925
205 -10 1096 1736 90 310 0
206 -10 1403 2043 90 694 0
207 -30 1070 1710 90 573 0
208 -20 2590 3230 90 138 0
209 -30 2745 3385 90 44 0
210 -20 1545 2185 90 858 0
211 20 146 786 90 0 548
212 -20 1805 2445 90 64 0
213 -10 562 1202 90 607 0
214 10 205 845 90 0 137
215 10 530 1170 90 0 244
216 -30 2595 3235 90 744 0
217 -30 2547 3187 90 563 0
218 10 1044 1684 90 0 233
219 -30 1002 1642 90 859 0
220 10 494 1134 90 0 789
221 -30 990 1630 90 946 0
222 -30 2776 3416 90 348 0
223 -20 2916 3556 90 942 0
224 40 929 1569 90 0 497
225 -10 536 1176 90 99 0
226 -20 2884 3524 90 227 0
227 20 2205 2845 90 0 226
228 20 1187 1827 90 0 970
229 10 1699 2339 90 0 123
230 10 212 852 90 0 748
231 20 408 1048 90 0 76
232 -10 2478 3118 90 177 0
233 -10 1737 2377 90 218 0
234 -20 668 1308 90 958 0
235 -10 1172 1812 90 812 0
236 -20 2398 3038 90 146 0
237 -20 509 1149 90 714 0
238 10 2241 2881 90 0 960
239 -30 711 1351 90 10 0
240 -20 2910 3550 90 756 0
241 -40 2747 3387 90 985 0
242 10 186 826 90 0 63
243 30 971 1611 90 0 835
244 -10 1384 2024 90 215 0
245 -30 2072 2712 90 511 0
246 40 1969 2609 90 0 959
247 20 2399 3039 90 0 186
248 10 2233 2873 90 0 804
249 20 2707 3347 90 0 318
250 20 916 1556 90 0 691
251 10 1162 1802 90 0 254
252 30 862 1502 90 0 199
253 30 108 748 90 0 600
254 -10 977 1617 90 251 0
255 10 1315 1955 90 0 296
256 10 487 1127 90 0 518
257 20 3078 3718 0 0 1011
258 10 350 990 90 0 113
259 -20 453 1093 90 198 0
260 10 2168 2808 90 0 850
261 -10 2624 3264 90 312 0
262 10 2528 3168 90 0 866
263 -30 1121 1761 90 513 0
264 -30 2111 2751 90 182 0
265 -10 2947 3587 90 354 0
266 -10 964 1604 90 1000 0
267 30 2163 2803 90 0 689
268 10 595 1235 90 0 544
269 -20 1877 2517 90 870 0
270 20 999 1639 90 0 350
271 10 1749 2389 90 0 697
272 10 594 1234 90 0 710
273 -10 2157 2797 90 51 0
274 -10 1862 2502 90 282 0
275 -20 1659 2299 90 189 0
276 10 1163 1803 90 0 485
277 10 2533 3173 90 0 646
278 40 294 934 90 0 505
279 20 885 1525 0 0 1007
280 -30 171 811 90 827 0
281 30 23 663 90 0 947
282 10 361 1001 90 0 274
283 -30 1368 2008 90 398 0
284 -30 2821 3461 90 832 0
285 20 1951 2591 90 0 638
286 -20 646 1286 90 984 0
287 20 1039 1679 90 0 294
288 -20 2618 3258 90 141 0
289 10 1441 2081 90 0 46
290 -20 1989 2629 90 972 0
291 10 1963 2603 90 0 103
292 20 67 707 90 0 377
293 -10 890 1530 90 543 0
294 -20 3024 3664 90 287 0
295 30 1023 1663 90 0 332
296 -10 1521 2161 90 255 0
297 -30 132 772 90 830 0
298 -20 2251 2891 90 444 0
299 -10 179 819 90 357 0
300 -20 2625 3265 90 889 0
301 -30 2341 2981 90 629 0
302 20 1858 2498 90 0 688
303 -10 2965 3605 90 382 0
304 -20 699 1339 90 824 0
305 -30 2527 3167 90 620 0
306 -20 1094 1734 90 449 0
307 -20 1896 2536 90 425 0
308 20 768 1408 90 0 610
309 10 98 738 90 0 383
310 10 130 770 90 0 205
311 -10 2251 2891 90 892 0
312 10 2422 3062 90 0 261
313 20 1954 2594 90 0 729
314 30 254 894 90 0 122
315 -10 273 913 90 860 0
316 -10 2970 3610 90 621 0
317 20 1591 2231 90 0 639
318 -20 2616 3256 90 249 0
319 20 269 909 90 0 725
320 -20 2850 3490 90 771 0
321 -30 653 1293 90 994 0
322 20 1569 2209 90 0 976
323 10 371 1011 90 0 715
324 -20 2009 2649 90 428 0
325 -10 2502 3142 90 534 0
326 10 1088 1728 90 0 661
327 -20 2371 3011 90 134 0
328 -20 2647 3287 90 774 0
329 -20 2421 3061 90 582 0
330 -40 2325 2965 90 504 0
331 30 1960 2600 90 0 635
332 -30 1494 2134 90 295 0
333 -10 3006 3646 90 810 0
334 10 62 702 90 0 127
335 -20 2672 3312 90 667 0
336 -10 2642 3282 90 48 0
337 10 1602 2242 90 0 3
338 20 519 1159 90 0 856
339 -30 186 826 90 930 0
340 10 232 872 90 0 149
341 -10 1361 2001 90 751 0
342 -10 2623 3263 90 817 0
343 30 105 745 90 0 185
344 30 985 1625 90 0 579
345 20 2426 3066 90 0 533
346 30 230 870 90 0 517
347 30 141 781 90 0 368
348 30 1893 2533 90 0 222
349 10 1665 2305 90 0 147
350 -20 2432 3072 90 270 0
351 30 115 755 90 0 999
352 30 2130 2770 0 0 1010
353 -10 262 902 90 652 0
354 10 2840 3480 90 0 265
355 10 2662 3302 90 0 578
356 -20 2723 3363 90 593 0
357 10 70 710 90 0 299
358 -10 2105 2745 90 502 0
359 -20 1946 2586 90 896 0
360 -10 506 1146 90 131 0
361 -30 1929 2569 90 938 0
362 20 1672 2312 90 0 367
363 30 1287 1927 90 0 174
364 40 197 837 90 0 623
365 20 227 867 90 0 490
366 -30 1613 2253 90 862 0
367 -20 2343 2983 90 362 0
368 -30 2974 3614 90 347 0
369 -10 1672 2312 90 592 0
370 -10 1640 2280 90 758 0
371 -20 2646 3286 90 466 0
372 30 1963 2603 90 0 781
373 30 2262 2902 90 0 411
374 -20 1395 2035 90 105 0
375 20 1582 2222 90 0 650
376 -10 844 1484 90 570 0
377 -20 420 1060 90 292 0
378 -20 2514 3154 90 764 0
379 40 2573 3213 90 0 813
380 -20 204 844 90 674 0
381 10 2069 2709 90 0 762
382 10 2458 3098 90 0 303
383 -10 115 755 90 309 0
384 -20 100 740 90 473 0
385 -20 3034 3674 90 440 0
386 -20 1091 1731 90 723 0
387 -20 2725 3365 90 712 0
388 20 70 710 90 0 640
389 -10 2989 3629 90 878 0
390 10 103 743 90 0 663
391 -20 1112 1752 90 653 0
392 20 219 859 90 0 893
393 -10 2224 2864 90 991 0
394 10 947 1587 90 0 743
395 50 141 781 90 0 855
396 -10 2224 2864 90 535 0
397 20 1360 2000 90 0 726
398 30 597 1237 90 0 283
399 30 780 1420 90 0 696
400 -10 2935 3575 90 162 0
401 30 1509 2149 90 0 977
402 20 1090 1730 90 0 885
403 10 2341 2981 90 0 164
404 10 1489 2129 90 0 522
405 -20 2743 3383 90 911 0
406 10 271 911 90 0 796
407 10 156 796 90 0 809
408 -20 2355 2995 90 788 0
409 10 174 814 90 0 144
410 -20 2743 3383 90 12 0
411 -30 2359 2999 90 373 0
412 -20 1414 2054 90 793 0
413 -10 2327 2967 90 503 0
414 10 617 1257 90 0 801
415 -10 2610 3250 90 529 0
416 20 305 945 90 0 839
417 10 1644 2284 90 0 53
418 20 324 964 90 0 616
419 -20 2118 2758 90 25 0
420 20 213 853 90 0 118
421 20 63 703 90 0 628
422 30 168 808 90 0 167
423 10 194 834 90 0 18
424 10 127 767 90 0 746
425 20 1490 2130 90 0 307
426 10 2240 2880 90 0 613
427 20 667 1307 90 0 948
428 20 1217 1857 90 0 324
429 -10 994 1634 90 536 0
430 30 1078 1718 90 0 163
431 -20 991 1631 90 740 0
432 30 658 1298 90 0 95
433 -10 2141 2781 90 142 0
434 -10 2982 3622 90 575 0
435 -30 1068 1708 90 461 0
436 -10 1713 2353 90 899 0
437 -30 1508 2148 90 55 0
438 30 397 1037 90 0 439
439 -30 592 1232 90 438 0
440 20 2647 3287 90 0 385
441 20 2057 2697 90 0 907
442 20 467 1107 90 0 116
443 20 136 776 90 0 876
444 20 2556 3196 90 0 298
445 -20 1757 2397 90 39 0
446 30 33 673 0 0 1015
447 20 807 1447 90 0 107
448 -20 2920 3560 90 574 0
449 20 808 1448 90 0 306
450 20 182 822 90 0 934
451 10 296 936 90 0 872
452 -10 1344 1984 90 1001 0
453 -10 2814 3454 90 995 0
454 20 757 1397 90 0 918
455 -30 2606 3246 90 705 0
456 -20 231 871 90 750 0
457 -10 2056 2696 90 550 0
458 40 264 904 90 0 478
459 10 2722 3362 0 0 1008
460 -10 211 851 90 562 0
461 30 209 849 90 0 435
462 30 2513 3153 90 0 709
463 20 449 1089 90 0 842
464 -20 1265 1905 90 731 0
465 10 2214 2854 90 0 83
466 20 1242 1882 90 0 371
467 -10 2762 3402 90 91 0
468 30 1833 2473 90 0 52
469 20 490 1130 90 0 31
470 30 936 1576 90 0 967
471 -40 2768 3408 90 566 0
472 -20 397 1037 90 135 0
473 20 41 681 90 0 384
474 10 73 713 90 0 591
475 20 456 1096 90 0 974
476 -30 424 1064 90 567 0
477 -20 2373 3013 90 482 0
478 -40 2552 3192 90 458 0
479 20 2796 3436 0 0 1012
480 10 683 1323 90 0 693
481 10 863 1503 90 0 494
482 20 1121 1761 90 0 477
483 10 2052 2692 90 0 845
484 -30 765 1405 90 8 0
485 -10 974 1614 90 276 0
486 20 1079 1719 90 0 797
487 -20 2998 3638 90 647 0
488 20 1183 1823 90 0 57
489 20 1210 1850 90 0 772
490 -20 2149 2789 90 365 0
491 -10 2929 3569 90 651 0
492 30 829 1469 90 0 54
493 -20 2675 3315 90 124 0
494 -10 1755 2395 90 481 0
495 10 1305 1945 90 0 908
496 10 215 855 90 0 50
497 -40 1685 2325 90 224 0
498 -10 2484 3124 90 499 0
499 10 1992 2632 90 0 498
500 30 290 930 90 0 910
501 10 585 1225 90 0 875
502 10 1020 1660 90 0 358
503 10 1647 2287 90 0 413
504 40 2294 2934 90 0 330
505 -40 200 840 90 278 0
506 -10 1641 2281 90 887 0
507 -20 2138 2778 90 594 0
508 -10 2720 3360 90 538 0
509 -10 2910 3550 90 88 0
510 10 140 780 90 0 581
511 30 1213 1853 90 0 245
512 -10 565 1205 90 912 0
513 30 817 1457 90 0 263
514 20 319 959 90 0 963
515 -30 1703 2343 90 521 0
516 20 1945 2585 0 0 1003
517 -30 482 1122 90 346 0
518 -10 2422 3062 90 256 0
519 30 279 919 90 0 936
520 -20 1571 2211 90 891 0
521 30 469 1109 90 0 515
522 -10 1772 2412 90 404 0
523 -20 2982 3622 90 23 0
524 -10 2010 2650 90 542 0
525 -20 718 1358 90 636 0
526 10 1318 1958 90 0 558
527 20 366 1006 90 0 586
528 30 1886 2526 90 0 831
529 10 2233 2873 90 0 415
530 10 2513 3153 90 0 687
531 20 239 879 90 0 6
532 -10 342 982 90 933 0
533 -20 2668 3308 90 345 0
534 10 1226 1866 90 0 325
535 10 1914 2554 90 0 396
536 10 690 1330 90 0 429
537 -20 1990 2630 90 683 0
538 10 1907 2547 90 0 508
539 20 1103 1743 90 0 549
540 20 129 769 90 0 61
541 20 410 1050 90 0 24
542 10 1317 1957 90 0 524
543 10 703 1343 90 0 293
544 -10 805 1445 90 268 0
545 -10 1773 2413 90 706 0
546 30 132 772 90 0 556
547 -20 1420 2060 90 739 0
548 -20 1394 2034 90 211 0
549 -20 1675 2315 90 539 0
550 10 1568 2208 90 0 457
551 10 179 819 90 0 659
552 30 822 1462 90 0 894
553 30 1097 1737 90 0 829
554 -30 2736 3376 90 722 0
555 30 114 754 90 0 598
556 -30 481 1121 90 546 0
557 -10 1611 2251 90 5 0
558 -10 1794 2434 90 526 0
559 -10 1958 2598 90 121 0
560 10 601 1241 90 0 62
561 -10 1028 1668 90 943 0
562 10 201 841 90 0 460
563 30 1684 2324 90 0 217
564 10 1113 1753 90 0 136
565 -10 2253 2893 90 117 0
566 40 143 783 90 0 471
567 30 178 818 90 0 476
568 20 1283 1923 90 0 36
569 -10 2252 2892 90 979 0
570 10 562 1202 90 0 376
571 10 1092 1732 90 0 981
572 20 2521 3161 90 0 151
573 30 664 1304 90 0 207
574 20 1185 1825 90 0 448
575 10 2146 2786 90 0 434
576 20 159 799 90 0 2
577 20 445 1085 90 0 599
578 -10 2850 3490 90 355 0
579 -30 1775 2415 90 344 0
580 30 1131 1771 90 0 37
581 -10 313 953 90 510 0
582 20 1852 2492 90 0 329
583 20 99 739 90 0 755
584 10 1266 1906 90 0 66
585 10 1859 2499 90 0 776
586 -20 2819 3459 90 527 0
587 30 563 1203 90 0 988
588 30 107 747 90 0 965
589 -30 2952 3592 90 854 0
590 30 139 779 90 0 935
591 -10 144 784 90 474 0
592 10 1280 1920 90 0 369
593 20 2526 3166 90 0 356
594 20 1945 2585 90 0 507
595 30 1896 2536 90 0 625
596 -10 1665 2305 90 42 0
597 20 1546 2186 90 0 752
598 -30 759 1399 90 555 0
599 -20 546 1186 90 577 0
600 -30 1149 1789 90 253 0
601 -10 2773 3413 90 795 0
602 20 620 1260 90 0 102
603 20 474 1114 90 0 902
604 20 1375 2015 90 0 969
605 20 553 1193 90 0 873
606 -30 567 1207 90 964 0
607 10 349 989 90 0 213
608 -30 1118 1758 90 166 0
609 -20 642 1282 90 660 0
610 -20 2988 3628 90 308 0
611 20 65 705 90 0 184
612 -20 2872 3512 90 47 0
613 -10 2332 2972 90 426 0
614 30 313 953 90 0 879
615 10 1664 2304 90 0 201
616 -20 2189 2829 90 418 0
617 -10 2056 2696 90 27 0
618 -30 2509 3149 90 780 0
619 -30 2474 3114 90 101 0
620 30 1073 1713 90 0 305
621 10 2450 3090 90 0 316
622 -10 2348 2988 90 707 0
623 -40 256 896 90 364 0
624 10 913 1553 90 0 26
625 -30 2291 2931 90 595 0
626 10 327 967 90 0 928
627 20 2990 3630 90 0 926
628 -20 1393 2033 90 421 0
629 30 1736 2376 90 0 301
630 20 2769 3409 90 0 22
631 -10 905 1545 90 982 0
632 10 1645 2285 0 0 1013
633 10 1458 2098 90 0 187
634 -20 1507 2147 90 749 0
635 -30 2144 2784 90 331 0
636 20 518 1158 90 0 525
637 -10 2372 3012 90 898 0
638 -20 2693 3333 90 285 0
639 -20 1458 2098 90 317 0
640 -20 510 1150 90 388 0
641 -10 260 900 90 777 0
642 -20 664 1304 90 13 0
643 -20 2823 3463 90 849 0
644 -10 2545 3185 90 915 0
645 10 2980 3620 90 0 874
646 -10 3076 3716 90 277 0
647 20 2247 2887 90 0 487
648 10 301 941 90 0 916
649 10 1571 2211 90 0 883
650 -20 2683 3323 90 375 0
651 10 255 895 90 0 491
652 10 83 723 90 0 353
653 20 738 1378 90 0 391
654 20 1987 2627 90 0 158
655 40 130 770 90 0 903
656 -10 1588 2228 90 728 0
657 30 422 1062 90 0 840
658 -30 2419 3059 90 168 0
659 -10 1649 2289 90 551 0
660 20 265 905 90 0 609
661 -10 894 1534 90 326 0
662 20 2425 3065 0 0 1004
663 -10 499 1139 90 390 0
664 -20 1264 1904 90 713 0
665 20 1244 1884 90 0 704
666 20 93 733 90 0 770
667 20 1206 1846 90 0 335
668 -10 2980 3620 90 871 0
669 -10 1851 2491 90 863 0
670 20 720 1360 90 0 880
671 -30 275 915 90 836 0
672 -10 2569 3209 90 949 0
673 -10 2645 3285 90 176 0
674 20 199 839 90 0 380
675 30 363 1003 90 0 968
676 -20 2895 3535 90 160 0
677 -10 2963 3603 90 32 0
678 -10 1465 2105 90 993 0
679 -10 760 1400 90 71 0
680 -20 2204 2844 90 690 0
681 -20 1091 1731 90 29 0
682 -20 1848 2488 90 990 0
683 20 1800 2440 90 0 537
684 -30 2275 2915 90 956 0
685 20 221 861 90 0 104
686 -20 1146 1786 90 202 0
687 -10 3141 3781 90 530 0
688 -20 2767 3407 90 302 0
689 -30 2326 2966 90 267 0
690 20 167 807 90 0 680
691 -20 699 1339 90 250 0
692 -10 2574 3214 90 904 0
693 -10 2465 3105 90 480 0
694 10 1308 1948 90 0 206
695 20 999 1639 90 0 60
696 -30 1741 2381 90 399 0
697 -10 2181 2821 90 271 0
698 10 923 1563 90 0 80
699 -20 2979 3619 90 58 0
700 10 2938 3578 90 0 14
701 -30 1738 2378 90 78 0
702 30 1540 2180 90 0 953
703 -20 2874 3514 90 106 0
704 -20 1533 2173 90 665 0
705 30 2318 2958 90 0 455
706 10 1292 1932 90 0 545
707 10 2361 3001 90 0 622
708 -30 1147 1787 90 754 0
709 -30 2705 3345 90 462 0
710 -10 1416 2056 90 272 0
711 10 2436 3076 90 0 7
712 20 2242 2882 90 0 387
713 20 138 778 90 0 664
714 20 82 722 90 0 237
715 -10 2392 3032 90 323 0
716 20 2267 2907 90 0 760
717 20 813 1453 90 0 962
718 30 1277 1917 90 0 70
719 10 199 839 90 0 742
720 -20 2986 3626 90 153 0
721 -20 291 931 90 173 0
722 30 1363 2003 90 0 554
723 20 598 1238 90 0 386
724 -30 995 1635 90 757 0
725 -20 1570 2210 90 319 0
726 -20 1657 2297 90 397 0
727 20 1158 1798 90 0 775
728 10 833 1473 90 0 656
729 -20 2175 2815 90 313 0
730 20 303 943 90 0 814
731 20 216 856 90 0 464
732 30 2745 3385 90 0 183
733 -30 2927 3567 90 927 0
734 -10 48 688 90 922 0
735 -20 2523 3163 90 130 0
736 20 1167 1807 90 0 888
737 -20 1414 2054 90 971 0
738 20 1942 2582 90 0 114
739 20 437 1077 90 0 547
740 20 416 1056 90 0 431
741 -30 2476 3116 90 28 0
742 -10 1848 2488 90 719 0
743 -10 1581 2221 90 394 0
744 30 700 1340 90 0 216
745 20 1279 1919 90 0 43
746 -10 128 768 90 424 0
747 -30 646 1286 90 68 0
748 -10 2322 2962 90 230 0
749 20 1323 1963 90 0 634
750 20 219 859 90 0 456
751 10 1649 2289 90 0 341
752 -20 2044 2684 90 597 0
753 -20 2849 3489 90 92 0
754 30 949 1589 90 0 708
755 -20 1751 2391 90 583 0
756 20 1963 2603 90 0 240
757 30 897 1537 90 0 724
758 10 219 859 90 0 370
759 10 586 1226 90 0 803
760 -20 2836 3476 90 716 0
761 30 344 984 90 0 973
762 -10 2355 2995 90 381 0
763 -20 1343 1983 90 802 0
764 20 1146 1786 90 0 378
765 -10 1873 2513 90 868 0
766 20 2533 3173 90 0 178
767 -10 2163 2803 90 909 0
768 10 169 809 90 0 20
769 -20 1973 2613 90 30 0
770 -20 1131 1771 90 666 0
771 20 2445 3085 90 0 320
772 -20 1588 2228 90 489 0
773 20 589 1229 90 0 49
774 20 1555 2195 90 0 328
775 -20 2034 2674 90 727 0
776 -10 2070 2710 90 585 0
777 10 208 848 90 0 641
778 30 613 1253 90 0 75
779 -20 1774 2414 90 65 0
780 30 2412 3052 90 0 618
781 -30 2432 3072 90 372 0
782 -10 1663 2303 90 195 0
783 -20 1572 2212 90 811 0
784 10 757 1397 90 0 920
785 -20 2941 3581 90 157 0
786 -20 1940 2580 90 954 0
787 20 259 899 90 0 77
788 20 2071 2711 90 0 408
789 -10 1970 2610 90 220 0
790 30 1352 1992 90 0 73
791 20 1266 1906 90 0 951
792 -30 1173 1813 90 825 0
793 20 165 805 90 0 412
794 -20 2916 3556 90 820 0
795 10 1328 1968 90 0 601
796 -10 1770 2410 90 406 0
797 -20 2945 3585 90 486 0
798 -30 1642 2282 90 837 0
799 20 605 1245 90 0 154
800 -40 2018 2658 90 126 0
801 -10 1410 2050 90 414 0
802 20 277 917 90 0 763
803 -10 1548 2188 90 759 0
804 -10 2718 3358 90 248 0
805 20 74 714 90 0 901
806 -30 2820 3460 90 133 0
807 -10 718 1358 90 38 0
808 -20 2377 3017 90 171 0
809 -10 2520 3160 90 407 0
810 10 1353 1993 90 0 333
811 20 618 1258 90 0 783
812 10 679 1319 90 0 235
813 -40 2669 3309 90 379 0
814 -20 1475 2115 90 730 0
815 -10 1060 1700 90 9 0
816 20 1542 2182 90 0 132
817 10 2437 3077 90 0 342
818 -20 2950 3590 90 931 0
819 20 789 1429 90 0 833
820 20 2814 3454 90 0 794
821 30 386 1026 90 0 179
822 -20 205 845 90 834 0
823 20 282 922 90 0 11
824 20 133 773 90 0 304
825 30 888 1528 90 0 792
826 -30 522 1162 90 87 0
827 30 170 810 90 0 280
828 30 170 810 90 0 917
829 -30 1959 2599 90 553 0
830 30 126 766 90 0 297
831 -30 2406 3046 90 528 0
832 30 2050 2690 90 0 284
833 -20 1848 2488 90 819 0
834 20 197 837 90 0 822
835 -30 2558 3198 90 243 0
836 30 148 788 90 0 671
837 30 946 1586 90 0 798
838 20 1491 2131 90 0 921
839 -20 885 1525 90 416 0
840 -30 910 1550 90 657 0
841 -30 1470 2110 90 992 0
842 -20 2804 3444 90 463 0
843 -10 3045 3685 90 881 0
844 -10 786 1426 90 59 0
845 -10 2613 3253 90 483 0
846 -20 2985 3625 90 848 0
847 -20 830 1470 90 923 0
848 20 2278 2918 90 0 846
849 20 1528 2168 90 0 643
850 -10 2650 3290 90 260 0
851 -10 1018 1658 90 109 0
852 10 1756 2396 90 0 980
853 10 1512 2152 90 0 86
854 30 1052 1692 90 0 589
855 -50 1701 2341 90 395 0
856 -20 916 1556 90 338 0
857 -20 1446 2086 90 952 0
858 20 1257 1897 90 0 210
859 30 229 869 90 0 219
860 10 103 743 90 0 315
861 -20 1574 2214 90 4 0
862 30 631 1271 90 0 366
863 10 261 901 90 0 669
864 -30 739 1379 90 108 0
865 -10 2046 2686 90 165 0
866 -10 2663 3303 90 262 0
867 -30 2054 2694 90 197 0
868 10 227 867 90 0 765
869 -10 2230 2870 90 34 0
870 20 1463 2103 90 0 269
871 10 1228 1868 90 0 668
872 -10 2914 3554 90 451 0
873 -20 1380 2020 90 605 0
874 -10 2997 3637 90 645 0
875 -10 873 1513 90 501 0
876 -20 1257 1897 90 443 0
877 10 1048 1688 90 0 895
878 10 276 916 90 0 389
879 -30 1277 1917 90 614 0
880 -20 1698 2338 90 670 0
881 10 1866 2506 90 0 843
882 20 357 997 90 0 143
883 -10 2466 3106 90 649 0
884 -10 2618 3258 90 989 0
885 -20 2373 3013 90 402 0
886 10 858 1498 90 0 148
887 10 1214 1854 90 0 506
888 -20 2437 3077 90 736 0
889 20 2055 2695 90 0 300
890 30 185 825 90 0 196
891 20 415 1055 90 0 520
892 10 505 1145 90 0 311
893 -20 849 1489 90 392 0
894 -30 2063 2703 90 552 0
895 -10 1446 2086 90 877 0
896 20 953 1593 90 0 359
897 -20 931 1571 90 89 0
898 10 1967 2607 90 0 637
899 10 1030 1670 90 0 436
900 -20 2699 3339 90 45 0
901 -20 795 1435 90 805 0
902 -20 799 1439 90 603 0
903 -40 2708 3348 90 655 0
904 10 134 774 90 0 692
905 -10 2335 2975 90 128 0
906 30 212 852 90 0 200
907 -20 2868 3508 90 441 0
908 -10 1396 2036 90 495 0
909 10 692 1332 90 0 767
910 -30 573 1213 90 500 0
911 20 1878 2518 90 0 405
912 10 218 858 90 0 512
913 -20 2148 2788 90 120 0
914 -20 93 733 90 190 0
915 10 469 1109 90 0 644
916 -10 885 1525 90 648 0
917 -30 2590 3230 90 828 0
918 -20 1163 1803 90 454 0
919 -20 860 1500 90 125 0
920 -10 1835 2475 90 784 0
921 -20 2256 2896 90 838 0
922 10 22 662 90 0 734
923 20 187 827 90 0 847
924 40 1303 1943 90 0 192
925 -40 1303 1943 90 204 0
926 -20 3035 3675 90 627 0
927 30 1762 2402 90 0 733
928 -10 1381 2021 90 626 0
929 -20 1845 2485 90 139 0
930 30 179 819 90 0 339
931 20 2855 3495 90 0 818
932 -20 2584 3224 90 983 0
933 10 191 831 90 0 532
934 -20 2638 3278 90 450 0
935 -30 2719 3359 90 590 0
936 -30 274 914 90 519 0
937 20 572 1212 90 0 966
938 30 393 1033 90 0 361
939 -10 1651 2291 90 194 0
940 -30 2182 2822 90 79 0
941 -20 1445 2085 90 975 0
942 20 1658 2298 90 0 223
943 10 43 683 90 0 561
944 20 409 1049 90 0 945
945 -20 725 1365 90 944 0
946 30 791 1431 90 0 221
947 -30 700 1340 90 281 0
948 -20 2917 3557 90 427 0
949 10 2714 3354 90 0 672
950 10 3093 3733 0 0 1014
951 -20 2146 2786 90 791 0
952 20 775 1415 90 0 857
953 -30 1846 2486 90 702 0
954 20 575 1215 90 0 786
955 10 2451 3091 90 0 82
956 30 1753 2393 90 0 684
957 10 2493 3133 0 0 1002
958 20 231 871 90 0 234
959 -40 2170 2810 90 246 0
960 -10 2757 3397 90 238 0
961 -30 1015 1655 90 188 0
962 -20 1002 1642 90 717 0
963 -20 2471 3111 90 514 0
964 30 203 843 90 0 606
965 -30 854 1494 90 588 0
966 -20 2142 2782 90 937 0
967 -30 2185 2825 90 470 0
968 -30 226 866 90 675 0
969 -20 2420 3060 90 604 0
970 -20 1861 2501 90 228 0
971 20 324 964 90 0 737
972 20 818 1458 90 0 290
973 -30 1637 2277 90 761 0
974 -20 1760 2400 90 475 0
975 20 1037 1677 90 0 941
976 -20 2801 3441 90 322 0
977 -30 3093 3733 90 401 0
978 -20 2815 3455 90 72 0
979 10 870 1510 90 0 569
980 -10 2880 3520 90 852 0
981 -10 1756 2396 90 571 0
982 10 515 1155 90 0 631
983 20 1133 1773 90 0 932
984 20 468 1108 90 0 286
985 40 1858 2498 90 0 241
986 20 1256 1896 90 0 159
987 -10 1558 2198 90 35 0
988 -30 754 1394 90 587 0
989 10 387 1027 90 0 884
990 20 1255 1895 90 0 682
991 10 2131 2771 90 0 393
992 30 283 923 90 0 841
993 10 1072 1712 90 0 678
994 30 166 806 90 0 321
995 10 1300 1940 90 0 453
996 -20 752 1392 90 111 0
997 -10 1553 2193 90 93 0
998 10 886 1526 90 0 203
999 -30 2092 2732 90 351 0
1000 10 387 1027 90 0 266
1001 10 218 858 90 0 452
1002 -10 2493 3133 90 957 0
1003 -20 1945 2585 90 516 0
1004 -20 2425 3065 90 662 0
1005 -10 1456 2096 90 145 0
1006 -30 2631 3271 90 155 0
1007 -20 885 1525 90 279 0
1008 -10 2722 3362 90 459 0
1009 -30 2517 3157 90 94 0
1010 -30 2130 2770 90 352 0
1011 -20 3078 3718 90 257 0
1012 -20 2796 3436 90 479 0
1013 -10 1645 2285 90 632 0
1014 -10 3093 3733 90 950 0
1015 -30 33 673 90 446 0
DEPOT_SECTION
1
-1
EOF
