NAME: lr1_10_5
TYPE: PDPTW
COMMENT: Li & Lim PDPTW benchmark converted from SINTEF format
DIMENSION: 1049
VEHICLES: 250
CAPACITY: 200
EDGE_WEIGHT_TYPE: EUC_2D
NODE_COORD_SECTION
1 250 250
2 171 34
3 67 190
4 80 400
5 439 237
6 377 385
7 449 428
8 342 481
9 466 149
10 83 290
11 251 63
12 328 491
13 260 472
14 290 145
15 266 221
16 164 320
17 52 412
18 485 104
19 144 331
20 387 394
21 472 57
22 343 276
23 104 349
24 28 467
25 91 427
26 429 476
27 210 276
28 58 39
29 273 300
30 41 232
31 25 53
32 52 18
33 27 444
34 178 72
35 406 460
36 250 328
37 492 34
38 412 100
39 233 87
40 60 5
41 406 408
42 245 42
43 166 345
44 440 294
45 370 382
46 32 319
47 480 136
48 371 163
49 0 188
50 438 5
51 132 477
52 203 211
53 2 264
54 231 167
55 423 221
56 459 53
57 386 154
58 130 494
59 31 175
60 69 423
61 352 241
62 261 201
63 59 276
64 146 188
65 451 62
66 299 285
67 142 372
68 440 201
69 219 210
70 64 198
71 390 249
72 9 101
73 424 288
74 77 372
75 298 264
76 405 454
77 407 35
78 225 369
79 347 459
80 117 178
81 132 479
82 201 66
83 245 176
84 470 138
85 115 296
86 348 476
87 43 210
88 327 139
89 49 353
90 356 256
91 335 99
92 363 34
93 33 278
94 366 288
95 452 172
96 86 189
97 262 369
98 218 403
99 218 12
100 228 399
101 492 188
102 267 174
103 274 441
104 210 113
105 370 262
106 303 186
107 241 180
108 100 85
109 350 199
110 500 228
111 251 238
112 114 102
113 345 146
114 21 146
115 330 147
116 476 61
117 386 245
118 201 278
119 421 499
120 426 231
121 105 137
122 64 437
123 181 260
124 413 391
125 370 493
126 447 267
127 232 101
128 371 332
129 447 383
130 325 147
131 489 437
132 415 95
133 331 356
134 374 346
135 108 37
136 5 224
137 93 413
138 210 29
139 136 265
140 409 155
141 111 178
142 291 251
143 322 290
144 57 183
145 181 185
146 7 382
147 425 448
148 174 41
149 161 276
150 398 49
151 210 379
152 60 231
153 453 360
154 367 97
155 488 3
156 44 115
157 48 293
158 64 135
159 65 62
160 404 207
161 68 303
162 263 418
163 147 30
164 384 149
165 340 416
166 271 128
167 89 358
168 20 480
169 488 173
170 439 156
171 389 156
172 111 392
173 267 162
174 248 176
175 413 476
176 352 481
177 264 135
178 29 462
179 148 462
180 44 140
181 414 378
182 392 95
183 216 341
184 211 411
185 317 45
186 178 150
187 428 302
188 450 45
189 453 318
190 186 135
191 11 403
192 433 447
193 272 420
194 429 59
195 200 27
196 498 171
197 487 320
198 45 166
199 490 276
200 126 391
201 92 18
202 293 228
203 343 205
204 182 480
205 385 285
206 44 344
207 170 347
208 457 492
209 124 448
210 398 210
211 75 118
212 105 474
213 134 211
214 211 248
215 212 186
216 492 335
217 497 483
218 440 436
219 311 203
220 491 369
221 67 378
222 383 17
223 7 82
224 342 319
225 78 406
226 103 123
227 241 38
228 224 3
229 436 467
230 438 488
231 351 60
232 13 214
233 429 67
234 498 456
235 135 400
236 215 293
237 354 416
238 294 421
239 208 445
240 230 320
241 157 38
242 441 100
243 61 170
244 79 467
245 365 190
246 282 1
247 124 111
248 247 219
249 28 180
250 167 488
251 442 289
252 136 430
253 38 15
254 246 314
255 176 200
256 337 232
257 257 133
258 295 247
259 39 162
260 79 257
261 236 126
262 259 498
263 180 162
264 53 466
265 167 291
266 89 185
267 487 446
268 308 199
269 481 84
270 495 227
271 397 57
272 372 39
273 278 450
274 292 32
275 90 496
276 68 53
277 371 423
278 273 149
279 297 283
280 120 37
281 371 488
282 206 174
283 174 347
284 330 281
285 67 451
286 27 464
287 361 178
288 463 406
289 456 157
290 153 244
291 153 192
292 352 63
293 371 71
294 163 472
295 448 495
296 282 10
297 66 163
298 314 205
299 83 169
300 221 291
301 374 116
302 418 269
303 178 302
304 250 57
305 475 352
306 1 252
307 286 356
308 65 82
309 154 392
310 196 56
311 366 390
312 436 25
313 67 352
314 173 182
315 390 34
316 18 225
317 57 43
318 388 44
319 269 112
320 374 260
321 291 213
322 178 420
323 389 255
324 134 194
325 93 490
326 64 294
327 493 111
328 150 484
329 235 316
330 239 15
331 193 138
332 40 278
333 307 52
334 161 416
335 381 457
336 55 318
337 80 279
338 48 162
339 91 27
340 288 70
341 177 404
342 10 237
343 493 493
344 440 292
345 349 76
346 47 208
347 283 454
348 486 324
349 392 87
350 122 422
351 37 281
352 413 127
353 222 499
354 211 446
355 30 7
356 398 341
357 26 67
358 461 186
359 313 391
360 471 94
361 341 72
362 130 186
363 257 57
364 94 344
365 6 53
366 146 376
367 244 13
368 29 336
369 306 42
370 177 486
371 489 338
372 179 318
373 344 203
374 149 341
375 307 412
376 68 450
377 420 80
378 144 220
379 497 54
380 80 458
381 84 377
382 332 382
383 6 196
384 104 28
385 224 320
386 87 3
387 149 214
388 98 29
389 135 30
390 287 397
391 107 374
392 355 485
393 51 286
394 49 118
395 159 226
396 185 431
397 262 92
398 475 198
399 142 30
400 481 207
401 174 122
402 35 263
403 24 71
404 173 65
405 91 326
406 470 417
407 397 153
408 295 283
409 174 376
410 38 190
411 16 68
412 179 286
413 244 422
414 250 441
415 497 18
416 195 111
417 26 221
418 442 5
419 44 496
420 448 404
421 471 427
422 460 424
423 461 195
424 146 313
425 19 273
426 245 461
427 69 266
428 191 84
429 68 160
430 212 47
431 80 337
432 412 478
433 225 488
434 105 140
435 389 43
436 177 156
437 179 497
438 377 432
439 497 296
440 152 476
441 277 428
442 64 5
443 44 311
444 165 59
445 261 138
446 268 351
447 48 150
448 215 79
449 109 56
450 171 188
451 284 457
452 274 442
453 33 286
454 112 433
455 423 170
456 213 283
457 240 34
458 283 438
459 324 99
460 259 301
461 189 402
462 215 282
463 166 440
464 374 232
465 339 113
466 335 46
467 313 493
468 432 66
469 76 462
470 397 477
471 196 489
472 354 156
473 171 24
474 187 73
475 243 408
476 421 387
477 141 426
478 415 118
479 240 255
480 162 388
481 413 493
482 69 414
483 273 70
484 142 14
485 185 434
486 360 294
487 265 240
488 280 245
489 87 51
490 195 273
491 422 498
492 95 64
493 63 155
494 24 259
495 376 92
496 83 300
497 72 477
498 380 194
499 72 227
500 238 123
501 188 119
502 229 322
503 150 68
504 67 24
505 63 420
506 339 144
507 454 201
508 158 24
509 365 119
510 440 284
511 417 212
512 404 439
513 472 248
514 235 108
515 174 67
516 132 151
517 217 207
518 162 306
519 48 366
520 209 68
521 94 497
522 110 122
523 274 403
524 421 386
525 399 175
526 56 268
527 322 406
528 244 277
529 105 181
530 30 97
531 359 246
532 498 457
533 190 267
534 334 481
535 18 24
536 482 104
537 460 328
538 320 211
539 494 165
540 167 445
541 340 291
542 272 234
543 325 56
544 71 304
545 87 311
546 207 487
547 332 5
548 161 275
549 268 458
550 175 352
551 398 476
552 51 360
553 21 70
554 80 251
555 457 280
556 423 315
557 66 88
558 479 387
559 436 123
560 286 244
561 449 190
562 456 113
563 480 152
564 100 266
565 343 34
566 374 306
567 13 465
568 230 487
569 442 153
570 240 362
571 433 319
572 0 422
573 297 131
574 71 12
575 44 440
576 447 184
577 341 59
578 132 32
579 411 396
580 450 416
581 323 34
582 244 368
583 90 477
584 34 169
585 351 128
586 71 282
587 157 269
588 392 1
589 39 153
590 306 229
591 415 253
592 92 76
593 437 98
594 12 367
595 448 414
596 128 113
597 43 360
598 102 422
599 480 131
600 210 81
601 432 2
602 396 83
603 489 159
604 56 75
605 66 31
606 460 117
607 175 239
608 217 333
609 62 375
610 82 183
611 248 214
612 385 239
613 371 315
614 333 163
615 100 66
616 311 422
617 153 235
618 168 109
619 284 319
620 195 464
621 382 9
622 325 210
623 366 334
624 200 78
625 351 5
626 197 202
627 270 337
628 125 65
629 120 17
630 84 255
631 222 331
632 332 459
633 226 175
634 404 140
635 223 178
636 330 308
637 140 108
638 34 239
639 94 192
640 458 213
641 13 314
642 202 391
643 339 41
644 224 56
645 345 431
646 292 104
647 318 99
648 46 248
649 482 184
650 411 379
651 293 174
652 169 305
653 394 47
654 323 29
655 65 343
656 158 179
657 299 353
658 9 233
659 330 138
660 48 412
661 385 17
662 382 110
663 336 493
664 181 441
665 162 301
666 1 101
667 80 117
668 210 219
669 404 59
670 288 439
671 149 458
672 257 391
673 405 349
674 191 215
675 231 29
676 253 50
677 441 177
678 5 445
679 463 253
680 435 180
681 198 85
682 59 388
683 373 418
684 142 80
685 441 7
686 33 268
687 355 174
688 228 260
689 114 460
690 337 41
691 154 374
692 235 13
693 303 78
694 103 464
695 325 311
696 306 235
697 382 360
698 235 288
699 0 356
700 178 135
701 226 423
702 15 11
703 144 35
704 176 199
705 247 306
706 396 417
707 289 220
708 23 235
709 137 377
710 400 71
711 261 359
712 438 127
713 318 280
714 333 293
715 436 295
716 62 94
717 495 355
718 13 394
719 172 292
720 14 232
721 437 90
722 214 274
723 420 383
724 120 261
725 179 75
726 484 224
727 214 245
728 395 474
729 368 311
730 199 203
731 485 428
732 86 199
733 447 272
734 40 304
735 475 267
736 482 141
737 489 274
738 26 342
739 139 438
740 12 358
741 125 61
742 360 284
743 29 358
744 285 247
745 248 386
746 415 207
747 130 247
748 172 66
749 92 259
750 379 486
751 452 484
752 268 288
753 349 43
754 225 269
755 50 383
756 110 251
757 461 182
758 255 487
759 133 202
760 34 329
761 368 452
762 242 106
763 171 303
764 329 456
765 490 286
766 61 214
767 365 74
768 321 149
769 84 453
770 26 442
771 180 283
772 394 322
773 348 348
774 309 161
775 385 58
776 228 287
777 312 453
778 35 344
779 393 98
780 208 488
781 235 33
782 140 137
783 405 187
784 330 371
785 265 0
786 295 89
787 3 23
788 363 225
789 148 208
790 466 362
791 267 290
792 98 2
793 131 246
794 418 75
795 366 260
796 138 28
797 209 212
798 443 167
799 156 65
800 279 355
801 206 172
802 32 94
803 301 239
804 471 368
805 133 273
806 253 74
807 470 405
808 77 172
809 77 465
810 466 96
811 402 277
812 267 374
813 450 194
814 89 65
815 429 389
816 202 28
817 46 389
818 246 407
819 452 110
820 213 185
821 134 276
822 262 97
823 469 489
824 364 71
825 68 240
826 494 468
827 439 222
828 386 225
829 434 359
830 103 177
831 89 322
832 307 249
833 30 155
834 401 314
835 217 357
836 373 421
837 5 281
838 173 474
839 36 301
840 429 169
841 195 450
842 95 382
843 225 121
844 10 407
845 221 269
846 264 180
847 168 59
848 281 96
849 387 349
850 398 329
851 239 486
852 237 420
853 346 354
854 172 314
855 233 230
856 79 80
857 243 402
858 117 110
859 66 314
860 58 391
861 142 360
862 492 326
863 381 328
864 62 236
865 344 70
866 151 81
867 240 240
868 46 163
869 455 168
870 428 202
871 432 199
872 391 112
873 451 305
874 214 311
875 465 367
876 164 473
877 364 173
878 274 261
879 133 455
880 351 481
881 115 395
882 297 304
883 7 194
884 409 255
885 87 213
886 60 246
887 3 471
888 418 251
889 153 362
890 323 77
891 143 158
892 351 148
893 426 38
894 226 316
895 347 192
896 102 6
897 41 120
898 247 443
899 218 271
900 376 385
901 241 402
902 213 399
903 32 191
904 441 374
905 376 113
906 215 434
907 499 316
908 318 497
909 256 441
910 174 397
911 468 360
912 287 256
913 448 397
914 352 487
915 253 118
916 159 299
917 351 233
918 268 113
919 164 332
920 88 484
921 360 488
922 343 166
923 497 266
924 138 406
925 420 224
926 231 410
927 199 438
928 219 215
929 365 274
930 481 454
931 187 61
932 372 97
933 187 263
934 371 427
935 74 215
936 375 145
937 365 28
938 118 314
939 60 29
940 478 300
941 33 152
942 347 184
943 94 40
944 290 328
945 96 346
946 97 288
947 176 470
948 206 97
949 210 133
950 489 457
951 418 399
952 392 491
953 437 19
954 495 83
955 468 352
956 390 120
957 80 357
958 394 310
959 61 441
960 52 303
961 391 202
962 36 451
963 276 84
964 130 140
965 16 287
966 292 136
967 53 204
968 359 287
969 309 29
970 473 491
971 273 255
972 263 153
973 328 458
974 401 164
975 480 119
976 488 96
977 149 98
978 49 437
979 440 77
980 43 135
981 188 151
982 175 422
983 48 437
984 334 403
985 372 115
986 111 192
987 357 290
988 331 134
989 495 199
990 441 60
991 51 89
992 452 206
993 195 386
994 172 24
995 408 318
996 410 399
997 413 345
998 215 129
999 380 350
1000 19 38
1001 166 247
1002 309 29
1003 265 0
1004 146 188
1005 418 269
1006 245 42
1007 195 464
1008 91 27
1009 52 412
1010 225 269
1011 39 162
1012 330 308
1013 454 201
1014 86 199
1015 330 138
1016 433 447
1017 142 360
1018 142 14
1019 268 288
1020 460 424
1021 213 283
1022 114 102
1023 420 383
1024 241 180
1025 397 477
1026 215 282
1027 498 457
1028 46 248
1029 359 287
1030 60 231
1031 67 190
1032 174 397
1033 153 235
1034 365 274
1035 366 390
1036 105 181
1037 370 262
1038 420 224
1039 29 462
1040 371 163
1041 273 255
1042 228 260
1043 72 477
1044 391 202
1045 268 351
1046 33 152
1047 138 406
1048 195 450
1049 351 148
PICKUP_AND_DELIVERY_SECTION
1 0 0 1925 0 0 0
2 21 1143 1173 10 0 520
3 25 1173 1203 0 0 1031
4 -15 1446 1476 10 225 0
5 -27 939 969 10 714 0
6 6 866 896 10 0 262
7 -17 1247 1277 10 807 0
8 -15 1440 1470 10 176 0
9 16 1186 1216 10 0 603
10 14 608 638 10 0 544
11 -26 987 1017 10 304 0
12 21 678 708 10 0 451
13 -19 1036 1066 10 758 0
14 -24 1282 1312 10 865 0
15 9 33 63 10 0 241
16 -15 1095 1125 10 821 0
17 22 1406 1436 0 0 1009
18 -30 794 824 10 621 0
19 13 931 961 10 0 283
20 -15 1098 1128 10 476 0
21 -10 1295 1325 10 415 0
22 15 96 126 10 0 987
23 -1 1009 1039 10 957 0
24 34 1343 1373 10 0 920
25 -19 883 913 10 74 0
26 23 573 603 10 0 229
27 5 47 77 10 0 168
28 12 1163 1193 10 0 833
29 30 55 85 10 0 307
30 16 209 239 10 0 383
31 -28 1020 1050 10 830 0
32 28 857 887 10 0 504
33 -6 1080 1110 10 209 0
34 -12 757 787 10 404 0
35 -4 719 749 10 823 0
36 24 249 279 10 0 133
37 -7 811 841 10 975 0
38 -5 513 543 10 653 0
39 18 253 283 10 0 397
40 -15 1044 1074 10 317 0
41 -7 1456 1486 10 944 0
42 24 547 577 0 0 1006
43 -21 1130 1160 10 46 0
44 -12 960 990 10 733 0
45 -25 884 914 10 551 0
46 21 401 431 10 0 43
47 22 256 286 10 0 810
48 21 828 858 0 0 1040
49 26 932 962 10 0 883
50 -20 549 579 10 601 0
51 25 327 357 10 0 328
52 20 1306 1336 10 0 730
53 40 655 685 10 0 425
54 15 85 115 10 0 963
55 9 258 288 10 0 871
56 -21 1122 1152 10 435 0
57 -13 1101 1131 10 974 0
58 6 759 789 10 0 370
59 24 247 277 10 0 70
60 32 802 832 10 0 482
61 -21 792 822 10 713 0
62 -28 1514 1544 10 104 0
63 11 892 922 10 0 85
64 6 1235 1265 0 0 1004
65 5 282 312 10 0 150
66 -13 1254 1284 10 73 0
67 18 162 192 10 0 235
68 -27 893 923 10 813 0
69 14 50 80 10 0 611
70 -24 1088 1118 10 59 0
71 21 582 612 10 0 936
72 16 666 696 10 0 896
73 13 1057 1087 10 0 66
74 19 211 241 10 0 25
75 36 50 80 10 0 672
76 -20 1303 1333 10 438 0
77 -16 1288 1318 10 418 0
78 38 121 151 10 0 818
79 25 479 509 10 0 761
80 28 1117 1147 10 0 145
81 -21 257 287 10 894 0
82 -21 1167 1197 10 820 0
83 -20 1235 1265 10 635 0
84 16 1389 1419 10 0 289
85 -11 1529 1559 10 63 0
86 19 1197 1227 10 0 392
87 -17 210 240 10 674 0
88 13 1257 1287 10 0 268
89 -26 1446 1476 10 945 0
90 19 106 136 10 0 407
91 25 1218 1248 10 0 768
92 19 272 302 10 0 272
93 -16 1487 1517 10 837 0
94 29 684 714 10 0 205
95 9 608 638 10 0 590
96 21 227 257 10 0 211
97 15 129 159 10 0 414
98 -14 1319 1349 10 926 0
99 -2 544 574 10 600 0
100 14 586 616 10 0 691
101 33 715 745 10 0 196
102 -35 1618 1648 10 647 0
103 -10 695 725 10 711 0
104 28 690 720 10 0 62
105 15 1099 1129 0 0 1037
106 -24 1354 1384 10 956 0
107 13 1695 1725 0 0 1024
108 -22 351 381 10 516 0
109 -15 1201 1231 10 942 0
110 8 782 812 10 0 513
111 27 12 42 10 0 173
112 21 507 537 0 0 1022
113 -16 1439 1469 10 593 0
114 -18 487 517 10 141 0
115 28 848 878 10 0 988
116 36 449 479 10 0 182
117 16 479 509 10 0 498
118 13 56 86 10 0 519
119 -23 1345 1375 10 934 0
120 24 1028 1058 10 0 888
121 -7 452 482 10 668 0
122 -18 918 948 10 376 0
123 23 69 99 10 0 554
124 -36 217 247 10 224 0
125 22 571 601 10 0 663
126 -25 980 1010 10 251 0
127 24 346 376 10 0 483
128 14 530 560 10 0 995
129 17 237 267 10 0 829
130 -31 1187 1217 10 803 0
131 -23 707 737 10 970 0
132 -20 1177 1207 10 472 0
133 -24 712 742 10 36 0
134 27 421 451 10 0 356
135 -12 549 579 10 891 0
136 -43 1055 1085 10 708 0
137 17 226 256 10 0 809
138 -23 1051 1081 10 503 0
139 12 114 144 10 0 919
140 19 185 215 10 0 779
141 18 156 186 10 0 114
142 20 41 71 10 0 379
143 -18 1479 1509 10 815 0
144 15 1100 1130 10 0 986
145 -28 1614 1644 10 80 0
146 -22 770 800 10 817 0
147 -3 794 824 10 512 0
148 15 1303 1333 10 0 994
149 8 133 163 10 0 938
150 -5 792 822 10 65 0
151 12 709 739 10 0 409
152 32 1026 1056 0 0 1030
153 13 230 260 10 0 863
154 -3 988 1018 10 155 0
155 3 401 431 10 0 154
156 24 246 276 10 0 253
157 22 276 306 10 0 854
158 -17 868 898 10 255 0
159 -17 976 1006 10 628 0
160 -40 911 941 10 559 0
161 22 221 251 10 0 845
162 25 278 308 10 0 452
163 -24 1109 1139 10 190 0
164 -21 1197 1227 10 591 0
165 36 321 351 10 0 335
166 12 346 376 10 0 918
167 -16 1247 1277 10 609 0
168 -5 570 600 10 27 0
169 -31 1210 1240 10 210 0
170 2 526 556 10 0 736
171 27 716 746 10 0 614
172 -19 1169 1199 10 200 0
173 -27 1449 1479 10 111 0
174 -14 1401 1431 10 282 0
175 -7 1179 1209 10 432 0
176 15 1285 1315 10 0 8
177 -24 879 909 10 500 0
178 17 1310 1340 0 0 1039
179 10 727 757 10 0 763
180 -31 868 898 10 980 0
181 -26 495 525 10 697 0
182 -36 766 796 10 116 0
183 -9 654 684 10 906 0
184 15 1147 1177 10 0 852
185 8 658 688 10 0 565
186 33 632 662 10 0 501
187 -12 1016 1046 10 940 0
188 24 504 534 10 0 767
189 30 374 404 10 0 371
190 24 718 748 10 0 163
191 18 343 373 10 0 844
192 20 794 824 0 0 1016
193 -8 1386 1416 10 426 0
194 9 459 489 10 0 233
195 22 525 555 10 0 367
196 -33 1256 1286 10 101 0
197 -17 858 888 10 850 0
198 -16 1013 1043 10 362 0
199 33 241 271 10 0 245
200 19 273 303 10 0 172
201 8 1124 1154 10 0 384
202 19 48 78 10 0 373
203 -15 767 797 10 219 0
204 31 365 395 10 0 540
205 -29 868 898 10 94 0
206 -2 1079 1109 10 760 0
207 -21 436 466 10 652 0
208 7 508 538 10 0 997
209 6 369 399 10 0 33
210 31 153 183 10 0 169
211 -21 409 439 10 96 0
212 -2 471 501 10 325 0
213 35 122 152 10 0 741
214 26 39 69 10 0 338
215 -31 1722 1752 10 624 0
216 -19 828 858 10 804 0
217 12 353 383 10 0 491
218 -31 892 922 10 826 0
219 15 723 753 10 0 203
220 -13 730 760 10 558 0
221 -19 470 500 10 842 0
222 15 940 970 10 0 318
223 25 412 442 10 0 355
224 36 115 145 10 0 124
225 15 960 990 10 0 4
226 -37 490 520 10 656 0
227 -27 532 562 10 692 0
228 -5 690 720 10 448 0
229 -23 736 766 10 26 0
230 -12 327 357 10 900 0
231 15 215 245 10 0 824
232 -11 1354 1384 10 825 0
233 -9 732 762 10 194 0
234 27 1406 1436 10 0 731
235 -18 299 329 10 67 0
236 13 55 85 10 0 879
237 10 679 709 10 0 706
238 -21 1575 1605 10 908 0
239 22 1332 1362 10 0 927
240 -10 1192 1222 10 631 0
241 -9 1048 1078 10 15 0
242 -21 873 903 10 293 0
243 20 1006 1036 10 0 639
244 22 351 381 10 0 575
245 -33 1477 1507 10 199 0
246 18 1042 1072 10 0 296
247 15 789 819 10 0 637
248 17 31 61 10 0 915
249 -23 386 416 10 410 0
250 -13 252 282 10 993 0
251 25 195 225 10 0 126
252 14 710 740 10 0 322
253 -24 1091 1121 10 156 0
254 -36 1445 1475 10 385 0
255 17 568 598 10 0 158
256 -14 1571 1601 10 649 0
257 -18 862 892 10 843 0
258 -26 1303 1333 10 984 0
259 18 565 595 0 0 1011
260 -18 953 983 10 885 0
261 23 124 154 10 0 676
262 -6 1075 1105 10 6 0
263 9 173 203 10 0 436
264 9 335 365 10 0 689
265 27 1634 1664 10 0 533
266 -35 600 630 10 378 0
267 -9 1340 1370 10 955 0
268 -13 1508 1538 10 88 0
269 17 506 536 10 0 599
270 -7 344 374 10 726 0
271 -24 1476 1506 10 775 0
272 -19 724 754 10 92 0
273 -24 1375 1405 10 549 0
274 14 229 259 10 0 577
275 -18 1395 1425 10 469 0
276 16 739 769 10 0 492
277 10 211 241 10 0 744
278 -18 1503 1533 10 363 0
279 -17 1349 1379 10 619 0
280 28 775 805 10 0 866
281 10 583 613 10 0 914
282 14 800 830 10 0 174
283 -13 1015 1045 10 19 0
284 14 1330 1360 10 0 917
285 5 1216 1246 10 0 350
286 -24 1291 1321 10 739 0
287 -27 972 1002 10 576 0
288 -14 857 887 10 930 0
289 -16 1455 1485 10 84 0
290 5 108 138 10 0 494
291 -30 866 896 10 450 0
292 6 1178 1208 10 0 846
293 21 287 317 10 0 242
294 -14 653 683 10 947 0
295 -4 384 414 10 882 0
296 -18 1262 1292 10 246 0
297 6 395 425 10 0 394
298 -18 1527 1557 10 895 0
299 -28 777 807 10 704 0
300 9 50 80 10 0 771
301 9 587 617 10 0 465
302 3 1205 1235 0 0 1005
303 19 887 917 10 0 665
304 26 748 778 10 0 11
305 -16 310 340 10 911 0
306 5 275 305 10 0 316
307 -30 111 141 10 29 0
308 13 740 770 10 0 667
309 9 171 201 10 0 583
310 -22 609 639 10 596 0
311 23 1318 1348 0 0 1035
312 19 1282 1312 10 0 990
313 20 373 403 10 0 860
314 -20 102 132 10 855 0
315 -40 1060 1090 10 661 0
316 -5 691 721 10 306 0
317 15 1023 1053 10 0 40
318 -15 1131 1161 10 222 0
319 -1 1263 1293 10 848 0
320 -16 1761 1791 10 358 0
321 -25 1258 1288 10 573 0
322 -14 1071 1101 10 252 0
323 15 785 815 10 0 511
324 -11 1652 1682 10 584 0
325 2 379 409 10 0 212
326 12 1101 1131 10 0 946
327 -32 541 571 10 954 0
328 -25 625 655 10 51 0
329 2 656 686 10 0 479
330 2 604 634 10 0 781
331 30 661 691 10 0 416
332 -14 1104 1134 10 641 0
333 -13 920 950 10 543 0
334 -23 1011 1041 10 709 0
335 -36 471 501 10 165 0
336 13 312 342 10 0 424
337 -26 1158 1188 10 496 0
338 -26 220 250 10 214 0
339 14 1182 1212 0 0 1008
340 -12 183 213 10 693 0
341 17 1262 1292 10 0 550
342 -27 616 646 10 402 0
343 20 856 886 10 0 650
344 24 940 970 10 0 571
345 -26 1031 1061 10 646 0
346 30 226 256 10 0 526
347 14 1265 1295 10 0 627
348 -29 770 800 10 765 0
349 23 1183 1213 10 0 585
350 -5 1457 1487 10 285 0
351 -21 493 523 10 839 0
352 -27 831 861 10 455 0
353 7 845 875 10 0 354
354 -7 1123 1153 10 353 0
355 -25 1189 1219 10 223 0
356 -27 939 969 10 134 0
357 -8 1317 1347 10 666 0
358 16 1512 1542 10 0 320
359 5 154 184 10 0 750
360 -19 999 1029 10 536 0
361 -10 805 835 10 459 0
362 16 136 166 10 0 198
363 18 1226 1256 10 0 278
364 -12 682 712 10 738 0
365 8 587 617 10 0 592
366 8 234 264 10 0 982
367 -22 1013 1043 10 195 0
368 -38 332 362 10 655 0
369 11 477 507 10 0 547
370 -6 1597 1627 10 58 0
371 -30 1397 1427 10 189 0
372 2 1121 1151 10 0 528
373 -19 167 197 10 202 0
374 6 404 434 10 0 480
375 8 404 434 10 0 616
376 18 633 663 10 0 122
377 -19 1097 1127 10 707 0
378 35 110 140 10 0 266
379 -20 978 1008 10 142 0
380 30 371 401 10 0 770
381 10 926 956 10 0 831
382 -17 1010 1040 10 527 0
383 -16 1203 1233 10 30 0
384 -8 1473 1503 10 201 0
385 36 1284 1314 10 0 254
386 -15 1433 1463 10 553 0
387 7 482 512 10 0 797
388 -18 1047 1077 10 578 0
389 -30 474 504 10 629 0
390 12 564 594 10 0 851
391 8 914 944 10 0 431
392 -19 1479 1509 10 86 0
393 -12 1459 1489 10 427 0
394 -6 1071 1101 10 297 0
395 16 94 124 10 0 759
396 -18 387 417 10 902 0
397 -18 630 660 10 39 0
398 20 835 865 10 0 869
399 -23 1246 1276 10 796 0
400 -33 856 886 10 464 0
401 14 593 623 10 0 515
402 27 270 300 10 0 342
403 11 346 376 10 0 615
404 12 448 478 10 0 34
405 -11 963 993 10 881 0
406 11 737 767 10 0 421
407 -19 882 912 10 90 0
408 -13 893 923 10 857 0
409 -12 1419 1449 10 151 0
410 23 285 315 10 0 249
411 11 296 326 10 0 856
412 -21 341 371 10 776 0
413 14 538 568 10 0 570
414 -15 756 786 10 97 0
415 10 1130 1160 10 0 21
416 -30 998 1028 10 331 0
417 -1 996 1026 10 1001 0
418 16 320 350 10 0 77
419 32 402 432 10 0 694
420 15 599 629 10 0 524
421 -11 816 846 10 406 0
422 11 1455 1485 0 0 1020
423 -19 1395 1425 10 539 0
424 -13 1195 1225 10 336 0
425 -40 1017 1047 10 53 0
426 8 649 679 10 0 193
427 12 758 788 10 0 393
428 13 867 897 10 0 748
429 -35 1136 1166 10 489 0
430 -19 801 831 10 931 0
431 -8 1119 1149 10 391 0
432 7 960 990 10 0 175
433 -9 636 666 10 485 0
434 27 182 212 10 0 858
435 21 396 426 10 0 56
436 -9 167 197 10 263 0
437 -14 1411 1441 10 838 0
438 20 831 861 10 0 76
439 -13 613 643 10 537 0
440 -12 523 553 10 463 0
441 -3 490 520 10 458 0
442 -15 1129 1159 10 1000 0
443 27 407 437 10 0 960
444 27 943 973 10 0 981
445 -12 618 648 10 972 0
446 7 1675 1705 0 0 1045
447 15 655 685 10 0 530
448 5 224 254 10 0 228
449 27 239 269 10 0 792
450 30 621 651 10 0 291
451 -21 1499 1529 10 12 0
452 -25 1066 1096 10 162 0
453 -17 1546 1576 10 747 0
454 -23 235 265 10 598 0
455 27 513 543 10 0 352
456 14 1471 1501 0 0 1021
457 -14 1560 1590 10 675 0
458 3 231 261 10 0 441
459 10 338 368 10 0 361
460 25 99 129 10 0 582
461 10 536 566 10 0 642
462 21 1440 1470 0 0 1026
463 12 207 237 10 0 440
464 33 125 155 10 0 400
465 -9 761 791 10 301 0
466 -8 1342 1372 10 690 0
467 -1 1193 1223 10 784 0
468 -12 1071 1101 10 721 0
469 18 956 986 10 0 275
470 13 1216 1246 0 0 1025
471 23 1030 1060 10 0 502
472 20 832 862 10 0 132
473 -15 1383 1413 10 949 0
474 -32 292 322 10 928 0
475 -23 1434 1464 10 477 0
476 15 801 831 10 0 20
477 23 531 561 10 0 475
478 19 217 247 10 0 893
479 -2 1611 1641 10 329 0
480 -6 1126 1156 10 374 0
481 26 1218 1248 10 0 751
482 -32 1263 1293 10 60 0
483 -24 619 649 10 127 0
484 18 835 865 0 0 1018
485 9 574 604 10 0 433
486 -25 1418 1448 10 996 0
487 9 18 48 10 0 495
488 21 30 60 10 0 877
489 35 514 544 10 0 429
490 22 59 89 10 0 505
491 -12 692 722 10 217 0
492 -16 766 796 10 276 0
493 -23 965 995 10 808 0
494 -5 370 400 10 290 0
495 -9 991 1021 10 487 0
496 26 500 530 10 0 337
497 46 288 318 0 0 1043
498 -16 714 744 10 117 0
499 -4 564 594 10 766 0
500 24 781 811 10 0 177
501 -33 975 1005 10 186 0
502 -23 1660 1690 10 471 0
503 23 423 453 10 0 138
504 -28 1018 1048 10 32 0
505 -22 520 550 10 490 0
506 -28 1099 1129 10 966 0
507 16 1305 1335 0 0 1013
508 18 611 641 10 0 806
509 -13 382 412 10 985 0
510 -7 852 882 10 735 0
511 -15 910 940 10 323 0
512 3 243 273 10 0 147
513 -8 834 864 10 110 0
514 12 1080 1110 10 0 762
515 -14 1260 1290 10 401 0
516 22 154 184 10 0 108
517 -4 1382 1412 10 977 0
518 22 119 149 10 0 597
519 -13 743 773 10 118 0
520 -21 1568 1598 10 2 0
521 31 782 812 10 0 769
522 -24 1509 1539 10 604 0
523 17 887 917 10 0 901
524 -15 824 854 10 420 0
525 13 747 777 10 0 569
526 -30 1064 1094 10 346 0
527 17 829 859 10 0 382
528 -2 1301 1331 10 372 0
529 19 1531 1561 0 0 1036
530 -15 1210 1240 10 447 0
531 -23 1423 1453 10 812 0
532 15 913 943 0 0 1027
533 -27 1754 1784 10 265 0
534 -34 330 360 10 657 0
535 -11 628 658 10 787 0
536 19 807 837 10 0 360
537 13 224 254 10 0 439
538 -15 993 1023 10 622 0
539 19 604 634 10 0 423
540 -31 1412 1442 10 204 0
541 22 470 500 10 0 542
542 -22 1590 1620 10 541 0
543 13 796 826 10 0 333
544 -14 689 719 10 10 0
545 7 174 204 10 0 722
546 -25 689 719 10 664 0
547 -11 1033 1063 10 369 0
548 -29 1347 1377 10 586 0
549 24 523 553 10 0 273
550 -17 1665 1695 10 341 0
551 25 418 448 10 0 45
552 -21 1145 1175 10 778 0
553 15 771 801 10 0 386
554 -23 304 334 10 123 0
555 -13 1000 1030 10 873 0
556 12 184 214 10 0 907
557 2 830 860 10 0 716
558 13 397 427 10 0 220
559 40 225 255 10 0 160
560 -15 1284 1314 10 791 0
561 -31 1140 1170 10 737 0
562 -8 1227 1257 10 840 0
563 -2 1022 1052 10 712 0
564 5 470 500 10 0 889
565 -8 725 755 10 185 0
566 -20 994 1024 10 951 0
567 31 774 804 10 0 660
568 -34 1130 1160 10 909 0
569 -13 1189 1219 10 525 0
570 -14 1414 1444 10 413 0
571 -24 1376 1406 10 344 0
572 -15 821 851 10 718 0
573 25 1165 1195 10 0 321
574 2 297 327 10 0 814
575 -22 789 819 10 244 0
576 27 424 454 10 0 287
577 -14 790 820 10 274 0
578 18 784 814 10 0 388
579 23 920 950 10 0 683
580 -9 577 607 10 849 0
581 -7 1315 1345 10 654 0
582 -25 414 444 10 460 0
583 -9 277 307 10 309 0
584 11 484 514 10 0 324
585 -23 1253 1283 10 349 0
586 29 642 672 10 0 548
587 -16 1576 1606 10 734 0
588 -20 605 635 10 685 0
589 26 798 828 10 0 868
590 -9 1320 1350 10 95 0
591 21 367 397 10 0 164
592 -8 1139 1169 10 365 0
593 16 1114 1144 10 0 113
594 27 326 356 10 0 699
595 -15 1223 1253 10 790 0
596 22 363 393 10 0 310
597 -22 835 865 10 518 0
598 23 226 256 10 0 454
599 -17 688 718 10 269 0
600 2 399 429 10 0 99
601 20 467 497 10 0 50
602 -13 1586 1616 10 669 0
603 -16 1428 1458 10 9 0
604 24 1438 1468 10 0 522
605 25 1048 1078 10 0 943
606 14 520 550 10 0 828
607 23 75 105 10 0 789
608 -33 411 441 10 705 0
609 16 349 379 10 0 167
610 -16 1102 1132 10 638 0
611 -14 1479 1509 10 69 0
612 21 786 816 10 0 746
613 -15 1166 1196 10 999 0
614 -27 1240 1270 10 171 0
615 -11 1400 1430 10 403 0
616 -8 988 1018 10 375 0
617 10 98 128 0 0 1033
618 10 204 234 10 0 847
619 17 817 847 10 0 279
620 20 1541 1571 0 0 1007
621 30 274 304 10 0 18
622 15 933 963 10 0 538
623 5 410 440 10 0 834
624 31 993 1023 10 0 215
625 -6 496 526 10 643 0
626 -8 1204 1234 10 727 0
627 -14 1783 1813 10 347 0
628 17 788 818 10 0 159
629 30 279 309 10 0 389
630 13 282 312 10 0 756
631 10 540 570 10 0 240
632 -19 369 399 10 764 0
633 -17 1694 1724 10 998 0
634 -22 1259 1289 10 976 0
635 20 1136 1166 10 0 83
636 24 1170 1200 0 0 1012
637 -15 1071 1101 10 247 0
638 16 219 249 10 0 610
639 -20 1080 1110 10 243 0
640 -18 1128 1158 10 912 0
641 14 245 275 10 0 332
642 -10 624 654 10 461 0
643 6 456 486 10 0 625
644 13 1186 1216 10 0 890
645 12 345 375 10 0 952
646 26 304 334 10 0 345
647 35 1213 1243 10 0 102
648 9 814 844 0 0 1028
649 14 1107 1137 10 0 256
650 -20 1193 1223 10 343 0
651 31 87 117 10 0 937
652 21 162 192 10 0 207
653 5 313 343 10 0 38
654 7 1137 1167 10 0 581
655 38 207 237 10 0 368
656 37 116 146 10 0 226
657 34 114 144 10 0 534
658 31 306 336 10 0 720
659 18 1110 1140 0 0 1015
660 -31 1032 1062 10 567 0
661 40 809 839 10 0 315
662 -24 1112 1142 10 872 0
663 -22 1493 1523 10 125 0
664 25 542 572 10 0 546
665 -19 1613 1643 10 303 0
666 8 1257 1287 10 0 357
667 -13 824 854 10 308 0
668 7 50 80 10 0 121
669 13 913 943 10 0 602
670 16 273 303 10 0 728
671 -26 1164 1194 10 876 0
672 -36 1633 1663 10 75 0
673 -21 522 552 10 836 0
674 17 68 98 10 0 87
675 14 1226 1256 10 0 457
676 -23 226 256 10 261 0
677 -23 1001 1031 10 774 0
678 30 313 343 10 0 978
679 -25 1047 1077 10 923 0
680 37 225 255 10 0 757
681 28 263 293 10 0 948
682 -26 663 693 10 859 0
683 -23 1259 1289 10 579 0
684 -17 492 522 10 964 0
685 20 392 422 10 0 588
686 -12 696 726 10 965 0
687 33 715 745 10 0 922
688 12 1606 1636 0 0 1042
689 -9 1086 1116 10 264 0
690 8 1002 1032 10 0 466
691 -14 937 967 10 100 0
692 27 359 389 10 0 227
693 12 179 209 10 0 340
694 -32 1273 1303 10 419 0
695 -14 1322 1352 10 729 0
696 25 57 87 10 0 905
697 26 178 208 10 0 181
698 18 40 70 10 0 916
699 -27 1086 1116 10 594 0
700 -32 1514 1544 10 782 0
701 15 197 227 10 0 878
702 15 952 982 10 0 939
703 26 239 269 10 0 816
704 28 89 119 10 0 299
705 33 56 86 10 0 608
706 -10 810 840 10 237 0
707 19 49 79 10 0 377
708 43 1023 1053 10 0 136
709 23 169 199 10 0 334
710 -13 1372 1402 10 932 0
711 10 109 139 10 0 103
712 2 941 971 10 0 563
713 21 74 104 10 0 61
714 27 617 647 10 0 5
715 11 528 558 10 0 811
716 -2 951 981 10 557 0
717 -19 1243 1273 10 862 0
718 15 373 403 10 0 572
719 17 92 122 10 0 755
720 -31 305 335 10 658 0
721 12 585 615 10 0 468
722 -7 1369 1399 10 545 0
723 27 982 1012 0 0 1023
724 -4 793 823 10 749 0
725 13 740 770 10 0 799
726 7 300 330 10 0 270
727 8 36 66 10 0 626
728 -16 387 417 10 670 0
729 14 926 956 10 0 695
730 -20 1457 1487 10 52 0
731 -27 1490 1520 10 234 0
732 23 278 308 0 0 1014
733 12 384 414 10 0 44
734 16 1145 1175 10 0 587
735 7 780 810 10 0 510
736 -2 1011 1041 10 170 0
737 31 534 564 10 0 561
738 12 321 351 10 0 364
739 24 218 248 10 0 286
740 -23 1224 1254 10 743 0
741 -35 612 642 10 213 0
742 19 667 697 10 0 788
743 23 611 641 10 0 740
744 -10 1275 1305 10 277 0
745 22 378 408 10 0 835
746 -21 900 930 10 612 0
747 17 120 150 10 0 453
748 -13 1303 1333 10 428 0
749 4 399 429 10 0 724
750 -5 672 702 10 359 0
751 -26 1278 1308 10 481 0
752 26 1267 1297 0 0 1019
753 26 229 259 10 0 953
754 30 1271 1301 0 0 1010
755 -17 260 290 10 719 0
756 -13 498 528 10 630 0
757 -37 629 659 10 680 0
758 19 398 428 10 0 13
759 -16 461 491 10 395 0
760 2 1043 1073 10 0 206
761 -25 670 700 10 79 0
762 -12 1268 1298 10 514 0
763 -10 1589 1619 10 179 0
764 19 249 279 10 0 632
765 29 522 552 10 0 348
766 4 342 372 10 0 499
767 -24 848 878 10 188 0
768 -25 1425 1455 10 91 0
769 -31 1223 1253 10 521 0
770 -30 1344 1374 10 380 0
771 -9 744 774 10 300 0
772 12 1025 1055 10 0 958
773 -8 935 965 10 853 0
774 23 583 613 10 0 677
775 24 405 435 10 0 271
776 21 43 73 10 0 412
777 6 550 580 10 0 973
778 21 863 893 10 0 552
779 -19 753 783 10 140 0
780 -14 478 508 10 874 0
781 -2 1337 1367 10 330 0
782 32 570 600 10 0 700
783 34 1251 1281 10 0 795
784 1 559 589 10 0 467
785 10 896 926 0 0 1003
786 23 742 772 10 0 822
787 11 391 421 10 0 535
788 -19 856 886 10 742 0
789 -23 526 556 10 607 0
790 15 1152 1182 10 0 595
791 15 43 73 10 0 560
792 -27 592 622 10 449 0
793 17 832 862 10 0 899
794 11 448 478 10 0 979
795 -34 1520 1550 10 783 0
796 23 1097 1127 10 0 399
797 -7 1528 1558 10 387 0
798 -25 543 573 10 989 0
799 -13 1037 1067 10 725 0
800 9 166 196 10 0 898
801 29 788 818 10 0 867
802 14 930 960 10 0 991
803 31 52 82 10 0 130
804 19 428 458 10 0 216
805 -35 119 149 10 933 0
806 -18 1350 1380 10 508 0
807 17 926 956 10 0 7
808 23 786 816 10 0 493
809 -17 275 305 10 137 0
810 -22 1383 1413 10 47 0
811 -11 1438 1468 10 715 0
812 23 601 631 10 0 531
813 27 625 655 10 0 68
814 -2 720 750 10 574 0
815 18 424 454 10 0 143
816 -26 934 964 10 703 0
817 22 257 287 10 0 146
818 -38 312 342 10 78 0
819 14 340 370 10 0 832
820 21 74 104 10 0 82
821 15 133 163 10 0 16
822 -23 947 977 10 786 0
823 4 555 585 10 0 35
824 -15 1348 1378 10 231 0
825 11 794 824 10 0 232
826 31 352 382 10 0 218
827 22 980 1010 10 0 884
828 -14 919 949 10 606 0
829 -17 1392 1422 10 129 0
830 28 626 656 10 0 31
831 -10 1021 1051 10 381 0
832 -14 1377 1407 10 819 0
833 -12 1280 1310 10 28 0
834 -5 976 1006 10 623 0
835 -22 1420 1450 10 745 0
836 21 237 267 10 0 673
837 16 1372 1402 10 0 93
838 14 1285 1315 10 0 437
839 21 219 249 10 0 351
840 8 903 933 10 0 562
841 16 1486 1516 0 0 1048
842 19 231 261 10 0 221
843 18 733 763 10 0 257
844 -18 434 464 10 191 0
845 -22 1265 1295 10 161 0
846 -6 1681 1711 10 292 0
847 -10 366 396 10 618 0
848 1 1126 1156 10 0 319
849 9 169 199 10 0 580
850 17 167 197 10 0 197
851 -12 1482 1512 10 390 0
852 -15 1334 1364 10 184 0
853 8 817 847 10 0 773
854 -22 545 575 10 157 0
855 20 26 56 10 0 314
856 -11 1382 1412 10 411 0
857 13 405 435 10 0 408
858 -27 979 1009 10 434 0
859 26 194 224 10 0 682
860 -20 882 912 10 313 0
861 20 1532 1562 0 0 1017
862 19 1204 1234 10 0 717
863 -13 717 747 10 153 0
864 -25 558 588 10 886 0
865 24 1146 1176 10 0 14
866 -28 1558 1588 10 280 0
867 -29 1700 1730 10 801 0
868 -26 926 956 10 589 0
869 -20 867 897 10 398 0
870 -31 904 934 10 992 0
871 -9 639 669 10 55 0
872 24 1000 1030 10 0 662
873 13 208 238 10 0 555
874 14 70 100 10 0 780
875 -33 1027 1057 10 913 0
876 26 296 326 10 0 671
877 -21 180 210 10 488 0
878 -15 1707 1737 10 701 0
879 -13 808 838 10 236 0
880 10 322 352 10 0 921
881 11 815 845 10 0 405
882 4 71 101 10 0 295
883 -26 951 981 10 49 0
884 -22 1522 1552 10 827 0
885 18 626 656 10 0 260
886 25 190 220 10 0 864
887 13 711 741 10 0 962
888 -24 1197 1227 10 120 0
889 -5 1161 1191 10 564 0
890 -13 1405 1435 10 644 0
891 12 141 171 10 0 135
892 30 461 491 0 0 1049
893 -19 609 639 10 478 0
894 21 70 100 10 0 81
895 18 1488 1518 10 0 298
896 -16 1458 1488 10 72 0
897 -10 696 726 10 935 0
898 -9 330 360 10 800 0
899 -17 1574 1604 10 793 0
900 12 184 214 10 0 230
901 -17 1025 1055 10 523 0
902 18 234 264 10 0 396
903 5 586 616 10 0 967
904 10 227 257 10 0 950
905 -25 514 544 10 696 0
906 9 193 223 10 0 183
907 -12 622 652 10 556 0
908 21 854 884 10 0 238
909 34 191 221 10 0 568
910 32 1245 1275 0 0 1032
911 16 274 304 10 0 305
912 18 37 67 10 0 640
913 33 866 896 10 0 875
914 -10 902 932 10 281 0
915 -17 547 577 10 248 0
916 -18 1016 1046 10 698 0
917 -14 1423 1453 10 284 0
918 -12 680 710 10 166 0
919 -12 1280 1310 10 139 0
920 -34 1491 1521 10 24 0
921 -10 316 346 10 880 0
922 -33 876 906 10 687 0
923 25 748 778 10 0 679
924 8 1216 1246 0 0 1047
925 10 429 459 0 0 1038
926 14 1236 1266 10 0 98
927 -22 1360 1390 10 239 0
928 32 46 76 10 0 474
929 14 117 147 0 0 1034
930 14 320 350 10 0 288
931 19 545 575 10 0 430
932 13 214 244 10 0 710
933 35 64 94 10 0 805
934 23 958 988 10 0 119
935 10 229 259 10 0 897
936 -21 929 959 10 71 0
937 -31 268 298 10 651 0
938 -8 338 368 10 149 0
939 -15 1363 1393 10 702 0
940 12 890 920 10 0 187
941 17 1320 1350 0 0 1046
942 15 1079 1109 10 0 109
943 -25 1068 1098 10 605 0
944 7 144 174 10 0 41
945 26 185 215 10 0 89
946 -12 1284 1314 10 326 0
947 14 547 577 10 0 294
948 -28 448 478 10 681 0
949 15 689 719 10 0 473
950 -10 316 346 10 904 0
951 20 438 468 10 0 566
952 -12 1133 1163 10 645 0
953 -26 1014 1044 10 753 0
954 32 441 471 10 0 327
955 9 768 798 10 0 267
956 24 1004 1034 10 0 106
957 1 530 560 10 0 23
958 -12 1099 1129 10 772 0
959 27 544 574 10 0 983
960 -27 441 471 10 443 0
961 14 148 178 0 0 1044
962 -13 889 919 10 887 0
963 -15 681 711 10 54 0
964 17 194 224 10 0 684
965 12 271 301 10 0 686
966 28 781 811 10 0 506
967 -5 1055 1085 10 903 0
968 24 115 145 0 0 1029
969 11 1294 1324 0 0 1002
970 23 413 443 10 0 131
971 18 1492 1522 0 0 1041
972 12 412 442 10 0 445
973 -6 768 798 10 777 0
974 13 621 651 10 0 57
975 7 628 658 10 0 37
976 22 1066 1096 10 0 634
977 4 1165 1195 10 0 517
978 -30 427 457 10 678 0
979 -11 913 943 10 794 0
980 31 236 266 10 0 180
981 -27 1297 1327 10 444 0
982 -8 1446 1476 10 366 0
983 -27 804 834 10 959 0
984 26 174 204 10 0 258
985 13 364 394 10 0 509
986 -15 1199 1229 10 144 0
987 -15 114 144 10 22 0
988 -28 1124 1154 10 115 0
989 25 337 367 10 0 798
990 -19 1459 1489 10 312 0
991 -14 1208 1238 10 802 0
992 31 492 522 10 0 870
993 13 146 176 10 0 250
994 -15 1452 1482 10 148 0
995 -14 643 673 10 128 0
996 25 234 264 10 0 486
997 -7 1218 1248 10 208 0
998 17 1119 1149 10 0 633
999 15 866 896 10 0 613
1000 15 847 877 10 0 442
1001 1 84 114 10 0 417
1002 -11 1294 1324 10 969 0
1003 -10 896 926 10 785 0
1004 -6 1235 1265 10 64 0
1005 -3 1205 1235 10 302 0
1006 -24 547 577 10 42 0
1007 -20 1541 1571 10 620 0
1008 -14 1182 1212 10 339 0
1009 -22 1406 1436 10 17 0
1010 -30 1271 1301 10 754 0
1011 -18 565 595 10 259 0
1012 -24 1170 1200 10 636 0
1013 -16 1305 1335 10 507 0
1014 -23 278 308 10 732 0
1015 -18 1110 1140 10 659 0
1016 -20 794 824 10 192 0
1017 -20 1532 1562 10 861 0
1018 -18 835 865 10 484 0
1019 -26 1267 1297 10 752 0
1020 -11 1455 1485 10 422 0
1021 -14 1471 1501 10 456 0
1022 -21 507 537 10 112 0
1023 -27 982 1012 10 723 0
1024 -13 1695 1725 10 107 0
1025 -13 1216 1246 10 470 0
1026 -21 1440 1470 10 462 0
1027 -15 913 943 10 532 0
1028 -9 814 844 10 648 0
1029 -24 115 145 10 968 0
1030 -32 1026 1056 10 152 0
1031 -25 1173 1203 10 3 0
1032 -32 1245 1275 10 910 0
1033 -10 98 128 10 617 0
1034 -14 117 147 10 929 0
1035 -23 1318 1348 10 311 0
1036 -19 1531 1561 10 529 0
1037 -15 1099 1129 10 105 0
1038 -10 429 459 10 925 0
1039 -17 1310 1340 10 178 0
1040 -21 828 858 10 48 0
1041 -18 1492 1522 10 971 0
1042 -12 1606 1636 10 688 0
1043 -46 288 318 10 497 0
1044 -14 148 178 10 961 0
1045 -7 1675 1705 10 446 0
1046 -17 1320 1350 10 941 0
1047 -8 1216 1246 10 924 0
1048 -16 1486 1516 10 841 0
1049 -30 461 491 10 892 0
DEPOT_SECTION
1
-1
EOF
