NAME: lr1_10_10
TYPE: PDPTW
COMMENT: Li & Lim PDPTW benchmark converted from SINTEF format
DIMENSION: 1039
VEHICLES: 250
CAPACITY: 200
EDGE_WEIGHT_TYPE: EUC_2D
NODE_COORD_SECTION
1 250 250
2 171 34
3 67 190
4 80 400
5 439 237
6 377 385
7 449 428
8 342 481
9 466 149
10 83 290
11 251 63
12 328 491
13 260 472
14 290 145
15 266 221
16 164 320
17 52 412
18 485 104
19 144 331
20 387 394
21 472 57
22 343 276
23 104 349
24 28 467
25 91 427
26 429 476
27 210 276
28 58 39
29 273 300
30 41 232
31 25 53
32 52 18
33 27 444
34 178 72
35 406 460
36 250 328
37 492 34
38 412 100
39 233 87
40 60 5
41 406 408
42 245 42
43 166 345
44 440 294
45 370 382
46 32 319
47 480 136
48 371 163
49 0 188
50 438 5
51 132 477
52 203 211
53 2 264
54 231 167
55 423 221
56 459 53
57 386 154
58 130 494
59 31 175
60 69 423
61 352 241
62 261 201
63 59 276
64 146 188
65 451 62
66 299 285
67 142 372
68 440 201
69 219 210
70 64 198
71 390 249
72 9 101
73 424 288
74 77 372
75 298 264
76 405 454
77 407 35
78 225 369
79 347 459
80 117 178
81 132 479
82 201 66
83 245 176
84 470 138
85 115 296
86 348 476
87 43 210
88 327 139
89 49 353
90 356 256
91 335 99
92 363 34
93 33 278
94 366 288
95 452 172
96 86 189
97 262 369
98 218 403
99 218 12
100 228 399
101 492 188
102 267 174
103 274 441
104 210 113
105 370 262
106 303 186
107 241 180
108 100 85
109 350 199
110 500 228
111 251 238
112 114 102
113 345 146
114 21 146
115 330 147
116 476 61
117 386 245
118 201 278
119 421 499
120 426 231
121 105 137
122 64 437
123 181 260
124 413 391
125 370 493
126 447 267
127 232 101
128 371 332
129 447 383
130 325 147
131 489 437
132 415 95
133 331 356
134 374 346
135 108 37
136 5 224
137 93 413
138 210 29
139 136 265
140 409 155
141 111 178
142 291 251
143 322 290
144 57 183
145 181 185
146 7 382
147 425 448
148 174 41
149 161 276
150 398 49
151 210 379
152 60 231
153 453 360
154 367 97
155 488 3
156 44 115
157 48 293
158 64 135
159 65 62
160 404 207
161 68 303
162 263 418
163 147 30
164 384 149
165 340 416
166 271 128
167 89 358
168 20 480
169 488 173
170 439 156
171 389 156
172 111 392
173 267 162
174 248 176
175 413 476
176 352 481
177 264 135
178 29 462
179 148 462
180 44 140
181 414 378
182 392 95
183 216 341
184 211 411
185 317 45
186 178 150
187 428 302
188 450 45
189 453 318
190 186 135
191 11 403
192 433 447
193 272 420
194 429 59
195 200 27
196 498 171
197 487 320
198 45 166
199 490 276
200 126 391
201 92 18
202 293 228
203 343 205
204 182 480
205 385 285
206 44 344
207 170 347
208 457 492
209 124 448
210 398 210
211 75 118
212 105 474
213 134 211
214 211 248
215 212 186
216 492 335
217 497 483
218 440 436
219 311 203
220 491 369
221 67 378
222 383 17
223 7 82
224 342 319
225 78 406
226 103 123
227 241 38
228 224 3
229 436 467
230 438 488
231 351 60
232 13 214
233 429 67
234 498 456
235 135 400
236 215 293
237 354 416
238 294 421
239 208 445
240 230 320
241 157 38
242 441 100
243 61 170
244 79 467
245 365 190
246 282 1
247 124 111
248 247 219
249 28 180
250 167 488
251 442 289
252 136 430
253 38 15
254 246 314
255 176 200
256 337 232
257 257 133
258 295 247
259 39 162
260 79 257
261 236 126
262 259 498
263 180 162
264 53 466
265 167 291
266 89 185
267 487 446
268 308 199
269 481 84
270 495 227
271 397 57
272 372 39
273 278 450
274 292 32
275 90 496
276 68 53
277 371 423
278 273 149
279 297 283
280 120 37
281 371 488
282 206 174
283 174 347
284 330 281
285 67 451
286 27 464
287 361 178
288 463 406
289 456 157
290 153 244
291 153 192
292 352 63
293 371 71
294 163 472
295 448 495
296 282 10
297 66 163
298 314 205
299 83 169
300 221 291
301 374 116
302 418 269
303 178 302
304 250 57
305 475 352
306 1 252
307 286 356
308 65 82
309 154 392
310 196 56
311 366 390
312 436 25
313 67 352
314 173 182
315 390 34
316 18 225
317 57 43
318 388 44
319 269 112
320 374 260
321 291 213
322 178 420
323 389 255
324 134 194
325 93 490
326 64 294
327 493 111
328 150 484
329 235 316
330 239 15
331 193 138
332 40 278
333 307 52
334 161 416
335 381 457
336 55 318
337 80 279
338 48 162
339 91 27
340 288 70
341 177 404
342 10 237
343 493 493
344 440 292
345 349 76
346 47 208
347 283 454
348 486 324
349 392 87
350 122 422
351 37 281
352 413 127
353 222 499
354 211 446
355 30 7
356 398 341
357 26 67
358 461 186
359 313 391
360 471 94
361 341 72
362 130 186
363 257 57
364 94 344
365 6 53
366 146 376
367 244 13
368 29 336
369 306 42
370 177 486
371 489 338
372 179 318
373 344 203
374 149 341
375 307 412
376 68 450
377 420 80
378 144 220
379 497 54
380 80 458
381 84 377
382 332 382
383 6 196
384 104 28
385 224 320
386 87 3
387 149 214
388 98 29
389 135 30
390 287 397
391 107 374
392 355 485
393 51 286
394 49 118
395 159 226
396 185 431
397 262 92
398 475 198
399 142 30
400 481 207
401 174 122
402 35 263
403 24 71
404 173 65
405 91 326
406 470 417
407 397 153
408 295 283
409 174 376
410 38 190
411 16 68
412 179 286
413 244 422
414 250 441
415 497 18
416 195 111
417 26 221
418 442 5
419 44 496
420 448 404
421 471 427
422 460 424
423 461 195
424 146 313
425 19 273
426 245 461
427 69 266
428 191 84
429 68 160
430 212 47
431 80 337
432 412 478
433 225 488
434 105 140
435 389 43
436 177 156
437 179 497
438 377 432
439 497 296
440 152 476
441 277 428
442 64 5
443 44 311
444 165 59
445 261 138
446 268 351
447 48 150
448 215 79
449 109 56
450 171 188
451 284 457
452 274 442
453 33 286
454 112 433
455 423 170
456 213 283
457 240 34
458 283 438
459 324 99
460 259 301
461 189 402
462 215 282
463 166 440
464 374 232
465 339 113
466 335 46
467 313 493
468 432 66
469 76 462
470 397 477
471 196 489
472 354 156
473 171 24
474 187 73
475 243 408
476 421 387
477 141 426
478 415 118
479 240 255
480 162 388
481 413 493
482 69 414
483 273 70
484 142 14
485 185 434
486 360 294
487 265 240
488 280 245
489 87 51
490 195 273
491 422 498
492 95 64
493 63 155
494 24 259
495 376 92
496 83 300
497 72 477
498 380 194
499 72 227
500 238 123
501 188 119
502 229 322
503 150 68
504 67 24
505 63 420
506 339 144
507 454 201
508 158 24
509 365 119
510 440 284
511 417 212
512 404 439
513 472 248
514 235 108
515 174 67
516 132 151
517 217 207
518 162 306
519 48 366
520 209 68
521 94 497
522 110 122
523 274 403
524 421 386
525 399 175
526 56 268
527 322 406
528 244 277
529 105 181
530 30 97
531 359 246
532 498 457
533 190 267
534 334 481
535 18 24
536 482 104
537 460 328
538 320 211
539 494 165
540 167 445
541 340 291
542 272 234
543 325 56
544 71 304
545 87 311
546 207 487
547 332 5
548 161 275
549 268 458
550 175 352
551 398 476
552 51 360
553 21 70
554 80 251
555 457 280
556 423 315
557 66 88
558 479 387
559 436 123
560 286 244
561 449 190
562 456 113
563 480 152
564 100 266
565 343 34
566 374 306
567 13 465
568 230 487
569 442 153
570 240 362
571 433 319
572 0 422
573 297 131
574 71 12
575 44 440
576 447 184
577 341 59
578 132 32
579 411 396
580 450 416
581 323 34
582 244 368
583 90 477
584 34 169
585 351 128
586 71 282
587 157 269
588 392 1
589 39 153
590 306 229
591 415 253
592 92 76
593 437 98
594 12 367
595 448 414
596 128 113
597 43 360
598 102 422
599 480 131
600 210 81
601 432 2
602 396 83
603 489 159
604 56 75
605 66 31
606 460 117
607 175 239
608 217 333
609 62 375
610 82 183
611 248 214
612 385 239
613 371 315
614 333 163
615 100 66
616 311 422
617 153 235
618 168 109
619 284 319
620 195 464
621 382 9
622 325 210
623 366 334
624 200 78
625 351 5
626 197 202
627 270 337
628 125 65
629 120 17
630 84 255
631 222 331
632 332 459
633 226 175
634 404 140
635 223 178
636 330 308
637 140 108
638 34 239
639 94 192
640 458 213
641 13 314
642 202 391
643 339 41
644 224 56
645 345 431
646 292 104
647 318 99
648 46 248
649 482 184
650 411 379
651 293 174
652 169 305
653 394 47
654 323 29
655 65 343
656 158 179
657 299 353
658 9 233
659 330 138
660 48 412
661 385 17
662 382 110
663 336 493
664 181 441
665 162 301
666 1 101
667 80 117
668 210 219
669 404 59
670 288 439
671 149 458
672 257 391
673 405 349
674 191 215
675 231 29
676 253 50
677 441 177
678 5 445
679 463 253
680 435 180
681 198 85
682 59 388
683 373 418
684 142 80
685 441 7
686 33 268
687 355 174
688 228 260
689 114 460
690 337 41
691 154 374
692 235 13
693 303 78
694 103 464
695 325 311
696 306 235
697 382 360
698 235 288
699 0 356
700 178 135
701 226 423
702 15 11
703 144 35
704 176 199
705 247 306
706 396 417
707 289 220
708 23 235
709 137 377
710 400 71
711 261 359
712 438 127
713 318 280
714 333 293
715 436 295
716 62 94
717 495 355
718 13 394
719 172 292
720 14 232
721 437 90
722 214 274
723 420 383
724 120 261
725 179 75
726 484 224
727 214 245
728 395 474
729 368 311
730 199 203
731 485 428
732 86 199
733 447 272
734 40 304
735 475 267
736 482 141
737 489 274
738 26 342
739 139 438
740 12 358
741 125 61
742 360 284
743 29 358
744 285 247
745 248 386
746 415 207
747 130 247
748 172 66
749 92 259
750 379 486
751 452 484
752 268 288
753 349 43
754 225 269
755 50 383
756 110 251
757 461 182
758 255 487
759 133 202
760 34 329
761 368 452
762 242 106
763 171 303
764 329 456
765 490 286
766 61 214
767 365 74
768 321 149
769 84 453
770 26 442
771 180 283
772 394 322
773 348 348
774 309 161
775 385 58
776 228 287
777 312 453
778 35 344
779 393 98
780 208 488
781 235 33
782 140 137
783 405 187
784 330 371
785 265 0
786 295 89
787 3 23
788 363 225
789 148 208
790 466 362
791 267 290
792 98 2
793 131 246
794 418 75
795 366 260
796 138 28
797 209 212
798 443 167
799 156 65
800 279 355
801 206 172
802 32 94
803 301 239
804 471 368
805 133 273
806 253 74
807 470 405
808 77 172
809 77 465
810 466 96
811 402 277
812 267 374
813 450 194
814 89 65
815 429 389
816 202 28
817 46 389
818 246 407
819 452 110
820 213 185
821 134 276
822 262 97
823 469 489
824 364 71
825 68 240
826 494 468
827 439 222
828 386 225
829 434 359
830 103 177
831 89 322
832 307 249
833 30 155
834 401 314
835 217 357
836 373 421
837 5 281
838 173 474
839 36 301
840 429 169
841 195 450
842 95 382
843 225 121
844 10 407
845 221 269
846 264 180
847 168 59
848 281 96
849 387 349
850 398 329
851 239 486
852 237 420
853 346 354
854 172 314
855 233 230
856 79 80
857 243 402
858 117 110
859 66 314
860 58 391
861 142 360
862 492 326
863 381 328
864 62 236
865 344 70
866 151 81
867 240 240
868 46 163
869 455 168
870 428 202
871 432 199
872 391 112
873 451 305
874 214 311
875 465 367
876 164 473
877 364 173
878 274 261
879 133 455
880 351 481
881 115 395
882 297 304
883 7 194
884 409 255
885 87 213
886 60 246
887 3 471
888 418 251
889 153 362
890 323 77
891 143 158
892 351 148
893 426 38
894 226 316
895 347 192
896 102 6
897 41 120
898 247 443
899 218 271
900 376 385
901 241 402
902 213 399
903 32 191
904 441 374
905 376 113
906 215 434
907 499 316
908 318 497
909 256 441
910 174 397
911 468 360
912 287 256
913 448 397
914 352 487
915 253 118
916 159 299
917 351 233
918 268 113
919 164 332
920 88 484
921 360 488
922 343 166
923 497 266
924 138 406
925 420 224
926 231 410
927 199 438
928 219 215
929 365 274
930 481 454
931 187 61
932 372 97
933 187 263
934 371 427
935 74 215
936 375 145
937 365 28
938 118 314
939 60 29
940 478 300
941 33 152
942 347 184
943 94 40
944 290 328
945 96 346
946 97 288
947 176 470
948 206 97
949 210 133
950 489 457
951 418 399
952 392 491
953 437 19
954 495 83
955 468 352
956 390 120
957 80 357
958 394 310
959 61 441
960 52 303
961 391 202
962 36 451
963 276 84
964 130 140
965 16 287
966 292 136
967 53 204
968 359 287
969 309 29
970 473 491
971 273 255
972 263 153
973 328 458
974 401 164
975 480 119
976 488 96
977 149 98
978 49 437
979 440 77
980 43 135
981 188 151
982 175 422
983 48 437
984 334 403
985 372 115
986 111 192
987 357 290
988 331 134
989 495 199
990 441 60
991 51 89
992 452 206
993 195 386
994 172 24
995 408 318
996 410 399
997 413 345
998 215 129
999 380 350
1000 19 38
1001 166 247
1002 469 489
1003 418 399
1004 452 484
1005 49 118
1006 122 422
1007 405 454
1008 133 455
1009 396 417
1010 108 37
1011 235 33
1012 482 184
1013 478 300
1014 31 175
1015 48 150
1016 215 434
1017 173 182
1018 209 68
1019 268 351
1020 44 311
1021 167 291
1022 344 70
1023 466 96
1024 240 362
1025 64 294
1026 376 113
1027 179 286
1028 64 198
1029 331 134
1030 0 422
1031 230 320
1032 229 322
1033 264 180
1034 436 123
1035 104 349
1036 352 241
1037 409 155
1038 213 399
1039 180 162
PICKUP_AND_DELIVERY_SECTION
1 0 0 1925 0 0 0
2 -3 1101 1215 10 241 0
3 -32 1104 1272 10 152 0
4 -32 1425 1497 10 419 0
5 -29 881 1026 10 68 0
6 -12 804 958 10 900 0
7 -20 1193 1331 10 192 0
8 -15 1407 1503 10 176 0
9 -19 1157 1246 10 539 0
10 -26 573 673 10 496 0
11 14 923 1081 10 0 363
12 -25 609 777 10 551 0
13 -3 988 1113 10 458 0
14 5 1263 1331 10 0 102
15 9 33 123 10 0 542
16 -36 1070 1150 10 691 0
17 -16 1371 1471 10 860 0
18 21 759 859 10 0 976
19 -26 882 1011 10 221 0
20 -25 1044 1182 10 650 0
21 -10 1253 1366 10 415 0
22 15 96 204 10 0 968
23 20 943 1106 0 0 1035
24 34 1301 1415 10 0 178
25 -27 840 956 10 959 0
26 23 525 651 10 0 481
27 5 47 149 10 0 770
28 -28 1113 1242 10 32 0
29 30 55 183 10 0 460
30 -4 209 338 10 766 0
31 -11 974 1096 10 403 0
32 28 835 909 10 0 28
33 -18 1032 1158 10 191 0
34 23 698 846 10 0 215
35 2 698 771 10 0 683
36 24 199 328 10 0 857
37 -9 798 853 10 194 0
38 1 478 579 10 0 242
39 18 198 338 10 0 725
40 18 999 1118 10 0 384
41 -28 1411 1532 10 335 0
42 24 523 602 10 0 82
43 -11 1092 1197 10 480 0
44 -7 892 1059 10 726 0
45 -23 859 938 10 579 0
46 21 345 486 10 0 740
47 -14 256 404 10 819 0
48 21 781 905 10 0 57
49 -11 860 1035 10 584 0
50 18 490 638 10 0 132
51 25 264 421 10 0 212
52 20 1239 1404 10 0 626
53 40 586 754 10 0 93
54 15 85 245 10 0 416
55 9 200 347 10 0 95
56 20 1082 1193 10 0 312
57 -21 1053 1179 10 48 0
58 -9 692 855 10 309 0
59 24 231 314 0 0 1014
60 32 754 881 10 0 769
61 5 728 886 0 0 1036
62 -19 1482 1575 10 319 0
63 -12 844 970 10 427 0
64 -28 1189 1311 10 830 0
65 -15 275 403 10 231 0
66 -24 1208 1330 10 636 0
67 18 162 316 10 0 899
68 29 840 975 10 0 5
69 14 50 156 10 0 801
70 10 1044 1162 0 0 1028
71 21 529 665 10 0 888
72 16 605 758 10 0 557
73 -24 1025 1119 10 344 0
74 19 211 311 10 0 682
75 36 50 163 10 0 695
76 11 1281 1354 0 0 1007
77 11 1243 1363 10 0 990
78 38 121 248 10 0 664
79 -21 433 556 10 836 0
80 -23 1079 1186 10 808 0
81 -9 257 354 10 300 0
82 -24 1108 1256 10 42 0
83 -19 1174 1325 10 915 0
84 -12 1365 1443 10 196 0
85 -22 1472 1615 10 946 0
86 -35 1136 1288 10 632 0
87 20 210 305 10 0 453
88 13 1211 1333 10 0 768
89 -12 1421 1501 10 206 0
90 19 106 198 10 0 323
91 -14 1138 1329 10 465 0
92 19 243 372 10 0 271
93 -40 1456 1549 10 53 0
94 29 634 764 10 0 205
95 -9 551 696 10 55 0
96 21 195 288 10 0 986
97 15 119 286 10 0 523
98 15 1294 1374 10 0 835
99 3 492 625 10 0 785
100 14 547 656 10 0 528
101 33 669 792 10 0 513
102 -5 1570 1697 10 14 0
103 -24 639 781 10 549 0
104 -25 640 770 10 436 0
105 -24 1078 1151 10 987 0
106 -35 1302 1436 10 647 0
107 -23 1616 1803 10 633 0
108 14 333 399 10 0 226
109 -32 1142 1291 10 614 0
110 -37 728 866 10 680 0
111 27 12 113 10 0 707
112 21 454 591 10 0 401
113 -18 1387 1521 10 659 0
114 21 441 562 10 0 243
115 -30 832 895 10 892 0
116 -24 395 532 10 188 0
117 16 434 553 10 0 884
118 13 56 211 10 0 652
119 -26 1301 1419 10 728 0
120 24 970 1117 10 0 507
121 -18 445 489 10 141 0
122 -7 900 966 10 978 0
123 23 69 210 10 0 754
124 8 215 351 10 0 815
125 22 533 640 10 0 750
126 -14 911 1078 10 439 0
127 24 290 432 10 0 786
128 -36 484 605 10 224 0
129 -10 237 359 10 904 0
130 -15 1158 1245 10 345 0
131 29 673 770 10 0 218
132 -18 1157 1226 10 50 0
133 -8 646 807 10 853 0
134 27 378 494 10 0 673
135 23 486 642 0 0 1010
136 -19 1027 1112 10 342 0
137 17 226 334 10 0 689
138 -20 1013 1118 10 430 0
139 12 114 220 10 0 749
140 19 185 365 0 0 1037
141 18 156 298 10 0 121
142 20 41 173 10 0 832
143 23 1440 1547 10 0 971
144 -22 1049 1182 10 198 0
145 -13 1580 1678 10 291 0
146 -12 721 849 10 965 0
147 9 763 856 10 0 422
148 -12 1263 1374 10 404 0
149 8 92 211 10 0 544
150 21 743 870 10 0 710
151 -14 653 794 10 413 0
152 32 997 1085 10 0 3
153 13 230 397 10 0 558
154 -13 950 1056 10 669 0
155 -20 352 480 10 685 0
156 -31 246 407 10 980 0
157 22 234 347 10 0 738
158 -22 820 947 10 596 0
159 -10 936 1047 10 618 0
160 6 862 989 10 0 640
161 -7 189 323 10 545 0
162 25 242 345 10 0 273
163 -23 1055 1192 10 796 0
164 -12 1145 1279 10 936 0
165 -26 300 372 10 984 0
166 12 284 437 10 0 459
167 -13 1183 1341 10 699 0
168 25 505 666 10 0 887
169 25 1169 1282 10 0 603
170 2 470 611 10 0 245
171 -13 711 750 10 974 0
172 -11 1140 1229 10 881 0
173 -25 1399 1529 10 573 0
174 -1 1344 1488 10 848 0
175 -7 1135 1254 10 432 0
176 15 1213 1387 10 0 8
177 -19 848 940 10 257 0
178 -34 1279 1370 10 24 0
179 10 658 826 10 0 475
180 -13 829 938 10 308 0
181 23 467 552 10 0 382
182 -13 715 847 10 985 0
183 -25 594 744 10 582 0
184 15 1116 1208 10 0 254
185 -24 589 757 10 340 0
186 33 589 704 10 0 949
187 -33 989 1072 10 199 0
188 24 456 581 10 0 116
189 30 333 444 10 0 571
190 24 671 795 10 0 843
191 18 301 415 10 0 33
192 20 779 840 10 0 7
193 -34 1367 1435 10 909 0
194 9 423 525 10 0 37
195 22 458 621 10 0 994
196 12 1196 1347 10 0 84
197 -28 811 935 10 220 0
198 22 960 1096 10 0 144
199 33 241 390 10 0 187
200 19 233 343 10 0 924
201 8 1072 1206 10 0 896
202 -21 48 201 10 488 0
203 26 716 848 10 0 268
204 -15 302 458 10 396 0
205 -29 822 944 10 94 0
206 12 1033 1155 10 0 89
207 15 389 513 10 0 665
208 7 450 596 10 0 267
209 6 308 459 10 0 264
210 31 153 293 10 0 757
211 21 366 483 10 0 529
212 -25 434 538 10 51 0
213 -35 122 255 10 378 0
214 26 39 154 10 0 303
215 -23 1687 1787 10 34 0
216 -13 800 886 10 873 0
217 -31 339 450 10 826 0
218 -29 826 988 10 131 0
219 15 672 804 10 0 622
220 28 706 784 10 0 197
221 26 409 561 10 0 19
222 -9 913 997 10 937 0
223 25 368 486 10 0 856
224 36 115 241 10 0 128
225 15 903 1048 10 0 482
226 -14 435 574 10 108 0
227 16 468 625 10 0 515
228 -27 640 771 10 692 0
229 12 700 802 10 0 491
230 18 303 402 10 0 295
231 15 215 354 10 0 65
232 -29 1292 1446 10 883 0
233 16 676 818 10 0 712
234 -13 1352 1489 10 950 0
235 20 220 407 10 0 462
236 13 55 147 10 0 424
237 10 618 771 10 0 616
238 -23 1515 1666 10 934 0
239 22 1265 1429 10 0 927
240 8 1141 1274 0 0 1031
241 3 1016 1109 10 0 2
242 -1 833 944 10 38 0
243 -21 959 1082 10 114 0
244 22 294 438 10 0 409
245 -2 1451 1534 10 170 0
246 -27 1012 1103 10 676 0
247 15 737 871 10 0 324
248 17 31 155 10 0 600
249 34 342 459 10 0 383
250 17 252 358 10 0 328
251 25 195 313 10 0 715
252 14 663 788 10 0 334
253 -15 1041 1172 10 1000 0
254 -15 1394 1527 10 184 0
255 -7 531 635 10 668 0
256 -14 1526 1645 10 961 0
257 19 802 952 10 0 177
258 -31 1258 1378 10 803 0
259 -6 518 642 10 297 0
260 26 916 1021 10 0 688
261 23 124 201 10 0 918
262 -7 1035 1144 10 353 0
263 9 112 302 0 0 1039
264 -6 294 407 10 209 0
265 27 1601 1697 0 0 1021
266 -16 576 653 10 395 0
267 -7 1309 1401 10 208 0
268 -26 1455 1592 10 203 0
269 17 447 595 10 0 975
270 20 308 409 10 0 735
271 -19 1439 1543 10 92 0
272 10 645 832 10 0 466
273 -25 1335 1445 10 162 0
274 14 222 326 10 0 369
275 13 1356 1465 10 0 370
276 16 685 823 10 0 943
277 10 211 349 10 0 438
278 -28 1461 1575 10 966 0
279 -17 1324 1404 10 619 0
280 -6 700 881 10 847 0
281 10 546 649 10 0 952
282 14 779 850 10 0 635
283 -21 958 1101 10 776 0
284 -22 1300 1390 10 541 0
285 5 1185 1276 10 0 694
286 -31 1258 1354 10 567 0
287 5 931 1044 10 0 942
288 -17 771 973 10 807 0
289 -14 1412 1528 10 606 0
290 5 97 254 10 0 886
291 13 821 940 10 0 145
292 -27 1132 1254 10 577 0
293 21 267 336 10 0 721
294 -14 626 710 10 947 0
295 -18 327 471 10 230 0
296 -2 1200 1354 10 330 0
297 6 351 469 10 0 259
298 -18 1464 1619 10 895 0
299 -22 722 862 10 789 0
300 9 50 172 10 0 81
301 9 561 643 10 0 495
302 3 1170 1270 10 0 811
303 -26 818 986 10 214 0
304 26 735 791 10 0 806
305 33 263 386 10 0 955
306 5 249 345 10 0 425
307 30 111 231 10 0 901
308 13 680 829 10 0 180
309 9 171 248 10 0 58
310 -5 586 663 10 448 0
311 -29 1286 1380 10 524 0
312 -20 1247 1348 10 56 0
313 -26 315 462 10 945 0
314 25 102 209 0 0 1017
315 -40 1038 1112 10 661 0
316 -8 633 780 10 727 0
317 15 966 1111 10 0 442
318 -30 1089 1203 10 621 0
319 19 1189 1367 10 0 62
320 -13 1668 1791 10 828 0
321 -10 1202 1343 10 590 0
322 -19 1034 1139 10 842 0
323 -19 741 860 10 90 0
324 -15 1607 1727 10 247 0
325 2 369 420 10 0 920
326 12 1054 1179 0 0 1025
327 26 494 619 10 0 360
328 -17 567 713 10 250 0
329 2 598 744 10 0 878
330 2 549 689 10 0 296
331 30 632 720 10 0 500
332 -17 1065 1174 10 351 0
333 -13 885 986 10 543 0
334 -14 971 1081 10 252 0
335 28 439 532 10 0 41
336 13 303 350 10 0 960
337 -15 1134 1212 10 821 0
338 15 220 335 10 0 589
339 -10 1151 1242 10 504 0
340 24 183 345 10 0 185
341 -18 1189 1366 10 469 0
342 19 569 693 10 0 136
343 -3 815 928 10 512 0
344 24 872 1038 10 0 73
345 15 993 1098 10 0 130
346 30 207 372 10 0 638
347 -6 1216 1345 10 777 0
348 15 743 826 10 0 862
349 23 1120 1275 10 0 824
350 3 1404 1539 0 0 1006
351 17 451 566 10 0 332
352 28 791 900 10 0 956
353 7 785 935 10 0 262
354 15 1068 1208 10 0 852
355 -15 1161 1247 10 702 0
356 33 889 1019 10 0 834
357 -15 1277 1387 10 553 0
358 -26 1481 1573 10 423 0
359 5 154 238 10 0 527
360 -26 954 1074 10 327 0
361 -12 781 858 10 693 0
362 16 136 199 10 0 700
363 -14 1186 1295 10 11 0
364 -22 640 754 10 490 0
365 8 547 657 10 0 386
366 8 166 332 10 0 477
367 24 965 1091 10 0 748
368 -27 297 397 10 402 0
369 -14 428 556 10 274 0
370 -13 1551 1668 10 275 0
371 -13 1355 1470 10 537 0
372 2 1093 1179 10 0 456
373 14 113 251 10 0 687
374 6 365 472 10 0 550
375 -7 339 499 10 441 0
376 -19 604 692 10 505 0
377 -11 1017 1206 10 588 0
378 35 110 221 10 0 213
379 -11 915 1071 10 794 0
380 30 347 424 10 0 910
381 -38 844 1038 10 655 0
382 -23 936 1115 10 181 0
383 -34 1160 1277 10 249 0
384 -18 1450 1526 10 40 0
385 -23 1223 1375 10 812 0
386 -8 1392 1504 10 365 0
387 7 421 573 10 0 759
388 -16 1003 1121 10 814 0
389 12 385 593 10 0 578
390 -34 512 646 10 657 0
391 8 861 997 10 0 916
392 -27 1450 1539 10 914 0
393 -16 1401 1546 10 734 0
394 3 1027 1145 0 0 1005
395 16 94 195 10 0 266
396 15 356 448 10 0 204
397 25 566 725 10 0 483
398 20 805 895 10 0 400
399 -18 1165 1356 10 484 0
400 -20 793 950 10 398 0
401 -21 540 676 10 112 0
402 27 235 336 10 0 368
403 11 298 424 10 0 31
404 12 445 482 10 0 148
405 -26 902 1055 10 938 0
406 11 696 808 10 0 421
407 -27 832 962 10 455 0
408 -26 832 985 10 608 0
409 -22 1332 1537 10 244 0
410 23 245 354 10 0 903
411 11 296 430 10 0 787
412 8 290 422 0 0 1027
413 14 492 614 10 0 151
414 5 694 848 10 0 452
415 10 1077 1213 10 0 21
416 -15 973 1053 10 54 0
417 -31 947 1075 10 658 0
418 -5 311 406 10 653 0
419 32 364 470 10 0 4
420 15 549 678 10 0 580
421 -11 748 915 10 406 0
422 -9 1393 1546 10 147 0
423 26 1336 1485 10 0 358
424 -13 1151 1269 10 236 0
425 -5 959 1105 10 306 0
426 -19 628 701 10 758 0
427 12 738 809 10 0 63
428 13 815 950 10 0 981
429 21 1090 1212 10 0 610
430 20 761 871 10 0 138
431 -21 1071 1198 10 831 0
432 7 905 1045 10 0 175
433 -15 590 712 10 701 0
434 27 182 305 10 0 858
435 -13 370 451 10 932 0
436 25 130 234 10 0 104
437 1 1381 1471 10 0 620
438 -10 787 906 10 277 0
439 14 571 685 10 0 126
440 -26 486 590 10 876 0
441 7 449 562 10 0 375
442 -15 1098 1190 10 317 0
443 27 378 466 0 0 1020
444 -17 909 1007 10 628 0
445 -12 574 692 10 972 0
446 7 1664 1717 0 0 1019
447 15 618 723 0 0 1015
448 5 196 282 10 0 310
449 27 239 341 10 0 492
450 -28 563 708 10 704 0
451 -20 1447 1581 10 663 0
452 -5 992 1171 10 414 0
453 -20 1513 1609 10 87 0
454 29 229 358 10 0 521
455 27 463 593 10 0 407
456 -2 1421 1550 10 372 0
457 -14 1517 1632 10 675 0
458 3 215 278 10 0 13
459 -12 316 390 10 166 0
460 -30 52 175 10 29 0
461 10 506 596 10 0 485
462 -20 1391 1520 10 235 0
463 -21 207 354 10 894 0
464 33 125 240 10 0 677
465 14 707 845 10 0 91
466 -10 1276 1437 10 272 0
467 -21 1141 1276 10 908 0
468 -15 1016 1157 10 953 0
469 18 925 1017 10 0 341
470 -10 1169 1292 10 880 0
471 -33 986 1105 10 705 0
472 20 783 911 10 0 506
473 -26 1324 1473 10 703 0
474 18 219 396 10 0 931
475 -10 1387 1510 10 179 0
476 15 752 880 10 0 723
477 -8 483 609 10 366 0
478 19 211 289 10 0 599
479 -7 1580 1672 10 540 0
480 11 1069 1213 10 0 43
481 -23 1185 1281 10 26 0
482 -15 1237 1320 10 225 0
483 -25 563 706 10 397 0
484 18 764 936 10 0 399
485 -10 537 640 10 461 0
486 -33 1354 1512 10 913 0
487 9 18 114 10 0 744
488 21 30 155 10 0 202
489 35 493 565 10 0 615
490 22 59 127 10 0 364
491 -12 646 768 10 229 0
492 -27 733 829 10 449 0
493 7 915 1044 10 0 530
494 19 306 465 10 0 837
495 -9 966 1046 10 301 0
496 26 454 575 10 0 10
497 46 288 405 10 0 583
498 -13 658 799 10 525 0
499 25 534 624 10 0 639
500 -30 737 856 10 331 0
501 -32 921 1059 10 782 0
502 11 1628 1723 0 0 1032
503 -12 395 481 10 891 0
504 10 978 1088 10 0 339
505 19 487 583 10 0 376
506 -20 1058 1169 10 472 0
507 -24 1286 1353 10 120 0
508 -28 569 684 10 681 0
509 30 351 442 10 0 779
510 -25 805 928 10 923 0
511 -18 885 965 10 746 0
512 3 243 381 10 0 343
513 -33 776 923 10 101 0
514 -17 1040 1150 10 822 0
515 -16 1233 1317 10 227 0
516 22 154 332 10 0 964
517 26 1328 1466 10 0 797
518 22 104 222 10 0 957
519 29 675 841 10 0 778
520 27 1533 1633 0 0 1018
521 -29 734 860 10 454 0
522 -24 1464 1584 10 667 0
523 -15 828 976 10 97 0
524 29 764 915 10 0 311
525 13 715 808 10 0 498
526 -29 1032 1125 10 586 0
527 -5 803 886 10 359 0
528 -14 1252 1380 10 100 0
529 -21 1473 1620 10 211 0
530 -7 1168 1283 10 493 0
531 -14 1338 1538 10 929 0
532 15 871 985 10 0 731
533 -31 1734 1804 10 587 0
534 32 258 432 10 0 921
535 32 588 698 10 0 605
536 -32 787 857 10 954 0
537 13 224 353 10 0 371
538 -35 967 1048 10 788 0
539 19 553 685 10 0 9
540 7 1356 1499 10 0 479
541 22 429 542 10 0 284
542 -9 1581 1630 10 15 0
543 13 771 851 10 0 333
544 -8 633 776 10 149 0
545 7 174 277 10 0 161
546 4 597 812 10 0 851
547 -24 993 1103 10 775 0
548 -9 1311 1413 10 648 0
549 24 522 554 10 0 103
550 -6 1624 1736 10 374 0
551 25 391 475 10 0 12
552 -1 1101 1219 10 1001 0
553 15 744 829 10 0 357
554 -17 274 363 10 747 0
555 -18 946 1084 10 907 0
556 12 184 318 10 0 765
557 -16 756 933 10 72 0
558 -13 408 417 10 153 0
559 40 225 312 0 0 1034
560 -25 1229 1369 10 696 0
561 -7 1120 1190 10 871 0
562 17 1200 1284 10 0 569
563 -14 978 1095 10 736 0
564 -13 421 548 10 630 0
565 7 686 793 10 0 890
566 4 931 1087 10 0 613
567 31 745 833 10 0 286
568 -22 1096 1193 10 780 0
569 -17 1113 1294 10 562 0
570 23 1342 1516 0 0 1024
571 -30 1316 1467 10 189 0
572 8 757 915 0 0 1030
573 25 1132 1229 10 0 173
574 -30 297 437 10 629 0
575 -30 752 855 10 678 0
576 -31 366 513 10 992 0
577 27 743 866 10 0 292
578 -12 744 855 10 389 0
579 23 862 1009 10 0 45
580 -15 504 680 10 420 0
581 -6 1276 1384 10 643 0
582 25 352 507 10 0 183
583 -46 277 462 10 497 0
584 11 467 532 10 0 49
585 -24 1199 1337 10 662 0
586 29 609 705 10 0 526
587 31 1520 1663 10 0 533
588 11 555 685 10 0 377
589 -15 743 882 10 338 0
590 10 1269 1402 10 0 321
591 21 287 476 10 0 958
592 4 1076 1231 10 0 604
593 -14 1041 1216 10 979 0
594 27 289 393 10 0 760
595 -1 1194 1282 10 784 0
596 22 333 423 10 0 158
597 -23 797 904 10 743 0
598 23 226 324 10 0 809
599 -19 648 758 10 478 0
600 -17 321 508 10 248 0
601 20 427 536 10 0 893
602 -26 1517 1685 10 753 0
603 -25 1371 1514 10 169 0
604 -4 1385 1521 10 592 0
605 -32 1001 1126 10 535 0
606 14 484 586 10 0 289
607 23 75 157 10 0 825
608 26 346 507 10 0 408
609 16 308 420 10 0 755
610 -21 1020 1214 10 429 0
611 -20 1436 1552 10 730 0
612 -18 752 850 10 912 0
613 -4 1113 1249 10 566 0
614 32 1166 1344 10 0 109
615 -35 1339 1490 10 489 0
616 -10 933 1072 10 237 0
617 10 98 190 10 0 885
618 10 170 268 10 0 159
619 17 774 890 10 0 279
620 -1 1492 1620 10 437 0
621 30 274 397 10 0 318
622 -15 891 1005 10 219 0
623 5 365 486 10 0 999
624 -33 972 1043 10 948 0
625 12 455 567 10 0 969
626 -20 1161 1277 10 52 0
627 -12 1652 1826 10 818 0
628 17 728 878 10 0 444
629 30 266 377 10 0 574
630 13 252 341 10 0 564
631 -15 488 621 10 791 0
632 35 318 449 10 0 86
633 23 1656 1761 10 0 107
634 -24 1203 1344 10 872 0
635 -14 1090 1212 10 282 0
636 24 1145 1225 10 0 66
637 -22 1022 1151 10 799 0
638 -30 216 305 10 346 0
639 -25 1038 1152 10 499 0
640 -6 1069 1217 10 160 0
641 -21 245 338 10 839 0
642 -22 579 698 10 745 0
643 6 413 528 10 0 581
644 -22 1122 1280 10 816 0
645 -9 275 445 10 800 0
646 26 276 361 10 0 767
647 35 1151 1305 10 0 106
648 9 784 873 10 0 548
649 14 1079 1165 0 0 1012
650 25 1138 1279 10 0 20
651 31 87 187 10 0 774
652 -13 119 235 10 118 0
653 5 248 425 10 0 418
654 -8 1113 1191 10 690 0
655 38 207 309 10 0 381
656 -17 116 210 10 674 0
657 34 114 211 10 0 390
658 31 257 386 10 0 417
659 18 1085 1165 10 0 113
660 -17 996 1098 10 719 0
661 40 735 913 10 0 315
662 24 1101 1153 10 0 585
663 20 1435 1580 10 0 451
664 -38 496 618 10 78 0
665 -15 1585 1672 10 207 0
666 -14 1207 1337 10 802 0
667 24 789 890 10 0 522
668 7 50 153 10 0 255
669 13 889 967 10 0 154
670 16 237 340 10 0 898
671 -13 1116 1242 10 993 0
672 -10 1585 1711 10 711 0
673 -27 463 612 10 134 0
674 17 68 158 10 0 656
675 14 1214 1269 10 0 457
676 27 200 301 10 0 246
677 -33 950 1082 10 464 0
678 30 313 417 10 0 575
679 -25 1017 1107 10 989 0
680 37 197 327 10 0 110
681 28 200 355 10 0 508
682 -19 653 703 10 74 0
683 -2 1203 1345 10 35 0
684 12 461 553 10 0 741
685 20 356 458 10 0 155
686 -26 647 774 10 859 0
687 -14 673 787 10 373 0
688 -26 1562 1680 10 260 0
689 -17 1032 1169 10 137 0
690 8 960 1074 10 0 654
691 36 873 1030 10 0 16
692 27 311 436 10 0 228
693 12 179 272 10 0 361
694 -5 1236 1339 10 285 0
695 -36 1289 1386 10 75 0
696 25 57 140 10 0 560
697 -17 171 323 10 850 0
698 18 40 115 10 0 874
699 13 1025 1177 10 0 167
700 -16 1477 1581 10 362 0
701 15 174 308 10 0 433
702 15 899 1035 10 0 355
703 26 239 385 10 0 473
704 28 89 201 10 0 450
705 33 56 200 10 0 471
706 13 776 875 0 0 1009
707 -27 49 147 10 111 0
708 -18 982 1095 10 720 0
709 23 169 274 10 0 889
710 -21 1342 1433 10 150 0
711 10 109 272 10 0 672
712 -16 901 1011 10 233 0
713 21 74 193 10 0 714
714 -21 562 703 10 713 0
715 -25 482 604 10 251 0
716 16 911 1020 10 0 991
717 3 1192 1325 10 0 829
718 15 321 455 10 0 844
719 17 88 158 10 0 660
720 18 236 442 10 0 708
721 -21 542 657 10 293 0
722 -19 1330 1438 10 919 0
723 -15 925 1068 10 476 0
724 5 758 858 10 0 793
725 -18 684 826 10 39 0
726 7 242 388 10 0 44
727 8 36 177 10 0 316
728 26 333 471 10 0 119
729 14 885 997 10 0 752
730 20 1410 1535 10 0 611
731 -15 1443 1567 10 532 0
732 23 221 365 10 0 967
733 12 349 449 10 0 737
734 16 1119 1200 10 0 393
735 -20 741 849 10 270 0
736 14 979 1073 10 0 563
737 -12 496 601 10 733 0
738 -22 281 390 10 157 0
739 24 218 335 10 0 982
740 -21 1160 1318 10 46 0
741 -12 584 670 10 684 0
742 19 617 746 10 0 917
743 23 530 722 10 0 597
744 -9 1235 1344 10 487 0
745 22 337 449 10 0 642
746 18 862 968 10 0 511
747 17 120 218 10 0 554
748 -24 1260 1376 10 367 0
749 -12 361 467 10 139 0
750 -22 631 742 10 125 0
751 26 1239 1348 0 0 1004
752 -14 1204 1360 10 729 0
753 26 229 318 10 0 602
754 -23 1255 1317 10 123 0
755 -16 240 391 10 609 0
756 -20 444 582 10 805 0
757 -31 589 699 10 210 0
758 19 380 446 10 0 426
759 -7 420 531 10 387 0
760 -27 1009 1107 10 594 0
761 -4 621 748 10 882 0
762 -20 1218 1348 10 963 0
763 18 1501 1708 10 0 867
764 19 220 334 10 0 973
765 -12 495 579 10 556 0
766 4 270 443 10 0 30
767 -26 788 939 10 646 0
768 -13 1364 1515 10 88 0
769 -32 1194 1281 10 60 0
770 -5 1290 1428 10 27 0
771 23 664 854 10 0 845
772 12 978 1101 10 0 997
773 -12 893 1006 10 863 0
774 -31 560 637 10 651 0
775 24 344 496 10 0 547
776 21 43 177 10 0 283
777 6 534 595 10 0 347
778 -29 804 952 10 519 0
779 -30 710 826 10 509 0
780 22 404 581 10 0 568
781 30 1265 1439 0 0 1011
782 32 511 659 10 0 501
783 -8 1196 1335 10 840 0
784 1 518 630 10 0 595
785 -3 839 984 10 99 0
786 -24 708 806 10 127 0
787 -11 348 464 10 411 0
788 35 789 952 10 0 538
789 22 485 598 10 0 299
790 -16 1105 1230 10 911 0
791 15 43 172 10 0 631
792 14 542 672 10 0 939
793 -5 793 902 10 724 0
794 11 395 530 10 0 379
795 -15 1474 1596 10 995 0
796 23 1048 1176 10 0 163
797 -26 1489 1597 10 517 0
798 -10 503 613 10 925 0
799 22 966 1138 10 0 637
800 9 119 244 10 0 645
801 -14 738 867 10 69 0
802 14 862 1028 10 0 666
803 31 52 214 10 0 258
804 19 385 502 10 0 875
805 20 119 260 10 0 756
806 -26 1285 1446 10 304 0
807 17 869 1012 10 0 288
808 23 745 856 10 0 80
809 -23 275 330 10 598 0
810 22 1316 1481 0 0 1023
811 -3 1376 1530 10 302 0
812 23 540 692 10 0 385
813 27 586 693 10 0 869
814 16 669 801 10 0 388
815 -8 382 496 10 124 0
816 22 903 995 10 0 644
817 22 246 376 10 0 861
818 12 264 389 10 0 627
819 14 315 395 10 0 47
820 21 74 184 10 0 998
821 15 118 240 10 0 337
822 17 913 1011 10 0 514
823 4 484 656 0 0 1002
824 -23 1300 1427 10 349 0
825 -23 731 887 10 607 0
826 31 327 443 10 0 217
827 -24 932 1058 10 870 0
828 13 859 1009 10 0 320
829 -3 1352 1462 10 717 0
830 28 592 691 10 0 64
831 21 978 1093 10 0 431
832 -20 1359 1425 10 142 0
833 -17 1237 1353 10 941 0
834 -33 930 1052 10 356 0
835 -15 1388 1481 10 98 0
836 21 210 351 10 0 79
837 -19 1305 1468 10 494 0
838 14 1216 1384 10 0 841
839 21 219 376 10 0 641
840 8 848 988 10 0 783
841 -14 1434 1567 10 838 0
842 19 203 305 10 0 322
843 -24 726 770 10 190 0
844 -15 363 535 10 718 0
845 -23 1204 1356 10 771 0
846 33 1652 1739 0 0 1033
847 6 320 442 10 0 280
848 1 1073 1208 10 0 174
849 9 169 252 10 0 996
850 17 167 263 10 0 697
851 -4 1407 1588 10 546 0
852 -15 1295 1403 10 354 0
853 8 773 892 10 0 133
854 -35 499 621 10 933 0
855 20 26 134 10 0 928
856 -25 1351 1444 10 223 0
857 -24 359 481 10 36 0
858 -27 933 1055 10 434 0
859 26 194 300 10 0 686
860 16 819 975 10 0 17
861 -22 1483 1610 10 817 0
862 -15 1135 1304 10 348 0
863 12 668 796 10 0 773
864 -10 519 626 10 935 0
865 24 1116 1205 0 0 1022
866 -4 1498 1647 10 977 0
867 -18 1629 1800 10 763 0
868 -22 877 1005 10 897 0
869 -27 808 956 10 813 0
870 24 879 958 10 0 827
871 7 610 698 10 0 561
872 24 965 1065 10 0 634
873 13 208 346 10 0 216
874 -18 70 158 10 698 0
875 -19 970 1113 10 804 0
876 26 255 368 10 0 440
877 30 137 278 10 0 922
878 -2 1692 1752 10 329 0
879 25 759 886 0 0 1008
880 10 300 373 10 0 470
881 11 756 904 10 0 172
882 4 71 181 10 0 761
883 29 882 1050 10 0 232
884 -16 1491 1584 10 117 0
885 -10 603 679 10 617 0
886 -5 190 307 10 290 0
887 -25 652 799 10 168 0
888 -21 1173 1250 10 71 0
889 -23 1112 1240 10 709 0
890 -7 1356 1484 10 565 0
891 12 141 286 10 0 503
892 30 419 534 10 0 115
893 -20 572 675 10 601 0
894 21 70 197 10 0 463
895 18 1435 1571 10 0 298
896 -8 1423 1524 10 201 0
897 22 625 796 10 0 868
898 -16 309 381 10 670 0
899 -18 1513 1665 10 67 0
900 12 184 260 10 0 6
901 -30 987 1092 10 307 0
902 18 169 328 0 0 1038
903 -23 539 663 10 410 0
904 10 227 344 10 0 129
905 8 475 583 0 0 1026
906 9 187 286 0 0 1016
907 18 576 697 10 0 555
908 21 790 948 10 0 467
909 34 191 313 10 0 193
910 -30 1203 1317 10 380 0
911 16 244 361 10 0 790
912 18 37 185 10 0 612
913 33 813 949 10 0 486
914 27 858 975 10 0 392
915 19 485 640 10 0 83
916 -8 984 1077 10 391 0
917 -19 1354 1522 10 742 0
918 -23 623 767 10 261 0
919 19 1269 1321 10 0 722
920 -2 1454 1558 10 325 0
921 -32 290 372 10 534 0
922 -30 823 959 10 877 0
923 25 703 823 10 0 510
924 -19 1181 1281 10 200 0
925 10 374 514 10 0 798
926 -7 1192 1311 10 944 0
927 -22 1295 1455 10 239 0
928 -20 46 164 10 855 0
929 14 117 223 10 0 531
930 14 308 380 10 0 970
931 -18 501 618 10 474 0
932 13 195 335 10 0 435
933 35 64 151 10 0 854
934 23 899 1047 10 0 238
935 10 191 297 10 0 864
936 12 891 997 10 0 164
937 9 250 383 10 0 222
938 26 297 409 10 0 405
939 -14 1319 1437 10 792 0
940 12 829 981 0 0 1013
941 17 1254 1416 10 0 833
942 -5 1015 1172 10 287 0
943 -16 1010 1156 10 276 0
944 7 94 224 10 0 926
945 26 181 305 10 0 313
946 22 1239 1360 10 0 85
947 14 512 612 10 0 294
948 33 395 531 10 0 624
949 -33 637 770 10 186 0
950 13 316 465 10 0 234
951 20 382 523 0 0 1003
952 -10 1077 1218 10 281 0
953 15 991 1066 10 0 468
954 32 397 515 10 0 536
955 -33 733 834 10 305 0
956 -28 951 1088 10 352 0
957 -22 495 596 10 518 0
958 -21 1066 1161 10 591 0
959 27 514 604 10 0 25
960 -13 395 518 10 336 0
961 14 148 256 10 0 256
962 -4 866 942 10 983 0
963 20 624 769 10 0 762
964 -22 162 318 10 516 0
965 12 236 376 10 0 146
966 28 722 870 10 0 278
967 -23 1028 1112 10 732 0
968 -15 115 266 10 22 0
969 -12 1236 1382 10 625 0
970 -14 382 474 10 930 0
971 -23 1425 1590 10 143 0
972 12 368 487 10 0 445
973 -19 747 819 10 764 0
974 13 579 693 10 0 171
975 -17 552 734 10 269 0
976 -21 1022 1141 10 18 0
977 4 1101 1260 10 0 866
978 7 351 534 10 0 122
979 14 877 979 10 0 593
980 31 236 344 10 0 156
981 -13 1255 1369 10 428 0
982 -24 1390 1533 10 739 0
983 4 728 909 10 0 962
984 26 174 283 10 0 165
985 13 315 443 10 0 182
986 -21 1152 1277 10 96 0
987 24 114 246 10 0 105
988 11 1059 1219 0 0 1029
989 25 317 387 10 0 679
990 -11 1426 1521 10 77 0
991 -16 1156 1291 10 716 0
992 31 457 558 10 0 576
993 13 146 268 10 0 671
994 -22 1416 1519 10 195 0
995 15 600 716 10 0 795
996 -9 218 342 10 849 0
997 -12 1178 1288 10 772 0
998 -21 1076 1192 10 820 0
999 -5 796 967 10 623 0
1000 15 786 939 10 0 253
1001 1 84 158 10 0 552
1002 -4 484 656 10 823 0
1003 -20 382 523 10 951 0
1004 -26 1239 1348 10 751 0
1005 -3 1027 1145 10 394 0
1006 -3 1404 1539 10 350 0
1007 -11 1281 1354 10 76 0
1008 -25 759 886 10 879 0
1009 -13 776 875 10 706 0
1010 -23 486 642 10 135 0
1011 -30 1265 1439 10 781 0
1012 -14 1079 1165 10 649 0
1013 -12 829 981 10 940 0
1014 -24 231 314 10 59 0
1015 -15 618 723 10 447 0
1016 -9 187 286 10 906 0
1017 -25 102 209 10 314 0
1018 -27 1533 1633 10 520 0
1019 -7 1664 1717 10 446 0
1020 -27 378 466 10 443 0
1021 -27 1601 1697 10 265 0
1022 -24 1116 1205 10 865 0
1023 -22 1316 1481 10 810 0
1024 -23 1342 1516 10 570 0
1025 -12 1054 1179 10 326 0
1026 -8 475 583 10 905 0
1027 -8 290 422 10 412 0
1028 -10 1044 1162 10 70 0
1029 -11 1059 1219 10 988 0
1030 -8 757 915 10 572 0
1031 -8 1141 1274 10 240 0
1032 -11 1628 1723 10 502 0
1033 -33 1652 1739 10 846 0
1034 -40 225 312 10 559 0
1035 -20 943 1106 10 23 0
1036 -5 728 886 10 61 0
1037 -19 185 365 10 140 0
1038 -18 169 328 10 902 0
1039 -9 112 302 10 263 0
DEPOT_SECTION
1
-1
EOF
