NAME: lr1_10_8
TYPE: PDPTW
COMMENT: Li & Lim PDPTW benchmark converted from SINTEF format
DIMENSION: 1047
VEHICLES: 250
CAPACITY: 200
EDGE_WEIGHT_TYPE: EUC_2D
NODE_COORD_SECTION
1 250 250
2 171 34
3 67 190
4 80 400
5 439 237
6 377 385
7 449 428
8 342 481
9 466 149
10 83 290
11 251 63
12 328 491
13 260 472
14 290 145
15 266 221
16 164 320
17 52 412
18 485 104
19 144 331
20 387 394
21 472 57
22 343 276
23 104 349
24 28 467
25 91 427
26 429 476
27 210 276
28 58 39
29 273 300
30 41 232
31 25 53
32 52 18
33 27 444
34 178 72
35 406 460
36 250 328
37 492 34
38 412 100
39 233 87
40 60 5
41 406 408
42 245 42
43 166 345
44 440 294
45 370 382
46 32 319
47 480 136
48 371 163
49 0 188
50 438 5
51 132 477
52 203 211
53 2 264
54 231 167
55 423 221
56 459 53
57 386 154
58 130 494
59 31 175
60 69 423
61 352 241
62 261 201
63 59 276
64 146 188
65 451 62
66 299 285
67 142 372
68 440 201
69 219 210
70 64 198
71 390 249
72 9 101
73 424 288
74 77 372
75 298 264
76 405 454
77 407 35
78 225 369
79 347 459
80 117 178
81 132 479
82 201 66
83 245 176
84 470 138
85 115 296
86 348 476
87 43 210
88 327 139
89 49 353
90 356 256
91 335 99
92 363 34
93 33 278
94 366 288
95 452 172
96 86 189
97 262 369
98 218 403
99 218 12
100 228 399
101 492 188
102 267 174
103 274 441
104 210 113
105 370 262
106 303 186
107 241 180
108 100 85
109 350 199
110 500 228
111 251 238
112 114 102
113 345 146
114 21 146
115 330 147
116 476 61
117 386 245
118 201 278
119 421 499
120 426 231
121 105 137
122 64 437
123 181 260
124 413 391
125 370 493
126 447 267
127 232 101
128 371 332
129 447 383
130 325 147
131 489 437
132 415 95
133 331 356
134 374 346
135 108 37
136 5 224
137 93 413
138 210 29
139 136 265
140 409 155
141 111 178
142 291 251
143 322 290
144 57 183
145 181 185
146 7 382
147 425 448
148 174 41
149 161 276
150 398 49
151 210 379
152 60 231
153 453 360
154 367 97
155 488 3
156 44 115
157 48 293
158 64 135
159 65 62
160 404 207
161 68 303
162 263 418
163 147 30
164 384 149
165 340 416
166 271 128
167 89 358
168 20 480
169 488 173
170 439 156
171 389 156
172 111 392
173 267 162
174 248 176
175 413 476
176 352 481
177 264 135
178 29 462
179 148 462
180 44 140
181 414 378
182 392 95
183 216 341
184 211 411
185 317 45
186 178 150
187 428 302
188 450 45
189 453 318
190 186 135
191 11 403
192 433 447
193 272 420
194 429 59
195 200 27
196 498 171
197 487 320
198 45 166
199 490 276
200 126 391
201 92 18
202 293 228
203 343 205
204 182 480
205 385 285
206 44 344
207 170 347
208 457 492
209 124 448
210 398 210
211 75 118
212 105 474
213 134 211
214 211 248
215 212 186
216 492 335
217 497 483
218 440 436
219 311 203
220 491 369
221 67 378
222 383 17
223 7 82
224 342 319
225 78 406
226 103 123
227 241 38
228 224 3
229 436 467
230 438 488
231 351 60
232 13 214
233 429 67
234 498 456
235 135 400
236 215 293
237 354 416
238 294 421
239 208 445
240 230 320
241 157 38
242 441 100
243 61 170
244 79 467
245 365 190
246 282 1
247 124 111
248 247 219
249 28 180
250 167 488
251 442 289
252 136 430
253 38 15
254 246 314
255 176 200
256 337 232
257 257 133
258 295 247
259 39 162
260 79 257
261 236 126
262 259 498
263 180 162
264 53 466
265 167 291
266 89 185
267 487 446
268 308 199
269 481 84
270 495 227
271 397 57
272 372 39
273 278 450
274 292 32
275 90 496
276 68 53
277 371 423
278 273 149
279 297 283
280 120 37
281 371 488
282 206 174
283 174 347
284 330 281
285 67 451
286 27 464
287 361 178
288 463 406
289 456 157
290 153 244
291 153 192
292 352 63
293 371 71
294 163 472
295 448 495
296 282 10
297 66 163
298 314 205
299 83 169
300 221 291
301 374 116
302 418 269
303 178 302
304 250 57
305 475 352
306 1 252
307 286 356
308 65 82
309 154 392
310 196 56
311 366 390
312 436 25
313 67 352
314 173 182
315 390 34
316 18 225
317 57 43
318 388 44
319 269 112
320 374 260
321 291 213
322 178 420
323 389 255
324 134 194
325 93 490
326 64 294
327 493 111
328 150 484
329 235 316
330 239 15
331 193 138
332 40 278
333 307 52
334 161 416
335 381 457
336 55 318
337 80 279
338 48 162
339 91 27
340 288 70
341 177 404
342 10 237
343 493 493
344 440 292
345 349 76
346 47 208
347 283 454
348 486 324
349 392 87
350 122 422
351 37 281
352 413 127
353 222 499
354 211 446
355 30 7
356 398 341
357 26 67
358 461 186
359 313 391
360 471 94
361 341 72
362 130 186
363 257 57
364 94 344
365 6 53
366 146 376
367 244 13
368 29 336
369 306 42
370 177 486
371 489 338
372 179 318
373 344 203
374 149 341
375 307 412
376 68 450
377 420 80
378 144 220
379 497 54
380 80 458
381 84 377
382 332 382
383 6 196
384 104 28
385 224 320
386 87 3
387 149 214
388 98 29
389 135 30
390 287 397
391 107 374
392 355 485
393 51 286
394 49 118
395 159 226
396 185 431
397 262 92
398 475 198
399 142 30
400 481 207
401 174 122
402 35 263
403 24 71
404 173 65
405 91 326
406 470 417
407 397 153
408 295 283
409 174 376
410 38 190
411 16 68
412 179 286
413 244 422
414 250 441
415 497 18
416 195 111
417 26 221
418 442 5
419 44 496
420 448 404
421 471 427
422 460 424
423 461 195
424 146 313
425 19 273
426 245 461
427 69 266
428 191 84
429 68 160
430 212 47
431 80 337
432 412 478
433 225 488
434 105 140
435 389 43
436 177 156
437 179 497
438 377 432
439 497 296
440 152 476
441 277 428
442 64 5
443 44 311
444 165 59
445 261 138
446 268 351
447 48 150
448 215 79
449 109 56
450 171 188
451 284 457
452 274 442
453 33 286
454 112 433
455 423 170
456 213 283
457 240 34
458 283 438
459 324 99
460 259 301
461 189 402
462 215 282
463 166 440
464 374 232
465 339 113
466 335 46
467 313 493
468 432 66
469 76 462
470 397 477
471 196 489
472 354 156
473 171 24
474 187 73
475 243 408
476 421 387
477 141 426
478 415 118
479 240 255
480 162 388
481 413 493
482 69 414
483 273 70
484 142 14
485 185 434
486 360 294
487 265 240
488 280 245
489 87 51
490 195 273
491 422 498
492 95 64
493 63 155
494 24 259
495 376 92
496 83 300
497 72 477
498 380 194
499 72 227
500 238 123
501 188 119
502 229 322
503 150 68
504 67 24
505 63 420
506 339 144
507 454 201
508 158 24
509 365 119
510 440 284
511 417 212
512 404 439
513 472 248
514 235 108
515 174 67
516 132 151
517 217 207
518 162 306
519 48 366
520 209 68
521 94 497
522 110 122
523 274 403
524 421 386
525 399 175
526 56 268
527 322 406
528 244 277
529 105 181
530 30 97
531 359 246
532 498 457
533 190 267
534 334 481
535 18 24
536 482 104
537 460 328
538 320 211
539 494 165
540 167 445
541 340 291
542 272 234
543 325 56
544 71 304
545 87 311
546 207 487
547 332 5
548 161 275
549 268 458
550 175 352
551 398 476
552 51 360
553 21 70
554 80 251
555 457 280
556 423 315
557 66 88
558 479 387
559 436 123
560 286 244
561 449 190
562 456 113
563 480 152
564 100 266
565 343 34
566 374 306
567 13 465
568 230 487
569 442 153
570 240 362
571 433 319
572 0 422
573 297 131
574 71 12
575 44 440
576 447 184
577 341 59
578 132 32
579 411 396
580 450 416
581 323 34
582 244 368
583 90 477
584 34 169
585 351 128
586 71 282
587 157 269
588 392 1
589 39 153
590 306 229
591 415 253
592 92 76
593 437 98
594 12 367
595 448 414
596 128 113
597 43 360
598 102 422
599 480 131
600 210 81
601 432 2
602 396 83
603 489 159
604 56 75
605 66 31
606 460 117
607 175 239
608 217 333
609 62 375
610 82 183
611 248 214
612 385 239
613 371 315
614 333 163
615 100 66
616 311 422
617 153 235
618 168 109
619 284 319
620 195 464
621 382 9
622 325 210
623 366 334
624 200 78
625 351 5
626 197 202
627 270 337
628 125 65
629 120 17
630 84 255
631 222 331
632 332 459
633 226 175
634 404 140
635 223 178
636 330 308
637 140 108
638 34 239
639 94 192
640 458 213
641 13 314
642 202 391
643 339 41
644 224 56
645 345 431
646 292 104
647 318 99
648 46 248
649 482 184
650 411 379
651 293 174
652 169 305
653 394 47
654 323 29
655 65 343
656 158 179
657 299 353
658 9 233
659 330 138
660 48 412
661 385 17
662 382 110
663 336 493
664 181 441
665 162 301
666 1 101
667 80 117
668 210 219
669 404 59
670 288 439
671 149 458
672 257 391
673 405 349
674 191 215
675 231 29
676 253 50
677 441 177
678 5 445
679 463 253
680 435 180
681 198 85
682 59 388
683 373 418
684 142 80
685 441 7
686 33 268
687 355 174
688 228 260
689 114 460
690 337 41
691 154 374
692 235 13
693 303 78
694 103 464
695 325 311
696 306 235
697 382 360
698 235 288
699 0 356
700 178 135
701 226 423
702 15 11
703 144 35
704 176 199
705 247 306
706 396 417
707 289 220
708 23 235
709 137 377
710 400 71
711 261 359
712 438 127
713 318 280
714 333 293
715 436 295
716 62 94
717 495 355
718 13 394
719 172 292
720 14 232
721 437 90
722 214 274
723 420 383
724 120 261
725 179 75
726 484 224
727 214 245
728 395 474
729 368 311
730 199 203
731 485 428
732 86 199
733 447 272
734 40 304
735 475 267
736 482 141
737 489 274
738 26 342
739 139 438
740 12 358
741 125 61
742 360 284
743 29 358
744 285 247
745 248 386
746 415 207
747 130 247
748 172 66
749 92 259
750 379 486
751 452 484
752 268 288
753 349 43
754 225 269
755 50 383
756 110 251
757 461 182
758 255 487
759 133 202
760 34 329
761 368 452
762 242 106
763 171 303
764 329 456
765 490 286
766 61 214
767 365 74
768 321 149
769 84 453
770 26 442
771 180 283
772 394 322
773 348 348
774 309 161
775 385 58
776 228 287
777 312 453
778 35 344
779 393 98
780 208 488
781 235 33
782 140 137
783 405 187
784 330 371
785 265 0
786 295 89
787 3 23
788 363 225
789 148 208
790 466 362
791 267 290
792 98 2
793 131 246
794 418 75
795 366 260
796 138 28
797 209 212
798 443 167
799 156 65
800 279 355
801 206 172
802 32 94
803 301 239
804 471 368
805 133 273
806 253 74
807 470 405
808 77 172
809 77 465
810 466 96
811 402 277
812 267 374
813 450 194
814 89 65
815 429 389
816 202 28
817 46 389
818 246 407
819 452 110
820 213 185
821 134 276
822 262 97
823 469 489
824 364 71
825 68 240
826 494 468
827 439 222
828 386 225
829 434 359
830 103 177
831 89 322
832 307 249
833 30 155
834 401 314
835 217 357
836 373 421
837 5 281
838 173 474
839 36 301
840 429 169
841 195 450
842 95 382
843 225 121
844 10 407
845 221 269
846 264 180
847 168 59
848 281 96
849 387 349
850 398 329
851 239 486
852 237 420
853 346 354
854 172 314
855 233 230
856 79 80
857 243 402
858 117 110
859 66 314
860 58 391
861 142 360
862 492 326
863 381 328
864 62 236
865 344 70
866 151 81
867 240 240
868 46 163
869 455 168
870 428 202
871 432 199
872 391 112
873 451 305
874 214 311
875 465 367
876 164 473
877 364 173
878 274 261
879 133 455
880 351 481
881 115 395
882 297 304
883 7 194
884 409 255
885 87 213
886 60 246
887 3 471
888 418 251
889 153 362
890 323 77
891 143 158
892 351 148
893 426 38
894 226 316
895 347 192
896 102 6
897 41 120
898 247 443
899 218 271
900 376 385
901 241 402
902 213 399
903 32 191
904 441 374
905 376 113
906 215 434
907 499 316
908 318 497
909 256 441
910 174 397
911 468 360
912 287 256
913 448 397
914 352 487
915 253 118
916 159 299
917 351 233
918 268 113
919 164 332
920 88 484
921 360 488
922 343 166
923 497 266
924 138 406
925 420 224
926 231 410
927 199 438
928 219 215
929 365 274
930 481 454
931 187 61
932 372 97
933 187 263
934 371 427
935 74 215
936 375 145
937 365 28
938 118 314
939 60 29
940 478 300
941 33 152
942 347 184
943 94 40
944 290 328
945 96 346
946 97 288
947 176 470
948 206 97
949 210 133
950 489 457
951 418 399
952 392 491
953 437 19
954 495 83
955 468 352
956 390 120
957 80 357
958 394 310
959 61 441
960 52 303
961 391 202
962 36 451
963 276 84
964 130 140
965 16 287
966 292 136
967 53 204
968 359 287
969 309 29
970 473 491
971 273 255
972 263 153
973 328 458
974 401 164
975 480 119
976 488 96
977 149 98
978 49 437
979 440 77
980 43 135
981 188 151
982 175 422
983 48 437
984 334 403
985 372 115
986 111 192
987 357 290
988 331 134
989 495 199
990 441 60
991 51 89
992 452 206
993 195 386
994 172 24
995 408 318
996 410 399
997 413 345
998 215 129
999 380 350
1000 19 38
1001 166 247
1002 173 474
1003 428 302
1004 345 431
1005 64 5
1006 217 207
1007 333 163
1008 368 311
1009 64 135
1010 125 65
1011 19 273
1012 389 156
1013 27 444
1014 134 194
1015 218 271
1016 438 5
1017 466 149
1018 336 493
1019 69 423
1020 451 305
1021 440 201
1022 370 493
1023 341 59
1024 261 138
1025 214 245
1026 290 145
1027 92 259
1028 228 399
1029 493 111
1030 118 314
1031 80 117
1032 299 353
1033 389 255
1034 372 39
1035 259 301
1036 497 266
1037 213 283
1038 265 0
1039 206 174
1040 52 412
1041 276 84
1042 31 175
1043 33 152
1044 340 291
1045 288 439
1046 107 374
1047 480 131
PICKUP_AND_DELIVERY_SECTION
1 0 0 1925 0 0 0
2 -3 0 1686 10 241 0
3 -3 0 1723 10 394 0
4 10 0 1689 10 0 842
5 11 939 969 10 0 531
6 6 0 1730 10 0 829
7 25 1247 1277 10 0 997
8 18 0 1667 10 0 12
9 16 1186 1216 0 0 1017
10 -26 0 1744 10 364 0
11 -19 987 1017 10 257 0
12 -18 0 1662 10 8 0
13 33 0 1693 10 0 467
14 5 0 1803 0 0 1026
15 -28 0 1882 10 279 0
16 12 0 1805 10 0 854
17 22 0 1660 0 0 1040
18 21 794 824 10 0 736
19 -29 0 1782 10 519 0
20 8 0 1717 10 0 904
21 -7 0 1621 10 315 0
22 -14 0 1819 10 128 0
23 20 0 1739 10 0 544
24 -21 1343 1373 10 286 0
25 -12 883 913 10 738 0
26 23 0 1627 10 0 197
27 -35 0 1868 10 933 0
28 -26 0 1630 10 589 0
29 30 0 1860 10 0 528
30 -18 0 1706 10 720 0
31 23 0 1616 10 0 32
32 -23 0 1610 10 31 0
33 22 0 1620 0 0 1013
34 -18 0 1723 10 474 0
35 -7 0 1654 10 944 0
36 24 0 1837 10 0 385
37 5 0 1591 10 0 155
38 1 0 1695 10 0 468
39 18 0 1752 10 0 624
40 18 1044 1074 10 0 355
41 15 0 1693 10 0 999
42 24 0 1707 10 0 227
43 14 0 1789 10 0 207
44 -9 0 1720 10 849 0
45 -18 884 914 10 815 0
46 -8 0 1687 10 149 0
47 -40 0 1659 10 559 0
48 -33 828 858 10 687 0
49 26 0 1658 10 0 883
50 18 0 1607 0 0 1016
51 25 327 357 10 0 209
52 20 0 1854 10 0 730
53 -8 0 1667 10 316 0
54 -19 0 1830 10 915 0
55 9 0 1740 10 0 992
56 -21 0 1628 10 990 0
57 31 0 1749 10 0 506
58 6 0 1644 10 0 376
59 24 0 1684 0 0 1042
60 32 0 1665 0 0 1019
61 5 792 822 10 0 415
62 -26 1514 1544 10 542 0
63 11 892 922 10 0 526
64 -13 1235 1265 10 291 0
65 -6 0 1640 10 292 0
66 -27 1254 1284 10 134 0
67 -18 0 1753 10 763 0
68 29 893 923 0 0 1021
69 14 50 80 10 0 401
70 10 0 1722 10 0 584
71 21 582 612 10 0 788
72 -11 666 696 10 403 0
73 13 0 1737 10 0 117
74 -16 0 1704 10 609 0
75 36 50 80 10 0 298
76 11 0 1659 10 0 175
77 11 0 1649 10 0 435
78 -24 0 1794 10 982 0
79 -6 0 1685 10 777 0
80 -32 0 1764 10 782 0
81 -25 257 287 10 334 0
82 -27 0 1725 10 692 0
83 20 0 1841 10 0 107
84 -2 0 1669 10 561 0
85 -15 0 1773 10 821 0
86 19 0 1669 10 0 176
87 -8 210 240 10 967 0
88 -18 0 1780 10 659 0
89 15 0 1690 10 0 552
90 -7 0 1809 10 726 0
91 25 0 1742 10 0 349
92 19 272 302 10 0 525
93 18 0 1697 10 0 453
94 -23 0 1793 10 143 0
95 9 0 1699 10 0 407
96 -17 0 1741 10 674 0
97 15 0 1796 10 0 852
98 15 0 1759 10 0 926
99 3 0 1675 10 0 430
100 14 0 1765 0 0 1028
101 -25 0 1666 10 989 0
102 -28 1618 1648 10 922 0
103 12 0 1723 10 0 375
104 28 0 1773 10 0 949
105 -23 0 1795 10 795 0
106 -21 1354 1384 10 713 0
107 -20 1695 1725 10 83 0
108 14 0 1693 10 0 615
109 21 0 1803 10 0 173
110 -16 0 1665 10 507 0
111 -12 0 1903 10 258 0
112 -15 0 1715 10 247 0
113 -18 0 1775 10 971 0
114 -31 487 517 10 980 0
115 -14 848 878 10 130 0
116 36 0 1621 10 0 379
117 -13 0 1779 10 73 0
118 -36 0 1859 10 533 0
119 23 0 1613 10 0 491
120 -22 1028 1058 10 827 0
121 32 0 1732 10 0 299
122 -2 0 1652 10 325 0
123 -18 0 1846 10 141 0
124 -10 0 1700 10 277 0
125 22 0 1644 0 0 1022
126 -12 980 1010 10 733 0
127 24 0 1765 10 0 681
128 14 530 560 10 0 22
129 -4 0 1678 10 882 0
130 14 0 1788 10 0 115
131 29 707 737 10 0 731
132 -13 0 1689 10 932 0
133 -8 0 1782 10 853 0
134 27 0 1759 10 0 66
135 -13 0 1660 10 858 0
136 -20 0 1669 10 383 0
137 17 226 256 10 0 225
138 -17 0 1691 10 822 0
139 12 0 1801 10 0 805
140 -18 0 1730 10 768 0
141 18 0 1759 10 0 123
142 20 41 71 10 0 472
143 23 0 1833 10 0 94
144 -16 0 1711 10 716 0
145 19 0 1821 10 0 801
146 -12 0 1639 10 916 0
147 9 0 1651 10 0 218
148 -17 0 1693 10 994 0
149 8 133 163 10 0 46
150 21 0 1666 10 0 194
151 -12 0 1780 10 550 0
152 -10 0 1725 10 617 0
153 -14 0 1685 10 875 0
154 -14 0 1723 10 465 0
155 -5 0 1572 10 37 0
156 24 246 276 10 0 991
157 -5 0 1709 10 290 0
158 11 0 1697 0 0 1009
159 15 0 1652 10 0 276
160 -33 0 1756 10 464 0
161 22 0 1726 10 0 368
162 25 278 308 10 0 414
163 -10 0 1673 10 618 0
164 -30 0 1748 10 877 0
165 36 0 1727 10 0 281
166 12 0 1792 10 0 890
167 -16 0 1722 10 860 0
168 -46 0 1590 10 497 0
169 25 0 1665 10 0 196
170 -26 0 1704 10 563 0
171 27 716 746 0 0 1012
172 -20 0 1717 10 755 0
173 -21 0 1826 10 109 0
174 -33 0 1841 10 846 0
175 -11 0 1637 10 76 0
176 -19 0 1663 10 86 0
177 -8 0 1800 10 185 0
178 17 1310 1340 10 0 372
179 10 727 757 10 0 841
180 -7 0 1682 10 387 0
181 -25 495 525 10 650 0
182 16 0 1705 10 0 593
183 -23 0 1818 10 570 0
184 -30 0 1750 10 642 0
185 8 0 1700 10 0 177
186 -30 0 1792 10 331 0
187 27 1016 1046 0 0 1003
188 -25 0 1629 10 573 0
189 30 0 1701 10 0 715
190 24 0 1784 10 0 436
191 18 343 373 10 0 770
192 20 794 824 10 0 913
193 -8 1386 1416 10 426 0
194 -21 0 1654 10 150 0
195 22 0 1687 10 0 866
196 -25 0 1655 10 169 0
197 -23 858 888 10 26 0
198 22 1013 1043 10 0 338
199 33 0 1674 10 0 302
200 -7 0 1728 10 889 0
201 -27 0 1635 10 449 0
202 -31 0 1867 10 560 0
203 -10 0 1812 10 590 0
204 -7 0 1676 10 540 0
205 13 0 1776 10 0 888
206 -2 0 1689 10 760 0
207 -14 0 1790 10 43 0
208 -10 0 1597 10 952 0
209 -25 0 1681 10 51 0
210 31 0 1762 10 0 398
211 -14 409 439 10 522 0
212 27 0 1649 10 0 380
213 35 122 152 10 0 626
214 26 39 69 10 0 641
215 11 0 1841 10 0 574
216 10 0 1659 10 0 907
217 -14 353 383 10 930 0
218 -9 0 1650 10 147 0
219 15 0 1838 10 0 936
220 -12 0 1647 10 229 0
221 -25 0 1692 10 879 0
222 15 0 1647 10 0 625
223 25 412 442 10 0 666
224 36 0 1800 10 0 863
225 -17 960 990 10 137 0
226 -16 0 1721 10 362 0
227 -24 0 1703 10 42 0
228 -30 690 720 10 296 0
229 12 0 1630 10 0 220
230 18 0 1612 10 0 862
231 15 0 1700 10 0 653
232 -5 1354 1384 10 903 0
233 -13 732 762 10 985 0
234 27 0 1593 10 0 723
235 -8 0 1726 10 366 0
236 13 0 1860 10 0 337
237 -19 0 1720 10 921 0
238 -24 1575 1605 10 549 0
239 -14 0 1716 10 252 0
240 8 1192 1222 10 0 631
241 3 0 1684 10 0 2
242 31 0 1673 10 0 810
243 -13 0 1710 10 308 0
244 -23 351 381 10 709 0
245 -28 1477 1507 10 352 0
246 -11 0 1664 10 969 0
247 15 0 1728 10 0 112
248 -13 0 1884 10 744 0
249 34 0 1683 10 0 259
250 17 252 282 10 0 440
251 25 0 1720 10 0 344
252 14 0 1702 10 0 239
253 3 0 1599 10 0 1000
254 -15 1445 1475 10 791 0
255 -35 568 598 10 378 0
256 -31 0 1827 10 803 0
257 19 0 1798 10 0 11
258 12 1303 1333 10 0 111
259 -34 565 595 10 249 0
260 -12 0 1744 10 427 0
261 -24 0 1791 10 500 0
262 -14 1075 1105 10 947 0
263 -22 0 1803 10 816 0
264 -11 0 1623 10 809 0
265 27 0 1823 10 0 771
266 16 600 630 10 0 896
267 -31 0 1608 10 826 0
268 -18 0 1838 10 912 0
269 -22 0 1631 10 976 0
270 -26 0 1669 10 423 0
271 17 0 1673 10 0 669
272 10 0 1672 0 0 1034
273 29 0 1714 10 0 761
274 14 229 259 10 0 428
275 -31 0 1622 10 521 0
276 -15 739 769 10 159 0
277 10 0 1704 10 0 124
278 -5 0 1812 10 287 0
279 28 0 1858 10 0 15
280 28 0 1666 10 0 389
281 -36 0 1649 10 165 0
282 14 0 1828 0 0 1039
283 3 0 1792 10 0 475
284 -30 1330 1360 10 307 0
285 -31 0 1644 10 567 0
286 21 0 1606 10 0 24
287 5 0 1783 10 0 278
288 23 857 887 10 0 807
289 -19 0 1689 10 478 0
290 5 0 1818 10 0 157
291 13 0 1802 10 0 64
292 6 0 1702 10 0 65
293 21 0 1699 10 0 779
294 -8 0 1677 10 924 0
295 40 0 1600 10 0 512
296 30 0 1673 10 0 228
297 -23 0 1712 10 607 0
298 -36 0 1837 10 75 0
299 -32 0 1730 10 121 0
300 -21 0 1865 10 462 0
301 9 587 617 10 0 794
302 -33 0 1746 10 199 0
303 19 0 1827 10 0 374
304 26 0 1722 10 0 676
305 -3 0 1668 10 717 0
306 5 0 1666 10 0 965
307 30 0 1804 10 0 284
308 13 0 1666 10 0 243
309 9 0 1744 10 0 876
310 -24 0 1714 10 367 0
311 -15 0 1734 10 476 0
312 -11 1282 1312 10 588 0
313 -38 0 1706 10 655 0
314 -7 0 1813 10 668 0
315 7 1060 1090 10 0 21
316 8 0 1682 10 0 53
317 15 0 1632 10 0 792
318 -9 0 1668 10 361 0
319 19 1263 1293 10 0 918
320 27 0 1791 10 0 612
321 -9 1258 1288 10 487 0
322 18 1071 1101 10 0 835
323 15 0 1776 0 0 1033
324 19 1652 1682 0 0 1014
325 2 0 1629 10 0 122
326 -28 0 1724 10 431 0
327 26 0 1636 0 0 1029
328 -21 0 1661 10 894 0
329 -25 656 686 10 582 0
330 2 0 1680 10 0 843
331 30 0 1790 10 0 186
332 -25 0 1704 10 499 0
333 23 0 1709 10 0 643
334 25 0 1727 10 0 81
335 28 0 1671 10 0 392
336 13 312 342 10 0 859
337 -13 0 1743 10 236 0
338 -22 0 1695 10 198 0
339 -24 1182 1212 10 943 0
340 -12 0 1732 10 972 0
341 17 0 1745 10 0 409
342 -28 0 1675 10 417 0
343 -5 856 886 10 359 0
344 -25 940 970 10 251 0
345 -11 1031 1061 10 369 0
346 30 0 1708 10 0 402
347 14 0 1709 10 0 984
348 -12 0 1668 10 772 0
349 -25 0 1699 10 91 0
350 -22 0 1701 10 694 0
351 17 0 1700 10 0 960
352 28 0 1711 10 0 245
353 -22 0 1665 10 780 0
354 -12 0 1716 10 463 0
355 -18 1189 1219 10 40 0
356 33 0 1742 10 0 524
357 -22 0 1626 10 897 0
358 -13 0 1695 10 828 0
359 5 0 1761 10 0 343
360 30 0 1645 10 0 819
361 9 0 1716 10 0 318
362 16 136 166 10 0 226
363 -25 0 1722 10 397 0
364 26 0 1733 10 0 10
365 -15 0 1602 10 702 0
366 8 234 264 10 0 235
367 24 0 1678 10 0 310
368 -22 0 1678 10 161 0
369 11 0 1700 10 0 345
370 20 0 1668 10 0 437
371 17 1397 1427 10 0 955
372 -17 0 1817 10 178 0
373 14 0 1810 10 0 895
374 -19 404 434 10 303 0
375 -12 0 1744 10 103 0
376 -6 0 1645 10 58 0
377 24 0 1675 10 0 721
378 35 0 1805 10 0 255
379 -36 978 1008 10 116 0
380 -27 371 401 10 212 0
381 -19 0 1706 10 769 0
382 2 1010 1040 10 0 408
383 20 0 1666 10 0 136
384 8 0 1650 10 0 684
385 -24 1284 1314 10 36 0
386 13 0 1620 10 0 629
387 7 0 1808 10 0 180
388 -19 0 1647 10 856 0
389 -28 0 1667 10 280 0
390 -10 564 594 10 711 0
391 8 914 944 0 0 1046
392 -28 0 1658 10 335 0
393 14 1459 1489 10 0 586
394 3 0 1675 10 0 3
395 16 94 124 10 0 789
396 -23 0 1723 10 812 0
397 25 0 1757 10 0 363
398 -31 0 1685 10 210 0
399 32 0 1670 10 0 484
400 34 0 1681 10 0 649
401 -14 0 1767 10 69 0
402 -30 0 1700 10 346 0
403 11 346 376 10 0 72
404 -13 448 478 10 725 0
405 4 0 1739 10 0 554
406 11 0 1639 10 0 421
407 -9 0 1739 10 95 0
408 -2 0 1860 10 382 0
409 -17 0 1768 10 341 0
410 23 0 1695 10 0 986
411 11 0 1619 10 0 557
412 -22 0 1836 10 490 0
413 -12 0 1743 10 818 0
414 -25 0 1724 10 162 0
415 -5 0 1577 10 61 0
416 -44 998 1028 10 501 0
417 28 996 1026 10 0 342
418 -32 0 1604 10 954 0
419 -5 0 1595 10 920 0
420 -23 0 1665 10 773 0
421 -11 0 1632 10 406 0
422 11 1455 1485 10 0 595
423 26 0 1697 10 0 270
424 -22 0 1794 10 946 0
425 25 0 1683 0 0 1011
426 8 649 679 10 0 193
427 12 0 1734 10 0 260
428 -14 867 897 10 274 0
429 21 0 1712 10 0 885
430 -3 801 831 10 99 0
431 28 0 1725 10 0 326
432 -26 0 1636 10 697 0
433 -4 0 1676 10 546 0
434 -22 0 1733 10 516 0
435 -11 0 1666 10 77 0
436 -24 0 1796 10 190 0
437 -20 0 1658 10 370 0
438 -23 831 861 10 934 0
439 14 0 1664 10 0 832
440 -17 0 1669 10 250 0
441 7 490 520 10 0 851
442 14 0 1608 0 0 1005
443 27 0 1701 10 0 778
444 27 0 1706 10 0 931
445 1 0 1803 0 0 1024
446 7 0 1813 10 0 909
447 15 0 1690 10 0 833
448 -14 0 1741 10 675 0
449 27 0 1676 10 0 201
450 30 621 651 10 0 928
451 -29 0 1706 10 616 0
452 -17 0 1722 10 898 0
453 -18 0 1696 10 93 0
454 29 0 1686 10 0 482
455 -37 0 1725 10 680 0
456 14 0 1866 0 0 1037
457 28 0 1699 10 0 998
458 3 231 261 10 0 973
459 -23 0 1747 10 786 0
460 25 0 1864 0 0 1035
461 10 0 1752 10 0 689
462 21 0 1868 10 0 300
463 12 0 1708 10 0 354
464 33 125 155 10 0 160
465 14 0 1752 10 0 154
466 18 0 1694 10 0 753
467 -33 0 1664 10 13 0
468 -1 0 1657 10 38 0
469 -14 956 986 10 874 0
470 -26 0 1645 10 481 0
471 23 0 1670 10 0 568
472 -20 0 1775 10 142 0
473 11 1383 1413 10 0 600
474 18 292 322 10 0 34
475 -3 0 1757 10 283 0
476 15 0 1696 10 0 311
477 23 531 561 10 0 671
478 19 0 1704 10 0 289
479 -33 0 1904 10 705 0
480 -19 1126 1156 10 919 0
481 26 0 1623 10 0 470
482 -29 1263 1293 10 454 0
483 -12 619 649 10 514 0
484 -32 0 1656 10 399 0
485 -9 0 1720 10 906 0
486 9 0 1797 10 0 510
487 9 18 48 10 0 321
488 21 30 60 10 0 611
489 35 0 1658 10 0 977
490 22 59 89 10 0 412
491 -23 692 722 10 119 0
492 4 0 1673 10 0 592
493 7 0 1706 10 0 639
494 -16 0 1689 10 837 0
495 10 0 1713 10 0 602
496 -31 500 530 10 587 0
497 46 288 318 10 0 168
498 -2 0 1774 10 712 0
499 25 0 1736 10 0 332
500 24 0 1788 10 0 261
501 44 0 1771 10 0 416
502 11 0 1840 10 0 698
503 23 0 1708 10 0 637
504 10 0 1625 10 0 814
505 19 0 1663 10 0 682
506 -31 1099 1129 10 57 0
507 16 0 1706 10 0 110
508 -18 0 1671 10 578 0
509 30 382 412 10 0 974
510 -9 852 882 10 486 0
511 12 910 940 10 0 640
512 -40 0 1672 10 295 0
513 11 0 1693 10 0 940
514 12 0 1773 10 0 483
515 15 0 1717 10 0 799
516 22 0 1761 10 0 434
517 26 0 1861 0 0 1006
518 22 0 1811 10 0 719
519 29 0 1683 10 0 19
520 -28 0 1729 10 762 0
521 31 0 1623 10 0 275
522 14 0 1726 10 0 211
523 17 0 1761 10 0 927
524 -33 824 854 10 356 0
525 -19 747 777 10 92 0
526 -11 1064 1094 10 63 0
527 -19 0 1744 10 758 0
528 -30 0 1888 10 29 0
529 -28 0 1755 10 830 0
530 23 0 1648 10 0 605
531 -11 0 1806 10 5 0
532 -13 0 1592 10 950 0
533 36 0 1853 10 0 118
534 32 0 1670 10 0 908
535 -11 0 1592 10 787 0
536 19 0 1641 10 0 975
537 -15 0 1691 10 995 0
538 -25 993 1023 10 696 0
539 19 0 1657 10 0 603
540 7 0 1704 10 0 204
541 22 470 500 0 0 1044
542 26 0 1888 10 0 62
543 13 0 1708 10 0 690
544 -20 0 1729 10 23 0
545 7 0 1741 10 0 630
546 4 0 1675 10 0 433
547 14 1033 1063 10 0 581
548 21 0 1823 10 0 665
549 24 0 1707 10 0 238
550 12 0 1789 10 0 151
551 25 0 1645 10 0 728
552 -15 0 1688 10 89 0
553 15 771 801 10 0 939
554 -4 0 1745 10 405 0
555 -23 0 1706 10 679 0
556 -5 0 1731 10 623 0
557 -11 0 1670 10 411 0
558 -1 0 1649 10 784 0
559 40 0 1690 10 0 47
560 31 0 1879 10 0 202
561 2 1140 1170 10 0 84
562 17 1227 1257 10 0 601
563 26 0 1665 10 0 170
564 5 0 1765 10 0 957
565 7 0 1680 10 0 661
566 4 994 1024 10 0 790
567 31 774 804 10 0 285
568 -23 0 1678 10 471 0
569 -14 0 1700 10 606 0
570 23 0 1803 10 0 183
571 -15 0 1720 10 673 0
572 -18 821 851 10 583 0
573 25 0 1788 10 0 188
574 -11 0 1618 10 215 0
575 24 0 1635 10 0 978
576 -27 0 1708 10 813 0
577 27 790 820 0 0 1023
578 18 784 814 10 0 508
579 -13 0 1698 10 706 0
580 -12 0 1656 10 900 0
581 -14 0 1687 10 547 0
582 25 414 444 10 0 329
583 18 0 1638 10 0 572
584 -10 484 514 10 70 0
585 15 0 1757 10 0 956
586 -14 0 1734 10 393 0
587 31 0 1821 10 0 496
588 11 605 635 10 0 312
589 26 0 1683 10 0 28
590 10 0 1856 10 0 203
591 21 367 397 10 0 765
592 -4 0 1680 10 492 0
593 -16 0 1675 10 182 0
594 -21 0 1650 10 839 0
595 -11 0 1658 10 422 0
596 22 363 393 10 0 741
597 -7 0 1681 10 740 0
598 23 226 256 10 0 959
599 5 0 1657 0 0 1047
600 -11 0 1742 10 473 0
601 -17 0 1608 10 562 0
602 -10 0 1694 10 495 0
603 -19 0 1660 10 539 0
604 -14 0 1654 10 802 0
605 -23 0 1629 10 530 0
606 14 520 550 10 0 569
607 23 75 105 10 0 297
608 -17 0 1826 10 619 0
609 16 0 1690 10 0 74
610 17 0 1735 10 0 732
611 -21 0 1879 10 488 0
612 -27 786 816 10 320 0
613 18 0 1778 10 0 834
614 32 0 1795 0 0 1007
615 -14 0 1678 10 108 0
616 29 0 1733 10 0 451
617 10 0 1817 10 0 152
618 10 0 1752 10 0 163
619 17 0 1839 10 0 608
620 -15 0 1695 10 701 0
621 -12 0 1641 10 693 0
622 15 0 1830 10 0 942
623 5 410 440 10 0 556
624 -18 0 1736 10 39 0
625 -15 496 526 10 222 0
626 -35 1204 1234 10 213 0
627 20 0 1826 10 0 800
628 17 788 818 0 0 1010
629 -13 0 1649 10 386 0
630 -7 0 1749 10 545 0
631 -8 0 1830 10 240 0
632 -19 369 399 10 764 0
633 23 0 1837 10 0 820
634 -23 1259 1289 10 774 0
635 20 1136 1166 10 0 964
636 24 1170 1200 10 0 714
637 -23 0 1736 10 503 0
638 16 0 1699 10 0 686
639 -7 0 1749 10 493 0
640 -12 1128 1158 10 511 0
641 -26 0 1670 10 214 0
642 30 0 1767 10 0 184
643 -23 456 486 10 333 0
644 -30 0 1720 10 781 0
645 12 345 375 0 0 1004
646 -11 0 1764 10 988 0
647 -20 1213 1243 10 806 0
648 -43 0 1711 10 708 0
649 -34 0 1674 10 400 0
650 25 0 1709 10 0 181
651 31 87 117 10 0 767
652 21 162 192 10 0 910
653 -15 0 1667 10 231 0
654 -9 1137 1167 10 937 0
655 38 0 1708 10 0 313
656 37 0 1799 10 0 891
657 34 0 1801 0 0 1032
658 31 0 1674 10 0 1001
659 18 0 1778 10 0 88
660 -13 1032 1062 10 887 0
661 -7 0 1646 10 565 0
662 -5 0 1723 10 824 0
663 20 0 1658 0 0 1018
664 25 0 1712 10 0 881
665 -21 1613 1643 10 548 0
666 -25 1257 1287 10 223 0
667 24 0 1700 0 0 1031
668 7 0 1865 10 0 314
669 -17 0 1670 10 271 0
670 16 0 1723 0 0 1045
671 -23 0 1684 10 477 0
672 -24 1633 1663 10 739 0
673 15 522 552 10 0 571
674 17 68 98 10 0 96
675 14 1226 1256 10 0 448
676 -26 0 1715 10 304 0
677 -21 1001 1031 10 869 0
678 -22 0 1602 10 817 0
679 23 0 1702 10 0 555
680 37 0 1718 10 0 455
681 -24 263 293 10 127 0
682 -19 663 693 10 505 0
683 -25 1259 1289 10 996 0
684 -8 0 1714 10 384 0
685 20 0 1606 10 0 953
686 -16 696 726 10 638 0
687 33 0 1786 10 0 48
688 -24 0 1891 10 722 0
689 -10 0 1665 10 461 0
690 -13 0 1689 10 543 0
691 -20 0 1759 10 861 0
692 27 0 1678 10 0 82
693 12 179 209 10 0 621
694 22 0 1656 10 0 350
695 22 0 1819 10 0 878
696 25 0 1858 10 0 538
697 26 178 208 10 0 432
698 -11 0 1875 10 502 0
699 13 0 1644 10 0 743
700 21 0 1780 10 0 759
701 15 197 227 10 0 620
702 15 0 1580 10 0 365
703 -7 0 1676 10 981 0
704 28 0 1826 10 0 797
705 33 0 1859 10 0 479
706 13 0 1694 10 0 579
707 19 0 1866 10 0 855
708 43 0 1688 10 0 648
709 23 169 199 10 0 244
710 17 0 1682 10 0 840
711 10 0 1806 10 0 390
712 2 0 1691 10 0 498
713 21 0 1841 10 0 106
714 -24 0 1822 10 636 0
715 -30 0 1724 10 189 0
716 16 0 1671 10 0 144
717 3 1243 1273 10 0 305
718 15 0 1638 10 0 844
719 -22 0 1827 10 518 0
720 18 0 1679 10 0 30
721 -24 0 1669 10 377 0
722 24 0 1872 10 0 688
723 -27 0 1700 10 234 0
724 -23 0 1785 10 756 0
725 13 0 1727 10 0 404
726 7 0 1680 10 0 90
727 8 0 1879 0 0 1025
728 -25 0 1649 10 551 0
729 14 0 1783 0 0 1008
730 -20 0 1846 10 52 0
731 -29 1490 1520 10 131 0
732 -17 0 1744 10 610 0
733 12 0 1717 10 0 126
734 -25 1145 1175 10 886 0
735 -31 0 1690 10 737 0
736 -21 1011 1041 10 18 0
737 31 534 564 10 0 735
738 12 0 1673 10 0 25
739 24 0 1697 10 0 672
740 7 1224 1254 10 0 597
741 -22 0 1689 10 596 0
742 -14 0 1800 10 929 0
743 -13 0 1670 10 699 0
744 13 0 1880 10 0 248
745 -18 0 1779 10 902 0
746 -21 0 1745 10 917 0
747 -17 0 1795 10 793 0
748 18 1303 1333 10 0 948
749 4 399 429 0 0 1027
750 22 0 1647 10 0 823
751 -23 0 1606 10 970 0
752 26 0 1873 10 0 754
753 -18 0 1686 10 466 0
754 -26 0 1884 10 752 0
755 20 260 290 10 0 172
756 23 498 528 10 0 724
757 13 0 1694 10 0 961
758 19 0 1678 10 0 527
759 -21 0 1789 10 700 0
760 2 1043 1073 10 0 206
761 -29 0 1682 10 273 0
762 28 0 1771 10 0 520
763 18 0 1820 10 0 67
764 19 0 1695 10 0 632
765 -21 0 1673 10 591 0
766 -10 0 1723 10 935 0
767 -31 0 1705 10 651 0
768 18 0 1792 10 0 140
769 19 0 1653 10 0 381
770 -18 0 1620 10 191 0
771 -27 0 1838 10 265 0
772 12 1025 1055 10 0 348
773 23 0 1777 10 0 420
774 23 0 1809 10 0 634
775 24 0 1681 10 0 798
776 21 43 73 10 0 993
777 6 550 580 10 0 79
778 -27 863 893 10 443 0
779 -21 0 1707 10 293 0
780 22 0 1674 10 0 353
781 30 0 1698 10 0 644
782 32 0 1758 10 0 80
783 -24 1251 1281 10 870 0
784 1 0 1770 10 0 558
785 10 0 1665 0 0 1038
786 23 0 1748 10 0 459
787 11 0 1580 10 0 535
788 -21 0 1800 10 71 0
789 -16 0 1805 10 395 0
790 -4 0 1672 10 566 0
791 15 0 1872 10 0 254
792 -15 0 1625 10 317 0
793 17 832 862 10 0 747
794 -9 0 1673 10 301 0
795 23 0 1799 10 0 105
796 23 1097 1127 10 0 847
797 -28 0 1860 10 704 0
798 -24 543 573 10 775 0
799 -15 1037 1067 10 515 0
800 -20 0 1807 10 627 0
801 -19 788 818 10 145 0
802 14 930 960 10 0 604
803 31 52 82 10 0 256
804 -16 0 1665 10 911 0
805 -12 0 1796 10 139 0
806 20 0 1739 10 0 647
807 -23 0 1646 10 288 0
808 -8 0 1726 10 868 0
809 11 0 1640 10 0 264
810 -31 1383 1413 10 242 0
811 -24 0 1761 10 987 0
812 23 601 631 10 0 396
813 27 625 655 10 0 576
814 -10 0 1670 10 504 0
815 18 424 454 10 0 45
816 22 0 1688 10 0 263
817 22 0 1669 10 0 678
818 12 0 1758 10 0 413
819 -30 0 1670 10 360 0
820 -23 0 1841 10 633 0
821 15 0 1797 10 0 85
822 17 947 977 10 0 138
823 -22 0 1591 10 750 0
824 5 0 1703 10 0 662
825 -29 794 824 10 864 0
826 31 0 1588 10 0 267
827 22 0 1724 10 0 120
828 13 0 1777 10 0 358
829 -6 0 1702 10 6 0
830 28 0 1751 10 0 529
831 -26 0 1739 10 945 0
832 -14 1377 1407 10 439 0
833 -15 0 1676 10 447 0
834 -18 976 1006 10 613 0
835 -18 1420 1450 10 322 0
836 21 0 1705 10 0 951
837 16 0 1669 10 0 494
838 14 0 1679 0 0 1002
839 21 0 1696 10 0 594
840 -17 0 1719 10 710 0
841 -10 0 1708 10 179 0
842 -10 0 1712 10 4 0
843 -2 0 1784 10 330 0
844 -15 434 464 10 718 0
845 -35 0 1881 10 867 0
846 33 0 1844 10 0 174
847 -23 0 1708 10 796 0
848 1 0 1758 10 0 966
849 9 0 1746 10 0 44
850 17 0 1748 10 0 958
851 -7 0 1679 10 441 0
852 -15 0 1745 10 97 0
853 8 0 1774 10 0 133
854 -12 0 1815 10 16 0
855 -19 0 1889 10 707 0
856 19 0 1674 10 0 388
857 -11 0 1763 10 901 0
858 13 0 1722 10 0 135
859 -13 0 1721 10 336 0
860 16 0 1677 10 0 167
861 20 0 1761 10 0 691
862 -18 0 1662 10 230 0
863 -36 0 1763 10 224 0
864 29 0 1727 10 0 825
865 24 0 1712 10 0 893
866 -22 0 1720 10 195 0
867 35 0 1901 10 0 845
868 8 0 1694 10 0 808
869 21 867 897 10 0 677
870 24 904 934 10 0 783
871 7 0 1726 10 0 925
872 24 1000 1030 10 0 905
873 13 0 1707 0 0 1020
874 14 70 100 10 0 469
875 14 0 1671 10 0 153
876 -9 0 1676 10 309 0
877 30 0 1778 10 0 164
878 -22 1707 1737 10 695 0
879 25 0 1679 10 0 221
880 10 322 352 10 0 914
881 -25 815 845 10 664 0
882 4 0 1844 10 0 129
883 -26 0 1666 10 49 0
884 -24 0 1756 10 968 0
885 -21 0 1748 10 429 0
886 25 0 1725 10 0 734
887 13 0 1584 10 0 660
888 -13 0 1747 10 205 0
889 7 0 1767 10 0 200
890 -12 0 1728 10 166 0
891 -37 0 1774 10 656 0
892 30 461 491 10 0 979
893 -24 0 1640 10 865 0
894 21 70 100 10 0 328
895 -14 0 1802 10 373 0
896 -16 0 1630 10 266 0
897 22 0 1669 10 0 357
898 17 330 360 10 0 452
899 16 0 1877 0 0 1015
900 12 184 214 10 0 580
901 11 0 1763 10 0 857
902 18 0 1762 10 0 745
903 5 586 616 10 0 232
904 -8 0 1688 10 20 0
905 -24 0 1729 10 872 0
906 9 0 1728 10 0 485
907 -10 0 1658 10 216 0
908 -32 0 1659 10 534 0
909 -7 0 1724 10 446 0
910 -21 1245 1275 10 652 0
911 16 0 1671 10 0 804
912 18 0 1878 10 0 268
913 -20 0 1669 10 192 0
914 -10 0 1657 10 880 0
915 19 0 1783 10 0 54
916 12 0 1812 10 0 146
917 21 0 1813 10 0 746
918 -19 0 1777 10 319 0
919 19 0 1797 10 0 480
920 5 0 1631 10 0 419
921 19 0 1653 10 0 237
922 28 0 1790 10 0 102
923 25 748 778 0 0 1036
924 8 1216 1246 10 0 294
925 -7 0 1744 10 871 0
926 -15 0 1754 10 98 0
927 -17 0 1721 10 523 0
928 -30 0 1869 10 450 0
929 14 117 147 10 0 742
930 14 0 1607 10 0 217
931 -27 0 1716 10 444 0
932 13 0 1720 10 0 132
933 35 64 94 10 0 27
934 23 0 1701 10 0 438
935 10 229 259 10 0 766
936 -15 929 959 10 219 0
937 9 268 298 10 0 654
938 26 0 1769 0 0 1030
939 -15 1363 1393 10 553 0
940 -11 0 1682 10 513 0
941 17 0 1677 0 0 1043
942 -15 1079 1109 10 622 0
943 24 1068 1098 10 0 339
944 7 144 174 10 0 35
945 26 0 1734 10 0 831
946 22 0 1758 10 0 424
947 14 547 577 10 0 262
948 -18 0 1756 10 748 0
949 -28 0 1792 10 104 0
950 13 0 1599 10 0 532
951 -21 0 1691 10 836 0
952 10 0 1636 10 0 208
953 -20 0 1618 10 685 0
954 32 0 1619 10 0 418
955 -17 0 1675 10 371 0
956 -15 0 1724 10 585 0
957 -5 0 1715 10 564 0
958 -17 0 1759 10 850 0
959 -23 544 574 10 598 0
960 -17 0 1711 10 351 0
961 -13 0 1767 10 757 0
962 15 0 1622 10 0 983
963 20 0 1747 0 0 1041
964 -20 0 1753 10 635 0
965 -5 0 1679 10 306 0
966 -1 0 1794 10 848 0
967 8 0 1713 10 0 87
968 24 0 1800 10 0 884
969 11 1294 1324 10 0 246
970 23 0 1587 10 0 751
971 18 0 1892 10 0 113
972 12 0 1818 10 0 340
973 -3 768 798 10 458 0
974 -30 0 1742 10 509 0
975 -19 0 1651 10 536 0
976 22 0 1632 10 0 269
977 -35 0 1733 10 489 0
978 -24 0 1641 10 575 0
979 -30 0 1659 10 892 0
980 31 0 1679 10 0 114
981 7 0 1799 10 0 703
982 24 0 1728 10 0 78
983 -15 804 834 10 962 0
984 -14 0 1741 10 347 0
985 13 0 1734 10 0 233
986 -23 0 1765 10 410 0
987 24 0 1801 10 0 811
988 11 0 1774 10 0 646
989 25 0 1665 10 0 101
990 21 1459 1489 10 0 56
991 -24 1208 1238 10 156 0
992 -9 492 522 10 55 0
993 -21 146 176 10 776 0
994 17 1452 1482 10 0 148
995 15 0 1743 10 0 537
996 25 234 264 10 0 683
997 -25 0 1727 10 7 0
998 -28 0 1790 10 457 0
999 -15 0 1751 10 41 0
1000 -3 0 1602 10 253 0
1001 -31 0 1831 10 658 0
1002 -14 0 1679 10 838 0
1003 -27 1016 1046 10 187 0
1004 -12 345 375 10 645 0
1005 -14 0 1608 10 442 0
1006 -26 0 1861 10 517 0
1007 -32 0 1795 10 614 0
1008 -14 0 1783 10 729 0
1009 -11 0 1697 10 158 0
1010 -17 788 818 10 628 0
1011 -25 0 1683 10 425 0
1012 -27 716 746 10 171 0
1013 -22 0 1620 10 33 0
1014 -19 1652 1682 10 324 0
1015 -16 0 1877 10 899 0
1016 -18 0 1607 10 50 0
1017 -16 1186 1216 10 9 0
1018 -20 0 1658 10 663 0
1019 -32 0 1665 10 60 0
1020 -13 0 1707 10 873 0
1021 -29 893 923 10 68 0
1022 -22 0 1644 10 125 0
1023 -27 790 820 10 577 0
1024 -1 0 1803 10 445 0
1025 -8 0 1879 10 727 0
1026 -5 0 1803 10 14 0
1027 -4 399 429 10 749 0
1028 -14 0 1765 10 100 0
1029 -26 0 1636 10 327 0
1030 -26 0 1769 10 938 0
1031 -24 0 1700 10 667 0
1032 -34 0 1801 10 657 0
1033 -15 0 1776 10 323 0
1034 -10 0 1672 10 272 0
1035 -25 0 1864 10 460 0
1036 -25 748 778 10 923 0
1037 -14 0 1866 10 456 0
1038 -10 0 1665 10 785 0
1039 -14 0 1828 10 282 0
1040 -22 0 1660 10 17 0
1041 -20 0 1747 10 963 0
1042 -24 0 1684 10 59 0
1043 -17 0 1677 10 941 0
1044 -22 470 500 10 541 0
1045 -16 0 1723 10 670 0
1046 -8 914 944 10 391 0
1047 -5 0 1657 10 599 0
DEPOT_SECTION
1
-1
EOF
