NAME: lr1_10_4
TYPE: PDPTW
COMMENT: Li & Lim PDPTW benchmark converted from SINTEF format
DIMENSION: 1039
VEHICLES: 250
CAPACITY: 200
EDGE_WEIGHT_TYPE: EUC_2D
NODE_COORD_SECTION
1 250 250
2 171 34
3 67 190
4 80 400
5 439 237
6 377 385
7 449 428
8 342 481
9 466 149
10 83 290
11 251 63
12 328 491
13 260 472
14 290 145
15 266 221
16 164 320
17 52 412
18 485 104
19 144 331
20 387 394
21 472 57
22 343 276
23 104 349
24 28 467
25 91 427
26 429 476
27 210 276
28 58 39
29 273 300
30 41 232
31 25 53
32 52 18
33 27 444
34 178 72
35 406 460
36 250 328
37 492 34
38 412 100
39 233 87
40 60 5
41 406 408
42 245 42
43 166 345
44 440 294
45 370 382
46 32 319
47 480 136
48 371 163
49 0 188
50 438 5
51 132 477
52 203 211
53 2 264
54 231 167
55 423 221
56 459 53
57 386 154
58 130 494
59 31 175
60 69 423
61 352 241
62 261 201
63 59 276
64 146 188
65 451 62
66 299 285
67 142 372
68 440 201
69 219 210
70 64 198
71 390 249
72 9 101
73 424 288
74 77 372
75 298 264
76 405 454
77 407 35
78 225 369
79 347 459
80 117 178
81 132 479
82 201 66
83 245 176
84 470 138
85 115 296
86 348 476
87 43 210
88 327 139
89 49 353
90 356 256
91 335 99
92 363 34
93 33 278
94 366 288
95 452 172
96 86 189
97 262 369
98 218 403
99 218 12
100 228 399
101 492 188
102 267 174
103 274 441
104 210 113
105 370 262
106 303 186
107 241 180
108 100 85
109 350 199
110 500 228
111 251 238
112 114 102
113 345 146
114 21 146
115 330 147
116 476 61
117 386 245
118 201 278
119 421 499
120 426 231
121 105 137
122 64 437
123 181 260
124 413 391
125 370 493
126 447 267
127 232 101
128 371 332
129 447 383
130 325 147
131 489 437
132 415 95
133 331 356
134 374 346
135 108 37
136 5 224
137 93 413
138 210 29
139 136 265
140 409 155
141 111 178
142 291 251
143 322 290
144 57 183
145 181 185
146 7 382
147 425 448
148 174 41
149 161 276
150 398 49
151 210 379
152 60 231
153 453 360
154 367 97
155 488 3
156 44 115
157 48 293
158 64 135
159 65 62
160 404 207
161 68 303
162 263 418
163 147 30
164 384 149
165 340 416
166 271 128
167 89 358
168 20 480
169 488 173
170 439 156
171 389 156
172 111 392
173 267 162
174 248 176
175 413 476
176 352 481
177 264 135
178 29 462
179 148 462
180 44 140
181 414 378
182 392 95
183 216 341
184 211 411
185 317 45
186 178 150
187 428 302
188 450 45
189 453 318
190 186 135
191 11 403
192 433 447
193 272 420
194 429 59
195 200 27
196 498 171
197 487 320
198 45 166
199 490 276
200 126 391
201 92 18
202 293 228
203 343 205
204 182 480
205 385 285
206 44 344
207 170 347
208 457 492
209 124 448
210 398 210
211 75 118
212 105 474
213 134 211
214 211 248
215 212 186
216 492 335
217 497 483
218 440 436
219 311 203
220 491 369
221 67 378
222 383 17
223 7 82
224 342 319
225 78 406
226 103 123
227 241 38
228 224 3
229 436 467
230 438 488
231 351 60
232 13 214
233 429 67
234 498 456
235 135 400
236 215 293
237 354 416
238 294 421
239 208 445
240 230 320
241 157 38
242 441 100
243 61 170
244 79 467
245 365 190
246 282 1
247 124 111
248 247 219
249 28 180
250 167 488
251 442 289
252 136 430
253 38 15
254 246 314
255 176 200
256 337 232
257 257 133
258 295 247
259 39 162
260 79 257
261 236 126
262 259 498
263 180 162
264 53 466
265 167 291
266 89 185
267 487 446
268 308 199
269 481 84
270 495 227
271 397 57
272 372 39
273 278 450
274 292 32
275 90 496
276 68 53
277 371 423
278 273 149
279 297 283
280 120 37
281 371 488
282 206 174
283 174 347
284 330 281
285 67 451
286 27 464
287 361 178
288 463 406
289 456 157
290 153 244
291 153 192
292 352 63
293 371 71
294 163 472
295 448 495
296 282 10
297 66 163
298 314 205
299 83 169
300 221 291
301 374 116
302 418 269
303 178 302
304 250 57
305 475 352
306 1 252
307 286 356
308 65 82
309 154 392
310 196 56
311 366 390
312 436 25
313 67 352
314 173 182
315 390 34
316 18 225
317 57 43
318 388 44
319 269 112
320 374 260
321 291 213
322 178 420
323 389 255
324 134 194
325 93 490
326 64 294
327 493 111
328 150 484
329 235 316
330 239 15
331 193 138
332 40 278
333 307 52
334 161 416
335 381 457
336 55 318
337 80 279
338 48 162
339 91 27
340 288 70
341 177 404
342 10 237
343 493 493
344 440 292
345 349 76
346 47 208
347 283 454
348 486 324
349 392 87
350 122 422
351 37 281
352 413 127
353 222 499
354 211 446
355 30 7
356 398 341
357 26 67
358 461 186
359 313 391
360 471 94
361 341 72
362 130 186
363 257 57
364 94 344
365 6 53
366 146 376
367 244 13
368 29 336
369 306 42
370 177 486
371 489 338
372 179 318
373 344 203
374 149 341
375 307 412
376 68 450
377 420 80
378 144 220
379 497 54
380 80 458
381 84 377
382 332 382
383 6 196
384 104 28
385 224 320
386 87 3
387 149 214
388 98 29
389 135 30
390 287 397
391 107 374
392 355 485
393 51 286
394 49 118
395 159 226
396 185 431
397 262 92
398 475 198
399 142 30
400 481 207
401 174 122
402 35 263
403 24 71
404 173 65
405 91 326
406 470 417
407 397 153
408 295 283
409 174 376
410 38 190
411 16 68
412 179 286
413 244 422
414 250 441
415 497 18
416 195 111
417 26 221
418 442 5
419 44 496
420 448 404
421 471 427
422 460 424
423 461 195
424 146 313
425 19 273
426 245 461
427 69 266
428 191 84
429 68 160
430 212 47
431 80 337
432 412 478
433 225 488
434 105 140
435 389 43
436 177 156
437 179 497
438 377 432
439 497 296
440 152 476
441 277 428
442 64 5
443 44 311
444 165 59
445 261 138
446 268 351
447 48 150
448 215 79
449 109 56
450 171 188
451 284 457
452 274 442
453 33 286
454 112 433
455 423 170
456 213 283
457 240 34
458 283 438
459 324 99
460 259 301
461 189 402
462 215 282
463 166 440
464 374 232
465 339 113
466 335 46
467 313 493
468 432 66
469 76 462
470 397 477
471 196 489
472 354 156
473 171 24
474 187 73
475 243 408
476 421 387
477 141 426
478 415 118
479 240 255
480 162 388
481 413 493
482 69 414
483 273 70
484 142 14
485 185 434
486 360 294
487 265 240
488 280 245
489 87 51
490 195 273
491 422 498
492 95 64
493 63 155
494 24 259
495 376 92
496 83 300
497 72 477
498 380 194
499 72 227
500 238 123
501 188 119
502 229 322
503 150 68
504 67 24
505 63 420
506 339 144
507 454 201
508 158 24
509 365 119
510 440 284
511 417 212
512 404 439
513 472 248
514 235 108
515 174 67
516 132 151
517 217 207
518 162 306
519 48 366
520 209 68
521 94 497
522 110 122
523 274 403
524 421 386
525 399 175
526 56 268
527 322 406
528 244 277
529 105 181
530 30 97
531 359 246
532 498 457
533 190 267
534 334 481
535 18 24
536 482 104
537 460 328
538 320 211
539 494 165
540 167 445
541 340 291
542 272 234
543 325 56
544 71 304
545 87 311
546 207 487
547 332 5
548 161 275
549 268 458
550 175 352
551 398 476
552 51 360
553 21 70
554 80 251
555 457 280
556 423 315
557 66 88
558 479 387
559 436 123
560 286 244
561 449 190
562 456 113
563 480 152
564 100 266
565 343 34
566 374 306
567 13 465
568 230 487
569 442 153
570 240 362
571 433 319
572 0 422
573 297 131
574 71 12
575 44 440
576 447 184
577 341 59
578 132 32
579 411 396
580 450 416
581 323 34
582 244 368
583 90 477
584 34 169
585 351 128
586 71 282
587 157 269
588 392 1
589 39 153
590 306 229
591 415 253
592 92 76
593 437 98
594 12 367
595 448 414
596 128 113
597 43 360
598 102 422
599 480 131
600 210 81
601 432 2
602 396 83
603 489 159
604 56 75
605 66 31
606 460 117
607 175 239
608 217 333
609 62 375
610 82 183
611 248 214
612 385 239
613 371 315
614 333 163
615 100 66
616 311 422
617 153 235
618 168 109
619 284 319
620 195 464
621 382 9
622 325 210
623 366 334
624 200 78
625 351 5
626 197 202
627 270 337
628 125 65
629 120 17
630 84 255
631 222 331
632 332 459
633 226 175
634 404 140
635 223 178
636 330 308
637 140 108
638 34 239
639 94 192
640 458 213
641 13 314
642 202 391
643 339 41
644 224 56
645 345 431
646 292 104
647 318 99
648 46 248
649 482 184
650 411 379
651 293 174
652 169 305
653 394 47
654 323 29
655 65 343
656 158 179
657 299 353
658 9 233
659 330 138
660 48 412
661 385 17
662 382 110
663 336 493
664 181 441
665 162 301
666 1 101
667 80 117
668 210 219
669 404 59
670 288 439
671 149 458
672 257 391
673 405 349
674 191 215
675 231 29
676 253 50
677 441 177
678 5 445
679 463 253
680 435 180
681 198 85
682 59 388
683 373 418
684 142 80
685 441 7
686 33 268
687 355 174
688 228 260
689 114 460
690 337 41
691 154 374
692 235 13
693 303 78
694 103 464
695 325 311
696 306 235
697 382 360
698 235 288
699 0 356
700 178 135
701 226 423
702 15 11
703 144 35
704 176 199
705 247 306
706 396 417
707 289 220
708 23 235
709 137 377
710 400 71
711 261 359
712 438 127
713 318 280
714 333 293
715 436 295
716 62 94
717 495 355
718 13 394
719 172 292
720 14 232
721 437 90
722 214 274
723 420 383
724 120 261
725 179 75
726 484 224
727 214 245
728 395 474
729 368 311
730 199 203
731 485 428
732 86 199
733 447 272
734 40 304
735 475 267
736 482 141
737 489 274
738 26 342
739 139 438
740 12 358
741 125 61
742 360 284
743 29 358
744 285 247
745 248 386
746 415 207
747 130 247
748 172 66
749 92 259
750 379 486
751 452 484
752 268 288
753 349 43
754 225 269
755 50 383
756 110 251
757 461 182
758 255 487
759 133 202
760 34 329
761 368 452
762 242 106
763 171 303
764 329 456
765 490 286
766 61 214
767 365 74
768 321 149
769 84 453
770 26 442
771 180 283
772 394 322
773 348 348
774 309 161
775 385 58
776 228 287
777 312 453
778 35 344
779 393 98
780 208 488
781 235 33
782 140 137
783 405 187
784 330 371
785 265 0
786 295 89
787 3 23
788 363 225
789 148 208
790 466 362
791 267 290
792 98 2
793 131 246
794 418 75
795 366 260
796 138 28
797 209 212
798 443 167
799 156 65
800 279 355
801 206 172
802 32 94
803 301 239
804 471 368
805 133 273
806 253 74
807 470 405
808 77 172
809 77 465
810 466 96
811 402 277
812 267 374
813 450 194
814 89 65
815 429 389
816 202 28
817 46 389
818 246 407
819 452 110
820 213 185
821 134 276
822 262 97
823 469 489
824 364 71
825 68 240
826 494 468
827 439 222
828 386 225
829 434 359
830 103 177
831 89 322
832 307 249
833 30 155
834 401 314
835 217 357
836 373 421
837 5 281
838 173 474
839 36 301
840 429 169
841 195 450
842 95 382
843 225 121
844 10 407
845 221 269
846 264 180
847 168 59
848 281 96
849 387 349
850 398 329
851 239 486
852 237 420
853 346 354
854 172 314
855 233 230
856 79 80
857 243 402
858 117 110
859 66 314
860 58 391
861 142 360
862 492 326
863 381 328
864 62 236
865 344 70
866 151 81
867 240 240
868 46 163
869 455 168
870 428 202
871 432 199
872 391 112
873 451 305
874 214 311
875 465 367
876 164 473
877 364 173
878 274 261
879 133 455
880 351 481
881 115 395
882 297 304
883 7 194
884 409 255
885 87 213
886 60 246
887 3 471
888 418 251
889 153 362
890 323 77
891 143 158
892 351 148
893 426 38
894 226 316
895 347 192
896 102 6
897 41 120
898 247 443
899 218 271
900 376 385
901 241 402
902 213 399
903 32 191
904 441 374
905 376 113
906 215 434
907 499 316
908 318 497
909 256 441
910 174 397
911 468 360
912 287 256
913 448 397
914 352 487
915 253 118
916 159 299
917 351 233
918 268 113
919 164 332
920 88 484
921 360 488
922 343 166
923 497 266
924 138 406
925 420 224
926 231 410
927 199 438
928 219 215
929 365 274
930 481 454
931 187 61
932 372 97
933 187 263
934 371 427
935 74 215
936 375 145
937 365 28
938 118 314
939 60 29
940 478 300
941 33 152
942 347 184
943 94 40
944 290 328
945 96 346
946 97 288
947 176 470
948 206 97
949 210 133
950 489 457
951 418 399
952 392 491
953 437 19
954 495 83
955 468 352
956 390 120
957 80 357
958 394 310
959 61 441
960 52 303
961 391 202
962 36 451
963 276 84
964 130 140
965 16 287
966 292 136
967 53 204
968 359 287
969 309 29
970 473 491
971 273 255
972 263 153
973 328 458
974 401 164
975 480 119
976 488 96
977 149 98
978 49 437
979 440 77
980 43 135
981 188 151
982 175 422
983 48 437
984 334 403
985 372 115
986 111 192
987 357 290
988 331 134
989 495 199
990 441 60
991 51 89
992 452 206
993 195 386
994 172 24
995 408 318
996 410 399
997 413 345
998 215 129
999 380 350
1000 19 38
1001 166 247
1002 447 184
1003 423 221
1004 495 227
1005 13 394
1006 489 159
1007 235 108
1008 100 66
1009 392 95
1010 32 94
1011 13 465
1012 471 427
1013 394 322
1014 311 422
1015 307 412
1016 12 358
1017 284 457
1018 151 81
1019 411 379
1020 498 457
1021 213 283
1022 142 30
1023 346 354
1024 248 386
1025 380 194
1026 470 138
1027 104 28
1028 80 337
1029 497 296
1030 330 147
1031 318 99
1032 187 263
1033 261 201
1034 248 214
1035 333 163
1036 110 122
1037 175 352
1038 111 392
1039 390 120
PICKUP_AND_DELIVERY_SECTION
1 0 0 1925 0 0 0
2 21 0 1686 10 0 520
3 25 0 1723 10 0 243
4 -20 0 1689 10 682 0
5 11 949 959 10 0 120
6 -20 0 1730 10 951 0
7 25 1257 1267 10 0 422
8 18 0 1667 10 0 86
9 -22 1196 1206 10 47 0
10 -5 0 1744 10 564 0
11 14 997 1007 10 0 166
12 -33 0 1662 10 262 0
13 33 0 1693 10 0 467
14 -18 0 1803 10 768 0
15 -15 0 1882 10 345 0
16 -29 0 1805 10 519 0
17 22 0 1660 10 0 225
18 21 804 814 10 0 599
19 -22 0 1782 10 518 0
20 8 0 1717 10 0 76
21 17 0 1621 10 0 379
22 -16 0 1819 10 44 0
23 -22 0 1739 10 424 0
24 -23 1353 1363 10 770 0
25 14 893 903 10 0 122
26 -23 0 1627 10 773 0
27 5 0 1868 10 0 609
28 -15 0 1630 10 317 0
29 30 0 1860 10 0 390
30 16 0 1706 10 0 402
31 -33 0 1616 10 759 0
32 28 0 1610 10 0 667
33 -17 0 1620 10 137 0
34 -15 0 1723 10 949 0
35 2 0 1654 10 0 147
36 -23 0 1837 10 570 0
37 -1 0 1591 10 38 0
38 1 0 1695 10 0 37
39 -44 0 1752 10 501 0
40 -21 1054 1064 10 211 0
41 -23 0 1693 10 934 0
42 -28 0 1707 10 457 0
43 14 0 1789 10 0 67
44 16 0 1720 10 0 22
45 -25 894 904 10 996 0
46 21 0 1687 10 0 738
47 22 0 1659 10 0 9
48 -31 838 848 10 57 0
49 -10 0 1658 10 70 0
50 18 0 1607 10 0 312
51 -26 337 347 10 876 0
52 -20 0 1854 10 730 0
53 -30 0 1667 10 346 0
54 -23 0 1830 10 633 0
55 9 0 1740 0 0 1003
56 -9 0 1628 10 937 0
57 31 0 1749 10 0 48
58 6 0 1644 10 0 328
59 24 0 1684 10 0 72
60 -23 0 1665 10 598 0
61 5 802 812 10 0 423
62 15 1524 1534 0 0 1033
63 -22 902 912 10 161 0
64 -16 1245 1255 10 266 0
65 5 0 1640 10 0 155
66 -24 1264 1274 10 636 0
67 -14 0 1753 10 43 0
68 29 903 913 10 0 925
69 14 50 60 10 0 517
70 10 0 1722 10 0 49
71 21 592 602 10 0 302
72 -24 676 686 10 59 0
73 13 0 1737 10 0 873
74 19 0 1704 10 0 221
75 36 50 60 10 0 723
76 -8 0 1659 10 20 0
77 -7 0 1649 10 565 0
78 -23 0 1794 10 835 0
79 25 0 1685 10 0 973
80 -17 0 1764 10 610 0
81 11 257 267 10 0 437
82 -31 0 1725 10 624 0
83 20 0 1841 10 0 111
84 16 0 1669 0 0 1026
85 24 0 1773 10 0 157
86 -18 0 1669 10 8 0
87 20 210 220 10 0 720
88 -30 0 1780 10 892 0
89 15 0 1690 10 0 698
90 -23 0 1809 10 795 0
91 -5 0 1742 10 824 0
92 19 282 292 10 0 581
93 -12 0 1697 10 965 0
94 29 0 1793 10 0 541
95 9 0 1699 10 0 961
96 21 0 1741 10 0 830
97 -23 0 1796 10 812 0
98 -14 0 1759 10 100 0
99 -1 0 1675 10 848 0
100 14 0 1765 10 0 98
101 33 0 1666 10 0 398
102 -25 1628 1638 10 573 0
103 12 0 1723 10 0 452
104 28 0 1773 10 0 843
105 15 0 1795 10 0 907
106 -24 1364 1374 10 662 0
107 -12 1705 1715 10 972 0
108 -22 0 1693 10 596 0
109 21 0 1803 10 0 298
110 8 0 1665 10 0 513
111 -20 0 1903 10 83 0
112 -13 0 1715 10 858 0
113 -20 0 1775 10 472 0
114 -11 497 507 10 180 0
115 28 858 868 0 0 1030
116 36 0 1621 10 0 418
117 -18 0 1779 10 746 0
118 -26 0 1859 10 938 0
119 -10 0 1613 10 392 0
120 -11 1038 1048 10 5 0
121 -27 0 1732 10 434 0
122 -14 0 1652 10 25 0
123 23 0 1846 10 0 499
124 -13 0 1700 10 133 0
125 22 0 1644 10 0 551
126 -23 990 1000 10 679 0
127 -33 0 1765 10 948 0
128 14 540 550 10 0 408
129 -18 0 1678 10 815 0
130 -9 0 1788 10 487 0
131 -26 717 727 10 697 0
132 15 0 1689 10 0 979
133 13 0 1782 10 0 124
134 27 0 1759 10 0 356
135 -8 0 1660 10 201 0
136 19 0 1669 10 0 766
137 17 226 236 10 0 33
138 -22 0 1691 10 195 0
139 12 0 1801 10 0 351
140 -18 0 1730 10 164 0
141 -19 0 1759 10 529 0
142 20 41 51 10 0 197
143 23 0 1833 10 0 279
144 15 0 1711 10 0 808
145 -33 0 1821 10 186 0
146 27 0 1639 10 0 191
147 -2 0 1651 10 35 0
148 15 0 1693 10 0 310
149 8 143 153 10 0 265
150 -7 0 1666 10 315 0
151 12 0 1780 10 0 664
152 -29 0 1725 10 864 0
153 -10 0 1685 10 958 0
154 17 0 1723 10 0 775
155 -5 0 1572 10 65 0
156 24 246 256 10 0 716
157 -24 0 1709 10 85 0
158 -8 0 1697 10 666 0
159 -16 0 1652 10 362 0
160 6 0 1756 10 0 680
161 22 0 1726 10 0 63
162 25 288 298 10 0 523
163 26 0 1673 10 0 484
164 18 0 1748 10 0 140
165 -9 0 1727 10 800 0
166 -14 0 1792 10 11 0
167 23 0 1722 10 0 860
168 25 0 1590 10 0 372
169 25 0 1665 10 0 869
170 2 0 1704 10 0 840
171 27 726 736 10 0 942
172 18 0 1717 0 0 1038
173 6 0 1826 10 0 296
174 -21 0 1841 10 820 0
175 -10 0 1637 10 281 0
176 15 0 1663 10 0 784
177 1 0 1800 10 0 963
178 -5 1320 1330 10 285 0
179 10 737 747 10 0 546
180 11 0 1682 10 0 114
181 23 505 515 10 0 984
182 16 0 1705 0 0 1009
183 -3 0 1818 10 927 0
184 -15 0 1750 10 396 0
185 8 0 1700 10 0 369
186 33 0 1792 10 0 145
187 -11 1026 1036 10 715 0
188 -23 0 1629 10 893 0
189 30 0 1701 10 0 537
190 24 0 1784 10 0 436
191 -27 353 363 10 146 0
192 -5 804 814 10 491 0
193 -24 1396 1406 10 549 0
194 -16 0 1654 10 233 0
195 22 0 1687 10 0 138
196 -27 0 1655 10 813 0
197 -20 868 878 10 142 0
198 -18 1023 1033 10 885 0
199 -5 0 1674 10 811 0
200 19 0 1728 10 0 391
201 8 0 1635 10 0 135
202 19 0 1867 10 0 455
203 26 0 1812 10 0 373
204 -9 0 1676 10 294 0
205 -12 0 1776 10 940 0
206 12 0 1689 10 0 368
207 -23 0 1790 10 477 0
208 7 0 1597 10 0 930
209 -24 0 1681 10 739 0
210 31 0 1762 10 0 832
211 21 419 429 10 0 40
212 -8 0 1649 10 409 0
213 35 130 140 10 0 516
214 26 39 49 10 0 617
215 11 0 1841 10 0 635
216 10 0 1659 10 0 995
217 12 363 373 10 0 406
218 18 0 1650 10 0 595
219 15 0 1838 10 0 707
220 28 0 1647 10 0 717
221 -19 0 1692 10 74 0
222 15 0 1647 10 0 621
223 -7 422 432 10 493 0
224 -18 0 1800 10 613 0
225 -22 970 980 10 17 0
226 -9 0 1721 10 263 0
227 16 0 1703 10 0 676
228 -27 700 710 10 692 0
229 12 0 1630 10 0 913
230 18 0 1612 10 0 295
231 15 0 1700 10 0 643
232 -29 1364 1374 10 883 0
233 16 742 752 10 0 194
234 27 0 1593 10 0 580
235 -25 0 1726 10 879 0
236 13 0 1860 10 0 722
237 -16 0 1720 10 761 0
238 -16 1585 1595 10 670 0
239 -15 0 1716 10 354 0
240 -11 1202 1212 10 502 0
241 3 0 1684 10 0 943
242 -21 0 1673 10 990 0
243 -25 0 1710 10 3 0
244 -46 361 371 10 497 0
245 -2 1487 1497 10 561 0
246 18 0 1664 10 0 675
247 15 0 1728 10 0 814
248 -23 0 1884 10 261 0
249 34 0 1683 10 0 833
250 17 260 270 10 0 463
251 25 0 1720 10 0 344
252 -14 0 1702 10 874 0
253 3 0 1599 10 0 557
254 -33 1455 1465 10 705 0
255 17 578 588 10 0 704
256 2 0 1827 10 0 539
257 19 0 1798 10 0 500
258 -16 1313 1323 10 507 0
259 18 575 585 10 0 338
260 -26 0 1744 10 496 0
261 23 0 1791 10 0 248
262 33 1085 1095 10 0 12
263 9 0 1803 10 0 226
264 -11 0 1623 10 881 0
265 -8 0 1823 10 149 0
266 16 610 620 10 0 64
267 -4 0 1608 10 823 0
268 -13 0 1838 10 506 0
269 17 0 1631 10 0 976
270 20 0 1669 0 0 1004
271 -5 0 1673 10 653 0
272 -14 0 1672 10 465 0
273 -3 0 1714 10 458 0
274 14 239 249 10 0 785
275 13 0 1622 10 0 583
276 16 749 759 10 0 787
277 10 0 1704 10 0 706
278 -23 0 1812 10 333 0
279 -23 0 1858 10 143 0
280 28 0 1666 10 0 977
281 10 0 1649 10 0 175
282 14 0 1828 10 0 801
283 -22 0 1792 10 694 0
284 -9 1340 1350 10 486 0
285 5 0 1644 10 0 178
286 -18 0 1606 10 376 0
287 -11 0 1783 10 588 0
288 23 867 877 10 0 420
289 -14 0 1689 10 736 0
290 5 0 1818 10 0 756
291 -12 0 1802 10 891 0
292 -9 0 1702 10 361 0
293 -13 0 1699 10 932 0
294 9 0 1677 10 0 204
295 -18 0 1600 10 230 0
296 -6 0 1673 10 173 0
297 6 0 1712 10 0 639
298 -21 0 1837 10 109 0
299 21 0 1730 10 0 324
300 -21 0 1865 10 776 0
301 -31 597 607 10 651 0
302 -21 0 1746 10 71 0
303 -22 0 1827 10 490 0
304 26 0 1722 10 0 363
305 -17 0 1668 10 807 0
306 -19 0 1666 10 342 0
307 -34 0 1804 10 657 0
308 -19 0 1666 10 991 0
309 -3 0 1744 10 350 0
310 -15 0 1714 10 148 0
311 -29 0 1734 10 524 0
312 -18 1292 1302 10 50 0
313 20 0 1706 10 0 916
314 -37 0 1813 10 656 0
315 7 1070 1080 10 0 150
316 -28 0 1682 10 417 0
317 15 0 1632 10 0 28
318 22 0 1668 10 0 669
319 19 1273 1283 10 0 915
320 -7 0 1791 10 726 0
321 -18 1268 1278 10 912 0
322 -9 1081 1091 10 485 0
323 -34 0 1776 10 400 0
324 -21 1662 1672 10 299 0
325 -19 0 1629 10 769 0
326 12 0 1724 10 0 1001
327 -14 0 1636 10 606 0
328 -6 0 1661 10 58 0
329 2 666 676 10 0 910
330 2 0 1680 10 0 644
331 30 0 1790 10 0 700
332 10 0 1704 10 0 587
333 23 0 1709 10 0 278
334 -24 0 1727 10 982 0
335 -10 0 1671 10 952 0
336 13 322 332 10 0 337
337 -13 0 1743 10 336 0
338 -18 0 1695 10 259 0
339 14 1192 1202 10 0 388
340 -17 0 1732 10 822 0
341 -30 0 1745 10 642 0
342 19 0 1675 10 0 306
343 -26 866 876 10 751 0
344 -25 950 960 10 251 0
345 15 1041 1051 10 0 15
346 30 0 1708 10 0 53
347 -13 0 1709 10 857 0
348 15 0 1668 10 0 862
349 23 0 1699 10 0 710
350 3 0 1701 10 0 309
351 -12 0 1700 10 139 0
352 28 0 1711 10 0 360
353 7 0 1665 10 0 851
354 15 0 1716 10 0 239
355 23 1199 1209 10 0 1000
356 -27 0 1742 10 134 0
357 15 0 1626 10 0 411
358 16 0 1695 10 0 649
359 -17 0 1761 10 527 0
360 -28 0 1645 10 352 0
361 9 0 1716 10 0 292
362 16 141 151 10 0 159
363 -26 0 1722 10 304 0
364 26 0 1733 10 0 655
365 -11 0 1602 10 403 0
366 -7 244 254 10 889 0
367 24 0 1678 10 0 762
368 -12 0 1678 10 206 0
369 -8 0 1700 10 185 0
370 20 0 1668 10 0 947
371 17 1407 1417 10 0 904
372 -25 0 1817 10 168 0
373 -26 0 1810 10 203 0
374 6 414 424 10 0 419
375 8 0 1744 0 0 1015
376 18 0 1645 10 0 286
377 24 0 1675 10 0 721
378 35 0 1805 10 0 964
379 -17 988 998 10 21 0
380 30 381 391 10 0 959
381 10 0 1706 10 0 597
382 -32 1020 1030 10 534 0
383 -10 0 1666 10 935 0
384 8 0 1650 0 0 1027
385 36 1294 1304 10 0 608
386 13 0 1620 10 0 896
387 7 0 1808 10 0 410
388 -14 0 1647 10 339 0
389 12 0 1667 10 0 578
390 -30 574 584 10 29 0
391 -19 924 934 10 200 0
392 10 0 1658 10 0 119
393 14 1469 1479 10 0 586
394 3 0 1675 10 0 553
395 16 94 104 10 0 658
396 15 0 1723 10 0 184
397 -36 0 1757 10 483 0
398 -33 0 1685 10 101 0
399 32 0 1670 0 0 1022
400 34 0 1681 10 0 323
401 -27 0 1767 10 444 0
402 -16 0 1700 10 30 0
403 11 356 366 10 0 365
404 12 458 468 10 0 600
405 -2 0 1739 10 760 0
406 -12 0 1639 10 217 0
407 -40 0 1739 10 559 0
408 -14 0 1860 10 128 0
409 8 0 1768 10 0 212
410 -7 0 1695 10 387 0
411 -15 0 1619 10 357 0
412 8 0 1836 10 0 688
413 -18 0 1743 10 902 0
414 -11 0 1724 10 901 0
415 10 0 1577 10 0 685
416 -7 1008 1018 10 981 0
417 28 1006 1016 10 0 316
418 -36 0 1604 10 116 0
419 -6 0 1595 10 374 0
420 -23 0 1665 10 288 0
421 8 0 1632 0 0 1012
422 -25 1465 1475 10 7 0
423 -5 0 1697 10 61 0
424 22 0 1794 10 0 23
425 25 0 1683 10 0 793
426 8 659 669 10 0 908
427 12 0 1734 10 0 453
428 13 877 887 10 0 684
429 21 0 1712 10 0 868
430 20 811 821 10 0 781
431 28 0 1725 0 0 1028
432 -26 0 1636 10 481 0
433 -13 0 1676 10 671 0
434 27 0 1733 10 0 121
435 21 0 1666 10 0 794
436 -24 0 1796 10 190 0
437 -11 0 1658 10 81 0
438 20 841 851 10 0 683
439 14 0 1664 0 0 1029
440 45 0 1669 10 0 838
441 -34 500 510 10 909 0
442 -10 0 1608 10 504 0
443 27 0 1701 10 0 946
444 27 0 1706 10 0 401
445 1 0 1803 10 0 918
446 -17 0 1813 10 898 0
447 15 0 1690 10 0 589
448 -19 0 1741 10 931 0
449 -32 0 1676 10 782 0
450 30 631 641 10 0 668
451 17 0 1706 0 0 1017
452 -12 0 1722 10 103 0
453 -12 0 1696 10 427 0
454 -7 0 1686 10 978 0
455 -19 0 1725 10 202 0
456 14 0 1866 0 0 1021
457 28 0 1699 10 0 42
458 3 241 251 10 0 273
459 10 0 1747 10 0 577
460 25 0 1864 10 0 791
461 10 0 1752 10 0 780
462 -16 0 1868 10 665 0
463 -17 0 1708 10 250 0
464 33 125 135 10 0 612
465 14 0 1752 10 0 272
466 18 0 1694 10 0 543
467 -33 0 1664 10 13 0
468 -28 0 1657 10 922 0
469 18 966 976 10 0 809
470 13 0 1645 10 0 728
471 23 0 1670 10 0 568
472 20 0 1775 10 0 113
473 -23 1393 1403 10 796 0
474 18 302 312 10 0 515
475 -15 0 1757 10 852 0
476 -21 0 1696 10 836 0
477 23 541 551 10 0 207
478 19 0 1704 10 0 975
479 33 0 1904 10 0 480
480 -33 1136 1146 10 479 0
481 26 0 1623 10 0 432
482 6 1273 1283 10 0 842
483 36 629 639 10 0 397
484 -26 0 1656 10 163 0
485 9 0 1720 10 0 322
486 9 0 1797 10 0 284
487 9 18 28 10 0 130
488 21 30 40 10 0 742
489 -4 0 1658 10 592 0
490 22 59 69 10 0 303
491 5 702 712 10 0 192
492 -32 0 1673 10 939 0
493 7 0 1706 10 0 223
494 19 0 1689 10 0 648
495 10 0 1713 10 0 602
496 26 510 520 10 0 260
497 46 288 298 10 0 244
498 3 0 1774 0 0 1025
499 -23 0 1736 10 123 0
500 -19 0 1788 10 257 0
501 44 0 1771 10 0 39
502 11 0 1840 10 0 240
503 23 0 1708 10 0 618
504 10 0 1625 10 0 442
505 -4 0 1663 10 983 0
506 13 1109 1119 10 0 268
507 16 0 1706 10 0 258
508 18 0 1671 10 0 994
509 30 392 402 10 0 905
510 -23 862 872 10 884 0
511 12 920 930 10 0 744
512 -12 0 1672 10 900 0
513 -8 0 1693 10 110 0
514 12 0 1773 0 0 1007
515 -18 0 1717 10 474 0
516 -35 0 1761 10 213 0
517 -14 0 1861 10 69 0
518 22 0 1811 10 0 19
519 29 0 1683 10 0 16
520 -21 0 1729 10 2 0
521 31 0 1623 10 0 920
522 14 0 1726 0 0 1036
523 -25 0 1761 10 162 0
524 29 834 844 10 0 311
525 -15 757 767 10 622 0
526 28 1074 1084 10 0 630
527 17 0 1744 10 0 359
528 18 0 1888 10 0 878
529 19 0 1755 10 0 141
530 -11 0 1648 10 986 0
531 18 0 1806 10 0 917
532 15 0 1592 0 0 1020
533 -21 0 1853 10 548 0
534 32 0 1670 10 0 382
535 -15 0 1592 10 702 0
536 -22 0 1641 10 810 0
537 -30 0 1691 10 189 0
538 16 1003 1013 10 0 542
539 -2 0 1657 10 256 0
540 -13 0 1704 10 993 0
541 -29 480 490 10 94 0
542 -16 0 1888 10 538 0
543 -18 0 1708 10 466 0
544 -15 0 1729 10 821 0
545 7 0 1741 10 0 859
546 -10 0 1675 10 179 0
547 14 1043 1053 10 0 654
548 21 0 1823 10 0 533
549 24 0 1707 10 0 193
550 12 0 1789 0 0 1037
551 -22 0 1645 10 125 0
552 -23 0 1688 10 709 0
553 -3 781 791 10 394 0
554 14 0 1745 10 0 789
555 17 0 1706 10 0 765
556 -25 0 1731 10 834 0
557 -3 0 1670 10 253 0
558 13 0 1649 10 0 955
559 40 0 1690 10 0 407
560 31 0 1879 10 0 696
561 2 1150 1160 10 0 245
562 -14 1237 1247 10 819 0
563 -13 0 1665 10 757 0
564 5 0 1765 10 0 10
565 7 0 1680 10 0 77
566 -11 1004 1014 10 571 0
567 31 784 794 0 0 1011
568 -23 0 1678 10 471 0
569 -13 0 1700 10 974 0
570 23 0 1803 10 0 36
571 11 0 1720 10 0 566
572 -36 831 841 10 844 0
573 25 0 1788 10 0 102
574 -19 0 1618 10 856 0
575 -15 0 1635 10 962 0
576 27 0 1708 0 0 1002
577 -10 800 810 10 459 0
578 -12 794 804 10 389 0
579 -4 0 1698 10 882 0
580 -27 0 1656 10 234 0
581 -19 0 1687 10 92 0
582 25 424 434 10 0 818
583 -13 0 1638 10 275 0
584 11 494 504 10 0 941
585 15 0 1757 10 0 985
586 -14 0 1734 10 393 0
587 -10 0 1821 10 332 0
588 11 615 625 10 0 287
589 -15 0 1683 10 447 0
590 -7 0 1856 10 871 0
591 -14 377 387 10 929 0
592 4 0 1680 10 0 489
593 -12 0 1675 10 936 0
594 27 0 1650 10 0 743
595 -18 0 1658 10 218 0
596 22 373 383 10 0 108
597 -10 0 1681 10 381 0
598 23 236 246 10 0 60
599 -21 0 1657 10 18 0
600 -12 0 1742 10 404 0
601 20 0 1608 10 0 953
602 -10 0 1694 10 495 0
603 29 0 1660 0 0 1006
604 24 0 1654 10 0 605
605 -24 0 1629 10 604 0
606 14 530 540 10 0 327
607 23 75 85 10 0 732
608 -36 0 1826 10 385 0
609 -5 0 1690 10 27 0
610 17 0 1735 10 0 80
611 19 0 1879 0 0 1034
612 -33 796 806 10 464 0
613 18 0 1778 10 0 224
614 32 0 1795 0 0 1035
615 15 0 1678 0 0 1008
616 29 0 1733 0 0 1014
617 -26 0 1817 10 214 0
618 -23 0 1752 10 503 0
619 17 0 1839 10 0 944
620 20 0 1695 10 0 841
621 -15 0 1641 10 222 0
622 15 0 1830 10 0 525
623 5 420 430 10 0 850
624 31 0 1736 10 0 82
625 -12 506 516 10 693 0
626 29 1214 1224 10 0 797
627 -10 0 1826 10 711 0
628 17 798 808 10 0 741
629 30 0 1649 10 0 847
630 -28 0 1749 10 526 0
631 -9 0 1830 10 906 0
632 -19 379 389 10 764 0
633 23 0 1837 10 0 54
634 -2 1269 1279 10 712 0
635 -11 1146 1156 10 215 0
636 24 1180 1190 10 0 66
637 29 0 1736 10 0 703
638 16 0 1699 10 0 708
639 -6 0 1749 10 297 0
640 -25 1138 1148 10 989 0
641 14 0 1670 10 0 699
642 30 0 1767 10 0 341
643 -15 466 476 10 231 0
644 -2 0 1720 10 330 0
645 12 355 365 10 0 750
646 -36 0 1764 10 890 0
647 35 1223 1233 0 0 1031
648 -19 0 1711 10 494 0
649 -16 0 1674 10 358 0
650 25 0 1709 0 0 1019
651 31 87 97 10 0 301
652 21 172 182 10 0 845
653 5 0 1667 10 0 271
654 -14 1147 1157 10 547 0
655 -26 0 1708 10 364 0
656 37 0 1799 10 0 314
657 34 0 1801 10 0 307
658 -16 0 1674 10 395 0
659 -33 0 1778 10 687 0
660 7 1042 1052 10 0 861
661 40 0 1646 10 0 969
662 24 0 1723 10 0 106
663 -19 0 1658 10 758 0
664 -12 0 1712 10 151 0
665 16 1623 1633 10 0 462
666 8 1267 1277 10 0 158
667 -28 0 1700 10 32 0
668 -30 0 1865 10 450 0
669 -22 0 1670 10 318 0
670 16 0 1723 10 0 238
671 13 0 1684 10 0 433
672 -14 1643 1653 10 926 0
673 15 532 542 10 0 713
674 17 68 78 10 0 867
675 -18 1236 1246 10 246 0
676 -16 0 1715 10 227 0
677 -17 1011 1021 10 798 0
678 30 0 1602 10 0 887
679 23 0 1702 10 0 126
680 -6 0 1718 10 160 0
681 -17 273 283 10 998 0
682 20 673 683 10 0 4
683 -20 1269 1279 10 438 0
684 -13 0 1714 10 428 0
685 -10 0 1606 10 415 0
686 -16 706 716 10 837 0
687 33 0 1786 10 0 659
688 -8 0 1891 10 412 0
689 14 0 1665 10 0 924
690 8 0 1689 10 0 954
691 -19 0 1759 10 919 0
692 27 0 1678 10 0 228
693 12 179 189 10 0 625
694 22 0 1656 10 0 283
695 22 0 1819 10 0 987
696 -31 0 1858 10 560 0
697 26 188 198 10 0 131
698 -15 0 1875 10 89 0
699 -14 0 1644 10 641 0
700 -30 0 1780 10 331 0
701 -21 207 217 10 894 0
702 15 0 1580 10 0 535
703 -29 0 1676 10 637 0
704 -17 0 1826 10 255 0
705 33 0 1859 10 0 254
706 -10 0 1694 10 277 0
707 -15 0 1866 10 219 0
708 -16 0 1688 10 638 0
709 23 169 179 10 0 552
710 -23 0 1682 10 349 0
711 10 0 1806 10 0 627
712 2 0 1691 10 0 634
713 -15 0 1841 10 673 0
714 -24 0 1822 10 968 0
715 11 0 1724 10 0 187
716 -24 0 1671 10 156 0
717 -28 1253 1263 10 220 0
718 15 0 1638 0 0 1005
719 17 0 1827 10 0 771
720 -20 0 1679 10 87 0
721 -24 0 1669 10 377 0
722 -13 0 1872 10 236 0
723 -36 0 1700 10 75 0
724 5 0 1785 10 0 825
725 13 0 1727 10 0 799
726 7 0 1680 10 0 320
727 -17 0 1879 10 747 0
728 -13 0 1649 10 470 0
729 14 0 1783 10 0 863
730 20 0 1846 10 0 52
731 -31 1500 1510 10 826 0
732 -23 0 1744 10 607 0
733 12 0 1717 10 0 737
734 -21 1155 1165 10 839 0
735 7 0 1690 10 0 923
736 14 1021 1031 10 0 289
737 -12 544 554 10 733 0
738 -21 0 1673 10 46 0
739 24 0 1697 10 0 209
740 7 1234 1244 0 0 1016
741 -17 0 1689 10 628 0
742 -21 0 1800 10 488 0
743 -27 0 1670 10 594 0
744 -12 0 1880 10 511 0
745 22 0 1779 0 0 1024
746 18 0 1745 10 0 117
747 17 0 1795 10 0 727
748 -14 1313 1323 10 792 0
749 4 409 419 10 0 886
750 -12 0 1647 10 645 0
751 26 0 1606 10 0 343
752 26 0 1873 10 0 971
753 -23 0 1686 10 774 0
754 30 0 1884 10 0 854
755 -1 270 280 10 957 0
756 -5 508 518 10 290 0
757 13 0 1694 10 0 563
758 19 0 1678 10 0 663
759 33 0 1789 10 0 31
760 2 1053 1063 10 0 405
761 16 0 1682 10 0 237
762 -24 0 1771 10 367 0
763 18 0 1820 10 0 899
764 19 0 1695 10 0 632
765 -17 0 1673 10 555 0
766 -19 0 1723 10 136 0
767 24 0 1705 10 0 779
768 18 0 1792 10 0 14
769 19 0 1653 10 0 325
770 23 0 1620 10 0 24
771 -17 0 1838 10 719 0
772 12 1035 1045 0 0 1013
773 23 0 1777 10 0 26
774 23 0 1809 10 0 753
775 -17 0 1681 10 154 0
776 21 43 53 10 0 300
777 6 560 570 10 0 914
778 -21 873 883 10 831 0
779 -24 0 1707 10 767 0
780 -10 0 1674 10 461 0
781 -20 0 1698 10 430 0
782 32 0 1758 10 0 449
783 -18 1261 1271 10 895 0
784 -15 0 1770 10 176 0
785 -14 0 1665 10 274 0
786 -24 0 1748 10 865 0
787 -16 0 1580 10 276 0
788 -31 0 1800 10 803 0
789 -14 0 1805 10 554 0
790 15 0 1672 10 0 997
791 -25 0 1872 10 460 0
792 14 0 1625 10 0 748
793 -25 842 852 10 425 0
794 -21 0 1673 10 435 0
795 23 0 1799 10 0 90
796 23 1107 1117 10 0 473
797 -29 0 1860 10 626 0
798 17 553 563 10 0 677
799 -13 1047 1057 10 725 0
800 9 0 1807 10 0 165
801 -14 798 808 10 282 0
802 14 940 950 0 0 1010
803 31 52 62 10 0 788
804 -16 0 1665 10 911 0
805 -25 0 1796 10 960 0
806 -22 0 1739 10 816 0
807 17 0 1646 10 0 305
808 -15 0 1726 10 144 0
809 -18 0 1640 10 469 0
810 22 1393 1403 10 0 536
811 5 0 1761 10 0 199
812 23 611 621 10 0 97
813 27 635 645 10 0 196
814 -15 0 1670 10 247 0
815 18 434 444 10 0 129
816 22 0 1688 10 0 806
817 -26 0 1669 10 945 0
818 -25 0 1758 10 582 0
819 14 0 1670 10 0 562
820 21 0 1841 10 0 174
821 15 0 1797 10 0 544
822 17 957 967 10 0 340
823 4 0 1591 10 0 267
824 5 0 1703 10 0 91
825 -5 804 814 10 724 0
826 31 0 1588 10 0 731
827 -21 0 1724 10 888 0
828 -31 0 1777 10 992 0
829 -14 0 1702 10 875 0
830 -21 0 1751 10 96 0
831 21 0 1739 10 0 778
832 -31 1387 1397 10 210 0
833 -34 0 1676 10 249 0
834 25 986 996 10 0 556
835 23 1430 1440 10 0 78
836 21 0 1705 10 0 476
837 16 0 1669 10 0 686
838 -45 0 1679 10 440 0
839 21 0 1696 10 0 734
840 -2 0 1719 10 170 0
841 -20 0 1708 10 620 0
842 -6 0 1712 10 482 0
843 -28 0 1784 10 104 0
844 36 444 454 10 0 572
845 -21 0 1881 10 652 0
846 -28 0 1844 10 966 0
847 -30 0 1708 10 629 0
848 1 0 1758 10 0 99
849 -15 0 1746 10 999 0
850 -5 0 1748 10 623 0
851 -7 0 1679 10 353 0
852 15 0 1745 10 0 475
853 8 0 1774 0 0 1023
854 -30 0 1815 10 754 0
855 -32 0 1889 10 928 0
856 19 0 1674 10 0 574
857 13 0 1763 10 0 347
858 13 0 1722 10 0 112
859 -7 0 1721 10 545 0
860 -23 0 1677 10 167 0
861 -7 0 1761 10 660 0
862 -15 0 1662 10 348 0
863 -14 0 1763 10 729 0
864 29 0 1727 10 0 152
865 24 0 1712 10 0 786
866 28 0 1720 0 0 1018
867 -17 0 1901 10 674 0
868 -21 0 1694 10 429 0
869 -25 877 887 10 169 0
870 -30 914 924 10 877 0
871 7 0 1726 10 0 590
872 -11 1010 1020 10 988 0
873 -13 0 1707 10 73 0
874 14 70 80 10 0 252
875 14 0 1671 10 0 829
876 26 0 1676 10 0 51
877 30 0 1778 10 0 870
878 -18 1717 1727 10 528 0
879 25 0 1679 10 0 235
880 10 332 342 10 0 921
881 11 825 835 10 0 264
882 4 0 1844 10 0 579
883 29 0 1666 10 0 232
884 23 0 1756 10 0 510
885 18 0 1748 10 0 198
886 -4 0 1725 10 749 0
887 -30 0 1584 10 678 0
888 21 0 1747 10 0 827
889 7 0 1767 10 0 366
890 36 0 1728 10 0 646
891 12 0 1774 10 0 291
892 30 471 481 10 0 88
893 23 0 1640 10 0 188
894 21 70 80 10 0 701
895 18 0 1802 10 0 783
896 -13 0 1630 10 386 0
897 -31 0 1669 10 980 0
898 17 340 350 10 0 446
899 -18 0 1877 10 763 0
900 12 184 194 10 0 512
901 11 0 1763 10 0 414
902 18 0 1762 10 0 413
903 -8 596 606 10 967 0
904 -17 0 1688 10 371 0
905 -30 0 1729 10 509 0
906 9 0 1728 10 0 631
907 -15 0 1658 10 105 0
908 -8 0 1659 10 426 0
909 34 0 1724 10 0 441
910 -2 1255 1265 10 329 0
911 16 0 1671 10 0 804
912 18 0 1878 10 0 321
913 -12 0 1669 10 229 0
914 -6 0 1657 10 777 0
915 -19 0 1783 10 319 0
916 -20 0 1812 10 313 0
917 -18 0 1813 10 531 0
918 -1 0 1777 10 445 0
919 19 0 1797 10 0 691
920 -31 0 1631 10 521 0
921 -10 0 1653 10 880 0
922 28 0 1790 10 0 468
923 -7 758 768 10 735 0
924 -14 1226 1236 10 689 0
925 -29 0 1744 10 68 0
926 14 0 1754 10 0 672
927 3 0 1721 10 0 183
928 32 0 1869 10 0 855
929 14 117 127 10 0 591
930 -7 0 1607 10 208 0
931 19 0 1716 10 0 448
932 13 0 1720 10 0 293
933 35 64 74 0 0 1032
934 23 0 1701 10 0 41
935 10 239 249 10 0 383
936 12 939 949 10 0 593
937 9 278 288 10 0 56
938 26 0 1769 10 0 118
939 32 1373 1383 10 0 492
940 12 0 1682 10 0 205
941 -11 0 1677 10 584 0
942 -27 1089 1099 10 171 0
943 -3 1078 1088 10 241 0
944 -17 154 164 10 619 0
945 26 0 1734 10 0 817
946 -27 0 1758 10 443 0
947 -20 557 567 10 370 0
948 33 0 1756 10 0 127
949 15 0 1792 10 0 34
950 -23 0 1599 10 970 0
951 20 0 1691 10 0 6
952 10 0 1636 10 0 335
953 -20 0 1618 10 601 0
954 -8 0 1619 10 690 0
955 -13 0 1675 10 558 0
956 24 0 1724 0 0 1039
957 1 0 1715 10 0 755
958 10 0 1759 10 0 153
959 -30 554 564 10 380 0
960 25 0 1711 10 0 805
961 -9 0 1767 10 95 0
962 15 0 1622 10 0 575
963 -1 0 1747 10 177 0
964 -35 0 1753 10 378 0
965 12 0 1679 10 0 93
966 28 0 1794 10 0 846
967 8 0 1713 10 0 903
968 24 0 1800 10 0 714
969 -40 1304 1314 10 661 0
970 23 0 1587 10 0 950
971 -26 0 1892 10 752 0
972 12 0 1818 10 0 107
973 -25 778 788 10 79 0
974 13 0 1742 10 0 569
975 -19 0 1651 10 478 0
976 -17 0 1632 10 269 0
977 -28 0 1733 10 280 0
978 7 0 1641 10 0 454
979 -15 0 1659 10 132 0
980 31 0 1679 10 0 897
981 7 0 1799 10 0 416
982 24 0 1728 10 0 334
983 4 814 824 10 0 505
984 -23 0 1741 10 181 0
985 -15 0 1734 10 585 0
986 11 0 1765 10 0 530
987 -22 0 1801 10 695 0
988 11 0 1774 10 0 872
989 25 0 1665 10 0 640
990 21 1469 1479 10 0 242
991 19 1218 1228 10 0 308
992 31 502 512 10 0 828
993 13 146 156 10 0 540
994 -18 1462 1472 10 508 0
995 -10 0 1743 10 216 0
996 25 244 254 10 0 45
997 -15 0 1727 10 790 0
998 17 0 1790 10 0 681
999 15 0 1751 10 0 849
1000 -23 0 1602 10 355 0
1001 -12 0 1831 10 326 0
1002 -27 0 1708 10 576 0
1003 -9 0 1740 10 55 0
1004 -20 0 1669 10 270 0
1005 -15 0 1638 10 718 0
1006 -29 0 1660 10 603 0
1007 -12 0 1773 10 514 0
1008 -15 0 1678 10 615 0
1009 -16 0 1705 10 182 0
1010 -14 940 950 10 802 0
1011 -31 784 794 10 567 0
1012 -8 0 1632 10 421 0
1013 -12 1035 1045 10 772 0
1014 -29 0 1733 10 616 0
1015 -8 0 1744 10 375 0
1016 -7 1234 1244 10 740 0
1017 -17 0 1706 10 451 0
1018 -28 0 1720 10 866 0
1019 -25 0 1709 10 650 0
1020 -15 0 1592 10 532 0
1021 -14 0 1866 10 456 0
1022 -32 0 1670 10 399 0
1023 -8 0 1774 10 853 0
1024 -22 0 1779 10 745 0
1025 -3 0 1774 10 498 0
1026 -16 0 1669 10 84 0
1027 -8 0 1650 10 384 0
1028 -28 0 1725 10 431 0
1029 -14 0 1664 10 439 0
1030 -28 858 868 10 115 0
1031 -35 1223 1233 10 647 0
1032 -35 64 74 10 933 0
1033 -15 1524 1534 10 62 0
1034 -19 0 1879 10 611 0
1035 -32 0 1795 10 614 0
1036 -14 0 1726 10 522 0
1037 -12 0 1789 10 550 0
1038 -18 0 1717 10 172 0
1039 -24 0 1724 10 956 0
DEPOT_SECTION
1
-1
EOF
