NAME: lr2_10_8
TYPE: PDPTW
COMMENT: Li & Lim PDPTW benchmark converted from SINTEF format
DIMENSION: 1009
VEHICLES: 250
CAPACITY: 1000
EDGE_WEIGHT_TYPE: EUC_2D
NODE_COORD_SECTION
1 250 250
2 228 399
3 325 56
4 290 145
5 340 291
6 370 382
7 273 255
8 36 301
9 117 178
10 295 283
11 57 43
12 436 123
13 48 162
14 222 499
15 376 92
16 437 90
17 3 23
18 94 40
19 398 476
20 307 249
21 179 286
22 0 356
23 143 158
24 413 476
25 371 488
26 415 118
27 440 77
28 261 201
29 490 286
30 309 161
31 39 162
32 361 178
33 261 138
34 447 383
35 346 354
36 461 195
37 187 263
38 130 247
39 328 491
40 161 276
41 365 74
42 168 109
43 111 192
44 87 213
45 45 166
46 62 94
47 348 476
48 64 437
49 56 75
50 24 259
51 295 247
52 6 53
53 15 11
54 179 497
55 67 352
56 317 45
57 40 278
58 33 278
59 322 290
60 159 226
61 208 445
62 453 360
63 34 169
64 436 25
65 393 98
66 466 96
67 366 390
68 303 78
69 374 116
70 424 288
71 191 84
72 59 276
73 215 293
74 343 276
75 488 173
76 452 110
77 153 244
78 176 200
79 498 171
80 492 188
81 177 156
82 398 49
83 497 296
84 276 84
85 128 113
86 422 498
87 460 424
88 246 314
89 0 422
90 166 247
91 311 422
92 392 95
93 460 117
94 28 467
95 375 145
96 240 255
97 440 436
98 454 201
99 407 35
100 420 383
101 264 180
102 440 294
103 500 228
104 144 331
105 98 2
106 461 186
107 68 450
108 153 192
109 34 239
110 465 367
111 208 488
112 93 413
113 371 332
114 231 167
115 179 75
116 196 489
117 280 245
118 108 37
119 1 101
120 420 80
121 38 190
122 470 405
123 448 397
124 471 427
125 146 376
126 12 358
127 175 422
128 297 131
129 457 492
130 69 423
131 97 288
132 172 314
133 170 347
134 103 123
135 154 374
136 318 497
137 330 147
138 241 180
139 174 67
140 235 288
141 94 192
142 232 101
143 28 180
144 64 135
145 174 376
146 293 174
147 218 12
148 110 122
149 459 53
150 173 474
151 135 400
152 497 266
153 380 194
154 495 227
155 268 351
156 213 399
157 448 414
158 327 139
159 151 81
160 425 448
161 92 259
162 59 388
163 468 360
164 332 459
165 469 489
166 248 176
167 174 41
168 343 205
169 154 392
170 92 18
171 250 328
172 88 484
173 360 488
174 156 65
175 18 225
176 152 476
177 176 470
178 195 450
179 466 149
180 221 269
181 105 137
182 284 319
183 41 120
184 263 418
185 218 271
186 365 119
187 89 322
188 180 283
189 385 17
190 401 314
191 245 176
192 251 238
193 139 438
194 236 126
195 61 441
196 405 454
197 111 392
198 373 421
199 247 443
200 322 406
201 412 478
202 374 346
203 122 422
204 261 359
205 173 182
206 398 341
207 413 127
208 325 311
209 80 357
210 67 378
211 216 341
212 498 457
213 44 344
214 352 481
215 237 420
216 389 43
217 292 136
218 426 38
219 245 461
220 415 253
221 298 264
222 307 412
223 53 204
224 480 152
225 262 97
226 83 169
227 377 432
228 390 249
229 132 479
230 359 246
231 314 205
232 124 448
233 0 188
234 343 166
235 482 141
236 162 306
237 24 71
238 188 119
239 100 85
240 103 177
241 26 67
242 164 332
243 385 285
244 209 68
245 149 341
246 415 95
247 167 488
248 413 493
249 439 222
250 150 484
251 299 353
252 273 300
253 402 277
254 239 15
255 363 225
256 65 343
257 351 60
258 60 246
259 144 35
260 463 253
261 332 382
262 408 318
263 452 206
264 471 368
265 93 490
266 241 402
267 60 231
268 172 66
269 404 207
270 286 356
271 489 338
272 334 481
273 26 442
274 226 175
275 488 3
276 178 150
277 371 423
278 5 224
279 94 344
280 153 235
281 12 367
282 217 357
283 255 487
284 149 214
285 169 305
286 487 446
287 267 374
288 360 294
289 185 431
290 325 210
291 175 352
292 76 462
293 19 273
294 72 227
295 213 283
296 130 140
297 274 442
298 337 41
299 372 39
300 269 112
301 224 56
302 340 416
303 13 214
304 230 320
305 6 196
306 87 3
307 133 202
308 235 316
309 435 180
310 173 65
311 245 42
312 384 149
313 51 286
314 267 290
315 453 318
316 189 402
317 210 276
318 120 261
319 35 263
320 429 59
321 330 308
322 58 391
323 260 472
324 217 333
325 335 46
326 198 85
327 138 28
328 29 336
329 200 27
330 157 269
331 177 404
332 202 28
333 366 334
334 149 458
335 481 454
336 377 385
337 217 207
338 96 346
339 224 320
340 206 97
341 438 127
342 494 468
343 494 165
344 5 281
345 441 60
346 14 232
347 288 439
348 420 224
349 267 162
350 195 273
351 233 230
352 382 360
353 406 460
354 499 316
355 246 407
356 283 454
357 426 231
358 432 2
359 404 439
360 397 477
361 44 140
362 330 138
363 39 153
364 397 153
365 226 316
366 354 156
367 201 66
368 389 156
369 134 211
370 386 154
371 335 99
372 356 256
373 240 362
374 412 100
375 394 322
376 48 150
377 225 121
378 102 422
379 339 41
380 440 201
381 411 379
382 219 210
383 250 441
384 210 29
385 178 302
386 148 208
387 225 369
388 16 287
389 450 416
390 287 397
391 285 247
392 351 481
393 243 408
394 137 377
395 33 152
396 68 303
397 456 113
398 134 276
399 26 221
400 79 257
401 181 185
402 104 349
403 267 174
404 475 267
405 385 239
406 95 382
407 67 190
408 32 94
409 401 164
410 376 113
411 409 255
412 228 260
413 363 34
414 274 441
415 146 188
416 212 186
417 432 66
418 83 300
419 51 89
420 379 486
421 440 284
422 175 239
423 282 1
424 268 113
425 480 131
426 429 67
427 162 301
428 281 96
429 495 199
430 372 115
431 396 83
432 239 486
433 288 70
434 66 163
435 470 417
436 226 423
437 342 319
438 174 122
439 49 353
440 448 495
441 13 465
442 489 159
443 311 203
444 480 119
445 442 153
446 148 462
447 233 87
448 323 34
449 84 377
450 292 32
451 418 75
452 451 305
453 225 269
454 272 420
455 318 280
456 250 57
457 77 372
458 385 58
459 44 496
460 460 328
461 67 24
462 91 27
463 360 284
464 82 183
465 153 362
466 52 412
467 32 191
468 325 147
469 328 458
470 133 273
471 147 30
472 131 246
473 433 319
474 168 59
475 218 403
476 295 89
477 118 314
478 251 63
479 388 44
480 381 328
481 132 32
482 334 403
483 83 290
484 411 396
485 243 402
486 52 18
487 265 0
488 268 288
489 476 61
490 283 438
491 191 215
492 253 50
493 71 282
494 297 304
495 244 368
496 80 279
497 488 96
498 142 30
499 68 240
500 193 138
501 451 62
502 138 406
503 306 42
504 247 219
505 98 29
506 102 6
507 142 360
508 172 24
509 352 241
510 486 324
511 133 455
512 440 292
513 364 173
514 442 289
515 48 412
516 344 70
517 78 406
518 329 456
519 157 38
520 374 260
521 297 283
522 210 113
523 215 434
524 262 92
525 140 108
526 235 108
527 210 133
528 25 53
529 339 113
530 394 310
531 126 391
532 343 34
533 354 416
534 202 391
535 367 97
536 188 151
537 111 178
538 456 157
539 441 7
540 270 337
541 323 29
542 200 78
543 330 281
544 438 488
545 161 416
546 30 97
547 273 70
548 214 245
549 221 291
550 79 467
551 423 315
552 395 474
553 481 207
554 199 203
555 497 483
556 449 428
557 100 266
558 214 274
559 16 68
560 475 198
561 371 427
562 62 375
563 163 472
564 13 314
565 376 385
566 231 29
567 89 358
568 331 356
569 365 190
570 256 441
571 120 37
572 349 43
573 230 487
574 489 457
575 341 72
576 181 441
577 306 229
578 492 326
579 347 459
580 66 88
581 272 234
582 134 194
583 320 211
584 214 311
585 489 274
586 231 410
587 432 199
588 29 358
589 62 236
590 333 163
591 364 71
592 125 65
593 429 476
594 161 275
595 365 274
596 117 110
597 166 345
598 345 146
599 324 99
600 72 477
601 487 320
602 120 17
603 1 252
604 303 186
605 428 302
606 264 135
607 223 178
608 174 347
609 238 123
610 187 61
611 52 303
612 89 185
613 341 59
614 89 65
615 495 355
616 368 452
617 164 473
618 171 34
619 114 460
620 224 3
621 472 57
622 448 404
623 390 120
624 386 225
625 301 239
626 115 296
627 69 266
628 115 395
629 68 53
630 33 268
631 450 45
632 351 5
633 351 148
634 80 458
635 60 5
636 10 407
637 497 18
638 437 98
639 130 494
640 391 202
641 43 210
642 381 457
643 449 190
644 429 169
645 105 140
646 282 10
647 20 480
648 61 170
649 210 81
650 87 311
651 309 29
652 397 57
653 337 232
654 262 369
655 41 232
656 69 414
657 149 98
658 207 487
659 366 260
660 497 54
661 210 379
662 437 19
663 181 260
664 125 61
665 368 311
666 80 400
667 75 118
668 171 303
669 80 251
670 455 168
671 215 129
672 179 318
673 187 73
674 394 47
675 31 175
676 339 144
677 492 34
678 387 349
679 142 372
680 291 213
681 421 387
682 274 403
683 434 359
684 257 57
685 428 202
686 355 174
687 46 389
688 44 440
689 491 369
690 33 286
691 351 128
692 485 428
693 273 149
694 447 184
695 386 245
696 323 77
697 21 70
698 9 101
699 71 304
700 43 360
701 396 417
702 158 24
703 164 320
704 195 386
705 306 235
706 66 314
707 95 64
708 348 348
709 495 83
710 61 214
711 240 240
712 140 137
713 242 106
714 392 491
715 342 481
716 478 300
717 299 285
718 481 84
719 271 128
720 484 224
721 441 177
722 46 163
723 493 493
724 253 74
725 390 34
726 374 306
727 436 295
728 371 315
729 27 464
730 3 471
731 418 269
732 90 477
733 141 426
734 418 251
735 57 183
736 29 462
737 55 318
738 18 24
739 263 153
740 289 220
741 84 255
742 159 299
743 485 104
744 178 135
745 389 255
746 457 280
747 171 24
748 330 371
749 10 237
750 458 213
751 257 391
752 482 184
753 222 331
754 332 5
755 47 208
756 489 437
757 165 59
758 211 446
759 225 488
760 355 485
761 441 374
762 399 175
763 103 464
764 244 13
765 51 360
766 44 115
767 312 453
768 64 198
769 67 451
770 371 71
771 439 156
772 105 474
773 366 288
774 415 207
775 58 39
776 197 202
777 442 5
778 71 12
779 74 215
780 347 192
781 178 420
782 186 135
783 176 199
784 438 5
785 150 68
786 185 434
787 215 79
788 177 486
789 49 437
790 100 66
791 35 344
792 433 447
793 372 97
794 344 203
795 423 170
796 171 188
797 64 5
798 371 163
799 398 210
800 48 437
801 392 1
802 195 464
803 211 248
804 293 228
805 23 235
806 213 185
807 172 292
808 228 287
809 387 394
810 374 232
811 48 366
812 44 311
813 447 272
814 132 477
815 80 117
816 11 403
817 144 220
818 473 491
819 210 219
820 452 484
821 365 28
822 498 456
823 84 453
824 91 427
825 178 72
826 409 155
827 132 151
828 136 430
829 292 104
830 443 167
831 321 149
832 235 13
833 166 440
834 112 433
835 452 172
836 37 281
837 414 378
838 475 352
839 400 71
840 286 244
841 429 389
842 92 76
843 124 111
844 268 458
845 352 63
846 49 118
847 398 329
848 382 9
849 229 322
850 279 355
851 266 221
852 142 80
853 359 287
854 482 104
855 284 457
856 64 294
857 404 59
858 68 160
859 211 411
860 30 155
861 240 34
862 107 374
863 404 140
864 436 467
865 421 386
866 182 480
867 9 233
868 110 251
869 19 38
870 46 248
871 308 199
872 423 221
873 313 391
874 413 345
875 278 450
876 94 497
877 7 382
878 493 111
879 392 87
880 13 394
881 259 301
882 351 233
883 313 493
884 65 62
885 417 212
886 450 194
887 470 138
888 190 267
889 248 214
890 50 383
891 244 422
892 60 29
893 5 445
894 490 276
895 441 100
896 162 388
897 244 277
898 406 408
899 265 240
900 130 186
901 382 110
902 142 14
903 352 487
904 307 52
905 418 399
906 196 56
907 66 31
908 90 496
909 480 136
910 65 82
911 48 293
912 105 181
913 215 282
914 257 133
915 77 465
916 43 135
917 27 444
918 357 290
919 38 15
920 80 337
921 36 451
922 291 251
923 195 111
924 383 17
925 53 466
926 114 102
927 350 199
928 405 349
929 472 248
930 333 293
931 174 397
932 2 264
933 7 82
934 34 329
935 158 179
936 421 499
937 345 431
938 370 262
939 77 172
940 87 51
941 468 352
942 63 420
943 347 184
944 206 174
945 209 212
946 466 362
947 201 278
948 206 172
949 471 94
950 331 134
951 274 261
952 219 215
953 349 76
954 86 189
955 336 493
956 7 194
957 492 335
958 248 386
959 463 406
960 199 438
961 135 30
962 447 267
963 235 33
964 63 155
965 294 421
966 318 99
967 21 146
968 30 7
969 410 399
970 405 187
971 109 56
972 212 47
973 479 387
974 167 291
975 259 498
976 461 182
977 277 428
978 290 328
979 146 313
980 40 304
981 56 268
982 104 28
983 370 493
984 136 265
985 247 306
986 241 38
987 180 162
988 253 118
989 413 391
990 380 350
991 391 112
992 86 199
993 91 326
994 287 256
995 203 211
996 79 80
997 32 319
998 167 445
999 439 237
1000 373 418
1001 26 342
1002 466 362
1003 117 110
1004 347 184
1005 478 300
1006 187 73
1007 409 255
1008 207 487
1009 292 104
PICKUP_AND_DELIVERY_SECTION
1 0 0 7697 0 0 0
2 -17 0 7537 10 200 0
3 -13 0 7480 10 301 0
4 5 0 7575 10 0 404
5 22 1822 2062 10 0 10
6 -22 0 7509 10 958 0
7 18 0 7664 10 0 422
8 -26 0 7468 10 400 0
9 28 4409 4649 10 0 722
10 -22 3513 3753 10 5 0
11 -22 0 7404 10 85 0
12 40 0 7462 10 0 927
13 -20 0 7467 10 648 0
14 -17 0 7437 10 247 0
15 10 0 7485 10 0 801
16 -1 0 7441 10 374 0
17 11 1506 1746 10 0 18
18 -11 0 7426 10 17 0
19 -11 0 7417 10 196 0
20 10 0 7630 10 0 391
21 8 1305 1545 10 0 31
22 13 0 7416 10 0 295
23 12 0 7546 10 0 935
24 -10 4656 4896 10 760 0
25 10 2271 2511 10 0 454
26 19 0 7476 10 0 771
27 14 0 7431 10 0 621
28 -10 5996 6236 10 637 0
29 29 0 7445 10 0 653
30 23 2273 2513 10 0 825
31 -8 0 7459 10 21 0
32 -10 0 7555 10 577 0
33 -1 0 7575 10 606 0
34 17 831 1071 10 0 356
35 8 3210 3450 10 0 726
36 26 0 7469 10 0 98
37 -23 0 7623 10 188 0
38 -33 0 7567 10 276 0
39 -25 2653 2893 10 514 0
40 -23 0 7595 10 116 0
41 24 3334 3574 10 0 696
42 10 0 7524 10 0 416
43 11 0 7537 10 0 910
44 -25 0 7520 10 294 0
45 -23 0 7466 10 121 0
46 16 0 7443 10 0 461
47 19 0 7441 10 0 593
48 11 0 7424 10 0 704
49 24 0 7426 10 0 105
50 19 0 7461 10 0 603
51 -7 0 7642 10 587 0
52 8 0 7374 10 0 846
53 -26 0 7352 10 259 0
54 -24 0 7430 10 844 0
55 -16 0 7478 10 185 0
56 8 0 7472 10 0 458
57 -22 0 7476 10 131 0
58 18 0 7469 10 0 679
59 -12 0 7605 10 355 0
60 16 256 496 10 0 384
61 -16 0 7488 10 178 0
62 13 804 1044 10 0 155
63 -10 0 7457 10 768 0
64 -30 0 7396 10 848 0
65 13 2950 3190 10 0 651
66 -14 0 7422 10 93 0
67 -20 5213 5453 10 792 0
68 -24 0 7508 10 516 0
69 9 0 7505 10 0 895
70 -21 0 7509 10 601 0
71 13 0 7511 10 0 357
72 11 0 7495 10 0 911
73 13 102 342 10 0 521
74 15 266 506 10 0 315
75 25 4781 5021 10 0 538
76 14 0 7442 10 0 854
77 -8 0 7590 10 548 0
78 17 2210 2450 10 0 477
79 12 0 7427 10 0 429
80 -5 2801 3041 10 425 0
81 25 0 7568 10 0 284
82 21 0 7438 10 0 298
83 -31 0 7436 10 585 0
84 -22 0 7519 10 332 0
85 22 0 7504 10 0 11
86 -7 0 7386 10 978 0
87 -14 0 7415 10 110 0
88 -15 5721 5961 10 393 0
89 8 0 7384 10 0 921
90 1 216 456 10 0 419
91 -25 0 7505 10 579 0
92 -14 0 7477 10 478 0
93 14 0 7439 10 0 66
94 -30 0 7377 10 893 0
95 -18 0 7524 10 423 0
96 -8 0 7676 10 219 0
97 18 3508 3748 10 0 333
98 -26 0 7478 10 36 0
99 11 0 7421 10 0 217
100 27 0 7472 10 0 616
101 -9 0 7616 10 320 0
102 16 0 7492 10 0 136
103 -20 3067 3307 10 154 0
104 13 0 7554 10 0 699
105 -24 2307 2547 10 49 0
106 16 0 7467 10 0 263
107 -30 0 7417 10 634 0
108 -6 0 7574 10 415 0
109 16 816 1056 10 0 687
110 14 0 7443 10 0 87
111 -5 0 7446 10 383 0
112 -10 0 7461 10 666 0
113 -15 0 7541 10 212 0
114 15 221 461 10 0 456
115 13 2900 3140 10 0 923
116 23 4061 4301 10 0 40
117 -18 0 7657 10 230 0
118 23 0 7432 10 0 902
119 -17 0 7397 10 491 0
120 -36 0 7447 10 547 0
121 23 0 7467 10 0 45
122 -23 3643 3883 10 708 0
123 -13 0 7441 10 701 0
124 8 0 7404 10 0 838
125 8 0 7524 10 0 245
126 7 0 7426 10 0 567
127 -27 0 7500 10 974 0
128 -3 4602 4842 10 275 0
129 7 0 7369 10 0 822
130 32 0 7437 10 0 763
131 22 0 7530 10 0 57
132 -12 0 7587 10 627 0
133 15 0 7562 10 0 703
134 8 0 7493 10 0 747
135 36 0 7531 10 0 931
136 -16 0 7431 10 102 0
137 -23 3334 3574 10 274 0
138 13 0 7617 10 0 609
139 -15 0 7489 10 241 0
140 -31 0 7647 10 866 0
141 1 0 7521 10 0 223
142 24 0 7537 10 0 325
143 -35 0 7455 10 369 0
144 -21 3413 3653 10 926 0
145 8 0 7540 10 0 242
146 31 0 7600 10 0 950
147 -15 0 7447 10 790 0
148 14 0 7498 10 0 738
149 -16 0 7400 10 426 0
150 14 0 7451 10 0 758
151 -40 0 7498 10 932 0
152 -22 0 7440 10 750 0
153 -14 0 7546 10 640 0
154 20 0 7441 10 0 103
155 -13 0 7585 10 62 0
156 18 0 7534 10 0 336
157 23 0 7430 10 0 959
158 13 4969 5209 10 0 590
159 -27 0 7492 10 930 0
160 9 3118 3358 10 0 277
161 -20 0 7529 10 554 0
162 -16 2591 2831 10 427 0
163 16 0 7443 10 0 973
164 -29 0 7463 10 865 0
165 4 0 7363 10 0 342
166 -14 0 7613 10 367 0
167 15 0 7465 10 0 757
168 -22 0 7584 10 569 0
169 -13 0 7516 10 334 0
170 8 0 7407 10 0 571
171 24 0 7609 10 0 654
172 -13 0 7403 10 730 0
173 -12 1202 1442 10 937 0
174 -29 4089 4329 10 525 0
175 8 0 7454 10 0 641
176 -9 2030 2270 10 523 0
177 -14 0 7455 10 586 0
178 16 0 7480 10 0 61
179 -29 0 7449 10 364 0
180 14 0 7653 10 0 418
181 -13 0 7504 10 306 0
182 -14 3207 3447 10 891 0
183 -19 2724 2964 10 582 0
184 -8 0 7519 10 222 0
185 16 0 7649 10 0 55
186 -9 0 7513 10 899 0
187 21 0 7511 10 0 453
188 23 0 7610 10 0 37
189 -36 3175 3415 10 489 0
190 -15 3846 4086 10 990 0
191 20 4879 5119 10 0 889
192 -27 0 7675 10 613 0
193 -28 0 7469 10 759 0
194 23 0 7563 10 0 887
195 27 2115 2355 10 0 517
196 11 0 7431 10 0 19
197 18 0 7489 10 0 628
198 -1 0 7477 10 748 0
199 17 0 7494 10 0 502
200 17 0 7516 10 0 2
201 -30 3779 4019 10 252 0
202 27 0 7531 10 0 728
203 -27 0 7473 10 877 0
204 10 0 7578 10 0 833
205 25 291 531 10 0 580
206 -20 0 7514 10 905 0
207 28 0 7483 10 0 370
208 -36 5229 5469 10 437 0
209 -16 2062 2302 10 562 0
210 26 0 7464 10 0 781
211 -31 0 7590 10 876 0
212 15 0 7364 10 0 113
213 12 0 7461 10 0 812
214 -20 5079 5319 10 922 0
215 15 0 7517 10 0 951
216 21 0 7438 10 0 501
217 -11 0 7566 10 99 0
218 -17 0 7412 10 839 0
219 8 0 7476 10 0 96
220 21 0 7522 10 0 734
221 36 80 320 10 0 797
222 8 0 7516 10 0 184
223 -1 0 7485 10 141 0
224 -34 0 7437 10 553 0
225 17 0 7534 10 0 575
226 -17 0 7502 10 592 0
227 -23 0 7466 10 936 0
228 21 0 7547 10 0 405
229 11 910 1150 10 0 570
230 18 0 7578 10 0 117
231 -18 6047 6287 10 780 0
232 -33 0 7453 10 975 0
233 -23 0 7430 10 939 0
234 28 3444 3684 10 0 813
235 -11 3983 4223 10 451 0
236 22 417 657 10 0 997
237 -15 0 7399 10 869 0
238 -6 0 7543 10 474 0
239 14 0 7465 10 0 860
240 -22 2446 2686 10 350 0
241 15 0 7398 10 0 139
242 -8 0 7569 10 145 0
243 13 3412 3652 10 0 731
244 -9 0 7501 10 851 0
245 -8 0 7552 10 125 0
246 -18 0 7461 10 447 0
247 17 940 1180 10 0 14
248 26 4813 5053 10 0 642
249 22 0 7496 10 0 362
250 16 0 7433 10 0 788
251 34 0 7573 10 0 302
252 30 0 7632 10 0 201
253 -2 0 7533 10 649 0
254 -3 0 7452 10 519 0
255 -19 3363 3603 10 988 0
256 -13 0 7480 10 947 0
257 15 0 7472 10 0 403
258 -11 0 7497 10 499 0
259 26 0 7448 10 0 53
260 -14 4128 4368 10 944 0
261 -30 0 7532 10 270 0
262 15 0 7515 10 0 665
263 -16 0 7481 10 106 0
264 -13 0 7437 10 574 0
265 2 1457 1697 10 0 769
266 11 0 7535 10 0 436
267 32 0 7497 10 0 376
268 -17 0 7488 10 508 0
269 -17 0 7528 10 671 0
270 30 328 568 10 0 261
271 -19 5529 5769 10 578 0
272 -13 0 7442 10 683 0
273 -13 0 7392 10 765 0
274 23 0 7609 10 0 137
275 3 0 7344 10 0 128
276 33 0 7564 10 0 38
277 -9 0 7476 10 160 0
278 -18 0 7441 10 537 0
279 -28 2669 2909 10 920 0
280 10 0 7589 10 0 498
281 -25 1243 1483 10 293 0
282 -30 0 7576 10 534 0
283 19 0 7450 10 0 594
284 -25 0 7580 10 81 0
285 -2 0 7590 10 700 0
286 -23 0 7380 10 818 0
287 23 0 7562 10 0 540
288 -11 0 7569 10 849 0
289 -25 0 7495 10 814 0
290 15 0 7602 10 0 680
291 -7 6600 6840 10 465 0
292 18 0 7413 10 0 316
293 25 0 7455 10 0 281
294 25 0 7508 10 0 44
295 -13 0 7638 10 22 0
296 -26 0 7525 10 488 0
297 17 0 7494 10 0 347
298 -21 0 7461 10 82 0
299 10 0 7444 10 0 970
300 19 0 7548 10 0 739
301 13 0 7492 10 0 3
302 -34 1224 1464 10 251 0
303 -16 5354 5594 10 612 0
304 -17 4708 4948 10 472 0
305 20 0 7438 10 0 630
306 13 0 7392 10 0 181
307 33 0 7561 10 0 614
308 -23 2563 2803 10 373 0
309 37 0 7490 10 0 354
310 12 1734 1974 10 0 448
311 -18 2129 2369 10 377 0
312 18 0 7520 10 0 409
313 14 0 7485 10 0 439
314 15 54 294 10 0 552
315 -15 0 7473 10 74 0
316 -18 0 7524 10 292 0
317 -21 0 7640 10 791 0
318 -19 3113 3353 10 401 0
319 -9 0 7472 10 870 0
320 9 1775 2015 10 0 101
321 -12 0 7589 10 480 0
322 16 3469 3709 10 0 378
323 -26 4084 4324 10 617 0
324 -21 0 7598 10 729 0
325 -24 0 7466 10 142 0
326 28 990 1230 10 0 770
327 23 4326 4566 10 0 995
328 22 0 7450 10 0 331
329 -24 0 7459 10 766 0
330 31 0 7593 10 0 470
331 -22 0 7517 10 328 0
332 22 0 7460 10 0 84
333 -18 0 7544 10 97 0
334 13 0 7456 10 0 169
335 14 0 7379 10 0 435
336 -18 3405 3645 10 156 0
337 -25 0 7633 10 933 0
338 26 0 7506 10 0 859
339 36 5075 5315 10 0 897
340 33 1732 1972 10 0 906
341 -27 0 7463 10 368 0
342 -4 1350 1590 10 165 0
343 -22 2357 2597 10 909 0
344 -43 0 7441 10 805 0
345 -22 0 7418 10 479 0
346 -17 0 7451 10 836 0
347 -17 0 7495 10 297 0
348 10 0 7516 10 0 872
349 -6 0 7598 10 845 0
350 22 118 358 10 0 240
351 20 0 7661 10 0 611
352 26 0 7516 10 0 847
353 -22 2817 3057 10 983 0
354 -37 0 7430 10 309 0
355 12 0 7530 10 0 59
356 -17 0 7481 10 34 0
357 -13 4054 4294 10 71 0
358 20 1806 2046 10 0 632
359 3 0 7444 10 0 615
360 13 0 7417 10 0 561
361 -23 3413 3653 10 992 0
362 -22 0 7550 10 249 0
363 -25 0 7455 10 407 0
364 29 3470 3710 10 0 179
365 -30 0 7617 10 796 0
366 20 0 7547 10 0 581
367 14 0 7497 10 0 166
368 27 2802 3042 10 0 341
369 35 422 662 10 0 143
370 -28 0 7521 10 207 0
371 25 0 7514 10 0 591
372 19 0 7581 10 0 625
373 23 0 7575 10 0 308
374 1 0 7467 10 0 16
375 12 0 7527 10 0 717
376 -32 0 7462 10 267 0
377 18 0 7556 10 0 311
378 -16 0 7461 10 322 0
379 -14 0 7460 10 468 0
380 -2 0 7491 10 643 0
381 -11 0 7481 10 727 0
382 -21 0 7637 10 618 0
383 5 0 7496 10 0 111
384 -16 0 7463 10 60 0
385 -16 3486 3726 10 695 0
386 -18 0 7577 10 994 0
387 -7 0 7566 10 977 0
388 -11 0 7451 10 690 0
389 25 2247 2487 10 0 556
390 -26 0 7536 10 965 0
391 -10 0 7652 10 20 0
392 -26 1227 1467 10 482 0
393 15 5675 5915 10 0 88
394 -12 0 7518 10 856 0
395 17 5220 5460 10 0 710
396 -14 825 1065 10 483 0
397 17 0 7440 10 0 718
398 -24 0 7569 10 626 0
399 28 0 7462 10 0 755
400 26 3752 3992 10 0 8
401 19 0 7593 10 0 318
402 -10 3977 4217 10 449 0
403 -15 0 7610 10 257 0
404 -5 0 7462 10 4 0
405 -21 3082 3322 10 228 0
406 -17 865 1105 10 807 0
407 25 0 7495 10 0 363
408 14 3661 3901 10 0 536
409 -18 0 7514 10 312 0
410 8 0 7501 10 0 638
411 23 0 7528 0 0 1007
412 -9 6362 6602 10 563 0
413 19 0 7444 10 0 857
414 -13 0 7495 10 452 0
415 6 0 7566 10 0 108
416 -10 0 7613 10 42 0
417 -15 0 7429 10 662 0
418 -14 1939 2179 10 180 0
419 -1 0 7432 10 90 0
420 22 0 7419 10 0 714
421 25 0 7494 10 0 512
422 -18 0 7612 10 7 0
423 18 4110 4350 10 0 95
424 -4 0 7549 10 707 0
425 5 0 7429 10 0 80
426 16 0 7432 10 0 149
427 16 0 7586 10 0 162
428 1 0 7530 10 0 541
429 -12 0 7437 10 79 0
430 -14 0 7506 10 871 0
431 -19 6286 6526 10 610 0
432 -33 0 7451 10 985 0
433 24 0 7504 10 0 830
434 6 0 7484 10 0 464
435 -14 0 7411 10 335 0
436 -11 0 7513 10 266 0
437 36 0 7572 10 0 208
438 -35 0 7539 10 940 0
439 -14 5724 5964 10 313 0
440 40 0 7372 10 0 928
441 31 0 7368 10 0 925
442 29 5651 5891 10 0 886
443 15 0 7610 10 0 740
444 7 0 7423 10 0 560
445 29 4695 4935 10 0 826
446 -3 2847 3087 10 960 0
447 18 950 1190 10 0 246
448 -12 0 7459 10 310 0
449 10 3645 3885 10 0 402
450 14 0 7465 10 0 686
451 11 1732 1972 10 0 235
452 13 0 7479 10 0 414
453 -21 0 7656 10 187 0
454 -10 0 7516 10 25 0
455 21 177 417 10 0 745
456 -15 0 7494 10 114 0
457 -7 0 7476 10 650 0
458 -8 1559 1799 10 56 0
459 -4 0 7367 10 993 0
460 13 0 7463 10 0 605
461 -16 0 7397 10 46 0
462 14 0 7414 10 0 884
463 19 2606 2846 10 0 945
464 -6 4347 4587 10 434 0
465 7 0 7539 10 0 291
466 -25 0 7432 10 647 0
467 5 2285 2525 10 0 471
468 14 0 7560 10 0 379
469 17 0 7465 10 0 855
470 -31 357 597 10 330 0
471 -5 4375 4615 10 467 0
472 17 0 7568 10 0 304
473 -10 5445 5685 10 957 0
474 6 0 7480 10 0 238
475 15 0 7531 10 0 568
476 -15 0 7520 10 691 0
477 -17 0 7541 10 78 0
478 14 3890 4130 10 0 92
479 22 0 7440 10 0 345
480 12 0 7535 10 0 321
481 18 0 7440 10 0 961
482 26 578 818 10 0 392
483 14 0 7516 10 0 396
484 23 0 7470 10 0 723
485 13 0 7535 10 0 573
486 -24 0 7382 10 853 0
487 -27 0 7437 10 492 0
488 26 0 7645 10 0 296
489 36 0 7393 10 0 189
490 -29 0 7497 10 875 0
491 17 154 394 10 0 119
492 27 0 7487 10 0 487
493 -32 0 7506 10 712 0
494 4 0 7616 10 0 555
495 -10 0 7569 10 753 0
496 19 0 7515 10 0 981
497 -30 0 7404 10 633 0
498 -10 0 7442 10 280 0
499 11 3118 3358 10 0 258
500 30 0 7562 10 0 744
501 -21 0 7412 10 216 0
502 -17 4804 5044 10 199 0
503 11 0 7472 10 0 583
504 17 0 7656 10 0 644
505 14 4126 4366 10 0 711
506 3 0 7402 10 0 815
507 -14 0 7533 10 828 0
508 17 5749 5989 10 0 268
509 5 3109 3349 10 0 635
510 -25 0 7440 10 705 0
511 25 0 7451 10 0 888
512 -25 0 7493 10 421 0
513 30 661 901 10 0 795
514 25 0 7492 10 0 39
515 7 0 7429 10 0 802
516 24 4523 4763 10 0 68
517 -27 3782 4022 10 195 0
518 -10 0 7467 10 761 0
519 3 0 7456 10 0 254
520 27 0 7563 10 0 885
521 -13 0 7630 10 73 0
522 28 0 7545 10 0 607
523 9 0 7500 10 0 176
524 25 2462 2702 10 0 793
525 29 0 7508 10 0 174
526 12 0 7545 10 0 774
527 15 0 7564 10 0 676
528 -12 4020 4260 10 775 0
529 -31 0 7524 10 542 0
530 10 4334 4574 10 0 773
531 19 0 7500 10 0 545
532 -20 0 7452 10 539 0
533 10 2657 2897 10 0 767
534 30 2434 2674 10 0 282
535 17 0 7495 10 0 764
536 -14 0 7571 10 408 0
537 18 0 7531 10 0 278
538 -25 5760 6000 10 75 0
539 20 0 7378 10 0 532
540 -23 0 7598 10 287 0
541 -1 4490 4730 10 428 0
542 31 0 7508 10 0 529
543 14 0 7602 10 0 667
544 18 1249 1489 10 0 820
545 -19 0 7499 10 531 0
546 -3 4781 5021 10 919 0
547 36 0 7506 10 0 120
548 8 0 7651 10 0 77
549 9 0 7637 10 0 584
550 22 1346 1586 10 0 656
551 -7 0 7503 10 720 0
552 -15 0 7421 10 314 0
553 34 0 7453 10 0 224
554 20 0 7618 10 0 161
555 -4 1354 1594 10 494 0
556 -25 4927 5167 10 389 0
557 5 0 7537 10 0 672
558 -14 5416 5656 10 597 0
559 -23 0 7391 10 968 0
560 -7 3281 3521 10 444 0
561 -13 0 7473 10 360 0
562 16 1335 1575 10 0 209
563 9 0 7449 10 0 412
564 14 0 7442 10 0 588
565 -21 0 7503 10 808 0
566 -26 4845 5085 10 803 0
567 -7 4929 5169 10 126 0
568 -15 0 7554 10 475 0
569 22 0 7558 10 0 168
570 -11 0 7496 10 229 0
571 -8 0 7438 10 170 0
572 26 0 7458 10 0 794
573 -13 0 7450 10 485 0
574 13 0 7371 10 0 264
575 -17 3159 3399 10 225 0
576 25 0 7484 10 0 998
577 10 0 7628 10 0 32
578 19 4756 4996 10 0 271
579 25 0 7457 10 0 91
580 -25 0 7442 10 205 0
581 -20 0 7660 10 366 0
582 19 0 7559 10 0 183
583 -11 0 7607 10 503 0
584 -9 0 7617 10 549 0
585 31 0 7447 10 0 83
586 14 0 7526 10 0 177
587 7 0 7498 10 0 51
588 -14 0 7442 10 564 0
589 29 2172 2412 10 0 964
590 -13 4901 5141 10 158 0
591 -25 0 7475 10 371 0
592 17 0 7464 10 0 226
593 -19 2233 2473 10 47 0
594 -19 5327 5567 10 283 0
595 14 350 590 10 0 681
596 13 0 7494 0 0 1003
597 14 0 7561 10 0 558
598 -11 5696 5936 10 999 0
599 10 0 7519 10 0 646
600 46 0 7399 10 0 619
601 21 0 7440 10 0 70
602 -23 0 7421 10 785 0
603 -19 0 7438 10 50 0
604 10 0 7604 10 0 674
605 -13 0 7502 10 460 0
606 1 0 7572 10 0 33
607 -28 0 7611 10 522 0
608 -20 0 7564 10 890 0
609 -13 0 7560 10 138 0
610 19 2120 2360 10 0 431
611 -20 0 7483 10 351 0
612 16 0 7514 10 0 303
613 27 0 7476 10 0 192
614 -33 2821 3061 10 307 0
615 -3 0 7421 10 359 0
616 -27 2620 2860 10 100 0
617 26 1125 1365 10 0 323
618 21 0 7458 10 0 382
619 -46 0 7437 10 600 0
620 -31 0 7439 10 916 0
621 -14 0 7393 10 27 0
622 15 2336 2576 10 0 689
623 -16 0 7496 10 986 0
624 -31 0 7549 10 799 0
625 -19 0 7635 10 372 0
626 24 6055 6295 10 0 398
627 12 0 7506 10 0 132
628 -18 3201 3441 10 197 0
629 -32 0 7419 10 892 0
630 -20 0 7470 10 305 0
631 24 1954 2194 10 0 924
632 -20 0 7422 10 358 0
633 30 0 7544 10 0 497
634 30 0 7419 10 0 107
635 -5 0 7377 10 509 0
636 -31 1678 1918 10 867 0
637 10 0 7349 10 0 28
638 -8 0 7447 10 410 0
639 -22 0 7416 10 751 0
640 14 0 7539 10 0 153
641 -8 0 7477 10 175 0
642 -26 0 7443 10 248 0
643 2 0 7480 10 0 380
644 -17 3551 3791 10 504 0
645 -2 0 7505 10 778 0
646 -10 0 7445 10 599 0
647 25 0 7362 10 0 466
648 20 0 7482 10 0 13
649 2 0 7514 10 0 253
650 7 0 7513 10 0 457
651 -13 0 7459 10 65 0
652 17 0 7445 10 0 677
653 -29 6222 6462 10 29 0
654 -24 0 7568 10 171 0
655 -21 0 7478 10 967 0
656 -22 4993 5233 10 550 0
657 -22 0 7505 10 827 0
658 4 0 7447 0 0 1008
659 -15 0 7571 10 938 0
660 -18 0 7372 10 784 0
661 12 0 7552 10 0 678
662 15 0 7390 10 0 417
663 23 0 7618 10 0 816
664 -10 2387 2627 10 779 0
665 -15 0 7555 10 262 0
666 10 5725 5965 10 0 112
667 -14 0 7468 10 543 0
668 -12 0 7592 10 1001 0
669 -28 0 7517 10 783 0
670 -14 0 7467 10 752 0
671 17 0 7562 10 0 269
672 -5 0 7589 10 557 0
673 18 0 7500 0 0 1006
674 -10 0 7439 10 604 0
675 -15 0 7456 10 735 0
676 -15 0 7549 10 527 0
677 -17 0 7363 10 652 0
678 -12 0 7518 10 661 0
679 -18 0 7525 10 58 0
680 -15 4971 5211 10 290 0
681 -14 0 7468 10 595 0
682 17 0 7533 10 0 881
683 13 0 7474 10 0 272
684 18 0 7494 10 0 719
685 24 0 7503 10 0 810
686 -14 0 7558 10 450 0
687 -16 0 7441 10 109 0
688 -17 0 7407 10 736 0
689 -15 2858 3098 10 622 0
690 11 0 7468 10 0 388
691 15 0 7529 10 0 476
692 -25 0 7393 10 969 0
693 -14 0 7584 10 754 0
694 -9 0 7480 10 835 0
695 16 0 7551 10 0 385
696 -24 5560 5800 10 41 0
697 -16 0 7396 10 698 0
698 16 0 7404 10 0 697
699 -13 2696 2936 10 104 0
700 2 0 7453 10 0 285
701 13 0 7466 10 0 123
702 -15 0 7443 10 843 0
703 -15 0 7577 10 133 0
704 -11 0 7541 10 48 0
705 25 112 352 10 0 510
706 -16 0 7493 10 980 0
707 4 3004 3244 10 0 424
708 23 0 7549 10 0 122
709 32 0 7391 10 0 878
710 -17 0 7495 10 395 0
711 -14 6738 6978 10 505 0
712 32 2219 2459 10 0 493
713 28 0 7543 10 0 831
714 -22 0 7408 10 420 0
715 -20 5700 5940 10 883 0
716 12 0 7454 0 0 1005
717 -12 4955 5195 10 375 0
718 -17 0 7403 10 397 0
719 -18 0 7564 10 684 0
720 7 0 7452 10 0 551
721 -13 0 7483 10 762 0
722 -28 0 7466 10 9 0
723 -23 0 7344 10 484 0
724 20 0 7511 10 0 904
725 7 0 7430 10 0 777
726 -8 0 7551 10 35 0
727 11 0 7496 10 0 381
728 -27 0 7550 10 202 0
729 21 0 7378 10 0 324
730 13 0 7356 10 0 172
731 -13 0 7518 10 243 0
732 -13 0 7410 10 908 0
733 23 0 7480 10 0 742
734 -21 0 7519 10 220 0
735 15 0 7483 10 0 675
736 17 0 7381 10 0 688
737 -24 0 7481 10 782 0
738 -14 2453 2693 10 148 0
739 -19 0 7590 10 300 0
740 -15 0 7638 10 443 0
741 13 0 7521 10 0 979
742 -23 0 7584 10 733 0
743 -19 0 7411 10 804 0
744 -30 0 7552 10 500 0
745 -21 0 7548 10 455 0
746 -19 3939 4179 10 914 0
747 -8 0 7448 10 134 0
748 1 0 7542 10 0 198
749 19 0 7447 10 0 824
750 22 0 7476 10 0 152
751 22 0 7546 10 0 639
752 14 4367 4607 10 0 670
753 10 2098 2338 10 0 495
754 14 4071 4311 10 0 693
755 -28 0 7480 10 399 0
756 29 0 7384 10 0 874
757 -15 0 7478 10 167 0
758 -14 0 7488 10 150 0
759 28 0 7448 10 0 193
760 10 0 7430 10 0 24
761 10 833 1073 10 0 518
762 13 0 7521 10 0 721
763 -32 0 7428 10 130 0
764 -17 3992 4232 10 535 0
765 13 0 7460 10 0 273
766 24 0 7441 10 0 329
767 -10 0 7475 10 533 0
768 10 0 7494 10 0 63
769 -2 0 7416 10 265 0
770 -28 0 7471 10 326 0
771 -19 0 7476 10 26 0
772 -19 0 7421 10 942 0
773 -10 0 7565 10 530 0
774 -12 3540 3780 10 526 0
775 12 0 7402 10 0 528
776 29 0 7616 10 0 987
777 -7 0 7376 10 725 0
778 2 0 7390 10 0 645
779 10 0 7508 10 0 664
780 18 5893 6133 10 0 231
781 -26 0 7503 10 210 0
782 24 0 7556 10 0 737
783 28 0 7598 10 0 669
784 18 0 7379 10 0 660
785 23 0 7480 10 0 602
786 -4 0 7492 10 800 0
787 5 0 7513 10 0 929
788 -16 6329 6569 10 250 0
789 7 1650 1890 10 0 823
790 15 0 7450 10 0 147
791 21 0 7453 10 0 317
792 20 3117 3357 10 0 67
793 -25 0 7492 10 524 0
794 -26 0 7582 10 572 0
795 -30 1992 2232 10 513 0
796 30 2422 2662 10 0 365
797 -36 0 7380 10 221 0
798 -15 0 7538 10 953 0
799 31 0 7534 10 0 624
800 4 0 7412 10 0 786
801 -10 0 7401 10 15 0
802 -7 0 7467 10 515 0
803 26 0 7648 10 0 566
804 19 73 313 10 0 743
805 43 0 7460 10 0 344
806 -8 0 7613 10 982 0
807 17 308 548 10 0 406
808 21 0 7644 10 0 565
809 -23 0 7489 10 837 0
810 -24 0 7562 10 685 0
811 29 0 7455 10 0 934
812 -12 1570 1810 10 213 0
813 -28 0 7489 10 234 0
814 25 0 7432 10 0 289
815 -3 0 7472 10 506 0
816 -23 1312 1552 10 663 0
817 -32 0 7577 10 952 0
818 23 0 7359 10 0 286
819 7 0 7637 10 0 907
820 -18 0 7378 10 544 0
821 9 0 7437 10 0 863
822 -7 0 7365 10 129 0
823 -7 4832 5072 10 789 0
824 -19 0 7450 10 749 0
825 -23 2967 3207 10 30 0
826 -29 0 7502 10 445 0
827 22 0 7533 10 0 657
828 14 0 7474 10 0 507
829 26 0 7536 0 0 1009
830 -24 0 7477 10 433 0
831 -28 0 7564 10 713 0
832 27 0 7450 10 0 861
833 -10 711 951 10 204 0
834 29 0 7458 10 0 913
835 9 0 7471 10 0 694
836 17 0 7472 10 0 346
837 23 1919 2159 10 0 809
838 -8 0 7440 10 124 0
839 17 0 7454 10 0 218
840 -13 0 7651 10 976 0
841 18 1636 1876 10 0 850
842 4 0 7452 10 0 971
843 15 0 7500 10 0 702
844 24 0 7479 10 0 54
845 6 4653 4893 10 0 349
846 -8 0 7447 10 52 0
847 -26 0 7520 10 352 0
848 30 1027 1267 10 0 64
849 11 0 7612 10 0 288
850 -18 0 7579 10 841 0
851 9 0 7654 10 0 244
852 -24 0 7486 10 918 0
853 24 0 7572 10 0 486
854 -14 0 7413 10 76 0
855 -17 5934 6174 10 469 0
856 12 0 7496 10 0 394
857 -19 0 7442 10 413 0
858 21 0 7484 10 0 912
859 -26 4526 4766 10 338 0
860 -14 5062 5302 10 239 0
861 -27 0 7471 10 832 0
862 8 0 7498 10 0 896
863 -9 0 7498 10 821 0
864 -15 0 7402 10 898 0
865 29 0 7469 10 0 164
866 31 0 7448 10 0 140
867 31 1165 1405 10 0 636
868 23 1931 2171 10 0 956
869 15 0 7374 10 0 237
870 9 0 7483 10 0 319
871 14 0 7610 10 0 430
872 -10 0 7512 10 348 0
873 -6 0 7533 10 1000 0
874 -29 4812 5052 10 756 0
875 29 0 7486 10 0 490
876 31 0 7395 10 0 211
877 27 3022 3262 10 0 203
878 -32 2104 2344 10 709 0
879 23 0 7471 10 0 991
880 -12 0 7410 10 984 0
881 -17 0 7636 10 682 0
882 -33 5631 5871 10 894 0
883 20 0 7436 10 0 715
884 -14 0 7424 10 462 0
885 -27 0 7516 10 520 0
886 -29 0 7480 10 442 0
887 -23 0 7441 10 194 0
888 -25 0 7625 10 511 0
889 -20 5857 6097 10 191 0
890 20 0 7447 10 0 608
891 14 2091 2331 10 0 182
892 32 0 7396 10 0 629
893 30 0 7374 10 0 94
894 33 0 7446 10 0 882
895 -9 0 7445 10 69 0
896 -8 0 7524 10 862 0
897 -36 5145 5385 10 339 0
898 15 0 7465 10 0 864
899 9 18 258 10 0 186
900 16 465 705 10 0 954
901 24 0 7495 10 0 949
902 -23 0 7428 10 118 0
903 -20 0 7429 10 955 0
904 -20 3622 3862 10 724 0
905 20 0 7463 10 0 206
906 -33 0 7486 10 340 0
907 -7 0 7401 10 819 0
908 13 0 7394 10 0 732
909 22 0 7431 10 0 343
910 -11 2898 3138 10 43 0
911 -11 0 7481 10 72 0
912 -21 0 7527 10 858 0
913 -29 0 7640 10 834 0
914 19 0 7570 10 0 746
915 -22 0 7412 10 917 0
916 31 0 7451 10 0 620
917 22 0 7392 10 0 915
918 24 0 7573 10 0 852
919 3 0 7371 10 0 546
920 28 0 7497 10 0 279
921 -8 0 7394 10 89 0
922 20 0 7646 10 0 214
923 -13 0 7538 10 115 0
924 -24 0 7419 10 631 0
925 -31 0 7395 10 441 0
926 21 0 7487 10 0 144
927 -40 4746 4986 10 12 0
928 -40 0 7504 10 440 0
929 -5 0 7465 10 787 0
930 27 2408 2648 10 0 159
931 -36 4919 5159 10 135 0
932 40 0 7439 10 0 151
933 25 0 7392 10 0 337
934 -29 0 7458 10 811 0
935 -12 0 7571 10 23 0
936 23 0 7385 10 0 227
937 12 0 7483 10 0 173
938 15 0 7567 10 0 659
939 23 0 7498 10 0 233
940 35 0 7430 10 0 438
941 -8 0 7447 10 989 0
942 19 0 7435 10 0 772
943 15 0 7570 0 0 1004
944 14 3139 3379 10 0 260
945 -19 6051 6291 10 463 0
946 15 0 7444 0 0 1002
947 13 106 346 10 0 256
948 29 3092 3332 10 0 962
949 -24 0 7417 10 901 0
950 -31 4435 4675 10 146 0
951 -15 0 7661 10 215 0
952 32 0 7641 10 0 817
953 15 0 7487 10 0 798
954 -16 0 7513 10 900 0
955 20 0 7430 10 0 903
956 -23 0 7438 10 868 0
957 10 3253 3493 10 0 473
958 22 0 7551 10 0 6
959 -23 0 7423 10 157 0
960 3 0 7493 10 0 446
961 -18 0 7439 10 481 0
962 -29 0 7490 10 948 0
963 -19 0 7470 10 996 0
964 -29 0 7478 10 589 0
965 26 6242 6482 10 0 390
966 -20 0 7522 10 972 0
967 21 0 7436 10 0 655
968 23 4694 4934 10 0 559
969 25 875 1115 10 0 692
970 -10 0 7520 10 299 0
971 -4 0 7448 10 842 0
972 20 0 7481 10 0 966
973 -16 0 7421 10 163 0
974 27 0 7595 10 0 127
975 33 0 7439 10 0 232
976 13 2456 2696 10 0 840
977 7 0 7507 10 0 387
978 7 515 755 10 0 86
979 -13 4721 4961 10 741 0
980 16 4519 4759 10 0 706
981 -19 0 7493 10 496 0
982 8 0 7422 10 0 806
983 22 0 7416 10 0 353
984 12 340 580 10 0 880
985 33 104 344 10 0 432
986 16 2067 2307 10 0 623
987 -29 634 874 10 776 0
988 19 0 7555 10 0 255
989 8 0 7472 10 0 941
990 15 3406 3646 10 0 190
991 -23 0 7490 10 879 0
992 23 0 7516 10 0 361
993 4 0 7511 10 0 459
994 18 37 277 10 0 386
995 -23 0 7626 10 327 0
996 19 0 7446 10 0 963
997 -22 1542 1782 10 236 0
998 -25 0 7476 10 576 0
999 11 0 7498 10 0 598
1000 6 0 7479 10 0 873
1001 12 0 7445 10 0 668
1002 -15 0 7444 10 946 0
1003 -13 0 7494 10 596 0
1004 -15 0 7570 10 943 0
1005 -12 0 7454 10 716 0
1006 -18 0 7500 10 673 0
1007 -23 0 7528 10 411 0
1008 -4 0 7447 10 658 0
1009 -26 0 7536 10 829 0
DEPOT_SECTION
1
-1
EOF
