NAME: lr2_10_5
TYPE: PDPTW
COMMENT: Li & Lim PDPTW benchmark converted from SINTEF format
DIMENSION: 1009
VEHICLES: 250
CAPACITY: 1000
EDGE_WEIGHT_TYPE: EUC_2D
NODE_COORD_SECTION
1 250 250
2 228 399
3 325 56
4 290 145
5 340 291
6 370 382
7 273 255
8 36 301
9 117 178
10 295 283
11 57 43
12 436 123
13 48 162
14 222 499
15 376 92
16 437 90
17 3 23
18 94 40
19 398 476
20 307 249
21 179 286
22 0 356
23 143 158
24 413 476
25 371 488
26 415 118
27 440 77
28 261 201
29 490 286
30 309 161
31 39 162
32 361 178
33 261 138
34 447 383
35 346 354
36 461 195
37 187 263
38 130 247
39 328 491
40 161 276
41 365 74
42 168 109
43 111 192
44 87 213
45 45 166
46 62 94
47 348 476
48 64 437
49 56 75
50 24 259
51 295 247
52 6 53
53 15 11
54 179 497
55 67 352
56 317 45
57 40 278
58 33 278
59 322 290
60 159 226
61 208 445
62 453 360
63 34 169
64 436 25
65 393 98
66 466 96
67 366 390
68 303 78
69 374 116
70 424 288
71 191 84
72 59 276
73 215 293
74 343 276
75 488 173
76 452 110
77 153 244
78 176 200
79 498 171
80 492 188
81 177 156
82 398 49
83 497 296
84 276 84
85 128 113
86 422 498
87 460 424
88 246 314
89 0 422
90 166 247
91 311 422
92 392 95
93 460 117
94 28 467
95 375 145
96 240 255
97 440 436
98 454 201
99 407 35
100 420 383
101 264 180
102 440 294
103 500 228
104 144 331
105 98 2
106 461 186
107 68 450
108 153 192
109 34 239
110 465 367
111 208 488
112 93 413
113 371 332
114 231 167
115 179 75
116 196 489
117 280 245
118 108 37
119 1 101
120 420 80
121 38 190
122 470 405
123 448 397
124 471 427
125 146 376
126 12 358
127 175 422
128 297 131
129 457 492
130 69 423
131 97 288
132 172 314
133 170 347
134 103 123
135 154 374
136 318 497
137 330 147
138 241 180
139 174 67
140 235 288
141 94 192
142 232 101
143 28 180
144 64 135
145 174 376
146 293 174
147 218 12
148 110 122
149 459 53
150 173 474
151 135 400
152 497 266
153 380 194
154 495 227
155 268 351
156 213 399
157 448 414
158 327 139
159 151 81
160 425 448
161 92 259
162 59 388
163 468 360
164 332 459
165 469 489
166 248 176
167 174 41
168 343 205
169 154 392
170 92 18
171 250 328
172 88 484
173 360 488
174 156 65
175 18 225
176 152 476
177 176 470
178 195 450
179 466 149
180 221 269
181 105 137
182 284 319
183 41 120
184 263 418
185 218 271
186 365 119
187 89 322
188 180 283
189 385 17
190 401 314
191 245 176
192 251 238
193 139 438
194 236 126
195 61 441
196 405 454
197 111 392
198 373 421
199 247 443
200 322 406
201 412 478
202 374 346
203 122 422
204 261 359
205 173 182
206 398 341
207 413 127
208 325 311
209 80 357
210 67 378
211 216 341
212 498 457
213 44 344
214 352 481
215 237 420
216 389 43
217 292 136
218 426 38
219 245 461
220 415 253
221 298 264
222 307 412
223 53 204
224 480 152
225 262 97
226 83 169
227 377 432
228 390 249
229 132 479
230 359 246
231 314 205
232 124 448
233 0 188
234 343 166
235 482 141
236 162 306
237 24 71
238 188 119
239 100 85
240 103 177
241 26 67
242 164 332
243 385 285
244 209 68
245 149 341
246 415 95
247 167 488
248 413 493
249 439 222
250 150 484
251 299 353
252 273 300
253 402 277
254 239 15
255 363 225
256 65 343
257 351 60
258 60 246
259 144 35
260 463 253
261 332 382
262 408 318
263 452 206
264 471 368
265 93 490
266 241 402
267 60 231
268 172 66
269 404 207
270 286 356
271 489 338
272 334 481
273 26 442
274 226 175
275 488 3
276 178 150
277 371 423
278 5 224
279 94 344
280 153 235
281 12 367
282 217 357
283 255 487
284 149 214
285 169 305
286 487 446
287 267 374
288 360 294
289 185 431
290 325 210
291 175 352
292 76 462
293 19 273
294 72 227
295 213 283
296 130 140
297 274 442
298 337 41
299 372 39
300 269 112
301 224 56
302 340 416
303 13 214
304 230 320
305 6 196
306 87 3
307 133 202
308 235 316
309 435 180
310 173 65
311 245 42
312 384 149
313 51 286
314 267 290
315 453 318
316 189 402
317 210 276
318 120 261
319 35 263
320 429 59
321 330 308
322 58 391
323 260 472
324 217 333
325 335 46
326 198 85
327 138 28
328 29 336
329 200 27
330 157 269
331 177 404
332 202 28
333 366 334
334 149 458
335 481 454
336 377 385
337 217 207
338 96 346
339 224 320
340 206 97
341 438 127
342 494 468
343 494 165
344 5 281
345 441 60
346 14 232
347 288 439
348 420 224
349 267 162
350 195 273
351 233 230
352 382 360
353 406 460
354 499 316
355 246 407
356 283 454
357 426 231
358 432 2
359 404 439
360 397 477
361 44 140
362 330 138
363 39 153
364 397 153
365 226 316
366 354 156
367 201 66
368 389 156
369 134 211
370 386 154
371 335 99
372 356 256
373 240 362
374 412 100
375 394 322
376 48 150
377 225 121
378 102 422
379 339 41
380 440 201
381 411 379
382 219 210
383 250 441
384 210 29
385 178 302
386 148 208
387 225 369
388 16 287
389 450 416
390 287 397
391 285 247
392 351 481
393 243 408
394 137 377
395 33 152
396 68 303
397 456 113
398 134 276
399 26 221
400 79 257
401 181 185
402 104 349
403 267 174
404 475 267
405 385 239
406 95 382
407 67 190
408 32 94
409 401 164
410 376 113
411 409 255
412 228 260
413 363 34
414 274 441
415 146 188
416 212 186
417 432 66
418 83 300
419 51 89
420 379 486
421 440 284
422 175 239
423 282 1
424 268 113
425 480 131
426 429 67
427 162 301
428 281 96
429 495 199
430 372 115
431 396 83
432 239 486
433 288 70
434 66 163
435 470 417
436 226 423
437 342 319
438 174 122
439 49 353
440 448 495
441 13 465
442 489 159
443 311 203
444 480 119
445 442 153
446 148 462
447 233 87
448 323 34
449 84 377
450 292 32
451 418 75
452 451 305
453 225 269
454 272 420
455 318 280
456 250 57
457 77 372
458 385 58
459 44 496
460 460 328
461 67 24
462 91 27
463 360 284
464 82 183
465 153 362
466 52 412
467 32 191
468 325 147
469 328 458
470 133 273
471 147 30
472 131 246
473 433 319
474 168 59
475 218 403
476 295 89
477 118 314
478 251 63
479 388 44
480 381 328
481 132 32
482 334 403
483 83 290
484 411 396
485 243 402
486 52 18
487 265 0
488 268 288
489 476 61
490 283 438
491 191 215
492 253 50
493 71 282
494 297 304
495 244 368
496 80 279
497 488 96
498 142 30
499 68 240
500 193 138
501 451 62
502 138 406
503 306 42
504 247 219
505 98 29
506 102 6
507 142 360
508 172 24
509 352 241
510 486 324
511 133 455
512 440 292
513 364 173
514 442 289
515 48 412
516 344 70
517 78 406
518 329 456
519 157 38
520 374 260
521 297 283
522 210 113
523 215 434
524 262 92
525 140 108
526 235 108
527 210 133
528 25 53
529 339 113
530 394 310
531 126 391
532 343 34
533 354 416
534 202 391
535 367 97
536 188 151
537 111 178
538 456 157
539 441 7
540 270 337
541 323 29
542 200 78
543 330 281
544 438 488
545 161 416
546 30 97
547 273 70
548 214 245
549 221 291
550 79 467
551 423 315
552 395 474
553 481 207
554 199 203
555 497 483
556 449 428
557 100 266
558 214 274
559 16 68
560 475 198
561 371 427
562 62 375
563 163 472
564 13 314
565 376 385
566 231 29
567 89 358
568 331 356
569 365 190
570 256 441
571 120 37
572 349 43
573 230 487
574 489 457
575 341 72
576 181 441
577 306 229
578 492 326
579 347 459
580 66 88
581 272 234
582 134 194
583 320 211
584 214 311
585 489 274
586 231 410
587 432 199
588 29 358
589 62 236
590 333 163
591 364 71
592 125 65
593 429 476
594 161 275
595 365 274
596 117 110
597 166 345
598 345 146
599 324 99
600 72 477
601 487 320
602 120 17
603 1 252
604 303 186
605 428 302
606 264 135
607 223 178
608 174 347
609 238 123
610 187 61
611 52 303
612 89 185
613 341 59
614 89 65
615 495 355
616 368 452
617 164 473
618 171 34
619 114 460
620 224 3
621 472 57
622 448 404
623 390 120
624 386 225
625 301 239
626 115 296
627 69 266
628 115 395
629 68 53
630 33 268
631 450 45
632 351 5
633 351 148
634 80 458
635 60 5
636 10 407
637 497 18
638 437 98
639 130 494
640 391 202
641 43 210
642 381 457
643 449 190
644 429 169
645 105 140
646 282 10
647 20 480
648 61 170
649 210 81
650 87 311
651 309 29
652 397 57
653 337 232
654 262 369
655 41 232
656 69 414
657 149 98
658 207 487
659 366 260
660 497 54
661 210 379
662 437 19
663 181 260
664 125 61
665 368 311
666 80 400
667 75 118
668 171 303
669 80 251
670 455 168
671 215 129
672 179 318
673 187 73
674 394 47
675 31 175
676 339 144
677 492 34
678 387 349
679 142 372
680 291 213
681 421 387
682 274 403
683 434 359
684 257 57
685 428 202
686 355 174
687 46 389
688 44 440
689 491 369
690 33 286
691 351 128
692 485 428
693 273 149
694 447 184
695 386 245
696 323 77
697 21 70
698 9 101
699 71 304
700 43 360
701 396 417
702 158 24
703 164 320
704 195 386
705 306 235
706 66 314
707 95 64
708 348 348
709 495 83
710 61 214
711 240 240
712 140 137
713 242 106
714 392 491
715 342 481
716 478 300
717 299 285
718 481 84
719 271 128
720 484 224
721 441 177
722 46 163
723 493 493
724 253 74
725 390 34
726 374 306
727 436 295
728 371 315
729 27 464
730 3 471
731 418 269
732 90 477
733 141 426
734 418 251
735 57 183
736 29 462
737 55 318
738 18 24
739 263 153
740 289 220
741 84 255
742 159 299
743 485 104
744 178 135
745 389 255
746 457 280
747 171 24
748 330 371
749 10 237
750 458 213
751 257 391
752 482 184
753 222 331
754 332 5
755 47 208
756 489 437
757 165 59
758 211 446
759 225 488
760 355 485
761 441 374
762 399 175
763 103 464
764 244 13
765 51 360
766 44 115
767 312 453
768 64 198
769 67 451
770 371 71
771 439 156
772 105 474
773 366 288
774 415 207
775 58 39
776 197 202
777 442 5
778 71 12
779 74 215
780 347 192
781 178 420
782 186 135
783 176 199
784 438 5
785 150 68
786 185 434
787 215 79
788 177 486
789 49 437
790 100 66
791 35 344
792 433 447
793 372 97
794 344 203
795 423 170
796 171 188
797 64 5
798 371 163
799 398 210
800 48 437
801 392 1
802 195 464
803 211 248
804 293 228
805 23 235
806 213 185
807 172 292
808 228 287
809 387 394
810 374 232
811 48 366
812 44 311
813 447 272
814 132 477
815 80 117
816 11 403
817 144 220
818 473 491
819 210 219
820 452 484
821 365 28
822 498 456
823 84 453
824 91 427
825 178 72
826 409 155
827 132 151
828 136 430
829 292 104
830 443 167
831 321 149
832 235 13
833 166 440
834 112 433
835 452 172
836 37 281
837 414 378
838 475 352
839 400 71
840 286 244
841 429 389
842 92 76
843 124 111
844 268 458
845 352 63
846 49 118
847 398 329
848 382 9
849 229 322
850 279 355
851 266 221
852 142 80
853 359 287
854 482 104
855 284 457
856 64 294
857 404 59
858 68 160
859 211 411
860 30 155
861 240 34
862 107 374
863 404 140
864 436 467
865 421 386
866 182 480
867 9 233
868 110 251
869 19 38
870 46 248
871 308 199
872 423 221
873 313 391
874 413 345
875 278 450
876 94 497
877 7 382
878 493 111
879 392 87
880 13 394
881 259 301
882 351 233
883 313 493
884 65 62
885 417 212
886 450 194
887 470 138
888 190 267
889 248 214
890 50 383
891 244 422
892 60 29
893 5 445
894 490 276
895 441 100
896 162 388
897 244 277
898 406 408
899 265 240
900 130 186
901 382 110
902 142 14
903 352 487
904 307 52
905 418 399
906 196 56
907 66 31
908 90 496
909 480 136
910 65 82
911 48 293
912 105 181
913 215 282
914 257 133
915 77 465
916 43 135
917 27 444
918 357 290
919 38 15
920 80 337
921 36 451
922 291 251
923 195 111
924 383 17
925 53 466
926 114 102
927 350 199
928 405 349
929 472 248
930 333 293
931 174 397
932 2 264
933 7 82
934 34 329
935 158 179
936 421 499
937 345 431
938 370 262
939 77 172
940 87 51
941 468 352
942 63 420
943 347 184
944 206 174
945 209 212
946 466 362
947 201 278
948 206 172
949 471 94
950 331 134
951 274 261
952 219 215
953 349 76
954 86 189
955 336 493
956 7 194
957 492 335
958 248 386
959 463 406
960 199 438
961 135 30
962 447 267
963 235 33
964 63 155
965 294 421
966 318 99
967 21 146
968 30 7
969 410 399
970 405 187
971 109 56
972 212 47
973 479 387
974 167 291
975 259 498
976 461 182
977 277 428
978 290 328
979 146 313
980 40 304
981 56 268
982 104 28
983 370 493
984 136 265
985 247 306
986 241 38
987 180 162
988 253 118
989 413 391
990 380 350
991 391 112
992 86 199
993 91 326
994 287 256
995 203 211
996 79 80
997 32 319
998 167 445
999 439 237
1000 373 418
1001 26 342
1002 56 75
1003 228 260
1004 84 453
1005 270 337
1006 261 201
1007 243 408
1008 33 152
1009 199 203
PICKUP_AND_DELIVERY_SECTION
1 0 0 7697 0 0 0
2 -23 2285 2525 10 287 0
3 13 3126 3366 10 0 516
4 -12 5066 5306 10 23 0
5 22 1822 2062 10 0 530
6 -27 3475 3715 10 202 0
7 -21 5908 6148 10 734 0
8 -12 760 1000 10 984 0
9 -24 4409 4649 10 609 0
10 -12 3513 3753 10 551 0
11 -11 4034 4274 10 17 0
12 -19 781 1021 10 826 0
13 -24 809 1049 10 675 0
14 7 3321 3561 10 0 385
15 10 3902 4142 10 0 535
16 12 2280 2520 10 0 949
17 11 1506 1746 10 0 11
18 24 4212 4452 10 0 919
19 25 1612 1852 10 0 25
20 10 5446 5686 10 0 882
21 8 1305 1545 10 0 522
22 13 4285 4525 10 0 980
23 12 490 730 10 0 4
24 -3 4656 4896 10 359 0
25 -25 2271 2511 10 19 0
26 19 806 1046 10 0 694
27 -18 3592 3832 10 447 0
28 15 5996 6236 0 0 1006
29 -20 2029 2269 10 905 0
30 23 2273 2513 10 0 368
31 18 2201 2441 10 0 175
32 5 3830 4070 10 0 304
33 1 2413 2653 10 0 762
34 17 831 1071 10 0 102
35 -9 3210 3450 10 678 0
36 -33 5520 5760 10 80 0
37 35 137 377 10 0 956
38 17 360 600 10 0 258
39 -12 2653 2893 10 937 0
40 -23 474 714 10 663 0
41 -18 3334 3574 10 673 0
42 10 757 997 10 0 85
43 11 4738 4978 10 0 680
44 -17 2443 2683 10 296 0
45 22 3993 4233 10 0 464
46 16 3742 3982 10 0 461
47 -8 4727 4967 10 222 0
48 11 3613 3853 10 0 921
49 24 5691 5931 0 0 1002
50 19 1420 1660 10 0 558
51 -8 5154 5394 10 809 0
52 -25 2288 2528 10 933 0
53 -10 3747 3987 10 280 0
54 1 5584 5824 10 0 178
55 20 1433 1673 10 0 981
56 8 2573 2813 10 0 566
57 -38 4358 4598 10 256 0
58 -2 5889 6129 10 700 0
59 -15 5856 6096 10 938 0
60 16 256 496 10 0 900
61 22 5270 5510 10 0 145
62 13 804 1044 10 0 841
63 -22 1878 2118 10 827 0
64 -24 5069 5309 10 120 0
65 -30 2950 3190 10 513 0
66 -16 5473 5713 10 638 0
67 -21 5213 5453 10 117 0
68 12 600 840 10 0 842
69 -8 2289 2529 10 410 0
70 -6 4169 4409 10 336 0
71 -23 3408 3648 10 118 0
72 11 3510 3750 10 0 267
73 13 102 342 10 0 550
74 15 266 506 10 0 453
75 -22 4781 5021 10 909 0
76 14 1301 1541 10 0 743
77 5 371 611 10 0 281
78 17 2210 2450 10 0 526
79 12 4966 5206 10 0 653
80 33 2801 3041 10 0 36
81 25 609 849 10 0 259
82 -16 3107 3347 10 426 0
83 -33 2390 2630 10 838 0
84 20 2665 2905 10 0 529
85 -10 1391 1631 10 42 0
86 5 2708 2948 10 0 714
87 -23 5758 5998 10 484 0
88 -23 5721 5961 10 282 0
89 8 3224 3464 10 0 439
90 1 216 456 10 0 470
91 -25 3892 4132 10 881 0
92 16 3005 3245 10 0 217
93 -16 2019 2259 10 777 0
94 34 5310 5550 10 0 668
95 12 3657 3897 10 0 676
96 -24 6384 6624 10 193 0
97 -13 3508 3748 10 701 0
98 -20 5160 5400 10 560 0
99 -13 5093 5333 10 793 0
100 -9 3868 4108 10 160 0
101 -1 6663 6903 10 428 0
102 -17 3781 4021 10 34 0
103 8 3067 3307 10 0 670
104 13 3665 3905 10 0 763
105 14 2307 2547 10 0 724
106 -13 5989 6229 10 976 0
107 -22 2470 2710 10 396 0
108 -21 3403 3643 10 926 0
109 16 816 1056 10 0 698
110 14 4047 4287 10 0 578
111 22 1850 2090 10 0 802
112 17 785 1025 10 0 647
113 -19 2058 2298 10 264 0
114 15 221 461 10 0 599
115 13 2900 3140 10 0 861
116 23 4061 4301 10 0 172
117 21 30 270 10 0 67
118 23 2138 2378 10 0 71
119 -8 4969 5209 10 170 0
120 24 4327 4567 10 0 64
121 -23 1079 1319 10 992 0
122 17 3643 3883 10 0 248
123 33 3402 3642 10 0 959
124 8 3206 3446 10 0 898
125 8 877 1117 10 0 151
126 -7 4837 5077 10 650 0
127 -6 5726 5966 10 639 0
128 -11 4602 4842 10 950 0
129 7 1972 2212 10 0 681
130 -13 3150 3390 10 730 0
131 -23 5076 5316 10 188 0
132 9 2122 2362 10 0 948
133 15 1683 1923 10 0 753
134 -23 1899 2139 10 785 0
135 -17 3688 3928 10 199 0
136 -3 3355 3595 10 490 0
137 28 3334 3574 10 0 468
138 -3 6718 6958 10 519 0
139 -17 4979 5219 10 472 0
140 18 43 283 10 0 866
141 -11 4261 4501 10 361 0
142 24 1324 1564 10 0 596
143 34 1482 1722 10 0 939
144 -11 3413 3653 10 499 0
145 -22 5617 5857 10 61 0
146 -9 229 469 10 851 0
147 3 2116 2356 10 0 254
148 -23 5975 6215 10 546 0
149 -7 4429 4669 10 725 0
150 -10 5080 5320 10 446 0
151 -8 1134 1374 10 125 0
152 -9 2930 3170 10 941 0
153 3 2794 3034 10 0 780
154 20 1316 1556 10 0 720
155 -36 6640 6880 10 302 0
156 18 876 1116 10 0 414
157 23 4831 5071 10 0 1000
158 13 4969 5209 10 0 166
159 -21 6172 6412 10 618 0
160 9 3118 3358 10 0 100
161 4 1538 1778 10 0 284
162 20 2591 2831 10 0 811
163 16 1036 1276 10 0 946
164 -34 1415 1655 10 570 0
165 -12 2162 2402 10 555 0
166 -13 5546 5786 10 158 0
167 -14 5154 5394 10 239 0
168 26 3009 3249 10 0 290
169 9 566 806 10 0 942
170 8 4437 4677 10 0 119
171 24 935 1175 10 0 176
172 -23 5903 6143 10 116 0
173 -19 1202 1442 10 518 0
174 22 4089 4329 10 0 327
175 -18 2705 2945 10 31 0
176 -24 2030 2270 10 171 0
177 14 2127 2367 10 0 828
178 -1 5884 6124 10 54 0
179 -17 4684 4924 10 830 0
180 -21 5002 5242 10 405 0
181 32 1749 1989 10 0 589
182 17 3207 3447 10 0 200
183 22 2724 2964 10 0 968
184 25 1054 1294 10 0 197
185 -19 6235 6475 10 496 0
186 -5 1467 1707 10 787 0
187 -20 4023 4263 10 402 0
188 23 2915 3155 10 0 131
189 -26 3175 3415 10 878 0
190 -26 3846 4086 10 352 0
191 20 4879 5119 10 0 995
192 27 12 252 10 0 923
193 24 796 1036 10 0 96
194 23 379 619 10 0 430
195 -46 2115 2355 10 600 0
196 -14 5152 5392 10 335 0
197 -25 4616 4856 10 184 0
198 21 890 1130 10 0 342
199 17 1261 1501 10 0 135
200 -17 3257 3497 10 182 0
201 7 3779 4019 10 0 951
202 27 1624 1864 10 0 6
203 -15 5767 6007 10 758 0
204 10 318 558 10 0 654
205 25 291 531 10 0 710
206 33 3697 3937 10 0 605
207 -9 3263 3503 10 575 0
208 22 5229 5469 10 0 271
209 1 2062 2302 10 0 888
210 -13 1822 2062 10 737 0
211 -1 2556 2796 10 748 0
212 -15 3592 3832 10 622 0
213 12 4258 4498 10 0 626
214 -20 5079 5319 10 573 0
215 -10 5277 5517 10 449 0
216 21 1522 1762 10 0 632
217 -16 3062 3302 10 92 0
218 -17 2375 2615 10 718 0
219 8 2537 2777 10 0 849
220 21 1406 1646 10 0 659
221 36 80 320 10 0 731
222 8 1555 1795 10 0 47
223 -13 4160 4400 10 741 0
224 -5 4026 4266 10 674 0
225 -15 3728 3968 10 527 0
226 21 3046 3286 10 0 244
227 -12 3266 3506 10 480 0
228 -24 2267 2507 10 853 0
229 11 910 1150 10 0 383
230 -14 5631 5871 10 665 0
231 -20 6047 6287 10 366 0
232 6 1414 1654 10 0 789
233 -16 3668 3908 10 562 0
234 28 3444 3684 10 0 901
235 -18 3983 4223 10 784 0
236 22 417 657 10 0 476
237 11 1324 1564 10 0 635
238 44 3839 4079 10 0 691
239 14 1344 1584 10 0 167
240 28 2446 2686 10 0 722
241 -15 5207 5447 10 697 0
242 -23 5059 5299 10 868 0
243 13 3412 3652 10 0 885
244 -21 6212 6452 10 226 0
245 6 1556 1796 10 0 577
246 -7 4647 4887 10 532 0
247 17 940 1180 10 0 617
248 -17 4813 5053 10 122 0
249 -31 3858 4098 10 585 0
250 -9 2441 2681 10 786 0
251 34 336 576 10 0 761
252 30 100 340 10 0 850
253 -26 5694 5934 10 488 0
254 -3 2355 2595 10 147 0
255 -15 3363 3603 10 443 0
256 38 769 1009 10 0 57
257 15 781 1021 10 0 709
258 -17 640 880 10 38 0
259 -25 839 1079 10 81 0
260 -10 4128 4368 10 957 0
261 -16 3982 4222 10 347 0
262 15 2512 2752 10 0 726
263 31 1909 2149 10 0 357
264 19 1652 1892 10 0 113
265 2 1457 1697 10 0 800
266 -23 4039 4279 10 561 0
267 -11 4044 4284 10 72 0
268 18 5151 5391 10 0 536
269 -13 3582 3822 10 624 0
270 30 328 568 10 0 482
271 -22 5529 5769 10 208 0
272 32 1262 1502 10 0 533
273 -32 5316 5556 10 459 0
274 -19 6715 6955 10 401 0
275 -19 1542 1782 10 413 0
276 33 2466 2706 10 0 424
277 -15 724 964 10 314 0
278 19 4159 4399 10 0 594
279 26 2669 2909 10 0 400
280 10 273 513 10 0 53
281 -5 1243 1483 10 77 0
282 23 5620 5860 10 0 88
283 19 1532 1772 10 0 576
284 -4 1868 2108 10 161 0
285 -5 587 827 10 317 0
286 -12 5301 5541 10 864 0
287 23 2343 2583 10 0 2
288 -24 5611 5851 10 321 0
289 15 1488 1728 10 0 672
290 -26 3674 3914 10 168 0
291 -31 6600 6840 10 876 0
292 18 3764 4004 10 0 466
293 -26 4006 4246 10 418 0
294 25 2195 2435 10 0 858
295 14 5824 6064 10 0 913
296 17 716 956 10 0 44
297 -16 4205 4445 10 616 0
298 -27 3949 4189 10 613 0
299 10 2834 3074 10 0 660
300 -18 4991 5231 10 481 0
301 -35 4686 4926 10 369 0
302 36 1224 1464 10 0 155
303 21 5354 5594 10 0 582
304 -5 4708 4948 10 32 0
305 -10 4753 4993 10 779 0
306 -15 5672 5912 10 790 0
307 33 1782 2022 10 0 627
308 2 2563 2803 10 0 931
309 -14 838 1078 10 640 0
310 12 1734 1974 10 0 940
311 24 2129 2369 10 0 610
312 -31 4729 4969 10 370 0
313 -21 5776 6016 10 791 0
314 15 54 294 10 0 277
315 30 1435 1675 10 0 695
316 10 2084 2324 10 0 682
317 5 71 311 10 0 285
318 5 3113 3353 10 0 805
319 27 1021 1261 10 0 812
320 9 1775 2015 10 0 362
321 24 4622 4862 10 0 288
322 -6 3469 3709 10 767 0
323 33 4084 4324 10 0 760
324 26 1584 1824 10 0 776
325 -11 5307 5547 10 503 0
326 28 990 1230 10 0 879
327 -22 4326 4566 10 174 0
328 22 1266 1506 10 0 836
329 -17 2039 2279 10 504 0
330 -11 6245 6485 10 690 0
331 -7 4989 5229 10 465 0
332 -35 3677 3917 10 817 0
333 5 1581 1821 10 0 728
334 13 4595 4835 10 0 502
335 14 1222 1462 10 0 196
336 6 3405 3645 10 0 70
337 -19 5470 5710 10 531 0
338 26 681 921 10 0 483
339 -16 5075 5315 10 583 0
340 -27 1732 1972 10 492 0
341 2 3704 3944 10 0 541
342 -21 1350 1590 10 198 0
343 -21 2357 2597 10 770 0
344 -12 5426 5666 10 856 0
345 -9 5775 6015 10 821 0
346 18 1160 1400 10 0 997
347 16 1034 1274 10 0 261
348 -25 1656 1896 10 514 0
349 -31 5737 5977 10 895 0
350 22 118 358 10 0 914
351 20 26 266 10 0 537
352 26 652 892 10 0 190
353 2 2817 3057 10 0 692
354 -25 2427 2667 10 969 0
355 12 1186 1426 10 0 545
356 14 5000 5240 10 0 454
357 -31 4054 4294 10 263 0
358 20 1806 2046 10 0 854
359 3 895 1135 10 0 24
360 -13 4803 5043 10 574 0
361 11 3413 3653 10 0 141
362 -9 4378 4618 10 320 0
363 -19 3131 3371 10 749 0
364 29 3470 3710 10 0 623
365 21 161 401 10 0 844
366 20 3270 3510 10 0 231
367 -4 4607 4847 10 657 0
368 -23 2802 3042 10 30 0
369 35 422 662 10 0 301
370 31 4344 4584 10 0 312
371 -35 4814 5054 10 966 0
372 19 305 545 10 0 886
373 -25 5595 5835 10 556 0
374 1 1993 2233 10 0 569
375 -27 4039 4279 10 930 0
376 15 2560 2800 10 0 629
377 18 2874 3114 10 0 944
378 23 845 1085 10 0 893
379 -24 1763 2003 10 458 0
380 -7 3510 3750 10 404 0
381 -23 4713 4953 10 708 0
382 14 82 322 10 0 739
383 -11 2963 3203 10 229 0
384 -26 4143 4383 10 456 0
385 -7 3486 3726 10 14 0
386 22 2046 2286 10 0 606
387 38 366 606 10 0 661
388 -8 1023 1263 10 548 0
389 25 2247 2487 10 0 593
390 -9 2197 2437 10 523 0
391 -6 5039 5279 10 415 0
392 10 1227 1467 10 0 883
393 15 5675 5915 0 0 1007
394 23 560 800 10 0 477
395 17 5220 5460 0 0 1008
396 22 825 1065 10 0 107
397 -20 4849 5089 10 922 0
398 15 473 713 10 0 816
399 28 3926 4166 10 0 567
400 -26 3752 3992 10 279 0
401 19 6395 6635 10 0 274
402 20 3977 4217 10 0 187
403 -14 6413 6653 10 871 0
404 7 3058 3298 10 0 380
405 21 3082 3322 10 0 180
406 -19 865 1105 10 457 0
407 25 4633 4873 10 0 912
408 -20 3661 3901 10 641 0
409 13 2425 2665 10 0 643
410 8 1997 2237 10 0 69
411 -12 6030 6270 10 813 0
412 12 6362 6602 0 0 1003
413 19 1029 1269 10 0 275
414 -18 2718 2958 10 156 0
415 6 4880 5120 10 0 391
416 -19 6826 7066 10 996 0
417 -5 4225 4465 10 677 0
418 26 1939 2179 10 0 293
419 19 4773 5013 10 0 982
420 22 2627 2867 10 0 965
421 25 3347 3587 10 0 512
422 23 183 423 10 0 611
423 -15 4110 4350 10 924 0
424 -33 2659 2899 10 276 0
425 -5 2690 2930 10 501 0
426 16 2869 3109 10 0 82
427 -9 6392 6632 10 925 0
428 1 4443 4683 10 0 101
429 25 1287 1527 10 0 581
430 -23 1395 1635 10 194 0
431 -22 6286 6526 10 497 0
432 -28 5868 6108 10 642 0
433 24 656 896 10 0 571
434 -21 1522 1762 10 954 0
435 11 2887 3127 10 0 936
436 15 728 968 10 0 862
437 36 340 580 10 0 717
438 -14 2313 2553 10 450 0
439 -8 5724 5964 10 89 0
440 -23 1474 1714 10 818 0
441 31 3034 3274 10 0 974
442 29 5651 5891 10 0 538
443 15 2830 3070 10 0 255
444 -20 2454 2694 10 539 0
445 -11 4695 4935 10 929 0
446 10 2847 3087 10 0 150
447 18 950 1190 10 0 27
448 -11 5199 5439 10 651 0
449 10 3645 3885 10 0 215
450 14 857 1097 10 0 438
451 11 1732 1972 10 0 547
452 13 714 954 10 0 897
453 -15 5023 5263 10 74 0
454 -14 5483 5723 10 356 0
455 21 177 417 10 0 463
456 26 2933 3173 10 0 384
457 19 727 967 10 0 406
458 24 1559 1799 10 0 379
459 32 1547 1787 10 0 273
460 13 816 1056 10 0 745
461 -16 4014 4254 10 46 0
462 -14 4667 4907 10 797 0
463 -21 2606 2846 10 455 0
464 -22 4347 4587 10 45 0
465 7 4585 4825 10 0 331
466 -18 5563 5803 10 292 0
467 5 2285 2525 10 0 735
468 -28 4687 4927 10 137 0
469 -26 3011 3251 10 552 0
470 -1 357 597 10 90 0
471 -26 4375 4615 10 664 0
472 17 3268 3508 10 0 139
473 -14 5445 5685 10 543 0
474 -30 1404 1644 10 602 0
475 -12 5217 5457 10 742 0
476 -22 2908 3148 10 236 0
477 -23 1290 1530 10 394 0
478 14 3890 4130 10 0 747
479 -12 4463 4703 10 719 0
480 12 2809 3049 10 0 227
481 18 3078 3318 10 0 300
482 -30 578 818 10 270 0
483 -26 2370 2610 10 338 0
484 23 3621 3861 10 0 87
485 -22 1560 1800 10 958 0
486 -2 3368 3608 10 580 0
487 10 3524 3764 10 0 846
488 26 5008 5248 10 0 253
489 36 1735 1975 10 0 652
490 3 866 1106 10 0 136
491 17 154 394 10 0 649
492 27 843 1083 10 0 340
493 -20 2507 2747 10 890 0
494 4 166 406 10 0 837
495 25 1596 1836 10 0 824
496 19 4571 4811 10 0 185
497 22 4205 4445 10 0 431
498 -27 4924 5164 10 971 0
499 11 3118 3358 10 0 144
500 -17 2583 2823 10 807 0
501 5 1069 1309 10 0 425
502 -13 4804 5044 10 334 0
503 11 1847 2087 10 0 325
504 17 31 271 10 0 329
505 14 4126 4366 10 0 892
506 -12 5774 6014 10 775 0
507 -13 6068 6308 10 704 0
508 -2 5749 5989 10 778 0
509 5 3109 3349 10 0 927
510 -8 3018 3258 10 989 0
511 25 3172 3412 10 0 993
512 -25 3700 3940 10 421 0
513 30 661 901 10 0 65
514 25 704 944 10 0 348
515 -9 4068 4308 10 549 0
516 -13 4523 4763 10 3 0
517 -24 3782 4022 10 688 0
518 19 936 1176 10 0 173
519 3 4131 4371 10 0 138
520 -13 7039 7279 10 683 0
521 -15 5338 5578 10 990 0
522 -8 2701 2941 10 21 0
523 9 710 950 10 0 390
524 -19 2462 2702 10 740 0
525 -18 4225 4465 10 902 0
526 -17 4258 4498 10 78 0
527 15 2694 2934 10 0 225
528 23 4020 4260 10 0 884
529 -20 2982 3222 10 84 0
530 -22 4334 4574 10 5 0
531 19 1031 1271 10 0 337
532 7 2839 3079 10 0 246
533 -32 2657 2897 10 272 0
534 30 2434 2674 10 0 896
535 -10 3892 4132 10 15 0
536 -18 5127 5367 10 268 0
537 -20 506 746 10 351 0
538 -29 5760 6000 10 442 0
539 20 1506 1746 10 0 444
540 20 7071 7311 0 0 1005
541 -2 4490 4730 10 341 0
542 -9 3911 4151 10 987 0
543 14 5262 5502 10 0 473
544 18 1249 1489 10 0 865
545 -12 3985 4225 10 355 0
546 23 4781 5021 10 0 148
547 -11 2417 2657 10 451 0
548 8 36 276 10 0 388
549 9 124 364 10 0 515
550 -13 1346 1586 10 73 0
551 12 660 900 10 0 10
552 26 1488 1728 10 0 469
553 34 3364 3604 10 0 721
554 20 5769 6009 0 0 1009
555 12 1354 1594 10 0 165
556 25 4927 5167 10 0 373
557 5 1819 2059 10 0 979
558 -19 5416 5656 10 50 0
559 -31 1066 1306 10 916 0
560 20 3281 3521 10 0 98
561 23 3773 4013 10 0 266
562 16 1335 1575 10 0 233
563 9 2554 2794 10 0 781
564 14 915 1155 10 0 877
565 12 619 859 10 0 689
566 -8 4845 5085 10 56 0
567 -28 4929 5169 10 399 0
568 -18 2787 3027 10 994 0
569 -1 5850 6090 10 374 0
570 34 644 884 10 0 164
571 -24 3041 3281 10 433 0
572 26 798 1038 10 0 848
573 20 4458 4698 10 0 214
574 13 1205 1445 10 0 360
575 9 3159 3399 10 0 207
576 -19 2107 2347 10 283 0
577 -6 5221 5461 10 245 0
578 -14 4756 4996 10 110 0
579 25 1858 2098 10 0 983
580 2 3259 3499 10 0 486
581 -25 6301 6541 10 429 0
582 -21 6547 6787 10 303 0
583 16 3910 4150 10 0 339
584 14 163 403 10 0 634
585 31 2075 2315 10 0 249
586 -7 4886 5126 10 977 0
587 7 2494 2734 10 0 752
588 23 2383 2623 10 0 934
589 -32 2172 2412 10 181 0
590 -9 4901 5141 10 899 0
591 5 5334 5574 10 0 696
592 -24 3094 3334 10 782 0
593 -25 2233 2473 10 389 0
594 -19 5327 5567 10 278 0
595 -31 350 590 10 625 0
596 -24 3855 4095 10 142 0
597 -14 4459 4699 10 891 0
598 -18 5696 5936 10 684 0
599 -15 1292 1532 10 114 0
600 46 1034 1274 10 0 195
601 -15 3371 3611 10 928 0
602 30 1056 1296 10 0 474
603 5 1041 1281 10 0 911
604 10 5357 5597 10 0 889
605 -33 4004 4244 10 206 0
606 -22 3458 3698 10 386 0
607 -17 4485 4725 10 671 0
608 3 3999 4239 10 0 960
609 24 3064 3304 10 0 9
610 -24 2120 2360 10 311 0
611 -23 1705 1945 10 422 0
612 -27 2339 2579 10 645 0
613 27 3099 3339 10 0 298
614 16 2821 3061 10 0 757
615 -11 4913 5153 10 727 0
616 16 2620 2860 10 0 297
617 -17 1125 1365 10 247 0
618 21 4512 4752 10 0 159
619 14 4284 4524 10 0 908
620 10 2702 2942 10 0 825
621 -10 5119 5359 10 637 0
622 15 2336 2576 10 0 212
623 -29 3957 4197 10 364 0
624 13 3614 3854 10 0 269
625 31 89 329 10 0 595
626 -12 6055 6295 10 213 0
627 -33 2973 3213 10 307 0
628 11 3201 3441 10 0 998
629 -15 2895 3135 10 376 0
630 -37 2723 2963 10 935 0
631 24 1954 2194 10 0 662
632 -21 1924 2164 10 216 0
633 30 1785 2025 10 0 798
634 -14 1422 1662 10 584 0
635 -11 4115 4355 10 237 0
636 36 1678 1918 10 0 920
637 10 4460 4700 10 0 621
638 16 4395 4635 10 0 66
639 6 2975 3215 10 0 127
640 14 476 716 10 0 309
641 20 723 963 10 0 408
642 28 1823 2063 10 0 432
643 -13 4500 4740 10 409 0
644 -9 3551 3791 10 835 0
645 27 608 848 10 0 612
646 -24 4986 5226 10 991 0
647 -17 2221 2461 10 112 0
648 -21 3963 4203 10 967 0
649 -17 1536 1776 10 491 0
650 7 576 816 10 0 126
651 11 5116 5356 10 0 448
652 -36 5844 6084 10 489 0
653 -12 6222 6462 10 79 0
654 -10 457 697 10 204 0
655 16 761 1001 10 0 907
656 -28 4993 5233 10 759 0
657 4 4600 4840 10 0 367
658 -33 2697 2937 10 985 0
659 -21 6021 6261 10 220 0
660 -10 3852 4092 10 299 0
661 -38 2775 3015 10 387 0
662 -24 3996 4236 10 631 0
663 23 159 399 10 0 40
664 26 2387 2627 10 0 471
665 14 3644 3884 10 0 230
666 -22 5725 5965 10 917 0
667 -14 1576 1816 10 669 0
668 -34 6297 6537 10 94 0
669 14 1154 1394 10 0 667
670 -8 3407 3647 10 103 0
671 17 4414 4654 10 0 607
672 -15 4423 4663 10 289 0
673 18 1108 1348 10 0 41
674 5 1192 1432 10 0 224
675 24 926 1166 10 0 13
676 -12 4336 4576 10 95 0
677 5 3182 3422 10 0 417
678 9 556 796 10 0 35
679 18 532 772 10 0 840
680 -11 4971 5211 10 43 0
681 -7 3145 3385 10 129 0
682 -10 3490 3730 10 316 0
683 13 5509 5749 10 0 520
684 18 4844 5084 10 0 598
685 24 3555 3795 10 0 875
686 -14 2801 3041 10 794 0
687 22 967 1207 10 0 699
688 24 3095 3335 10 0 517
689 -12 2858 3098 10 565 0
690 11 6124 6364 10 0 330
691 -44 4953 5193 10 238 0
692 -2 5900 6140 10 353 0
693 -6 5951 6191 10 845 0
694 -19 1638 1878 10 26 0
695 -30 1856 2096 10 315 0
696 -5 5560 5800 10 591 0
697 15 3025 3265 10 0 241
698 -16 2604 2844 10 109 0
699 -22 2696 2936 10 687 0
700 2 3281 3521 10 0 58
701 13 3180 3420 10 0 97
702 -12 2385 2625 10 852 0
703 -25 4319 4559 10 814 0
704 13 467 707 10 0 507
705 -19 112 352 10 804 0
706 26 659 899 10 0 1001
707 4 3004 3244 10 0 904
708 23 3679 3919 10 0 381
709 -15 1703 1943 10 257 0
710 -25 1307 1547 10 205 0
711 -18 6738 6978 10 945 0
712 -19 2219 2459 10 988 0
713 -27 5014 5254 10 832 0
714 -5 4471 4711 10 86 0
715 18 5700 5940 10 0 955
716 12 3498 3738 10 0 962
717 -36 4955 5195 10 437 0
718 17 1962 2202 10 0 218
719 12 1322 1562 10 0 479
720 -20 1138 1378 10 154 0
721 -34 3945 4185 10 553 0
722 -28 3644 3884 10 240 0
723 -29 3366 3606 10 756 0
724 -14 5340 5580 10 105 0
725 7 4181 4421 10 0 149
726 -15 3916 4156 10 262 0
727 11 2053 2293 10 0 615
728 -5 4603 4843 10 333 0
729 -17 5104 5344 10 736 0
730 13 2783 3023 10 0 130
731 -36 4759 4999 10 221 0
732 -11 991 1231 10 915 0
733 23 2066 2306 10 0 769
734 21 4727 4967 10 0 7
735 -5 4341 4581 10 467 0
736 17 5178 5418 10 0 729
737 13 1188 1428 10 0 210
738 -24 2453 2693 10 766 0
739 -14 1590 1830 10 382 0
740 19 77 317 10 0 524
741 13 1068 1308 10 0 223
742 12 4002 4242 10 0 475
743 -14 3118 3358 10 76 0
744 -30 5995 6235 10 755 0
745 -13 3081 3321 10 460 0
746 -7 3939 4179 10 978 0
747 -14 5474 5714 10 478 0
748 1 2174 2414 10 0 211
749 19 2406 2646 10 0 363
750 22 4453 4693 10 0 887
751 -27 6472 6712 10 903 0
752 -7 4367 4607 10 587 0
753 -15 2098 2338 10 133 0
754 14 4071 4311 10 0 831
755 30 846 1086 10 0 744
756 29 2767 3007 10 0 723
757 -16 3711 3951 10 614 0
758 15 4434 4674 10 0 203
759 28 2482 2722 10 0 656
760 -33 5856 6096 10 323 0
761 -34 833 1073 10 251 0
762 -1 2928 3168 10 33 0
763 -13 5032 5272 10 104 0
764 -15 3992 4232 10 843 0
765 -15 4518 4758 10 880 0
766 24 865 1105 10 0 738
767 6 2139 2379 10 0 322
768 10 4294 4534 10 0 860
769 -23 4802 5042 10 733 0
770 21 1087 1327 10 0 343
771 -33 2043 2283 10 894 0
772 -29 1823 2063 10 834 0
773 29 2675 2915 10 0 874
774 18 3540 3780 10 0 943
775 12 4592 4832 10 0 506
776 -26 4755 4995 10 324 0
777 16 1221 1461 10 0 93
778 2 1112 1352 10 0 508
779 10 855 1095 10 0 305
780 -3 5893 6133 10 153 0
781 -9 4225 4465 10 563 0
782 24 2811 3051 10 0 592
783 -7 239 479 10 819 0
784 18 2136 2376 10 0 235
785 23 1631 1871 10 0 134
786 9 2234 2474 10 0 250
787 5 834 1074 10 0 186
788 -15 6329 6569 10 859 0
789 -6 1650 1890 10 232 0
790 15 5539 5779 10 0 306
791 21 3392 3632 10 0 313
792 -5 3117 3357 10 873 0
793 13 795 1035 10 0 99
794 14 609 849 10 0 686
795 -9 1992 2232 10 872 0
796 -13 2422 2662 10 947 0
797 14 4456 4696 10 0 462
798 -30 3251 3491 10 633 0
799 -33 493 733 10 810 0
800 -2 3155 3395 10 265 0
801 11 2361 2601 10 0 839
802 -22 6105 6345 10 111 0
803 26 39 279 10 0 867
804 19 73 313 10 0 705
805 -5 4033 4273 10 318 0
806 21 179 419 10 0 961
807 17 308 548 10 0 500
808 21 52 292 10 0 833
809 8 4330 4570 10 0 51
810 33 381 621 10 0 799
811 -20 2912 3152 10 162 0
812 -27 1570 1810 10 319 0
813 12 1475 1715 10 0 411
814 25 1249 1489 10 0 703
815 24 3237 3477 10 0 964
816 -15 1312 1552 10 398 0
817 35 321 561 10 0 332
818 23 1593 1833 10 0 440
819 7 82 322 10 0 783
820 26 5054 5294 10 0 822
821 9 1013 1253 10 0 345
822 -26 5564 5804 10 820 0
823 19 4832 5072 0 0 1004
824 -25 3470 3710 10 495 0
825 -10 2967 3207 10 620 0
826 19 621 861 10 0 12
827 22 496 736 10 0 63
828 -14 2781 3021 10 177 0
829 26 1156 1396 10 0 986
830 17 2113 2353 10 0 179
831 -14 5638 5878 10 754 0
832 27 1375 1615 10 0 713
833 -21 711 951 10 808 0
834 29 880 1120 10 0 772
835 9 2373 2613 10 0 644
836 -22 1913 2153 10 328 0
837 -4 1919 2159 10 494 0
838 33 1179 1419 10 0 83
839 -11 5428 5668 10 801 0
840 -18 5076 5316 10 679 0
841 -13 1636 1876 10 62 0
842 -12 4496 4736 10 68 0
843 15 3098 3338 10 0 764
844 -21 2032 2272 10 365 0
845 6 4653 4893 10 0 693
846 -10 4226 4466 10 487 0
847 -24 551 791 10 918 0
848 -26 1027 1267 10 572 0
849 -8 6581 6821 10 219 0
850 -30 605 845 10 252 0
851 9 33 273 10 0 146
852 12 1908 2148 10 0 702
853 24 340 580 10 0 228
854 -20 3170 3410 10 358 0
855 -33 5934 6174 10 975 0
856 12 4345 4585 10 0 344
857 13 3592 3832 10 0 953
858 -25 4483 4723 10 294 0
859 15 4526 4766 10 0 788
860 -10 5062 5302 10 768 0
861 -13 6178 6418 10 115 0
862 -15 3597 3837 10 436 0
863 8 4975 5215 10 0 970
864 12 2884 3124 10 0 286
865 -18 3237 3477 10 544 0
866 -18 1399 1639 10 140 0
867 -26 1165 1405 10 803 0
868 23 1931 2171 10 0 242
869 -13 3329 3569 10 910 0
870 -40 3195 3435 10 932 0
871 14 5973 6213 10 0 403
872 9 973 1213 10 0 795
873 5 538 778 10 0 792
874 -29 4812 5052 10 773 0
875 -24 5440 5680 10 685 0
876 31 3069 3309 10 0 291
877 -14 3022 3262 10 564 0
878 26 2104 2344 10 0 189
879 -28 4671 4911 10 326 0
880 15 1430 1670 10 0 765
881 25 335 575 10 0 91
882 -10 5631 5871 10 20 0
883 -10 4712 4952 10 392 0
884 -23 3846 4086 10 528 0
885 -13 3581 3821 10 243 0
886 -19 2439 2679 10 372 0
887 -22 5498 5738 10 750 0
888 -1 6955 7195 10 209 0
889 -10 5857 6097 10 604 0
890 20 980 1220 10 0 493
891 14 2091 2331 10 0 597
892 -14 5391 5631 10 505 0
893 -23 1184 1424 10 378 0
894 33 891 1131 10 0 771
895 31 3434 3674 10 0 349
896 -30 4444 4684 10 534 0
897 -13 5145 5385 10 452 0
898 -8 5765 6005 10 124 0
899 9 18 258 10 0 590
900 -16 465 705 10 60 0
901 -28 4390 4630 10 234 0
902 18 3281 3521 10 0 525
903 27 3547 3787 10 0 751
904 -4 3622 3862 10 707 0
905 20 1691 1931 10 0 29
906 15 2378 2618 10 0 963
907 -16 4134 4374 10 655 0
908 -14 5521 5761 10 619 0
909 22 907 1147 10 0 75
910 13 2898 3138 10 0 869
911 -5 1044 1284 10 603 0
912 -25 6065 6305 10 407 0
913 -14 5702 5942 10 295 0
914 -22 3389 3629 10 350 0
915 11 984 1224 10 0 732
916 31 827 1067 10 0 559
917 22 4261 4501 10 0 666
918 24 337 577 10 0 847
919 -24 4304 4544 10 18 0
920 -36 4417 4657 10 636 0
921 -11 3495 3735 10 48 0
922 20 44 284 10 0 397
923 -27 3932 4172 10 192 0
924 15 3702 3942 10 0 423
925 9 1280 1520 10 0 427
926 21 1969 2209 10 0 108
927 -5 4746 4986 10 509 0
928 15 2029 2269 10 0 601
929 11 3278 3518 10 0 445
930 27 2408 2648 10 0 375
931 -2 4919 5159 10 308 0
932 40 2558 2798 10 0 870
933 25 1586 1826 10 0 52
934 -23 4112 4352 10 588 0
935 37 345 585 10 0 630
936 -11 5321 5561 10 435 0
937 12 1320 1560 10 0 39
938 15 4338 4578 10 0 59
939 -34 3082 3322 10 143 0
940 -12 1997 2237 10 310 0
941 9 3013 3253 10 0 152
942 -9 2018 2258 10 169 0
943 -18 4255 4495 10 774 0
944 -18 3139 3379 10 377 0
945 18 6051 6291 10 0 711
946 -16 4549 4789 10 163 0
947 13 106 346 10 0 796
948 -9 3092 3332 10 132 0
949 -12 3935 4175 10 16 0
950 11 4435 4675 10 0 128
951 -7 6768 7008 10 201 0
952 32 67 307 10 0 972
953 -13 4063 4303 10 857 0
954 21 847 1087 10 0 434
955 -18 5912 6152 10 715 0
956 -35 3745 3985 10 37 0
957 10 3253 3493 10 0 260
958 22 1453 1693 10 0 485
959 -33 3369 3609 10 123 0
960 -3 5382 5622 10 608 0
961 -21 1838 2078 10 806 0
962 -12 3858 4098 10 716 0
963 -15 5288 5528 10 906 0
964 -24 3799 4039 10 815 0
965 -22 6242 6482 10 420 0
966 35 4791 5031 10 0 371
967 21 1887 2127 10 0 648
968 -22 4694 4934 10 183 0
969 25 875 1115 10 0 354
970 -8 4942 5182 10 863 0
971 27 839 1079 10 0 498
972 -32 3144 3384 10 952 0
973 13 1530 1770 10 0 999
974 -31 6477 6717 10 441 0
975 33 4240 4480 10 0 855
976 13 2456 2696 10 0 106
977 7 1901 2141 10 0 586
978 7 515 755 10 0 746
979 -5 4721 4961 10 557 0
980 -13 4519 4759 10 22 0
981 -20 4196 4436 10 55 0
982 -19 5832 6072 10 419 0
983 -25 2225 2465 10 579 0
984 12 340 580 10 0 8
985 33 104 344 10 0 658
986 -26 2067 2307 10 829 0
987 9 634 874 10 0 542
988 19 2129 2369 10 0 712
989 8 808 1048 10 0 510
990 15 3406 3646 10 0 521
991 24 3941 4181 10 0 646
992 23 1051 1291 10 0 121
993 -25 3793 4033 10 511 0
994 18 37 277 10 0 568
995 -20 5166 5406 10 191 0
996 19 5468 5708 10 0 416
997 -18 1542 1782 10 346 0
998 -11 5588 5828 10 628 0
999 -13 3694 3934 10 973 0
1000 -23 4978 5218 10 157 0
1001 -26 1224 1464 10 706 0
1002 -24 5691 5931 10 49 0
1003 -12 6362 6602 10 412 0
1004 -19 4832 5072 10 823 0
1005 -20 7071 7311 10 540 0
1006 -15 5996 6236 10 28 0
1007 -15 5675 5915 10 393 0
1008 -17 5220 5460 10 395 0
1009 -20 5769 6009 10 554 0
DEPOT_SECTION
1
-1
EOF
