NAME: lrc1_10_5
TYPE: PDPTW
COMMENT: Li & Lim PDPTW benchmark converted from SINTEF format
DIMENSION: 1053
VEHICLES: 250
CAPACITY: 200
EDGE_WEIGHT_TYPE: EUC_2D
NODE_COORD_SECTION
1 250 250
2 440 436
3 214 394
4 476 483
5 352 487
6 230 197
7 175 239
8 133 202
9 328 458
10 25 499
11 226 423
12 313 282
13 60 454
14 239 486
15 102 264
16 408 452
17 451 62
18 203 390
19 92 233
20 7 300
21 409 90
22 307 108
23 347 54
24 406 87
25 371 332
26 116 466
27 441 265
28 130 140
29 80 117
30 421 387
31 83 300
32 136 52
33 18 462
34 390 120
35 188 119
36 467 114
37 440 292
38 268 400
39 391 202
40 377 432
41 80 290
42 439 15
43 307 52
44 111 192
45 131 56
46 88 286
47 69 414
48 41 232
49 323 77
50 340 416
51 86 199
52 314 124
53 375 191
54 226 175
55 242 106
56 417 417
57 419 459
58 389 11
59 450 416
60 246 255
61 71 333
62 105 474
63 20 489
64 388 331
65 92 259
66 200 261
67 400 288
68 299 285
69 378 199
70 325 147
71 421 386
72 404 447
73 412 478
74 26 67
75 358 183
76 30 302
77 176 470
78 96 270
79 243 408
80 60 29
81 34 169
82 407 280
83 277 403
84 498 456
85 384 491
86 355 174
87 97 288
88 316 284
89 334 403
90 415 223
91 230 320
92 432 199
93 92 18
94 273 300
95 269 112
96 429 389
97 371 71
98 5 297
99 414 378
100 38 15
101 2 295
102 237 254
103 54 445
104 382 110
105 438 488
106 395 331
107 230 487
108 249 407
109 488 26
110 151 81
111 483 14
112 0 422
113 429 67
114 195 464
115 356 256
116 264 180
117 94 235
118 474 96
119 268 52
120 44 440
121 7 382
122 459 53
123 491 25
124 439 243
125 210 185
126 150 68
127 201 270
128 0 188
129 103 464
130 325 56
131 44 344
132 418 75
133 472 57
134 460 328
135 89 270
136 374 190
137 463 253
138 97 93
139 163 472
140 29 336
141 84 453
142 294 421
143 343 62
144 371 193
145 142 372
146 66 88
147 395 332
148 93 413
149 267 394
150 249 258
151 472 129
152 87 3
153 62 326
154 212 186
155 241 402
156 439 266
157 79 80
158 62 453
159 188 151
160 386 154
161 38 301
162 192 265
163 371 192
164 64 294
165 381 494
166 437 12
167 186 135
168 459 10
169 175 422
170 274 48
171 488 173
172 398 97
173 385 17
174 180 283
175 71 12
176 343 49
177 248 251
178 7 194
179 322 290
180 410 399
181 398 103
182 385 285
183 179 497
184 464 13
185 492 335
186 27 464
187 231 29
188 157 38
189 439 268
190 149 214
191 187 73
192 429 169
193 350 199
194 60 231
195 448 404
196 481 20
197 436 25
198 111 459
199 389 17
200 148 208
201 475 477
202 390 325
203 346 354
204 91 266
205 17 65
206 391 112
207 224 203
208 426 231
209 260 472
210 265 0
211 391 293
212 411 421
213 132 30
214 475 480
215 286 244
216 436 237
217 402 284
218 287 397
219 272 420
220 477 120
221 145 434
222 33 286
223 370 262
224 393 20
225 330 308
226 246 398
227 482 184
228 451 305
229 226 316
230 110 459
231 244 250
232 458 16
233 390 34
234 423 214
235 219 215
236 326 118
237 365 74
238 331 356
239 210 398
240 403 93
241 248 404
242 65 62
243 460 13
244 0 293
245 211 248
246 484 174
247 175 352
248 455 168
249 224 191
250 439 156
251 434 359
252 118 314
253 234 246
254 406 450
255 75 118
256 115 395
257 329 456
258 218 403
259 149 341
260 253 74
261 436 241
262 238 203
263 405 455
264 485 27
265 323 118
266 330 371
267 25 65
268 406 96
269 49 451
270 307 249
271 178 135
272 299 353
273 236 213
274 355 177
275 394 23
276 306 235
277 90 477
278 379 486
279 435 16
280 8 497
281 150 484
282 213 399
283 391 18
284 111 392
285 330 281
286 344 203
287 91 235
288 346 60
289 483 27
290 382 498
291 457 492
292 291 213
293 154 374
294 225 196
295 94 40
296 0 356
297 297 283
298 371 423
299 417 217
300 500 228
301 412 214
302 442 289
303 157 269
304 440 241
305 100 266
306 111 178
307 91 101
308 25 307
309 135 400
310 58 458
311 133 26
312 211 386
313 94 97
314 30 155
315 208 184
316 394 333
317 355 180
318 241 180
319 21 485
320 80 251
321 476 61
322 406 94
323 364 71
324 418 221
325 274 441
326 304 97
327 297 102
328 250 405
329 111 463
330 408 279
331 263 418
332 480 119
333 420 383
334 142 14
335 73 328
336 50 438
337 441 7
338 462 14
339 360 294
340 58 39
341 58 391
342 410 285
343 96 97
344 21 64
345 238 210
346 479 121
347 200 178
348 216 341
349 48 437
350 200 270
351 357 181
352 476 174
353 400 286
354 351 481
355 270 400
356 95 234
357 128 113
358 133 455
359 16 463
360 59 388
361 376 190
362 481 122
363 266 405
364 374 232
365 398 20
366 481 26
367 63 444
368 89 290
369 246 314
370 40 304
371 262 369
372 323 29
373 89 65
374 144 35
375 200 265
376 436 264
377 15 457
378 397 20
379 328 491
380 399 175
381 432 2
382 63 336
383 6 296
384 146 376
385 295 247
386 235 33
387 233 204
388 142 360
389 177 156
390 315 287
391 452 172
392 263 153
393 493 493
394 320 283
395 64 5
396 95 235
397 203 211
398 16 497
399 348 348
400 485 104
401 330 147
402 443 237
403 316 286
404 335 46
405 381 495
406 364 173
407 267 162
408 214 245
409 92 234
410 347 459
411 30 7
412 120 37
413 397 153
414 210 29
415 87 285
416 132 32
417 390 294
418 67 451
419 24 68
420 146 439
421 209 212
422 6 292
423 18 63
424 149 98
425 91 268
426 103 177
427 367 178
428 225 269
429 443 246
430 306 42
431 374 306
432 413 421
433 470 405
434 33 278
435 149 458
436 257 57
437 272 403
438 221 291
439 1 101
440 332 459
441 220 392
442 253 50
443 250 441
444 471 484
445 480 152
446 404 83
447 476 94
448 458 213
449 215 395
450 85 288
451 179 75
452 228 287
453 397 18
454 238 204
455 488 3
456 407 88
457 459 14
458 120 17
459 235 316
460 370 382
461 405 454
462 17 458
463 43 135
464 318 497
465 199 268
466 111 467
467 138 438
468 172 314
469 494 468
470 35 303
471 341 59
472 423 221
473 395 295
474 413 417
475 339 60
476 277 428
477 176 199
478 265 240
479 365 190
480 133 53
481 387 488
482 385 295
483 491 369
484 445 273
485 195 273
486 313 493
487 495 227
488 241 403
489 30 72
490 21 487
491 324 99
492 453 318
493 443 272
494 447 184
495 366 288
496 440 284
497 13 314
498 72 227
499 377 385
500 477 478
501 204 185
502 226 191
503 330 138
504 185 434
505 483 22
506 71 282
507 60 5
508 189 402
509 134 211
510 146 313
511 21 146
512 37 281
513 416 417
514 44 311
515 361 181
516 444 242
517 444 271
518 359 179
519 388 334
520 401 164
521 499 316
522 399 106
523 425 215
524 407 98
525 406 460
526 88 95
527 95 64
528 306 229
529 273 55
530 384 149
531 122 35
532 308 199
533 390 301
534 300 108
535 267 400
536 8 300
537 105 181
538 398 325
539 166 247
540 140 431
541 253 118
542 359 246
543 321 277
544 168 59
545 406 285
546 391 334
547 437 19
548 201 278
549 435 267
550 245 408
551 16 462
552 107 374
553 477 97
554 346 57
555 14 459
556 102 6
557 359 287
558 297 131
559 282 1
560 21 70
561 440 244
562 482 104
563 120 261
564 125 29
565 292 32
566 262 92
567 68 160
568 405 276
569 277 50
570 32 319
571 344 70
572 481 84
573 21 68
574 441 244
575 57 43
576 1 293
577 481 96
578 471 368
579 236 126
580 406 99
581 303 186
582 225 369
583 412 453
584 104 349
585 173 182
586 111 464
587 53 440
588 69 336
589 359 182
590 13 459
591 244 277
592 484 177
593 452 206
594 22 483
595 452 110
596 347 192
597 95 92
598 368 311
599 479 387
600 479 169
601 497 266
602 66 336
603 376 195
604 401 281
605 441 177
606 231 203
607 21 488
608 231 204
609 122 422
610 65 453
611 206 261
612 466 149
613 313 119
614 90 274
615 39 162
616 35 306
617 437 15
618 307 412
619 79 291
620 64 437
621 376 92
622 129 27
623 196 489
624 51 286
625 20 488
626 13 455
627 170 347
628 92 230
629 117 467
630 413 217
631 405 450
632 394 322
633 125 61
634 238 123
635 11 403
636 89 272
637 304 102
638 478 121
639 408 84
640 376 494
641 20 73
642 159 299
643 95 382
644 352 63
645 365 274
646 30 301
647 351 5
648 197 267
649 498 171
650 468 352
651 418 251
652 489 437
653 251 63
654 132 55
655 281 96
656 333 293
657 255 487
658 207 400
659 469 489
660 244 254
661 233 207
662 441 60
663 411 379
664 178 72
665 51 447
666 478 118
667 141 426
668 295 89
669 112 433
670 320 211
671 400 103
672 408 453
673 435 180
674 432 66
675 374 116
676 478 102
677 335 57
678 385 239
679 386 245
680 208 396
681 380 489
682 380 498
683 440 7
684 434 245
685 90 232
686 389 334
687 241 205
688 18 24
689 57 183
690 59 457
691 442 243
692 402 281
693 445 237
694 441 273
695 31 175
696 234 202
697 52 303
698 167 445
699 179 286
700 269 48
701 165 59
702 461 8
703 421 415
704 59 459
705 24 492
706 55 449
707 224 192
708 444 269
709 491 20
710 313 126
711 283 438
712 352 241
713 398 476
714 442 247
715 217 207
716 233 87
717 479 127
718 6 53
719 478 300
720 378 493
721 303 78
722 344 62
723 371 315
724 200 78
725 413 391
726 415 216
727 397 57
728 293 228
729 0 297
730 435 20
731 195 111
732 417 218
733 340 54
734 132 57
735 210 379
736 228 260
737 399 104
738 95 277
739 360 284
740 53 466
741 112 465
742 313 391
743 93 235
744 125 32
745 215 282
746 224 320
747 134 428
748 26 490
749 44 115
750 438 127
751 239 15
752 342 54
753 109 463
754 199 187
755 201 188
756 399 301
757 484 171
758 272 234
759 380 350
760 140 108
761 228 199
762 245 461
763 305 107
764 231 195
765 450 265
766 273 149
767 12 358
768 315 121
769 420 213
770 331 134
771 84 377
772 320 280
773 89 185
774 472 481
775 422 420
776 475 267
777 470 125
778 435 268
779 409 155
780 243 248
781 488 96
782 341 72
783 58 449
784 16 460
785 480 136
786 162 388
787 47 208
788 324 127
789 87 96
790 140 137
791 314 205
792 96 346
793 321 280
794 245 251
795 436 295
796 274 261
797 271 128
798 275 45
799 422 409
800 146 188
801 93 96
802 409 255
803 449 428
804 90 285
805 415 95
806 88 287
807 379 196
808 368 452
809 202 186
810 435 11
811 269 46
812 7 292
813 44 496
814 478 99
815 391 99
816 132 477
817 24 65
818 130 247
819 133 273
820 347 62
821 404 140
822 416 420
823 67 335
824 92 270
825 411 95
826 132 479
827 366 334
828 125 39
829 419 422
830 460 2
831 67 334
832 448 414
833 46 163
834 77 465
835 284 319
836 102 422
837 240 34
838 141 428
839 204 269
840 144 439
841 470 417
842 404 103
843 5 281
844 487 320
845 398 23
846 90 296
847 386 13
848 115 465
849 473 475
850 275 42
851 286 356
852 15 69
853 267 44
854 243 399
855 390 249
856 210 391
857 433 15
858 24 259
859 12 463
860 237 213
861 182 480
862 409 88
863 244 368
864 381 328
865 213 185
866 482 141
867 319 124
868 141 431
869 198 264
870 69 334
871 299 98
872 240 250
873 199 203
874 459 17
875 423 217
876 477 179
877 213 397
878 405 187
879 269 402
880 53 204
881 13 394
882 15 68
883 56 268
884 360 184
885 307 102
886 130 57
887 250 328
888 91 231
889 479 176
890 420 224
891 461 182
892 418 218
893 419 418
894 336 493
895 389 300
896 92 76
897 476 102
898 418 399
899 109 56
900 13 465
901 92 232
902 394 47
903 16 287
904 399 102
905 143 158
906 18 484
907 250 411
908 19 273
909 365 28
910 387 297
911 433 447
912 214 274
913 489 338
914 130 494
915 23 67
916 374 489
917 126 30
918 112 467
919 489 274
920 61 214
921 166 440
922 56 75
923 210 276
924 80 286
925 17 459
926 66 448
927 351 128
928 352 176
929 490 286
930 247 219
931 86 268
932 398 329
933 272 402
934 317 123
935 408 318
936 66 31
937 425 448
938 35 304
939 471 94
940 470 473
941 224 56
942 343 47
943 52 18
944 16 68
945 195 185
946 92 236
947 76 462
948 124 56
949 481 454
950 477 483
951 481 124
952 389 156
953 384 16
954 492 34
955 371 200
956 153 235
957 428 202
958 257 391
959 421 218
960 206 186
961 393 301
962 204 187
963 468 475
964 477 122
965 100 66
966 489 27
967 12 451
968 197 270
969 311 422
970 489 17
971 13 214
972 440 247
973 28 467
974 388 325
975 270 401
976 5 445
977 198 271
978 480 131
979 437 98
980 131 246
981 49 437
982 270 49
983 337 41
984 318 280
985 154 392
986 493 111
987 399 450
988 67 452
989 34 239
990 343 276
991 393 12
992 236 247
993 340 291
994 3 292
995 209 68
996 18 225
997 147 435
998 335 99
999 485 24
1000 470 475
1001 341 58
1002 16 497
1003 13 465
1004 38 15
1005 470 417
1006 17 458
1007 59 457
1008 281 96
1009 96 97
1010 459 53
1011 21 64
1012 88 95
1013 0 188
1014 162 388
1015 474 96
1016 381 494
1017 141 426
1018 90 477
1019 238 123
1020 277 403
1021 245 461
1022 441 60
1023 411 421
1024 351 481
1025 495 227
1026 370 262
1027 400 103
1028 384 149
1029 148 208
1030 255 487
1031 210 185
1032 352 63
1033 307 52
1034 270 400
1035 390 120
1036 257 57
1037 142 360
1038 200 78
1039 421 386
1040 417 217
1041 209 212
1042 92 233
1043 92 76
1044 328 491
1045 244 277
1046 386 245
1047 97 288
1048 408 279
1049 208 396
1050 218 403
1051 231 204
1052 246 314
1053 307 249
PICKUP_AND_DELIVERY_SECTION
1 0 0 1821 0 0 0
2 -7 882 932 10 291 0
3 -18 221 271 10 282 0
4 -20 324 432 10 57 0
5 -10 905 928 10 488 0
6 40 94 179 10 0 454
7 23 75 148 10 0 396
8 -10 468 483 10 45 0
9 -25 755 810 10 410 0
10 10 431 489 10 0 552
11 -30 174 259 10 907 0
12 20 128 229 10 0 88
13 10 329 396 10 0 504
14 -20 1486 1508 10 221 0
15 10 148 194 10 0 636
16 -25 265 310 10 180 0
17 5 275 388 10 0 999
18 40 168 179 10 0 508
19 10 179 298 0 0 1042
20 -10 328 392 10 646 0
21 20 247 299 10 0 456
22 -10 238 267 10 768 0
23 -10 270 350 10 534 0
24 -30 309 347 10 446 0
25 14 480 609 10 0 656
26 20 254 277 10 0 198
27 40 191 269 10 0 189
28 17 189 230 10 0 357
29 -10 808 871 10 409 0
30 15 768 865 10 0 461
31 26 475 554 10 0 731
32 10 302 313 10 0 412
33 -10 397 429 10 551 0
34 24 1014 1025 0 0 1035
35 -20 955 1024 10 466 0
36 10 388 393 10 0 939
37 -25 919 991 10 496 0
38 20 225 291 10 0 827
39 14 148 187 10 0 593
40 -20 808 885 10 85 0
41 10 187 238 10 0 450
42 -10 330 387 10 453 0
43 23 891 980 0 0 1033
44 -32 1196 1232 10 194 0
45 10 252 289 10 0 8
46 -30 233 301 10 415 0
47 -11 1259 1298 10 834 0
48 16 209 298 10 0 880
49 -10 1400 1441 10 884 0
50 36 280 393 10 0 681
51 23 246 340 10 0 833
52 -10 231 261 10 710 0
53 -10 164 200 10 794 0
54 -21 1678 1733 10 452 0
55 28 1278 1288 10 0 260
56 -20 337 358 10 829 0
57 20 276 387 10 0 4
58 20 276 423 10 0 647
59 -10 581 602 10 940 0
60 10 97 159 10 0 532
61 10 197 230 10 0 161
62 27 449 522 10 0 77
63 -10 371 426 10 607 0
64 20 160 197 10 0 723
65 -20 402 427 10 153 0
66 -32 148 215 10 235 0
67 30 154 308 10 0 353
68 -20 1247 1290 10 500 0
69 -30 205 239 10 163 0
70 -25 1173 1230 10 558 0
71 29 818 861 0 0 1039
72 20 250 313 10 0 201
73 -26 952 998 10 89 0
74 -29 1294 1369 10 178 0
75 -10 213 284 10 772 0
76 10 262 302 10 0 140
77 -27 528 596 10 62 0
78 20 155 211 10 0 804
79 -8 1436 1462 10 203 0
80 32 1351 1404 10 0 556
81 -35 475 523 10 509 0
82 -10 198 249 10 543 0
83 10 155 256 0 0 1020
84 -25 1395 1447 10 663 0
85 20 341 385 10 0 40
86 33 677 784 10 0 503
87 22 1262 1337 0 0 1047
88 -20 95 184 10 12 0
89 26 174 204 10 0 73
90 20 279 361 10 0 802
91 -11 1169 1246 10 155 0
92 7 635 672 10 0 208
93 -20 1101 1177 10 597 0
94 30 55 136 10 0 766
95 -30 1234 1322 10 613 0
96 -20 409 469 10 513 0
97 -10 274 329 10 327 0
98 -10 325 367 10 812 0
99 23 494 525 10 0 333
100 3 1048 1165 0 0 1004
101 -20 314 327 10 994 0
102 20 67 129 10 0 660
103 10 296 351 10 0 141
104 -13 1110 1145 10 380 0
105 -20 326 358 10 631 0
106 -20 209 255 10 316 0
107 -15 1122 1168 10 371 0
108 -30 157 245 10 241 0
109 30 407 488 10 0 289
110 -2 1559 1587 10 146 0
111 10 347 409 10 0 264
112 8 813 860 10 0 341
113 -20 704 790 10 378 0
114 -8 1519 1591 10 618 0
115 19 106 135 10 0 598
116 -6 1602 1740 10 407 0
117 20 156 228 10 0 743
118 30 271 324 0 0 1015
119 10 292 350 10 0 751
120 -10 790 817 10 906 0
121 -7 746 824 10 981 0
122 20 1099 1175 0 0 1010
123 -30 401 447 10 366 0
124 -20 302 355 10 144 0
125 20 76 159 0 0 1031
126 -20 409 466 10 828 0
127 10 52 125 10 0 839
128 26 904 990 0 0 1013
129 -18 1242 1334 10 284 0
130 -20 751 872 10 928 0
131 -30 1072 1117 10 938 0
132 -10 449 476 10 639 0
133 -3 1254 1366 10 455 0
134 13 224 290 10 0 578
135 10 190 247 10 0 738
136 -10 137 216 10 231 0
137 -20 1046 1078 10 473 0
138 -20 237 274 10 801 0
139 9 623 713 10 0 281
140 -10 299 394 10 76 0
141 -10 1180 1295 10 103 0
142 -12 1556 1625 10 218 0
143 -10 356 388 10 569 0
144 20 133 157 10 0 124
145 18 162 180 10 0 985
146 2 832 858 10 0 110
147 10 173 269 10 0 538
148 17 226 299 10 0 784
149 -20 211 338 10 975 0
150 30 104 179 10 0 253
151 -22 252 334 10 785 0
152 -24 1441 1456 10 295 0
153 20 259 343 10 0 65
154 -20 1663 1737 10 946 0
155 11 1008 1072 10 0 91
156 10 189 232 10 0 484
157 -10 1383 1412 10 755 0
158 -10 297 322 10 926 0
159 -10 1261 1363 10 960 0
160 -30 1088 1144 10 394 0
161 -10 295 326 10 61 0
162 -10 100 179 10 648 0
163 30 134 162 10 0 69
164 -10 1090 1142 10 307 0
165 10 310 386 0 0 1016
166 20 310 380 10 0 338
167 -20 689 777 10 336 0
168 -20 318 385 10 243 0
169 -20 1426 1496 10 584 0
170 10 217 236 10 0 668
171 -20 264 324 10 889 0
172 10 212 269 10 0 268
173 -10 792 856 10 991 0
174 23 753 764 10 0 715
175 2 297 353 10 0 718
176 10 237 323 10 0 847
177 20 2 74 10 0 403
178 29 939 993 10 0 74
179 -20 1480 1507 10 869 0
180 25 228 269 10 0 16
181 -20 274 312 10 518 0
182 -10 877 888 10 910 0
183 -25 1385 1467 10 816 0
184 -20 323 476 10 232 0
185 -18 818 868 10 521 0
186 -20 1259 1354 10 704 0
187 -10 1203 1280 10 707 0
188 -6 1043 1083 10 544 0
189 -40 287 339 10 27 0
190 7 467 528 10 0 537
191 -18 268 346 10 716 0
192 -13 890 945 10 891 0
193 -10 1195 1238 10 737 0
194 32 1014 1068 10 0 44
195 -20 574 654 10 519 0
196 20 346 377 10 0 954
197 -20 1251 1343 10 862 0
198 -20 337 410 10 26 0
199 -20 347 415 10 475 0
200 22 487 596 0 0 1029
201 -20 413 427 10 72 0
202 -20 221 311 10 211 0
203 8 800 864 10 0 79
204 10 211 285 10 0 425
205 20 339 344 10 0 560
206 -20 981 1050 10 522 0
207 20 53 101 10 0 374
208 -7 1001 1086 10 92 0
209 33 1020 1082 10 0 219
210 -10 869 953 10 491 0
211 20 199 283 10 0 202
212 20 289 370 0 0 1023
213 -20 323 359 10 734 0
214 -30 378 411 10 1000 0
215 -24 1252 1345 10 887 0
216 20 186 218 10 0 574
217 30 155 254 10 0 712
218 12 537 622 10 0 142
219 -33 1375 1426 10 209 0
220 -40 315 399 10 638 0
221 20 211 298 10 0 14
222 11 1499 1592 10 0 434
223 15 1090 1138 0 0 1026
224 -5 348 464 10 902 0
225 -12 1129 1241 10 632 0
226 40 148 207 10 0 328
227 -10 1108 1136 10 757 0
228 13 208 262 10 0 650
229 -9 70 91 10 438 0
230 -10 298 427 10 629 0
231 10 6 107 10 0 136
232 20 313 418 10 0 184
233 -20 1037 1114 10 381 0
234 -20 182 281 10 630 0
235 32 46 121 10 0 66
236 10 152 265 10 0 982
237 -20 831 896 10 529 0
238 13 689 764 10 0 969
239 10 181 258 10 0 449
240 10 320 391 10 0 727
241 30 154 219 10 0 108
242 -20 961 1021 10 313 0
243 20 316 417 10 0 168
244 30 263 325 10 0 729
245 26 39 77 10 0 465
246 10 254 305 10 0 600
247 -10 1572 1685 10 848 0
248 -37 847 916 10 673 0
249 20 76 116 10 0 754
250 -19 525 557 10 779 0
251 -29 1390 1425 10 652 0
252 26 328 377 10 0 835
253 -30 16 146 10 150 0
254 20 259 290 10 0 399
255 -12 419 430 10 905 0
256 11 808 852 10 0 293
257 19 246 283 10 0 486
258 15 1300 1369 0 0 1050
259 -14 398 440 10 320 0
260 -28 1327 1404 10 55 0
261 -10 324 360 10 324 0
262 -20 63 155 10 387 0
263 40 328 383 10 0 759
264 -10 441 481 10 111 0
265 -20 150 233 10 867 0
266 1 547 600 10 0 460
267 -10 365 417 10 817 0
268 -10 219 295 10 172 0
269 20 284 343 10 0 319
270 10 1379 1405 0 0 1053
271 -20 1490 1568 10 809 0
272 34 114 173 10 0 742
273 20 39 129 10 0 736
274 20 127 150 10 0 951
275 -20 392 446 10 752 0
276 25 57 92 10 0 364
277 18 277 374 0 0 1018
278 22 633 740 10 0 911
279 -20 342 423 10 365 0
280 -10 378 467 10 625 0
281 -9 623 657 10 139 0
282 18 217 281 10 0 3
283 10 350 436 10 0 547
284 18 1144 1225 10 0 129
285 -12 1327 1364 10 864 0
286 -20 141 223 10 984 0
287 -17 254 314 10 818 0
288 10 307 365 10 0 820
289 -30 437 509 10 109 0
290 -20 289 360 10 916 0
291 7 506 541 10 0 2
292 23 1247 1298 10 0 581
293 -11 898 1005 10 256 0
294 10 59 149 10 0 865
295 24 1045 1121 10 0 152
296 -21 1057 1146 10 570 0
297 -36 1333 1396 10 746 0
298 10 211 232 10 0 720
299 30 186 222 0 0 1040
300 -15 758 835 10 990 0
301 10 165 198 10 0 959
302 25 195 241 10 0 844
303 -10 1577 1606 10 696 0
304 -10 269 363 10 603 0
305 20 150 239 10 0 348
306 18 156 200 10 0 463
307 10 259 367 10 0 164
308 -20 232 300 10 616 0
309 -20 280 348 10 819 0
310 10 300 376 10 0 609
311 -10 322 331 10 531 0
312 20 141 155 10 0 550
313 20 224 234 10 0 242
314 9 1280 1310 10 0 971
315 20 78 103 10 0 654
316 20 168 250 10 0 106
317 -20 138 167 10 351 0
318 -10 1696 1724 10 528 0
319 -20 340 367 10 269 0
320 14 299 338 10 0 259
321 -20 434 493 10 457 0
322 10 220 305 10 0 874
323 -20 1324 1402 10 730 0
324 10 277 335 10 0 261
325 -31 657 762 10 861 0
326 -40 162 231 10 885 0
327 10 155 198 10 0 97
328 -40 155 212 10 226 0
329 -20 322 351 10 997 0
330 20 185 284 0 0 1048
331 -20 272 315 10 363 0
332 -10 619 668 10 970 0
333 -23 975 1019 10 99 0
334 18 806 894 10 0 995
335 20 193 232 10 0 831
336 20 324 379 10 0 167
337 -30 370 443 10 617 0
338 -20 391 433 10 166 0
339 -10 1422 1443 10 765 0
340 -4 1136 1219 10 527 0
341 -8 892 903 10 112 0
342 20 196 219 10 0 855
343 20 217 269 0 0 1009
344 20 331 403 0 0 1011
345 -17 142 156 10 930 0
346 -20 307 338 10 717 0
347 20 87 150 10 0 886
348 -20 649 689 10 305 0
349 -32 795 842 10 813 0
350 20 53 140 10 0 968
351 20 127 212 10 0 317
352 30 308 370 10 0 649
353 -30 163 170 10 67 0
354 10 303 370 0 0 1024
355 10 151 199 0 0 1034
356 10 155 234 10 0 628
357 -17 338 417 10 28 0
358 25 759 887 10 0 623
359 -20 367 413 10 967 0
360 20 631 725 10 0 771
361 30 139 211 10 0 770
362 30 275 345 10 0 866
363 20 219 245 10 0 331
364 -25 125 166 10 276 0
365 20 273 348 10 0 279
366 30 321 381 10 0 123
367 20 371 419 10 0 418
368 20 166 199 10 0 602
369 36 1451 1470 0 0 1052
370 -28 1133 1187 10 883 0
371 15 119 205 10 0 107
372 -18 1099 1205 10 559 0
373 -26 705 766 10 633 0
374 -20 239 370 10 207 0
375 -20 155 180 10 992 0
376 20 186 257 10 0 708
377 20 313 420 10 0 590
378 20 272 354 10 0 113
379 21 659 728 0 0 1044
380 13 741 782 10 0 104
381 20 448 516 10 0 233
382 20 238 325 10 0 843
383 -20 303 367 10 470 0
384 -13 221 278 10 548 0
385 12 1298 1339 10 0 796
386 -13 1329 1375 10 941 0
387 20 49 147 10 0 262
388 20 1519 1574 0 0 1037
389 25 163 201 10 0 416
390 30 126 201 10 0 993
391 -14 611 635 10 595 0
392 12 394 460 10 0 791
393 -10 843 900 10 963 0
394 30 95 157 10 0 160
395 -28 1120 1167 10 943 0
396 -23 155 235 10 7 0
397 20 1283 1360 10 0 758
398 20 382 500 0 0 1002
399 -20 928 971 10 254 0
400 -5 766 853 10 978 0
401 -10 848 879 10 955 0
402 20 196 211 10 0 693
403 -20 135 168 10 177 0
404 -19 1321 1392 10 728 0
405 -10 307 367 10 682 0
406 -20 166 225 10 427 0
407 6 1440 1488 10 0 116
408 8 36 82 10 0 745
409 10 219 280 10 0 29
410 25 473 516 10 0 9
411 -30 1152 1256 10 744 0
412 -10 768 813 10 32 0
413 -9 872 922 10 478 0
414 -27 1029 1103 10 701 0
415 30 249 264 10 0 46
416 -25 773 826 10 389 0
417 20 229 275 10 0 974
418 -20 1211 1250 10 367 0
419 -10 392 466 10 852 0
420 -30 237 312 10 868 0
421 18 1512 1574 0 0 1041
422 10 247 358 10 0 697
423 10 324 385 10 0 573
424 -28 1152 1208 10 477 0
425 -10 250 270 10 204 0
426 28 610 672 10 0 760
427 20 155 235 10 0 406
428 -30 1272 1300 10 780 0
429 -10 215 274 10 516 0
430 -20 474 509 10 798 0
431 -20 993 1025 10 898 0
432 10 287 348 10 0 474
433 -14 913 969 10 949 0
434 -11 1478 1526 10 222 0
435 -10 1151 1207 10 586 0
436 18 1213 1269 0 0 1036
437 30 165 245 10 0 879
438 9 50 116 10 0 229
439 -21 1249 1295 10 511 0
440 -3 351 416 10 711 0
441 20 241 304 10 0 894
442 27 200 317 10 0 566
443 -12 732 809 10 921 0
444 10 339 370 10 0 937
445 -20 1024 1049 10 666 0
446 30 296 330 10 0 24
447 20 274 367 10 0 553
448 -20 1130 1156 10 972 0
449 -10 229 284 10 239 0
450 -10 169 243 10 41 0
451 -32 729 781 10 790 0
452 21 43 108 10 0 54
453 10 279 334 10 0 42
454 -40 76 164 10 6 0
455 3 402 429 10 0 133
456 -20 297 381 10 21 0
457 20 315 389 10 0 321
458 30 277 312 10 0 507
459 -10 649 693 10 877 0
460 -1 865 933 10 266 0
461 -15 1301 1335 10 30 0
462 10 409 488 0 0 1006
463 -18 236 338 10 306 0
464 -10 836 901 10 933 0
465 -26 63 110 10 245 0
466 20 292 311 10 0 35
467 -20 273 331 10 838 0
468 -10 520 600 10 576 0
469 -20 339 395 10 775 0
470 20 221 284 10 0 383
471 27 786 823 10 0 621
472 -20 263 284 10 807 0
473 20 211 241 10 0 137
474 -10 330 412 10 432 0
475 20 209 317 10 0 199
476 -25 483 528 10 863 0
477 28 89 143 10 0 424
478 9 18 93 10 0 413
479 22 1465 1519 10 0 596
480 -20 258 330 10 945 0
481 -30 350 403 10 640 0
482 20 142 205 10 0 961
483 28 718 771 10 0 719
484 -10 234 312 10 156 0
485 -20 59 156 10 977 0
486 -19 1177 1239 10 257 0
487 20 339 378 0 0 1025
488 10 222 248 10 0 5
489 -30 418 476 10 915 0
490 -30 348 382 10 594 0
491 10 305 401 10 0 210
492 -10 354 423 10 533 0
493 10 227 343 10 0 919
494 -10 395 483 10 769 0
495 -10 684 714 10 684 0
496 25 827 907 10 0 37
497 14 245 293 10 0 498
498 -14 526 631 10 497 0
499 -25 846 917 10 713 0
500 20 397 417 10 0 68
501 20 155 201 10 0 962
502 -20 73 143 10 764 0
503 -33 1108 1141 10 86 0
504 -10 572 605 10 13 0
505 10 325 424 10 0 966
506 29 615 698 10 0 698
507 -30 1032 1085 10 458 0
508 -40 531 571 10 18 0
509 35 122 227 10 0 81
510 22 1175 1245 10 0 873
511 21 470 534 10 0 439
512 -15 476 541 10 881 0
513 20 339 377 10 0 96
514 -30 395 450 10 870 0
515 20 169 256 10 0 571
516 10 194 268 10 0 429
517 10 239 283 10 0 778
518 20 142 213 10 0 181
519 20 165 182 10 0 195
520 -20 603 669 10 589 0
521 18 573 700 10 0 185
522 20 298 336 10 0 206
523 -10 183 305 10 726 0
524 -20 218 281 10 580 0
525 -16 697 771 10 808 0
526 20 275 296 0 0 1012
527 4 758 804 10 0 340
528 10 1310 1360 10 0 318
529 20 196 203 10 0 237
530 18 1183 1242 0 0 1028
531 10 250 326 10 0 311
532 -10 1502 1544 10 60 0
533 10 149 234 10 0 492
534 10 150 256 10 0 23
535 -30 233 261 10 851 0
536 10 341 401 10 0 767
537 -7 1513 1579 10 190 0
538 -10 223 273 10 147 0
539 1 84 188 10 0 800
540 30 211 275 10 0 741
541 19 538 586 10 0 664
542 -10 1406 1470 10 561 0
543 10 75 170 10 0 82
544 6 368 394 10 0 188
545 20 171 216 10 0 890
546 -20 169 223 10 686 0
547 -10 1019 1038 10 283 0
548 13 56 102 10 0 384
549 -20 305 371 10 604 0
550 -20 183 254 10 312 0
551 10 357 445 10 0 33
552 -10 908 951 10 10 0
553 -20 273 343 10 447 0
554 -30 314 332 10 871 0
555 20 330 372 10 0 859
556 -32 1441 1505 10 80 0
557 24 115 153 10 0 932
558 25 1145 1215 10 0 70
559 18 1021 1094 10 0 372
560 -20 750 822 10 205 0
561 10 238 325 10 0 542
562 19 794 850 10 0 781
563 5 777 839 10 0 980
564 30 274 323 10 0 622
565 -30 222 276 10 850 0
566 -27 607 684 10 442 0
567 -15 1125 1177 10 689 0
568 20 241 257 10 0 670
569 10 201 243 10 0 143
570 21 402 430 10 0 296
571 -20 1121 1200 10 515 0
572 -10 465 577 10 845 0
573 -10 364 468 10 423 0
574 -20 274 311 10 216 0
575 15 978 1099 10 0 936
576 10 257 308 10 0 468
577 -20 277 370 10 777 0
578 -13 401 486 10 134 0
579 23 124 135 10 0 853
580 20 225 260 10 0 524
581 -23 1325 1413 10 292 0
582 38 121 164 10 0 658
583 10 299 325 10 0 987
584 20 984 1064 10 0 169
585 25 102 179 10 0 996
586 10 301 350 10 0 435
587 -29 330 347 10 669 0
588 20 215 252 10 0 624
589 20 197 252 10 0 520
590 -20 335 388 10 377 0
591 18 1272 1360 0 0 1045
592 -20 245 322 10 876 0
593 -14 470 544 10 39 0
594 30 325 341 10 0 490
595 14 322 389 10 0 391
596 -22 1478 1529 10 479 0
597 20 229 306 10 0 93
598 -19 900 982 10 115 0
599 13 383 442 10 0 913
600 -10 288 360 10 246 0
601 25 743 783 10 0 776
602 -20 203 339 10 368 0
603 10 160 231 10 0 304
604 20 235 317 10 0 549
605 23 994 1038 10 0 612
606 20 50 119 10 0 611
607 10 342 411 10 0 63
608 20 142 188 0 0 1051
609 -10 1435 1509 10 310 0
610 30 274 383 10 0 973
611 -20 177 218 10 606 0
612 -23 1162 1240 10 605 0
613 30 198 264 10 0 95
614 20 168 220 10 0 806
615 -30 533 628 10 789 0
616 20 225 263 10 0 308
617 30 339 401 10 0 337
618 8 398 440 10 0 114
619 -10 175 286 10 924 0
620 -6 903 963 10 914 0
621 -27 957 1055 10 471 0
622 -30 302 323 10 564 0
623 -25 994 1097 10 358 0
624 -20 1455 1493 10 588 0
625 10 368 407 10 0 280
626 -30 313 371 10 976 0
627 15 418 483 10 0 735
628 -10 191 216 10 356 0
629 10 254 302 10 0 230
630 20 166 244 10 0 234
631 20 253 301 10 0 105
632 12 995 1084 10 0 225
633 26 612 641 10 0 373
634 24 758 835 0 0 1019
635 18 331 385 10 0 642
636 -10 200 213 10 15 0
637 30 173 251 10 0 722
638 40 295 373 10 0 220
639 10 254 345 10 0 132
640 30 274 353 10 0 481
641 10 290 342 10 0 944
642 -18 993 1069 10 635 0
643 -26 224 268 10 792 0
644 6 1163 1224 0 0 1032
645 14 117 244 10 0 929
646 10 270 316 10 0 20
647 -20 493 529 10 58 0
648 10 99 148 10 0 162
649 -30 1231 1311 10 352 0
650 -13 755 812 10 228 0
651 -20 1183 1241 10 875 0
652 29 699 744 10 0 251
653 -20 974 1030 10 700 0
654 -20 248 317 10 315 0
655 1 1107 1174 0 0 1008
656 -14 597 667 10 25 0
657 19 401 425 0 0 1030
658 -38 186 226 10 582 0
659 -10 542 599 10 672 0
660 -20 88 143 10 102 0
661 10 46 112 10 0 699
662 21 1465 1482 0 0 1022
663 25 1161 1255 10 0 84
664 -19 737 806 10 541 0
665 -30 286 333 10 988 0
666 20 329 410 10 0 445
667 23 513 580 0 0 1017
668 -10 710 804 10 170 0
669 29 229 304 10 0 587
670 -20 985 1031 10 568 0
671 10 234 307 0 0 1027
672 10 268 329 10 0 659
673 37 229 250 10 0 248
674 -30 1076 1096 10 825 0
675 -20 581 624 10 683 0
676 -10 298 380 10 814 0
677 30 210 253 10 0 733
678 21 769 833 10 0 957
679 16 465 523 0 0 1046
680 20 171 211 0 0 1049
681 -36 386 402 10 50 0
682 10 280 357 10 0 405
683 20 308 371 10 0 675
684 10 341 372 10 0 495
685 -10 198 256 10 901 0
686 20 162 221 10 0 546
687 -10 92 173 10 761 0
688 -10 598 688 10 917 0
689 15 1095 1135 10 0 567
690 30 343 356 0 0 1007
691 -10 284 324 10 714 0
692 20 225 305 10 0 694
693 -20 199 232 10 402 0
694 -20 281 313 10 692 0
695 -30 243 281 10 787 0
696 10 66 123 10 0 303
697 -10 429 483 10 422 0
698 -29 1399 1455 10 506 0
699 -10 316 396 10 661 0
700 20 283 309 10 0 653
701 27 919 997 10 0 414
702 20 368 401 10 0 830
703 30 237 315 10 0 849
704 20 298 355 10 0 186
705 10 447 507 10 0 748
706 20 278 329 10 0 925
707 10 63 130 10 0 187
708 -20 197 300 10 376 0
709 20 398 419 10 0 986
710 10 219 298 10 0 52
711 3 208 284 10 0 440
712 -30 776 839 10 217 0
713 25 390 476 10 0 499
714 10 223 289 10 0 691
715 -23 1342 1453 10 174 0
716 18 246 289 10 0 191
717 20 259 367 10 0 346
718 -2 575 629 10 175 0
719 -28 897 912 10 483 0
720 -10 274 331 10 298 0
721 12 179 260 10 0 1001
722 -30 303 419 10 637 0
723 -20 1164 1198 10 64 0
724 31 972 1044 0 0 1038
725 8 226 239 10 0 822
726 10 168 235 10 0 523
727 -10 1472 1510 10 240 0
728 19 48 144 10 0 404
729 -30 267 349 10 244 0
730 20 385 407 10 0 323
731 -26 997 1030 10 31 0
732 10 284 303 10 0 892
733 -30 227 279 10 677 0
734 20 226 309 10 0 213
735 -15 714 733 10 627 0
736 -20 1580 1662 10 273 0
737 10 279 331 10 0 193
738 -10 268 311 10 135 0
739 19 657 707 10 0 878
740 -23 312 388 10 836 0
741 -30 303 325 10 540 0
742 -34 154 239 10 272 0
743 -20 221 302 10 117 0
744 30 251 345 10 0 411
745 -8 1405 1506 10 408 0
746 36 1266 1331 10 0 297
747 -30 305 342 10 840 0
748 -10 481 499 10 705 0
749 24 246 300 10 0 882
750 2 932 980 10 0 821
751 -10 567 670 10 119 0
752 20 240 289 10 0 275
753 -10 308 389 10 918 0
754 -20 92 192 10 249 0
755 10 136 172 10 0 157
756 -10 158 260 10 895 0
757 10 281 335 10 0 227
758 -20 1587 1624 10 397 0
759 -40 847 916 10 263 0
760 -28 1049 1123 10 426 0
761 10 103 196 10 0 687
762 8 623 705 0 0 1021
763 -20 214 266 10 934 0
764 20 82 166 10 0 502
765 10 200 267 10 0 339
766 -30 1485 1551 10 94 0
767 -10 1208 1271 10 536 0
768 10 195 242 10 0 22
769 10 173 279 10 0 494
770 -30 1130 1148 10 361 0
771 -20 915 968 10 360 0
772 10 89 110 10 0 75
773 -11 552 678 10 826 0
774 20 320 371 10 0 950
775 20 254 302 10 0 469
776 -25 742 848 10 601 0
777 20 253 306 10 0 577
778 -10 309 345 10 517 0
779 19 185 207 10 0 250
780 30 7 72 10 0 428
781 -19 1063 1099 10 562 0
782 9 804 836 10 0 927
783 30 356 399 10 0 947
784 -17 393 459 10 148 0
785 22 256 290 10 0 151
786 11 1092 1191 0 0 1014
787 30 213 270 10 0 695
788 30 143 225 10 0 842
789 30 284 310 10 0 615
790 32 548 621 10 0 451
791 -12 1504 1580 10 392 0
792 26 181 271 10 0 643
793 30 77 120 10 0 952
794 10 5 81 10 0 53
795 11 519 568 10 0 935
796 -12 1696 1747 10 385 0
797 12 326 395 10 0 837
798 20 206 306 10 0 430
799 10 234 258 10 0 893
800 -1 1222 1278 10 539 0
801 20 232 248 10 0 138
802 -20 1525 1549 10 90 0
803 25 1227 1297 10 0 832
804 -20 221 362 10 78 0
805 -16 1158 1225 10 979 0
806 -20 261 295 10 614 0
807 20 177 241 10 0 472
808 16 672 697 10 0 525
809 20 155 178 10 0 271
810 -20 302 374 10 857 0
811 20 237 330 10 0 998
812 10 246 275 10 0 98
813 32 369 464 10 0 349
814 10 286 367 10 0 676
815 20 206 281 10 0 904
816 25 292 392 10 0 183
817 10 350 411 10 0 267
818 17 120 163 10 0 287
819 20 119 135 10 0 309
820 -10 321 375 10 288 0
821 -2 1249 1298 10 750 0
822 -8 274 335 10 725 0
823 -5 223 291 10 923 0
824 -10 236 308 10 931 0
825 30 223 295 10 0 674
826 11 257 277 10 0 773
827 -20 408 443 10 38 0
828 20 245 267 10 0 126
829 20 259 324 10 0 56
830 -20 328 407 10 702 0
831 -20 226 265 10 335 0
832 -25 1208 1268 10 803 0
833 -23 909 973 10 51 0
834 11 275 364 10 0 47
835 -26 806 858 10 252 0
836 23 230 253 10 0 740
837 -12 1557 1592 10 797 0
838 20 208 246 10 0 467
839 -10 49 110 10 127 0
840 30 270 303 10 0 747
841 11 739 764 0 0 1005
842 -30 239 274 10 788 0
843 -20 1365 1409 10 382 0
844 -25 818 927 10 302 0
845 10 270 362 10 0 572
846 20 166 231 10 0 908
847 -10 315 388 10 176 0
848 10 260 294 10 0 247
849 -30 390 475 10 703 0
850 30 225 280 10 0 565
851 30 111 210 10 0 535
852 10 296 358 10 0 419
853 -23 265 276 10 579 0
854 -30 218 282 10 856 0
855 -20 549 645 10 342 0
856 30 146 246 10 0 854
857 20 297 394 10 0 810
858 -12 368 403 10 903 0
859 -20 341 410 10 555 0
860 -10 130 194 10 872 0
861 31 357 403 10 0 325
862 20 271 299 10 0 197
863 25 381 478 10 0 476
864 12 699 766 10 0 285
865 -10 74 194 10 294 0
866 -30 987 1065 10 362 0
867 20 155 230 10 0 265
868 30 211 276 10 0 420
869 20 118 193 10 0 179
870 30 199 257 10 0 514
871 30 159 214 10 0 554
872 10 21 83 10 0 860
873 -22 1440 1504 10 510 0
874 -10 390 463 10 322 0
875 20 227 287 10 0 651
876 20 237 320 10 0 592
877 10 215 250 10 0 459
878 -19 1238 1293 10 739 0
879 -30 188 248 10 437 0
880 -16 1023 1117 10 48 0
881 15 338 438 10 0 512
882 -24 297 347 10 749 0
883 28 1049 1108 10 0 370
884 10 207 265 10 0 49
885 40 173 277 10 0 326
886 -20 227 290 10 347 0
887 24 230 298 10 0 215
888 30 173 257 10 0 920
889 20 240 285 10 0 171
890 -20 414 473 10 545 0
891 13 595 693 10 0 192
892 -10 250 314 10 732 0
893 -10 238 357 10 799 0
894 -20 1488 1528 10 441 0
895 10 147 230 10 0 756
896 4 1133 1175 0 0 1043
897 20 346 357 10 0 964
898 20 436 469 10 0 431
899 -20 239 283 10 948 0
900 31 736 841 0 0 1003
901 10 159 246 10 0 685
902 5 285 371 10 0 224
903 12 236 341 10 0 858
904 -20 243 321 10 815 0
905 12 141 201 10 0 255
906 10 329 391 10 0 120
907 30 164 242 10 0 11
908 -20 974 1090 10 846 0
909 -20 250 338 10 942 0
910 10 144 177 10 0 182
911 -22 739 880 10 278 0
912 24 1356 1413 10 0 958
913 -13 1381 1443 10 599 0
914 6 757 791 10 0 620
915 30 352 457 10 0 489
916 20 269 334 10 0 290
917 10 265 309 10 0 688
918 10 263 319 10 0 753
919 -10 529 569 10 493 0
920 -30 321 393 10 888 0
921 12 207 262 10 0 443
922 -15 1414 1491 10 965 0
923 5 47 75 10 0 823
924 10 197 281 10 0 619
925 -20 404 471 10 706 0
926 10 270 287 10 0 158
927 -9 1245 1291 10 782 0
928 20 126 182 10 0 130
929 -14 500 575 10 645 0
930 17 31 54 10 0 345
931 10 213 251 10 0 824
932 -24 167 186 10 557 0
933 10 153 207 10 0 464
934 20 195 216 10 0 763
935 -11 623 694 10 795 0
936 -15 1021 1106 10 575 0
937 -10 759 859 10 444 0
938 30 226 239 10 0 131
939 -10 969 1059 10 36 0
940 10 406 486 10 0 59
941 13 1150 1253 10 0 386
942 20 240 344 10 0 909
943 28 833 910 10 0 395
944 -10 296 391 10 641 0
945 20 99 156 10 0 480
946 20 222 323 10 0 154
947 -30 958 984 10 783 0
948 20 231 279 10 0 899
949 14 308 365 10 0 433
950 -20 343 418 10 774 0
951 -20 290 306 10 274 0
952 -30 707 755 10 793 0
953 20 332 399 10 0 983
954 -20 780 872 10 196 0
955 10 210 268 10 0 401
956 10 98 135 10 0 989
957 -21 893 945 10 678 0
958 -24 1603 1670 10 912 0
959 -10 244 295 10 301 0
960 10 163 242 10 0 159
961 -20 177 210 10 482 0
962 -20 162 219 10 501 0
963 10 313 401 10 0 393
964 -20 286 405 10 897 0
965 15 1380 1449 10 0 922
966 -10 410 462 10 505 0
967 20 311 329 10 0 359
968 -20 56 171 10 350 0
969 -13 977 1029 10 238 0
970 10 359 431 10 0 332
971 -9 1317 1421 10 314 0
972 20 220 317 10 0 448
973 -30 1306 1409 10 610 0
974 -20 252 304 10 417 0
975 20 152 257 10 0 149
976 30 313 371 10 0 626
977 20 56 170 10 0 485
978 5 676 729 10 0 400
979 16 1110 1147 10 0 805
980 -5 821 874 10 563 0
981 7 436 449 10 0 121
982 -10 292 323 10 236 0
983 -20 971 1063 10 953 0
984 20 82 142 10 0 286
985 -18 171 246 10 145 0
986 -20 527 585 10 709 0
987 -10 306 442 10 583 0
988 30 272 328 10 0 665
989 -10 216 295 10 956 0
990 15 96 166 10 0 300
991 10 286 363 10 0 173
992 20 41 93 10 0 375
993 -30 477 493 10 390 0
994 20 256 286 10 0 101
995 -18 1562 1605 10 334 0
996 -25 680 733 10 585 0
997 20 211 313 10 0 329
998 -20 1202 1264 10 811 0
999 -5 326 417 10 17 0
1000 30 314 417 10 0 214
1001 -12 223 254 10 721 0
1002 -20 382 500 10 398 0
1003 -31 736 841 10 900 0
1004 -3 1048 1165 10 100 0
1005 -11 739 764 10 841 0
1006 -10 409 488 10 462 0
1007 -30 343 356 10 690 0
1008 -1 1107 1174 10 655 0
1009 -20 217 269 10 343 0
1010 -20 1099 1175 10 122 0
1011 -20 331 403 10 344 0
1012 -20 275 296 10 526 0
1013 -26 904 990 10 128 0
1014 -11 1092 1191 10 786 0
1015 -30 271 324 10 118 0
1016 -10 310 386 10 165 0
1017 -23 513 580 10 667 0
1018 -18 277 374 10 277 0
1019 -24 758 835 10 634 0
1020 -10 155 256 10 83 0
1021 -8 623 705 10 762 0
1022 -21 1465 1482 10 662 0
1023 -20 289 370 10 212 0
1024 -10 303 370 10 354 0
1025 -20 339 378 10 487 0
1026 -15 1090 1138 10 223 0
1027 -10 234 307 10 671 0
1028 -18 1183 1242 10 530 0
1029 -22 487 596 10 200 0
1030 -19 401 425 10 657 0
1031 -20 76 159 10 125 0
1032 -6 1163 1224 10 644 0
1033 -23 891 980 10 43 0
1034 -10 151 199 10 355 0
1035 -24 1014 1025 10 34 0
1036 -18 1213 1269 10 436 0
1037 -20 1519 1574 10 388 0
1038 -31 972 1044 10 724 0
1039 -29 818 861 10 71 0
1040 -30 186 222 10 299 0
1041 -18 1512 1574 10 421 0
1042 -10 179 298 10 19 0
1043 -4 1133 1175 10 896 0
1044 -21 659 728 10 379 0
1045 -18 1272 1360 10 591 0
1046 -16 465 523 10 679 0
1047 -22 1262 1337 10 87 0
1048 -20 185 284 10 330 0
1049 -20 171 211 10 680 0
1050 -15 1300 1369 10 258 0
1051 -20 142 188 10 608 0
1052 -36 1451 1470 10 369 0
1053 -10 1379 1405 10 270 0
DEPOT_SECTION
1
-1
EOF
