NAME: lrc1_10_3
TYPE: PDPTW
COMMENT: Li & Lim PDPTW benchmark converted from SINTEF format
DIMENSION: 1049
VEHICLES: 250
CAPACITY: 200
EDGE_WEIGHT_TYPE: EUC_2D
NODE_COORD_SECTION
1 250 250
2 440 436
3 214 394
4 476 483
5 352 487
6 230 197
7 175 239
8 133 202
9 328 458
10 25 499
11 226 423
12 313 282
13 60 454
14 239 486
15 102 264
16 408 452
17 451 62
18 203 390
19 92 233
20 7 300
21 409 90
22 307 108
23 347 54
24 406 87
25 371 332
26 116 466
27 441 265
28 130 140
29 80 117
30 421 387
31 83 300
32 136 52
33 18 462
34 390 120
35 188 119
36 467 114
37 440 292
38 268 400
39 391 202
40 377 432
41 80 290
42 439 15
43 307 52
44 111 192
45 131 56
46 88 286
47 69 414
48 41 232
49 323 77
50 340 416
51 86 199
52 314 124
53 375 191
54 226 175
55 242 106
56 417 417
57 419 459
58 389 11
59 450 416
60 246 255
61 71 333
62 105 474
63 20 489
64 388 331
65 92 259
66 200 261
67 400 288
68 299 285
69 378 199
70 325 147
71 421 386
72 404 447
73 412 478
74 26 67
75 358 183
76 30 302
77 176 470
78 96 270
79 243 408
80 60 29
81 34 169
82 407 280
83 277 403
84 498 456
85 384 491
86 355 174
87 97 288
88 316 284
89 334 403
90 415 223
91 230 320
92 432 199
93 92 18
94 273 300
95 269 112
96 429 389
97 371 71
98 5 297
99 414 378
100 38 15
101 2 295
102 237 254
103 54 445
104 382 110
105 438 488
106 395 331
107 230 487
108 249 407
109 488 26
110 151 81
111 483 14
112 0 422
113 429 67
114 195 464
115 356 256
116 264 180
117 94 235
118 474 96
119 268 52
120 44 440
121 7 382
122 459 53
123 491 25
124 439 243
125 210 185
126 150 68
127 201 270
128 0 188
129 103 464
130 325 56
131 44 344
132 418 75
133 472 57
134 460 328
135 89 270
136 374 190
137 463 253
138 97 93
139 163 472
140 29 336
141 84 453
142 294 421
143 343 62
144 371 193
145 142 372
146 66 88
147 395 332
148 93 413
149 267 394
150 249 258
151 472 129
152 87 3
153 62 326
154 212 186
155 241 402
156 439 266
157 79 80
158 62 453
159 188 151
160 386 154
161 38 301
162 192 265
163 371 192
164 64 294
165 381 494
166 437 12
167 186 135
168 459 10
169 175 422
170 274 48
171 488 173
172 398 97
173 385 17
174 180 283
175 71 12
176 343 49
177 248 251
178 7 194
179 322 290
180 410 399
181 398 103
182 385 285
183 179 497
184 464 13
185 492 335
186 27 464
187 231 29
188 157 38
189 439 268
190 149 214
191 187 73
192 429 169
193 350 199
194 60 231
195 448 404
196 481 20
197 436 25
198 111 459
199 389 17
200 148 208
201 475 477
202 390 325
203 346 354
204 91 266
205 17 65
206 391 112
207 224 203
208 426 231
209 260 472
210 265 0
211 391 293
212 411 421
213 132 30
214 475 480
215 286 244
216 436 237
217 402 284
218 287 397
219 272 420
220 477 120
221 145 434
222 33 286
223 370 262
224 393 20
225 330 308
226 246 398
227 482 184
228 451 305
229 226 316
230 110 459
231 244 250
232 458 16
233 390 34
234 423 214
235 219 215
236 326 118
237 365 74
238 331 356
239 210 398
240 403 93
241 248 404
242 65 62
243 460 13
244 0 293
245 211 248
246 484 174
247 175 352
248 455 168
249 224 191
250 439 156
251 434 359
252 118 314
253 234 246
254 406 450
255 75 118
256 115 395
257 329 456
258 218 403
259 149 341
260 253 74
261 436 241
262 238 203
263 405 455
264 485 27
265 323 118
266 330 371
267 25 65
268 406 96
269 49 451
270 307 249
271 178 135
272 299 353
273 236 213
274 355 177
275 394 23
276 306 235
277 90 477
278 379 486
279 435 16
280 8 497
281 150 484
282 213 399
283 391 18
284 111 392
285 330 281
286 344 203
287 91 235
288 346 60
289 483 27
290 382 498
291 457 492
292 291 213
293 154 374
294 225 196
295 94 40
296 0 356
297 297 283
298 371 423
299 417 217
300 500 228
301 412 214
302 442 289
303 157 269
304 440 241
305 100 266
306 111 178
307 91 101
308 25 307
309 135 400
310 58 458
311 133 26
312 211 386
313 94 97
314 30 155
315 208 184
316 394 333
317 355 180
318 241 180
319 21 485
320 80 251
321 476 61
322 406 94
323 364 71
324 418 221
325 274 441
326 304 97
327 297 102
328 250 405
329 111 463
330 408 279
331 263 418
332 480 119
333 420 383
334 142 14
335 73 328
336 50 438
337 441 7
338 462 14
339 360 294
340 58 39
341 58 391
342 410 285
343 96 97
344 21 64
345 238 210
346 479 121
347 200 178
348 216 341
349 48 437
350 200 270
351 357 181
352 476 174
353 400 286
354 351 481
355 270 400
356 95 234
357 128 113
358 133 455
359 16 463
360 59 388
361 376 190
362 481 122
363 266 405
364 374 232
365 398 20
366 481 26
367 63 444
368 89 290
369 246 314
370 40 304
371 262 369
372 323 29
373 89 65
374 144 35
375 200 265
376 436 264
377 15 457
378 397 20
379 328 491
380 399 175
381 432 2
382 63 336
383 6 296
384 146 376
385 295 247
386 235 33
387 233 204
388 142 360
389 177 156
390 315 287
391 452 172
392 263 153
393 493 493
394 320 283
395 64 5
396 95 235
397 203 211
398 16 497
399 348 348
400 485 104
401 330 147
402 443 237
403 316 286
404 335 46
405 381 495
406 364 173
407 267 162
408 214 245
409 92 234
410 347 459
411 30 7
412 120 37
413 397 153
414 210 29
415 87 285
416 132 32
417 390 294
418 67 451
419 24 68
420 146 439
421 209 212
422 6 292
423 18 63
424 149 98
425 91 268
426 103 177
427 367 178
428 225 269
429 443 246
430 306 42
431 374 306
432 413 421
433 470 405
434 33 278
435 149 458
436 257 57
437 272 403
438 221 291
439 1 101
440 332 459
441 220 392
442 253 50
443 250 441
444 471 484
445 480 152
446 404 83
447 476 94
448 458 213
449 215 395
450 85 288
451 179 75
452 228 287
453 397 18
454 238 204
455 488 3
456 407 88
457 459 14
458 120 17
459 235 316
460 370 382
461 405 454
462 17 458
463 43 135
464 318 497
465 199 268
466 111 467
467 138 438
468 172 314
469 494 468
470 35 303
471 341 59
472 423 221
473 395 295
474 413 417
475 339 60
476 277 428
477 176 199
478 265 240
479 365 190
480 133 53
481 387 488
482 385 295
483 491 369
484 445 273
485 195 273
486 313 493
487 495 227
488 241 403
489 30 72
490 21 487
491 324 99
492 453 318
493 443 272
494 447 184
495 366 288
496 440 284
497 13 314
498 72 227
499 377 385
500 477 478
501 204 185
502 226 191
503 330 138
504 185 434
505 483 22
506 71 282
507 60 5
508 189 402
509 134 211
510 146 313
511 21 146
512 37 281
513 416 417
514 44 311
515 361 181
516 444 242
517 444 271
518 359 179
519 388 334
520 401 164
521 499 316
522 399 106
523 425 215
524 407 98
525 406 460
526 88 95
527 95 64
528 306 229
529 273 55
530 384 149
531 122 35
532 308 199
533 390 301
534 300 108
535 267 400
536 8 300
537 105 181
538 398 325
539 166 247
540 140 431
541 253 118
542 359 246
543 321 277
544 168 59
545 406 285
546 391 334
547 437 19
548 201 278
549 435 267
550 245 408
551 16 462
552 107 374
553 477 97
554 346 57
555 14 459
556 102 6
557 359 287
558 297 131
559 282 1
560 21 70
561 440 244
562 482 104
563 120 261
564 125 29
565 292 32
566 262 92
567 68 160
568 405 276
569 277 50
570 32 319
571 344 70
572 481 84
573 21 68
574 441 244
575 57 43
576 1 293
577 481 96
578 471 368
579 236 126
580 406 99
581 303 186
582 225 369
583 412 453
584 104 349
585 173 182
586 111 464
587 53 440
588 69 336
589 359 182
590 13 459
591 244 277
592 484 177
593 452 206
594 22 483
595 452 110
596 347 192
597 95 92
598 368 311
599 479 387
600 479 169
601 497 266
602 66 336
603 376 195
604 401 281
605 441 177
606 231 203
607 21 488
608 231 204
609 122 422
610 65 453
611 206 261
612 466 149
613 313 119
614 90 274
615 39 162
616 35 306
617 437 15
618 307 412
619 79 291
620 64 437
621 376 92
622 129 27
623 196 489
624 51 286
625 20 488
626 13 455
627 170 347
628 92 230
629 117 467
630 413 217
631 405 450
632 394 322
633 125 61
634 238 123
635 11 403
636 89 272
637 304 102
638 478 121
639 408 84
640 376 494
641 20 73
642 159 299
643 95 382
644 352 63
645 365 274
646 30 301
647 351 5
648 197 267
649 498 171
650 468 352
651 418 251
652 489 437
653 251 63
654 132 55
655 281 96
656 333 293
657 255 487
658 207 400
659 469 489
660 244 254
661 233 207
662 441 60
663 411 379
664 178 72
665 51 447
666 478 118
667 141 426
668 295 89
669 112 433
670 320 211
671 400 103
672 408 453
673 435 180
674 432 66
675 374 116
676 478 102
677 335 57
678 385 239
679 386 245
680 208 396
681 380 489
682 380 498
683 440 7
684 434 245
685 90 232
686 389 334
687 241 205
688 18 24
689 57 183
690 59 457
691 442 243
692 402 281
693 445 237
694 441 273
695 31 175
696 234 202
697 52 303
698 167 445
699 179 286
700 269 48
701 165 59
702 461 8
703 421 415
704 59 459
705 24 492
706 55 449
707 224 192
708 444 269
709 491 20
710 313 126
711 283 438
712 352 241
713 398 476
714 442 247
715 217 207
716 233 87
717 479 127
718 6 53
719 478 300
720 378 493
721 303 78
722 344 62
723 371 315
724 200 78
725 413 391
726 415 216
727 397 57
728 293 228
729 0 297
730 435 20
731 195 111
732 417 218
733 340 54
734 132 57
735 210 379
736 228 260
737 399 104
738 95 277
739 360 284
740 53 466
741 112 465
742 313 391
743 93 235
744 125 32
745 215 282
746 224 320
747 134 428
748 26 490
749 44 115
750 438 127
751 239 15
752 342 54
753 109 463
754 199 187
755 201 188
756 399 301
757 484 171
758 272 234
759 380 350
760 140 108
761 228 199
762 245 461
763 305 107
764 231 195
765 450 265
766 273 149
767 12 358
768 315 121
769 420 213
770 331 134
771 84 377
772 320 280
773 89 185
774 472 481
775 422 420
776 475 267
777 470 125
778 435 268
779 409 155
780 243 248
781 488 96
782 341 72
783 58 449
784 16 460
785 480 136
786 162 388
787 47 208
788 324 127
789 87 96
790 140 137
791 314 205
792 96 346
793 321 280
794 245 251
795 436 295
796 274 261
797 271 128
798 275 45
799 422 409
800 146 188
801 93 96
802 409 255
803 449 428
804 90 285
805 415 95
806 88 287
807 379 196
808 368 452
809 202 186
810 435 11
811 269 46
812 7 292
813 44 496
814 478 99
815 391 99
816 132 477
817 24 65
818 130 247
819 133 273
820 347 62
821 404 140
822 416 420
823 67 335
824 92 270
825 411 95
826 132 479
827 366 334
828 125 39
829 419 422
830 460 2
831 67 334
832 448 414
833 46 163
834 77 465
835 284 319
836 102 422
837 240 34
838 141 428
839 204 269
840 144 439
841 470 417
842 404 103
843 5 281
844 487 320
845 398 23
846 90 296
847 386 13
848 115 465
849 473 475
850 275 42
851 286 356
852 15 69
853 267 44
854 243 399
855 390 249
856 210 391
857 433 15
858 24 259
859 12 463
860 237 213
861 182 480
862 409 88
863 244 368
864 381 328
865 213 185
866 482 141
867 319 124
868 141 431
869 198 264
870 69 334
871 299 98
872 240 250
873 199 203
874 459 17
875 423 217
876 477 179
877 213 397
878 405 187
879 269 402
880 53 204
881 13 394
882 15 68
883 56 268
884 360 184
885 307 102
886 130 57
887 250 328
888 91 231
889 479 176
890 420 224
891 461 182
892 418 218
893 419 418
894 336 493
895 389 300
896 92 76
897 476 102
898 418 399
899 109 56
900 13 465
901 92 232
902 394 47
903 16 287
904 399 102
905 143 158
906 18 484
907 250 411
908 19 273
909 365 28
910 387 297
911 433 447
912 214 274
913 489 338
914 130 494
915 23 67
916 374 489
917 126 30
918 112 467
919 489 274
920 61 214
921 166 440
922 56 75
923 210 276
924 80 286
925 17 459
926 66 448
927 351 128
928 352 176
929 490 286
930 247 219
931 86 268
932 398 329
933 272 402
934 317 123
935 408 318
936 66 31
937 425 448
938 35 304
939 471 94
940 470 473
941 224 56
942 343 47
943 52 18
944 16 68
945 195 185
946 92 236
947 76 462
948 124 56
949 481 454
950 477 483
951 481 124
952 389 156
953 384 16
954 492 34
955 371 200
956 153 235
957 428 202
958 257 391
959 421 218
960 206 186
961 393 301
962 204 187
963 468 475
964 477 122
965 100 66
966 489 27
967 12 451
968 197 270
969 311 422
970 489 17
971 13 214
972 440 247
973 28 467
974 388 325
975 270 401
976 5 445
977 198 271
978 480 131
979 437 98
980 131 246
981 49 437
982 270 49
983 337 41
984 318 280
985 154 392
986 493 111
987 399 450
988 67 452
989 34 239
990 343 276
991 393 12
992 236 247
993 340 291
994 3 292
995 209 68
996 18 225
997 147 435
998 335 99
999 485 24
1000 470 475
1001 341 58
1002 192 265
1003 413 391
1004 418 251
1005 370 382
1006 436 25
1007 320 280
1008 111 392
1009 308 199
1010 335 99
1011 344 203
1012 217 207
1013 439 156
1014 429 389
1015 439 268
1016 80 251
1017 198 271
1018 269 402
1019 472 129
1020 351 128
1021 236 247
1022 436 295
1023 344 70
1024 103 177
1025 66 31
1026 233 87
1027 441 60
1028 244 368
1029 96 346
1030 44 496
1031 287 397
1032 250 328
1033 64 437
1034 33 278
1035 402 281
1036 6 292
1037 397 57
1038 91 101
1039 132 57
1040 320 283
1041 7 194
1042 16 287
1043 481 96
1044 391 293
1045 482 141
1046 111 459
1047 352 487
1048 426 231
1049 423 217
PICKUP_AND_DELIVERY_SECTION
1 0 0 1821 0 0 0
2 18 0 1546 10 0 203
3 -20 231 261 10 312 0
4 -10 0 1487 10 963 0
5 27 0 1553 0 0 1047
6 -20 122 152 10 606 0
7 23 0 1736 10 0 303
8 33 0 1685 10 0 996
9 17 0 1589 10 0 851
10 -10 0 1476 10 906 0
11 -7 0 1637 10 219 0
12 -20 163 193 10 984 0
13 10 347 377 10 0 552
14 -12 1482 1512 10 325 0
15 10 148 178 10 0 44
16 -10 0 1555 10 672 0
17 5 0 1536 10 0 954
18 40 0 1664 10 0 680
19 -10 0 1653 10 685 0
20 30 345 375 10 0 908
21 -20 0 1586 10 268 0
22 10 237 267 10 0 558
23 -30 0 1593 10 677 0
24 10 0 1586 10 0 97
25 -5 530 560 10 827 0
26 20 254 284 10 0 466
27 -23 0 1620 10 802 0
28 17 194 224 10 0 899
29 -18 824 854 10 306 0
30 -20 801 831 10 898 0
31 26 500 530 10 0 584
32 -10 293 323 10 654 0
33 20 398 428 10 0 112
34 -17 1004 1034 10 930 0
35 44 975 1005 10 0 167
36 -10 0 1555 10 220 0
37 -10 940 970 10 769 0
38 -21 243 273 10 229 0
39 14 148 178 10 0 324
40 20 0 1590 10 0 263
41 10 197 227 10 0 65
42 -3 0 1510 10 455 0
43 -8 920 950 10 983 0
44 -10 1199 1229 10 15 0
45 -7 0 1584 10 159 0
46 10 0 1646 10 0 308
47 -31 1263 1293 10 900 0
48 16 0 1602 10 0 498
49 -9 1405 1435 10 782 0
50 36 321 351 10 0 225
51 -8 0 1640 10 408 0
52 20 231 261 10 0 957
53 30 0 1673 10 0 959
54 -14 1694 1724 10 653 0
55 -12 0 1667 10 797 0
56 -30 0 1575 10 703 0
57 20 0 1543 10 0 432
58 -20 0 1535 10 942 0
59 -25 577 607 10 803 0
60 10 0 1805 10 0 150
61 10 197 227 10 0 370
62 -10 471 501 10 918 0
63 -30 383 413 10 594 0
64 20 160 190 10 0 202
65 -10 399 429 10 41 0
66 10 166 196 10 0 611
67 30 0 1657 10 0 223
68 -20 0 1751 10 500 0
69 -20 207 237 10 144 0
70 14 0 1684 10 0 634
71 29 824 854 10 0 333
72 20 0 1561 10 0 254
73 7 0 1532 10 0 937
74 15 1317 1347 10 0 439
75 -30 0 1684 10 406 0
76 10 267 297 10 0 497
77 -31 0 1579 10 861 0
78 -20 162 192 10 819 0
79 -40 0 1653 10 226 0
80 -3 0 1520 10 100 0
81 -21 484 514 10 971 0
82 10 0 1652 10 0 568
83 10 175 205 10 0 933
84 27 1406 1436 10 0 949
85 20 348 378 10 0 278
86 33 0 1682 10 0 276
87 22 0 1654 10 0 924
88 -10 125 155 10 543 0
89 26 174 204 10 0 399
90 20 305 335 10 0 712
91 -36 0 1739 10 746 0
92 -13 0 1622 10 891 0
93 -20 1124 1154 10 597 0
94 30 55 85 10 0 658
95 19 0 1672 10 0 569
96 18 424 454 0 0 1014
97 -10 0 1595 10 24 0
98 -10 0 1562 10 576 0
99 23 495 525 10 0 431
100 3 0 1495 10 0 80
101 30 0 1559 10 0 994
102 -10 83 113 10 231 0
103 -10 308 338 10 665 0
104 24 0 1619 10 0 825
105 18 0 1508 10 0 849
106 20 217 247 10 0 632
107 -15 1130 1160 10 371 0
108 10 174 204 10 0 711
109 -20 0 1485 10 289 0
110 28 0 1616 10 0 451
111 10 0 1480 10 0 709
112 -20 821 851 10 33 0
113 16 732 762 10 0 671
114 20 1541 1571 10 0 735
115 19 106 136 10 0 495
116 -23 1681 1711 10 668 0
117 20 156 186 10 0 946
118 30 0 1540 10 0 380
119 -30 306 336 10 850 0
120 24 0 1531 10 0 462
121 27 0 1535 10 0 635
122 -9 0 1524 10 909 0
123 10 409 439 10 0 966
124 -10 0 1622 10 574 0
125 -32 76 106 10 235 0
126 -26 423 453 10 374 0
127 10 52 82 10 0 465
128 -30 0 1554 10 787 0
129 -15 0 1552 10 881 0
130 -20 0 1604 10 554 0
131 12 1079 1109 10 0 602
132 11 448 478 10 0 445
133 -30 1295 1325 10 366 0
134 -10 0 1587 10 185 0
135 -20 0 1649 10 305 0
136 -22 0 1674 10 479 0
137 -7 1047 1077 10 776 0
138 -22 0 1592 10 357 0
139 -30 653 683 10 753 0
140 -21 0 1574 10 570 0
141 -4 0 1549 10 349 0
142 -8 1575 1605 10 618 0
143 10 357 387 10 0 534
144 20 0 1678 10 0 69
145 -36 162 192 10 293 0
146 2 0 1566 10 0 915
147 10 0 1645 10 0 932
148 -20 0 1585 10 269 0
149 -10 259 289 10 535 0
150 -10 0 1803 10 60 0
151 10 0 1559 0 0 1019
152 13 1433 1463 10 0 334
153 -20 0 1609 10 831 0
154 -3 1707 1737 10 188 0
155 -10 0 1659 10 488 0
156 -20 189 219 10 376 0
157 19 0 1570 10 0 556
158 10 0 1535 10 0 988
159 7 0 1695 10 0 45
160 -24 1101 1131 10 206 0
161 -10 296 326 10 646 0
162 10 0 1752 0 0 1002
163 -22 134 164 10 791 0
164 -10 1101 1131 10 729 0
165 -30 0 1535 10 640 0
166 -20 330 360 10 857 0
167 -44 0 1680 10 35 0
168 -20 0 1493 10 243 0
169 -7 1446 1476 10 698 0
170 10 0 1608 10 0 811
171 -20 0 1561 10 867 0
172 -10 0 1599 10 322 0
173 -10 809 839 10 199 0
174 -8 0 1734 10 699 0
175 -28 0 1514 10 943 0
176 10 0 1590 10 0 407
177 20 2 32 10 0 780
178 29 0 1562 0 0 1041
179 -18 1479 1509 10 723 0
180 25 0 1593 10 0 663
181 30 0 1603 10 0 815
182 13 0 1672 10 0 993
183 -8 0 1554 10 762 0
184 -20 0 1492 10 196 0
185 10 828 858 10 0 134
186 21 0 1502 10 0 259
187 -2 1226 1256 10 751 0
188 3 1048 1078 10 0 154
189 10 298 328 0 0 1015
190 -10 482 512 10 619 0
191 -31 292 322 10 724 0
192 8 0 1615 10 0 542
193 -20 1201 1231 10 807 0
194 32 0 1621 10 0 539
195 -30 599 629 10 538 0
196 20 347 377 10 0 184
197 19 0 1520 0 0 1006
198 20 359 389 0 0 1046
199 10 0 1540 10 0 173
200 -20 526 556 10 846 0
201 -25 0 1492 10 713 0
202 -20 0 1653 10 64 0
203 -18 0 1670 10 2 0
204 10 0 1652 10 0 425
205 20 0 1514 10 0 573
206 24 1000 1030 10 0 160
207 20 0 1758 10 0 960
208 24 1028 1058 0 0 1048
209 33 1036 1066 10 0 657
210 -20 896 926 10 378 0
211 20 0 1664 0 0 1044
212 -20 0 1577 10 822 0
213 20 0 1562 10 0 544
214 -20 379 409 10 950 0
215 -13 1284 1314 10 520 0
216 20 186 216 10 0 561
217 -14 0 1656 10 645 0
218 12 564 594 0 0 1031
219 7 0 1640 10 0 11
220 10 0 1550 10 0 36
221 20 233 263 10 0 997
222 -20 1546 1576 10 335 0
223 -30 1099 1129 10 67 0
224 20 0 1541 10 0 953
225 -36 0 1713 10 50 0
226 40 148 178 10 0 79
227 -10 0 1570 10 246 0
228 -25 208 238 10 496 0
229 21 70 100 10 0 38
230 -20 348 378 10 329 0
231 10 12 42 10 0 102
232 20 313 343 10 0 337
233 -30 1060 1090 10 617 0
234 20 217 247 10 0 593
235 32 46 76 10 0 125
236 10 0 1659 10 0 934
237 -5 848 878 10 323 0
238 -20 712 742 10 363 0
239 -38 0 1658 10 582 0
240 -10 0 1592 10 710 0
241 30 154 184 10 0 369
242 15 976 1006 10 0 922
243 20 322 352 10 0 168
244 30 279 309 10 0 812
245 26 39 69 10 0 636
246 10 265 295 10 0 227
247 12 0 1685 10 0 823
248 21 0 1591 10 0 595
249 20 81 111 10 0 707
250 2 526 556 0 0 1013
251 13 0 1598 10 0 578
252 -30 0 1665 10 870 0
253 10 65 95 10 0 660
254 -20 0 1558 10 72 0
255 -21 0 1592 10 511 0
256 -30 815 845 10 868 0
257 19 249 279 10 0 911
258 -15 1319 1349 10 627 0
259 -21 0 1676 10 186 0
260 -18 1350 1380 10 436 0
261 -10 327 357 10 691 0
262 -20 94 124 10 454 0
263 -20 0 1554 10 40 0
264 -20 0 1488 10 457 0
265 -30 0 1661 10 788 0
266 -20 559 589 10 405 0
267 10 0 1520 10 0 419
268 20 219 249 10 0 21
269 20 284 314 10 0 148
270 -28 1377 1407 10 297 0
271 -4 1514 1544 10 896 0
272 34 114 144 10 0 437
273 20 39 69 10 0 661
274 20 0 1684 10 0 728
275 -10 0 1543 10 453 0
276 -33 0 1754 10 86 0
277 -11 277 307 10 834 0
278 -20 0 1543 10 85 0
279 10 367 397 10 0 283
280 -10 0 1466 10 490 0
281 -10 0 1557 10 586 0
282 18 0 1658 10 0 388
283 -10 0 1540 10 279 0
284 18 1169 1199 0 0 1008
285 -15 1330 1360 10 935 0
286 14 0 1706 0 0 1011
287 -35 269 299 10 509 0
288 -10 321 351 10 491 0
289 20 0 1489 10 0 109
290 -30 0 1531 10 720 0
291 -10 508 538 10 940 0
292 23 0 1756 10 0 884
293 36 0 1655 10 0 145
294 10 0 1752 10 0 962
295 -20 0 1550 10 801 0
296 -27 1086 1116 10 514 0
297 28 1349 1379 10 0 270
298 10 0 1600 10 0 1000
299 30 189 219 10 0 523
300 -20 782 812 10 889 0
301 -10 0 1646 10 528 0
302 25 195 225 10 0 844
303 -23 1576 1606 10 7 0
304 -10 301 331 10 693 0
305 20 0 1661 10 0 135
306 18 156 186 10 0 29
307 10 0 1594 0 0 1038
308 -10 249 279 10 46 0
309 20 299 329 10 0 504
310 -20 323 353 10 704 0
311 10 0 1559 10 0 828
312 20 0 1670 10 0 3
313 20 218 248 10 0 458
314 -18 1280 1310 10 615 0
315 20 0 1733 10 0 347
316 20 194 224 10 0 598
317 30 0 1685 10 0 351
318 13 0 1741 10 0 392
319 30 0 1483 10 0 625
320 14 0 1641 0 0 1016
321 -5 0 1517 10 902 0
322 10 0 1591 10 0 172
323 5 0 1599 10 0 237
324 -14 291 321 10 39 0
325 12 695 725 10 0 14
326 20 182 212 10 0 637
327 10 155 185 10 0 885
328 20 162 192 10 0 854
329 20 0 1557 10 0 230
330 -20 0 1651 10 545 0
331 25 0 1643 10 0 443
332 -21 0 1547 10 400 0
333 -29 0 1596 10 71 0
334 -13 0 1552 10 152 0
335 20 193 223 10 0 222
336 -10 0 1537 10 771 0
337 -20 392 422 10 232 0
338 -20 397 427 10 683 0
339 -20 1418 1448 10 546 0
340 12 1163 1193 10 0 749
341 -10 0 1573 10 551 0
342 -10 0 1648 10 353 0
343 20 0 1594 10 0 389
344 20 0 1516 10 0 411
345 30 134 164 10 0 608
346 10 308 338 10 0 964
347 -20 94 124 10 315 0
348 19 0 1714 10 0 985
349 4 0 1536 10 0 141
350 20 59 89 10 0 428
351 -30 149 179 10 317 0
352 30 324 354 10 0 876
353 10 154 184 10 0 342
354 10 322 352 10 0 894
355 -30 0 1660 10 907 0
356 10 163 193 10 0 368
357 22 363 393 10 0 138
358 25 808 838 10 0 609
359 -20 0 1495 10 377 0
360 20 663 693 10 0 629
361 -5 0 1672 10 978 0
362 -2 0 1547 10 750 0
363 20 0 1656 10 0 238
364 33 125 155 10 0 417
365 20 0 1538 10 0 647
366 30 0 1490 10 0 133
367 20 0 1542 10 0 418
368 -10 0 1646 10 356 0
369 -30 1445 1475 10 241 0
370 -10 1145 1175 10 61 0
371 15 0 1692 10 0 107
372 7 0 1579 10 0 386
373 16 720 750 10 0 575
374 26 0 1572 10 0 126
375 10 0 1759 10 0 912
376 20 186 216 10 0 156
377 20 323 353 10 0 359
378 20 280 310 10 0 210
379 21 0 1558 10 0 464
380 -30 0 1645 10 118 0
381 -20 467 497 10 730 0
382 -20 0 1606 10 588 0
383 10 320 350 10 0 843
384 -20 0 1648 10 467 0
385 -18 0 1766 10 591 0
386 -7 0 1594 10 372 0
387 20 54 84 10 0 696
388 -18 1532 1562 10 282 0
389 -20 0 1692 10 343 0
390 30 148 178 10 0 796
391 -20 0 1595 10 777 0
392 -13 412 442 10 318 0
393 -4 856 886 10 659 0
394 30 0 1734 0 0 1040
395 -10 0 1504 10 489 0
396 10 155 185 10 0 510
397 -28 1306 1336 10 477 0
398 20 0 1471 10 0 748
399 -26 0 1673 10 89 0
400 21 794 824 10 0 332
401 28 0 1681 10 0 503
402 20 193 223 10 0 714
403 -30 0 1736 10 793 0
404 -10 1342 1372 10 1001 0
405 20 0 1534 10 0 266
406 30 180 210 10 0 75
407 -10 1449 1479 10 176 0
408 8 0 1775 10 0 51
409 -30 0 1653 10 888 0
410 25 0 1581 10 0 486
411 -20 1189 1219 10 344 0
412 -10 0 1562 10 622 0
413 -19 882 912 10 779 0
414 -23 1051 1081 10 664 0
415 30 241 271 10 0 806
416 -26 784 814 10 633 0
417 -33 0 1665 10 364 0
418 -20 1216 1246 10 367 0
419 -10 0 1521 10 267 0
420 -30 259 289 10 540 0
421 -10 0 1756 10 755 0
422 10 0 1564 0 0 1036
423 10 339 369 10 0 688
424 4 0 1629 10 0 948
425 -10 0 1651 10 204 0
426 28 626 656 0 0 1024
427 20 180 210 10 0 952
428 -20 0 1780 10 350 0
429 -10 0 1618 10 516 0
430 11 477 507 10 0 565
431 -23 0 1675 10 99 0
432 -20 0 1575 10 57 0
433 17 0 1542 10 0 832
434 18 1487 1517 0 0 1034
435 -25 1164 1194 10 816 0
436 18 1226 1256 10 0 260
437 -34 190 220 10 272 0
438 9 50 80 10 0 550
439 -15 0 1521 10 74 0
440 -20 0 1587 10 916 0
441 -30 258 288 10 856 0
442 -28 0 1611 10 837 0
443 -25 756 786 10 331 0
444 10 340 370 10 0 841
445 -11 0 1561 10 132 0
446 -10 298 328 10 639 0
447 20 0 1537 10 0 939
448 22 0 1600 10 0 765
449 -10 0 1662 10 508 0
450 20 182 212 10 0 883
451 -28 740 770 10 110 0
452 21 43 73 10 0 975
453 10 0 1537 10 0 275
454 20 0 1764 10 0 262
455 3 401 431 10 0 42
456 -20 0 1586 10 862 0
457 20 315 345 10 0 264
458 -20 0 1545 10 313 0
459 -10 656 686 10 877 0
460 11 884 914 0 0 1005
461 11 1303 1333 10 0 808
462 -24 433 463 10 120 0
463 -19 0 1575 10 537 0
464 -21 0 1555 10 379 0
465 -10 71 101 10 127 0
466 -20 0 1554 10 26 0
467 20 287 317 10 0 384
468 -11 0 1711 10 786 0
469 31 0 1484 10 0 652
470 20 221 251 10 0 858
471 27 0 1600 10 0 722
472 -20 258 288 10 630 0
473 -30 211 241 10 756 0
474 -15 356 386 10 759 0
475 20 211 241 10 0 733
476 -22 490 520 10 958 0
477 28 0 1722 10 0 397
478 -17 0 1793 10 835 0
479 22 0 1682 10 0 136
480 20 0 1582 10 0 886
481 20 362 392 10 0 681
482 20 0 1669 10 0 557
483 28 730 760 10 0 913
484 -10 0 1615 10 726 0
485 -17 0 1752 10 980 0
486 -25 0 1560 10 410 0
487 -10 0 1565 10 757 0
488 10 220 250 10 0 155
489 10 0 1529 10 0 395
490 10 350 380 10 0 280
491 10 0 1643 10 0 288
492 30 374 404 10 0 521
493 10 0 1617 10 0 919
494 27 0 1604 10 0 673
495 -19 0 1689 10 115 0
496 25 0 1618 10 0 228
497 -10 0 1566 10 76 0
498 -16 0 1632 10 48 0
499 6 0 1626 10 0 774
500 20 392 422 10 0 68
501 -10 163 193 10 860 0
502 20 0 1748 10 0 865
503 -28 0 1674 10 401 0
504 -20 574 604 10 309 0
505 -20 334 364 10 999 0
506 29 0 1630 10 0 624
507 -8 0 1501 10 718 0
508 10 536 566 10 0 449
509 35 122 152 10 0 287
510 -10 1195 1225 10 396 0
511 21 487 517 10 0 255
512 -25 0 1596 10 697 0
513 -10 0 1576 10 799 0
514 27 0 1597 10 0 296
515 -20 197 227 10 589 0
516 10 216 246 10 0 429
517 -20 0 1616 10 549 0
518 -18 0 1681 10 530 0
519 20 0 1650 10 0 686
520 13 621 651 10 0 215
521 -30 622 652 10 492 0
522 -30 0 1604 10 674 0
523 -30 229 259 10 299 0
524 -20 0 1593 10 842 0
525 -20 0 1550 10 987 0
526 20 270 300 10 0 527
527 -20 766 796 10 526 0
528 10 0 1752 10 0 301
529 20 0 1615 10 0 700
530 18 0 1644 10 0 518
531 10 250 280 10 0 744
532 14 0 1734 0 0 1009
533 -10 0 1662 10 895 0
534 -10 0 1661 10 143 0
535 10 232 262 10 0 149
536 10 0 1564 10 0 989
537 19 0 1651 10 0 463
538 30 233 263 10 0 195
539 -32 0 1727 10 194 0
540 30 211 241 10 0 420
541 19 547 577 10 0 766
542 -8 1423 1453 10 192 0
543 10 0 1736 10 0 88
544 -20 366 396 10 213 0
545 20 0 1652 10 0 330
546 20 0 1647 10 0 339
547 -20 0 1514 10 874 0
548 13 56 86 10 0 745
549 20 323 353 10 0 517
550 -9 204 234 10 438 0
551 10 0 1496 10 0 341
552 -10 914 944 10 13 0
553 10 0 1538 10 0 951
554 20 308 338 10 0 130
555 -20 336 366 10 967 0
556 -19 0 1526 10 157 0
557 -20 0 1696 10 482 0
558 -10 1165 1195 10 22 0
559 18 0 1560 10 0 853
560 -10 0 1520 10 817 0
561 -20 266 296 10 216 0
562 -20 0 1537 10 897 0
563 -20 793 823 10 738 0
564 30 283 313 10 0 917
565 -11 0 1589 10 430 0
566 -30 630 660 10 687 0
567 -15 1136 1166 10 689 0
568 -10 0 1654 10 82 0
569 -19 201 231 10 95 0
570 21 401 431 10 0 140
571 24 1146 1176 0 0 1023
572 17 506 536 10 0 781
573 -20 401 431 10 205 0
574 10 277 307 10 0 124
575 -16 0 1528 10 373 0
576 10 268 298 10 0 98
577 20 0 1534 0 0 1043
578 -13 0 1561 10 251 0
579 23 124 154 10 0 701
580 -10 227 257 10 737 0
581 -15 1354 1384 10 805 0
582 38 121 151 10 0 239
583 10 297 327 10 0 631
584 -26 1009 1039 10 31 0
585 25 0 1709 10 0 731
586 10 0 1556 10 0 281
587 -20 0 1538 10 590 0
588 20 218 248 10 0 382
589 20 209 239 10 0 515
590 20 0 1496 10 0 587
591 18 0 1784 10 0 385
592 20 0 1566 10 0 600
593 -20 492 522 10 234 0
594 30 325 355 10 0 63
595 -21 340 370 10 248 0
596 -20 1488 1518 10 928 0
597 20 0 1590 10 0 93
598 -20 0 1679 10 316 0
599 -9 397 427 10 650 0
600 -20 0 1569 10 592 0
601 -29 0 1564 10 929 0
602 -12 0 1608 10 131 0
603 10 0 1674 10 0 955
604 -10 261 291 10 910 0
605 23 0 1607 10 0 878
606 20 67 97 10 0 6
607 10 361 391 10 0 705
608 -30 0 1762 10 345 0
609 -25 1457 1487 10 358 0
610 30 282 312 10 0 740
611 -10 182 212 10 66 0
612 -16 1186 1216 10 670 0
613 -10 216 246 10 768 0
614 20 0 1650 10 0 804
615 18 565 595 10 0 314
616 -5 229 259 10 923 0
617 30 0 1511 10 0 233
618 8 0 1640 10 0 142
619 10 0 1636 10 0 190
620 11 918 948 0 0 1033
621 -20 991 1021 10 904 0
622 10 298 328 10 0 412
623 -12 0 1566 10 921 0
624 -29 0 1609 10 506 0
625 -30 372 402 10 319 0
626 -20 0 1498 10 784 0
627 15 436 466 10 0 258
628 20 0 1652 10 0 773
629 -20 0 1557 10 360 0
630 20 0 1645 10 0 472
631 -10 0 1558 10 583 0
632 -20 0 1651 10 106 0
633 26 612 642 10 0 416
634 -14 781 811 10 70 0
635 -27 0 1528 10 121 0
636 -26 0 1649 10 245 0
637 -20 0 1654 10 326 0
638 40 0 1550 10 0 814
639 10 284 314 10 0 446
640 30 0 1537 10 0 165
641 10 290 320 10 0 882
642 -19 0 1708 10 643 0
643 19 231 261 10 0 642
644 6 0 1598 10 0 986
645 14 0 1694 10 0 217
646 10 278 308 10 0 161
647 -20 496 526 10 365 0
648 10 109 139 10 0 869
649 -16 0 1551 10 979 0
650 9 0 1571 10 0 599
651 21 0 1643 0 0 1004
652 -31 707 737 10 469 0
653 14 0 1624 10 0 54
654 10 267 297 10 0 32
655 -20 1126 1156 10 752 0
656 -20 617 647 10 694 0
657 -33 0 1574 10 209 0
658 -30 0 1655 10 94 0
659 4 555 585 10 0 393
660 -10 100 130 10 253 0
661 -20 46 76 10 273 0
662 21 1459 1489 0 0 1027
663 -25 1193 1223 10 180 0
664 23 757 787 10 0 414
665 10 294 324 10 0 103
666 20 0 1548 10 0 676
667 23 0 1604 10 0 838
668 23 742 772 10 0 116
669 29 235 265 10 0 914
670 16 0 1731 10 0 612
671 -16 0 1601 10 113 0
672 10 283 313 10 0 16
673 -27 0 1614 10 494 0
674 30 0 1553 10 0 522
675 -11 587 617 10 770 0
676 -20 324 354 10 666 0
677 30 210 240 10 0 23
678 -10 0 1676 10 890 0
679 -21 479 509 10 855 0
680 -40 176 206 10 18 0
681 -20 0 1539 10 481 0
682 -5 0 1531 10 742 0
683 20 314 344 10 0 338
684 -20 342 372 10 972 0
685 10 212 242 10 0 19
686 -20 169 199 10 519 0
687 30 0 1766 10 0 566
688 -10 0 1488 10 423 0
689 15 0 1607 10 0 567
690 -23 334 364 10 836 0
691 10 0 1619 10 0 261
692 20 0 1656 0 0 1035
693 10 200 230 10 0 304
694 20 282 312 10 0 656
695 24 247 277 10 0 789
696 -20 80 110 10 387 0
697 25 441 471 10 0 512
698 7 1412 1442 10 0 169
699 8 0 1732 10 0 174
700 -20 281 311 10 529 0
701 -23 943 973 10 579 0
702 -20 0 1490 10 830 0
703 30 0 1574 10 0 56
704 20 311 341 10 0 310
705 -10 0 1480 10 607 0
706 20 278 308 10 0 783
707 -20 0 1748 10 249 0
708 20 234 264 10 0 961
709 -10 394 424 10 111 0
710 10 243 273 10 0 240
711 -10 0 1621 10 108 0
712 -20 792 822 10 90 0
713 25 0 1541 10 0 201
714 -20 241 271 10 402 0
715 26 1382 1412 0 0 1012
716 18 253 283 0 0 1026
717 -22 270 300 10 785 0
718 8 587 617 10 0 507
719 -10 0 1578 10 778 0
720 30 282 312 10 0 290
721 -10 0 1632 10 820 0
722 -27 0 1601 10 471 0
723 18 0 1674 10 0 179
724 31 0 1632 10 0 191
725 8 217 247 0 0 1003
726 10 176 206 10 0 484
727 17 1476 1506 0 0 1037
728 -20 0 1763 10 274 0
729 10 0 1557 10 0 164
730 20 381 411 10 0 381
731 -25 998 1028 10 585 0
732 -20 278 308 10 892 0
733 -20 238 268 10 475 0
734 20 0 1585 0 0 1039
735 -20 0 1676 10 114 0
736 12 0 1787 10 0 758
737 10 0 1603 10 0 580
738 20 274 304 10 0 563
739 -15 0 1696 10 990 0
740 -30 0 1519 10 610 0
741 10 299 329 10 0 826
742 5 154 184 10 0 682
743 -10 246 276 10 901 0
744 -10 259 289 10 531 0
745 -13 1440 1470 10 548 0
746 36 0 1737 10 0 91
747 20 308 338 10 0 840
748 -20 475 505 10 398 0
749 -12 0 1565 10 340 0
750 2 0 1587 10 0 362
751 2 604 634 10 0 187
752 20 250 280 10 0 655
753 30 334 364 10 0 139
754 -20 127 157 10 945 0
755 10 0 1732 10 0 421
756 30 194 224 10 0 473
757 10 293 323 10 0 487
758 -12 1590 1620 10 736 0
759 15 0 1647 10 0 474
760 -15 0 1632 10 965 0
761 10 0 1756 10 0 764
762 8 649 679 10 0 183
763 -30 0 1658 10 871 0
764 -10 109 139 10 761 0
765 -22 0 1611 10 448 0
766 -19 0 1708 10 541 0
767 -30 1224 1254 10 938 0
768 10 203 233 10 0 613
769 10 204 234 10 0 37
770 11 0 1670 10 0 675
771 10 0 1602 10 0 336
772 10 0 1735 0 0 1007
773 -20 600 630 10 628 0
774 -6 0 1491 10 499 0
775 -29 0 1570 10 969 0
776 7 780 810 10 0 137
777 20 0 1558 10 0 391
778 10 312 342 10 0 719
779 19 185 215 10 0 413
780 -20 0 1804 10 177 0
781 -17 1066 1096 10 572 0
782 9 0 1612 10 0 49
783 -20 363 393 10 706 0
784 20 411 441 10 0 626
785 22 256 286 10 0 717
786 11 0 1648 10 0 468
787 30 226 256 10 0 128
788 30 143 173 10 0 265
789 -24 0 1587 10 695 0
790 -12 0 1654 10 905 0
791 22 0 1733 10 0 163
792 26 0 1630 0 0 1029
793 30 77 107 10 0 403
794 10 0 1806 10 0 872
795 11 0 1620 0 0 1022
796 -30 0 1785 10 390 0
797 12 346 376 10 0 55
798 20 225 255 10 0 982
799 10 234 264 10 0 513
800 -8 0 1690 10 833 0
801 20 225 255 10 0 295
802 23 0 1652 10 0 27
803 25 0 1545 10 0 59
804 -20 0 1648 10 614 0
805 15 0 1585 10 0 581
806 -30 263 293 10 415 0
807 20 194 224 10 0 193
808 -11 0 1578 10 461 0
809 20 151 181 10 0 873
810 -10 302 332 10 845 0
811 -10 0 1607 10 170 0
812 -30 0 1565 10 244 0
813 32 0 1491 0 0 1030
814 -40 311 341 10 638 0
815 -30 0 1605 10 181 0
816 25 0 1556 10 0 435
817 10 0 1519 10 0 560
818 17 120 150 10 0 839
819 20 119 149 10 0 78
820 10 0 1600 10 0 721
821 -10 0 1622 10 970 0
822 20 0 1574 10 0 212
823 -12 0 1610 10 247 0
824 20 257 287 10 0 920
825 -24 243 273 10 104 0
826 -10 0 1554 10 741 0
827 5 410 440 10 0 25
828 -10 0 1566 10 311 0
829 -10 276 306 10 893 0
830 20 0 1487 10 0 702
831 20 231 261 10 0 153
832 -17 0 1554 10 433 0
833 8 0 1590 10 0 800
834 11 275 305 10 0 277
835 17 817 847 10 0 478
836 23 226 256 10 0 690
837 28 0 1595 10 0 442
838 -23 208 238 10 667 0
839 -17 0 1762 10 818 0
840 -20 0 1595 10 747 0
841 -10 0 1535 10 444 0
842 20 242 272 10 0 524
843 -10 1372 1402 10 383 0
844 -25 0 1564 10 302 0
845 10 270 300 10 0 810
846 20 166 196 10 0 200
847 -10 0 1538 10 991 0
848 -7 0 1558 10 981 0
849 -18 417 447 10 105 0
850 30 238 268 10 0 119
851 -17 0 1700 10 9 0
852 10 296 326 10 0 944
853 -18 0 1605 10 559 0
854 -20 235 265 10 328 0
855 21 0 1671 10 0 679
856 30 146 176 10 0 441
857 20 297 327 10 0 166
858 -20 0 1585 10 470 0
859 20 361 391 10 0 973
860 10 0 1772 10 0 501
861 31 0 1572 10 0 77
862 20 0 1585 10 0 456
863 25 414 444 0 0 1028
864 -10 717 747 10 974 0
865 -20 0 1737 10 502 0
866 14 0 1555 0 0 1045
867 20 0 1668 10 0 171
868 30 0 1600 10 0 256
869 -10 0 1758 10 648 0
870 30 0 1612 10 0 252
871 30 0 1652 10 0 763
872 -10 37 67 10 794 0
873 -20 1457 1487 10 809 0
874 20 411 441 10 0 547
875 20 0 1635 0 0 1049
876 -30 0 1574 10 352 0
877 10 0 1660 10 0 459
878 -23 1251 1281 10 605 0
879 20 0 1658 0 0 1018
880 -10 1055 1085 10 931 0
881 15 0 1534 10 0 129
882 -10 303 333 10 641 0
883 -20 0 1617 10 450 0
884 -23 0 1683 10 292 0
885 -10 210 240 10 327 0
886 -20 0 1584 10 480 0
887 24 249 279 0 0 1032
888 30 0 1651 10 0 409
889 20 240 270 10 0 300
890 10 0 1640 10 0 678
891 13 0 1590 10 0 92
892 20 0 1640 10 0 732
893 10 249 279 10 0 829
894 -10 1493 1523 10 354 0
895 10 0 1664 10 0 533
896 4 1139 1169 10 0 271
897 20 336 366 10 0 562
898 20 0 1587 10 0 30
899 -17 0 1572 10 28 0
900 31 774 804 10 0 47
901 10 177 207 10 0 743
902 5 313 343 10 0 321
903 12 0 1575 0 0 1042
904 20 0 1601 10 0 621
905 12 141 171 10 0 790
906 10 329 359 10 0 10
907 30 0 1650 10 0 355
908 -30 1017 1047 10 20 0
909 9 268 298 10 0 122
910 10 144 174 10 0 604
911 -19 794 824 10 257 0
912 -10 0 1768 10 375 0
913 -28 0 1557 10 483 0
914 -29 759 789 10 669 0
915 -2 389 419 10 146 0
916 20 269 299 10 0 440
917 -30 272 302 10 564 0
918 10 276 306 10 0 62
919 -10 534 564 10 493 0
920 -20 342 372 10 824 0
921 12 207 237 10 0 623
922 -15 1438 1468 10 242 0
923 5 47 77 10 0 616
924 -22 0 1638 10 87 0
925 10 0 1498 10 0 976
926 10 270 300 10 0 947
927 15 1253 1283 0 0 1020
928 20 126 156 10 0 596
929 29 0 1569 10 0 601
930 17 0 1780 10 0 34
931 10 217 247 10 0 880
932 -10 0 1644 10 147 0
933 -10 0 1658 10 83 0
934 -10 0 1668 10 236 0
935 15 643 673 10 0 285
936 25 1048 1078 0 0 1025
937 -7 0 1547 10 73 0
938 30 0 1590 10 0 767
939 -20 0 1541 10 447 0
940 10 431 461 10 0 291
941 13 1186 1216 10 0 995
942 20 0 1588 10 0 58
943 28 0 1506 10 0 175
944 -10 0 1515 10 852 0
945 20 0 1726 10 0 754
946 -20 0 1653 10 117 0
947 -10 0 1537 10 926 0
948 -4 0 1580 10 424 0
949 -27 0 1503 10 84 0
950 20 366 396 10 0 214
951 -10 0 1548 10 553 0
952 -20 716 746 10 427 0
953 -20 0 1542 10 224 0
954 -5 0 1487 10 17 0
955 -10 224 254 10 603 0
956 10 0 1713 10 0 968
957 -20 904 934 10 52 0
958 22 0 1670 10 0 476
959 -30 0 1638 10 53 0
960 -20 0 1734 10 207 0
961 -20 0 1660 10 708 0
962 -10 0 1733 10 294 0
963 10 313 343 10 0 4
964 -10 330 360 10 346 0
965 15 0 1574 10 0 760
966 -10 421 451 10 123 0
967 20 311 341 10 0 555
968 -10 0 1755 10 956 0
969 29 0 1629 10 0 775
970 10 380 410 10 0 821
971 21 0 1572 10 0 81
972 20 0 1621 10 0 684
973 -20 0 1501 10 859 0
974 10 0 1654 10 0 864
975 -21 0 1659 10 452 0
976 -10 0 1498 10 925 0
977 20 0 1755 0 0 1017
978 5 0 1553 10 0 361
979 16 0 1571 10 0 649
980 17 832 862 10 0 485
981 7 0 1537 10 0 848
982 -20 292 322 10 798 0
983 8 0 1585 10 0 43
984 20 0 1737 10 0 12
985 -19 0 1640 10 348 0
986 -6 0 1532 10 644 0
987 20 359 389 10 0 525
988 -10 0 1539 10 158 0
989 -10 0 1595 10 536 0
990 15 96 126 10 0 739
991 10 0 1534 10 0 847
992 20 0 1797 0 0 1021
993 -13 470 500 10 182 0
994 -30 0 1561 10 101 0
995 -13 1568 1598 10 941 0
996 -33 0 1578 10 8 0
997 -20 245 275 10 221 0
998 25 0 1638 0 0 1010
999 20 326 356 10 0 505
1000 -10 0 1497 10 298 0
1001 10 224 254 10 0 404
1002 -10 0 1752 10 162 0
1003 -8 217 247 10 725 0
1004 -21 0 1643 10 651 0
1005 -11 884 914 10 460 0
1006 -19 0 1520 10 197 0
1007 -10 0 1735 10 772 0
1008 -18 1169 1199 10 284 0
1009 -14 0 1734 10 532 0
1010 -25 0 1638 10 998 0
1011 -14 0 1706 10 286 0
1012 -26 1382 1412 10 715 0
1013 -2 526 556 10 250 0
1014 -18 424 454 10 96 0
1015 -10 298 328 10 189 0
1016 -14 0 1641 10 320 0
1017 -20 0 1755 10 977 0
1018 -20 0 1658 10 879 0
1019 -10 0 1559 10 151 0
1020 -15 1253 1283 10 927 0
1021 -20 0 1797 10 992 0
1022 -11 0 1620 10 795 0
1023 -24 1146 1176 10 571 0
1024 -28 626 656 10 426 0
1025 -25 1048 1078 10 936 0
1026 -18 253 283 10 716 0
1027 -21 1459 1489 10 662 0
1028 -25 414 444 10 863 0
1029 -26 0 1630 10 792 0
1030 -32 0 1491 10 813 0
1031 -12 564 594 10 218 0
1032 -24 249 279 10 887 0
1033 -11 918 948 10 620 0
1034 -18 1487 1517 10 434 0
1035 -20 0 1656 10 692 0
1036 -10 0 1564 10 422 0
1037 -17 1476 1506 10 727 0
1038 -10 0 1594 10 307 0
1039 -20 0 1585 10 734 0
1040 -30 0 1734 10 394 0
1041 -29 0 1562 10 178 0
1042 -12 0 1575 10 903 0
1043 -20 0 1534 10 577 0
1044 -20 0 1664 10 211 0
1045 -14 0 1555 10 866 0
1046 -20 359 389 10 198 0
1047 -27 0 1553 10 5 0
1048 -24 1028 1058 10 208 0
1049 -20 0 1635 10 875 0
DEPOT_SECTION
1
-1
EOF
