NAME: lrc1_10_9
TYPE: PDPTW
COMMENT: Li & Lim PDPTW benchmark converted from SINTEF format
DIMENSION: 1049
VEHICLES: 250
CAPACITY: 200
EDGE_WEIGHT_TYPE: EUC_2D
NODE_COORD_SECTION
1 250 250
2 440 436
3 214 394
4 476 483
5 352 487
6 230 197
7 175 239
8 133 202
9 328 458
10 25 499
11 226 423
12 313 282
13 60 454
14 239 486
15 102 264
16 408 452
17 451 62
18 203 390
19 92 233
20 7 300
21 409 90
22 307 108
23 347 54
24 406 87
25 371 332
26 116 466
27 441 265
28 130 140
29 80 117
30 421 387
31 83 300
32 136 52
33 18 462
34 390 120
35 188 119
36 467 114
37 440 292
38 268 400
39 391 202
40 377 432
41 80 290
42 439 15
43 307 52
44 111 192
45 131 56
46 88 286
47 69 414
48 41 232
49 323 77
50 340 416
51 86 199
52 314 124
53 375 191
54 226 175
55 242 106
56 417 417
57 419 459
58 389 11
59 450 416
60 246 255
61 71 333
62 105 474
63 20 489
64 388 331
65 92 259
66 200 261
67 400 288
68 299 285
69 378 199
70 325 147
71 421 386
72 404 447
73 412 478
74 26 67
75 358 183
76 30 302
77 176 470
78 96 270
79 243 408
80 60 29
81 34 169
82 407 280
83 277 403
84 498 456
85 384 491
86 355 174
87 97 288
88 316 284
89 334 403
90 415 223
91 230 320
92 432 199
93 92 18
94 273 300
95 269 112
96 429 389
97 371 71
98 5 297
99 414 378
100 38 15
101 2 295
102 237 254
103 54 445
104 382 110
105 438 488
106 395 331
107 230 487
108 249 407
109 488 26
110 151 81
111 483 14
112 0 422
113 429 67
114 195 464
115 356 256
116 264 180
117 94 235
118 474 96
119 268 52
120 44 440
121 7 382
122 459 53
123 491 25
124 439 243
125 210 185
126 150 68
127 201 270
128 0 188
129 103 464
130 325 56
131 44 344
132 418 75
133 472 57
134 460 328
135 89 270
136 374 190
137 463 253
138 97 93
139 163 472
140 29 336
141 84 453
142 294 421
143 343 62
144 371 193
145 142 372
146 66 88
147 395 332
148 93 413
149 267 394
150 249 258
151 472 129
152 87 3
153 62 326
154 212 186
155 241 402
156 439 266
157 79 80
158 62 453
159 188 151
160 386 154
161 38 301
162 192 265
163 371 192
164 64 294
165 381 494
166 437 12
167 186 135
168 459 10
169 175 422
170 274 48
171 488 173
172 398 97
173 385 17
174 180 283
175 71 12
176 343 49
177 248 251
178 7 194
179 322 290
180 410 399
181 398 103
182 385 285
183 179 497
184 464 13
185 492 335
186 27 464
187 231 29
188 157 38
189 439 268
190 149 214
191 187 73
192 429 169
193 350 199
194 60 231
195 448 404
196 481 20
197 436 25
198 111 459
199 389 17
200 148 208
201 475 477
202 390 325
203 346 354
204 91 266
205 17 65
206 391 112
207 224 203
208 426 231
209 260 472
210 265 0
211 391 293
212 411 421
213 132 30
214 475 480
215 286 244
216 436 237
217 402 284
218 287 397
219 272 420
220 477 120
221 145 434
222 33 286
223 370 262
224 393 20
225 330 308
226 246 398
227 482 184
228 451 305
229 226 316
230 110 459
231 244 250
232 458 16
233 390 34
234 423 214
235 219 215
236 326 118
237 365 74
238 331 356
239 210 398
240 403 93
241 248 404
242 65 62
243 460 13
244 0 293
245 211 248
246 484 174
247 175 352
248 455 168
249 224 191
250 439 156
251 434 359
252 118 314
253 234 246
254 406 450
255 75 118
256 115 395
257 329 456
258 218 403
259 149 341
260 253 74
261 436 241
262 238 203
263 405 455
264 485 27
265 323 118
266 330 371
267 25 65
268 406 96
269 49 451
270 307 249
271 178 135
272 299 353
273 236 213
274 355 177
275 394 23
276 306 235
277 90 477
278 379 486
279 435 16
280 8 497
281 150 484
282 213 399
283 391 18
284 111 392
285 330 281
286 344 203
287 91 235
288 346 60
289 483 27
290 382 498
291 457 492
292 291 213
293 154 374
294 225 196
295 94 40
296 0 356
297 297 283
298 371 423
299 417 217
300 500 228
301 412 214
302 442 289
303 157 269
304 440 241
305 100 266
306 111 178
307 91 101
308 25 307
309 135 400
310 58 458
311 133 26
312 211 386
313 94 97
314 30 155
315 208 184
316 394 333
317 355 180
318 241 180
319 21 485
320 80 251
321 476 61
322 406 94
323 364 71
324 418 221
325 274 441
326 304 97
327 297 102
328 250 405
329 111 463
330 408 279
331 263 418
332 480 119
333 420 383
334 142 14
335 73 328
336 50 438
337 441 7
338 462 14
339 360 294
340 58 39
341 58 391
342 410 285
343 96 97
344 21 64
345 238 210
346 479 121
347 200 178
348 216 341
349 48 437
350 200 270
351 357 181
352 476 174
353 400 286
354 351 481
355 270 400
356 95 234
357 128 113
358 133 455
359 16 463
360 59 388
361 376 190
362 481 122
363 266 405
364 374 232
365 398 20
366 481 26
367 63 444
368 89 290
369 246 314
370 40 304
371 262 369
372 323 29
373 89 65
374 144 35
375 200 265
376 436 264
377 15 457
378 397 20
379 328 491
380 399 175
381 432 2
382 63 336
383 6 296
384 146 376
385 295 247
386 235 33
387 233 204
388 142 360
389 177 156
390 315 287
391 452 172
392 263 153
393 493 493
394 320 283
395 64 5
396 95 235
397 203 211
398 16 497
399 348 348
400 485 104
401 330 147
402 443 237
403 316 286
404 335 46
405 381 495
406 364 173
407 267 162
408 214 245
409 92 234
410 347 459
411 30 7
412 120 37
413 397 153
414 210 29
415 87 285
416 132 32
417 390 294
418 67 451
419 24 68
420 146 439
421 209 212
422 6 292
423 18 63
424 149 98
425 91 268
426 103 177
427 367 178
428 225 269
429 443 246
430 306 42
431 374 306
432 413 421
433 470 405
434 33 278
435 149 458
436 257 57
437 272 403
438 221 291
439 1 101
440 332 459
441 220 392
442 253 50
443 250 441
444 471 484
445 480 152
446 404 83
447 476 94
448 458 213
449 215 395
450 85 288
451 179 75
452 228 287
453 397 18
454 238 204
455 488 3
456 407 88
457 459 14
458 120 17
459 235 316
460 370 382
461 405 454
462 17 458
463 43 135
464 318 497
465 199 268
466 111 467
467 138 438
468 172 314
469 494 468
470 35 303
471 341 59
472 423 221
473 395 295
474 413 417
475 339 60
476 277 428
477 176 199
478 265 240
479 365 190
480 133 53
481 387 488
482 385 295
483 491 369
484 445 273
485 195 273
486 313 493
487 495 227
488 241 403
489 30 72
490 21 487
491 324 99
492 453 318
493 443 272
494 447 184
495 366 288
496 440 284
497 13 314
498 72 227
499 377 385
500 477 478
501 204 185
502 226 191
503 330 138
504 185 434
505 483 22
506 71 282
507 60 5
508 189 402
509 134 211
510 146 313
511 21 146
512 37 281
513 416 417
514 44 311
515 361 181
516 444 242
517 444 271
518 359 179
519 388 334
520 401 164
521 499 316
522 399 106
523 425 215
524 407 98
525 406 460
526 88 95
527 95 64
528 306 229
529 273 55
530 384 149
531 122 35
532 308 199
533 390 301
534 300 108
535 267 400
536 8 300
537 105 181
538 398 325
539 166 247
540 140 431
541 253 118
542 359 246
543 321 277
544 168 59
545 406 285
546 391 334
547 437 19
548 201 278
549 435 267
550 245 408
551 16 462
552 107 374
553 477 97
554 346 57
555 14 459
556 102 6
557 359 287
558 297 131
559 282 1
560 21 70
561 440 244
562 482 104
563 120 261
564 125 29
565 292 32
566 262 92
567 68 160
568 405 276
569 277 50
570 32 319
571 344 70
572 481 84
573 21 68
574 441 244
575 57 43
576 1 293
577 481 96
578 471 368
579 236 126
580 406 99
581 303 186
582 225 369
583 412 453
584 104 349
585 173 182
586 111 464
587 53 440
588 69 336
589 359 182
590 13 459
591 244 277
592 484 177
593 452 206
594 22 483
595 452 110
596 347 192
597 95 92
598 368 311
599 479 387
600 479 169
601 497 266
602 66 336
603 376 195
604 401 281
605 441 177
606 231 203
607 21 488
608 231 204
609 122 422
610 65 453
611 206 261
612 466 149
613 313 119
614 90 274
615 39 162
616 35 306
617 437 15
618 307 412
619 79 291
620 64 437
621 376 92
622 129 27
623 196 489
624 51 286
625 20 488
626 13 455
627 170 347
628 92 230
629 117 467
630 413 217
631 405 450
632 394 322
633 125 61
634 238 123
635 11 403
636 89 272
637 304 102
638 478 121
639 408 84
640 376 494
641 20 73
642 159 299
643 95 382
644 352 63
645 365 274
646 30 301
647 351 5
648 197 267
649 498 171
650 468 352
651 418 251
652 489 437
653 251 63
654 132 55
655 281 96
656 333 293
657 255 487
658 207 400
659 469 489
660 244 254
661 233 207
662 441 60
663 411 379
664 178 72
665 51 447
666 478 118
667 141 426
668 295 89
669 112 433
670 320 211
671 400 103
672 408 453
673 435 180
674 432 66
675 374 116
676 478 102
677 335 57
678 385 239
679 386 245
680 208 396
681 380 489
682 380 498
683 440 7
684 434 245
685 90 232
686 389 334
687 241 205
688 18 24
689 57 183
690 59 457
691 442 243
692 402 281
693 445 237
694 441 273
695 31 175
696 234 202
697 52 303
698 167 445
699 179 286
700 269 48
701 165 59
702 461 8
703 421 415
704 59 459
705 24 492
706 55 449
707 224 192
708 444 269
709 491 20
710 313 126
711 283 438
712 352 241
713 398 476
714 442 247
715 217 207
716 233 87
717 479 127
718 6 53
719 478 300
720 378 493
721 303 78
722 344 62
723 371 315
724 200 78
725 413 391
726 415 216
727 397 57
728 293 228
729 0 297
730 435 20
731 195 111
732 417 218
733 340 54
734 132 57
735 210 379
736 228 260
737 399 104
738 95 277
739 360 284
740 53 466
741 112 465
742 313 391
743 93 235
744 125 32
745 215 282
746 224 320
747 134 428
748 26 490
749 44 115
750 438 127
751 239 15
752 342 54
753 109 463
754 199 187
755 201 188
756 399 301
757 484 171
758 272 234
759 380 350
760 140 108
761 228 199
762 245 461
763 305 107
764 231 195
765 450 265
766 273 149
767 12 358
768 315 121
769 420 213
770 331 134
771 84 377
772 320 280
773 89 185
774 472 481
775 422 420
776 475 267
777 470 125
778 435 268
779 409 155
780 243 248
781 488 96
782 341 72
783 58 449
784 16 460
785 480 136
786 162 388
787 47 208
788 324 127
789 87 96
790 140 137
791 314 205
792 96 346
793 321 280
794 245 251
795 436 295
796 274 261
797 271 128
798 275 45
799 422 409
800 146 188
801 93 96
802 409 255
803 449 428
804 90 285
805 415 95
806 88 287
807 379 196
808 368 452
809 202 186
810 435 11
811 269 46
812 7 292
813 44 496
814 478 99
815 391 99
816 132 477
817 24 65
818 130 247
819 133 273
820 347 62
821 404 140
822 416 420
823 67 335
824 92 270
825 411 95
826 132 479
827 366 334
828 125 39
829 419 422
830 460 2
831 67 334
832 448 414
833 46 163
834 77 465
835 284 319
836 102 422
837 240 34
838 141 428
839 204 269
840 144 439
841 470 417
842 404 103
843 5 281
844 487 320
845 398 23
846 90 296
847 386 13
848 115 465
849 473 475
850 275 42
851 286 356
852 15 69
853 267 44
854 243 399
855 390 249
856 210 391
857 433 15
858 24 259
859 12 463
860 237 213
861 182 480
862 409 88
863 244 368
864 381 328
865 213 185
866 482 141
867 319 124
868 141 431
869 198 264
870 69 334
871 299 98
872 240 250
873 199 203
874 459 17
875 423 217
876 477 179
877 213 397
878 405 187
879 269 402
880 53 204
881 13 394
882 15 68
883 56 268
884 360 184
885 307 102
886 130 57
887 250 328
888 91 231
889 479 176
890 420 224
891 461 182
892 418 218
893 419 418
894 336 493
895 389 300
896 92 76
897 476 102
898 418 399
899 109 56
900 13 465
901 92 232
902 394 47
903 16 287
904 399 102
905 143 158
906 18 484
907 250 411
908 19 273
909 365 28
910 387 297
911 433 447
912 214 274
913 489 338
914 130 494
915 23 67
916 374 489
917 126 30
918 112 467
919 489 274
920 61 214
921 166 440
922 56 75
923 210 276
924 80 286
925 17 459
926 66 448
927 351 128
928 352 176
929 490 286
930 247 219
931 86 268
932 398 329
933 272 402
934 317 123
935 408 318
936 66 31
937 425 448
938 35 304
939 471 94
940 470 473
941 224 56
942 343 47
943 52 18
944 16 68
945 195 185
946 92 236
947 76 462
948 124 56
949 481 454
950 477 483
951 481 124
952 389 156
953 384 16
954 492 34
955 371 200
956 153 235
957 428 202
958 257 391
959 421 218
960 206 186
961 393 301
962 204 187
963 468 475
964 477 122
965 100 66
966 489 27
967 12 451
968 197 270
969 311 422
970 489 17
971 13 214
972 440 247
973 28 467
974 388 325
975 270 401
976 5 445
977 198 271
978 480 131
979 437 98
980 131 246
981 49 437
982 270 49
983 337 41
984 318 280
985 154 392
986 493 111
987 399 450
988 67 452
989 34 239
990 343 276
991 393 12
992 236 247
993 340 291
994 3 292
995 209 68
996 18 225
997 147 435
998 335 99
999 485 24
1000 470 475
1001 341 58
1002 419 459
1003 389 17
1004 134 428
1005 30 155
1006 481 84
1007 380 489
1008 130 140
1009 313 119
1010 336 493
1011 437 19
1012 441 265
1013 203 390
1014 377 432
1015 25 307
1016 236 247
1017 56 75
1018 499 316
1019 202 186
1020 291 213
1021 92 233
1022 445 237
1023 429 169
1024 452 110
1025 111 392
1026 35 303
1027 408 453
1028 422 420
1029 359 179
1030 157 38
1031 341 59
1032 412 214
1033 395 331
1034 274 261
1035 176 199
1036 434 245
1037 233 207
1038 476 483
1039 331 356
1040 374 190
1041 391 293
1042 366 288
1043 188 119
1044 92 76
1045 146 313
1046 439 15
1047 489 27
1048 7 382
1049 230 197
PICKUP_AND_DELIVERY_SECTION
1 0 0 1821 0 0 0
2 -13 847 967 10 599 0
3 10 186 306 10 0 385
4 10 324 444 0 0 1038
5 -22 857 977 10 278 0
6 40 77 197 0 0 1049
7 23 75 195 10 0 509
8 -10 416 536 10 611 0
9 17 723 843 10 0 499
10 10 400 520 10 0 748
11 15 174 294 10 0 508
12 20 118 238 10 0 993
13 10 302 422 10 0 610
14 -1 1437 1557 10 183 0
15 10 148 268 10 0 135
16 10 256 376 10 0 987
17 5 275 395 10 0 123
18 40 147 267 0 0 1013
19 10 179 299 0 0 1021
20 30 300 420 10 0 843
21 20 225 345 10 0 674
22 10 192 312 10 0 885
23 10 250 370 10 0 647
24 -10 268 388 10 456 0
25 14 485 605 10 0 223
26 20 254 374 10 0 329
27 40 191 311 0 0 1012
28 17 162 282 0 0 1008
29 -20 779 899 10 526 0
30 -15 756 876 10 195 0
31 -10 455 575 10 46 0
32 10 248 368 10 0 334
33 20 353 473 10 0 925
34 24 959 1079 10 0 596
35 44 930 1050 0 0 1043
36 10 331 451 10 0 220
37 -30 895 1015 10 492 0
38 20 198 318 10 0 711
39 14 148 268 10 0 678
40 20 786 906 0 0 1014
41 -20 174 294 10 450 0
42 20 301 421 0 0 1046
43 -30 875 995 10 871 0
44 -18 1154 1274 10 615 0
45 10 227 347 10 0 110
46 10 207 327 10 0 31
47 -4 1218 1338 10 349 0
48 16 209 329 10 0 812
49 -24 1360 1480 10 571 0
50 -26 276 396 10 89 0
51 -30 233 353 10 888 0
52 -20 186 306 10 867 0
53 30 138 258 10 0 406
54 -27 1613 1733 10 701 0
55 -23 1223 1343 10 664 0
56 10 287 407 10 0 829
57 20 271 391 0 0 1002
58 20 278 398 10 0 323
59 25 532 652 10 0 84
60 10 68 188 10 0 150
61 10 197 317 10 0 462
62 -20 426 546 10 198 0
63 -10 338 458 10 625 0
64 -19 160 280 10 115 0
65 4 354 474 10 0 194
66 10 121 241 10 0 190
67 30 154 274 10 0 549
68 -20 1209 1329 10 449 0
69 10 162 282 10 0 90
70 -15 1142 1262 10 927 0
71 -18 779 899 10 96 0
72 20 250 370 10 0 525
73 -40 915 1035 10 263 0
74 -10 1272 1392 10 817 0
75 -30 189 309 10 361 0
76 10 226 346 10 0 383
77 -12 502 622 10 921 0
78 20 155 275 10 0 204
79 -20 1389 1509 10 363 0
80 -12 1318 1438 10 340 0
81 11 439 559 10 0 511
82 -20 164 284 10 545 0
83 -20 155 275 10 328 0
84 -25 1361 1481 10 59 0
85 -30 303 423 10 720 0
86 33 670 790 10 0 401
87 -20 1239 1359 10 819 0
88 -30 80 200 10 403 0
89 26 174 294 10 0 50
90 -10 260 380 10 69 0
91 8 1147 1267 10 0 369
92 -10 594 714 10 691 0
93 -30 1079 1199 10 458 0
94 30 55 175 10 0 390
95 19 1218 1338 10 0 766
96 18 379 499 10 0 71
97 -10 242 362 10 322 0
98 10 286 406 10 0 576
99 -20 450 570 10 519 0
100 -18 1046 1166 10 507 0
101 30 261 381 10 0 244
102 20 38 158 10 0 200
103 10 276 396 10 0 783
104 -15 1067 1187 10 805 0
105 18 303 423 10 0 291
106 20 172 292 0 0 1033
107 -30 1085 1205 10 868 0
108 10 157 277 10 0 933
109 -20 388 508 10 999 0
110 -10 1496 1616 10 45 0
111 -10 331 451 10 505 0
112 8 776 896 10 0 767
113 -20 687 807 10 862 0
114 -9 1471 1591 10 139 0
115 19 106 226 10 0 64
116 -25 1620 1740 10 558 0
117 20 156 276 10 0 287
118 -10 271 391 10 814 0
119 10 261 381 10 0 170
120 -20 744 864 10 590 0
121 27 725 845 0 0 1048
122 20 1077 1197 10 0 662
123 -5 364 484 10 17 0
124 20 269 389 10 0 208
125 20 76 196 10 0 960
126 -27 378 498 10 442 0
127 -30 52 172 10 839 0
128 -29 887 1007 10 178 0
129 -20 1228 1348 10 680 0
130 -10 751 871 10 491 0
131 12 1034 1154 10 0 222
132 11 403 523 10 0 727
133 -5 1250 1370 10 954 0
134 13 224 344 10 0 185
135 -10 162 282 10 15 0
136 20 137 257 0 0 1040
137 -10 1002 1122 10 574 0
138 20 219 339 10 0 801
139 9 608 728 10 0 114
140 -30 287 407 10 938 0
141 -23 1178 1298 10 667 0
142 -29 1515 1635 10 969 0
143 -10 312 432 10 1001 0
144 -30 133 253 10 163 0
145 18 162 282 10 0 256
146 -25 785 905 10 389 0
147 10 166 286 10 0 686
148 17 226 346 10 0 367
149 10 214 334 10 0 618
150 -10 82 202 10 60 0
151 10 252 372 10 0 447
152 13 1388 1508 10 0 556
153 20 241 361 10 0 512
154 -15 1617 1737 10 575 0
155 11 980 1100 10 0 958
156 10 189 309 10 0 694
157 -22 1337 1457 10 357 0
158 -10 276 396 10 665 0
159 7 1252 1372 10 0 873
160 -9 1056 1176 10 675 0
161 -10 251 371 10 924 0
162 10 79 199 10 0 305
163 30 134 254 10 0 144
164 -28 1056 1176 10 883 0
165 -20 288 408 10 916 0
166 -20 302 422 10 857 0
167 -25 673 793 10 585 0
168 10 318 438 10 0 702
169 -36 1401 1521 10 293 0
170 -10 203 323 10 119 0
171 20 250 370 10 0 649
172 10 212 332 10 0 639
173 -10 764 884 10 847 0
174 23 699 819 10 0 745
175 2 297 417 10 0 688
176 -20 221 341 10 752 0
177 20 2 122 10 0 532
178 29 906 1026 10 0 128
179 -30 1434 1554 10 793 0
180 25 218 338 10 0 513
181 30 233 353 10 0 825
182 13 823 943 10 0 542
183 1 1366 1486 10 0 14
184 20 340 460 10 0 366
185 -13 783 903 10 134 0
186 -20 1246 1366 10 859 0
187 -12 1181 1301 10 392 0
188 3 1003 1123 0 0 1030
189 10 253 373 10 0 483
190 -10 437 557 10 66 0
191 18 247 367 10 0 544
192 8 858 978 0 0 1023
193 -29 1156 1276 10 413 0
194 -4 981 1101 10 65 0
195 15 554 674 10 0 30
196 20 325 445 10 0 289
197 -20 1237 1357 10 337 0
198 20 314 434 10 0 62
199 10 321 441 0 0 1003
200 -20 481 601 10 102 0
201 -30 360 480 10 1000 0
202 -30 206 326 10 961 0
203 -34 772 892 10 272 0
204 -20 188 308 10 78 0
205 20 297 417 10 0 267
206 24 955 1075 10 0 581
207 20 53 173 10 0 501
208 -20 983 1103 10 124 0
209 -7 991 1111 10 476 0
210 10 851 971 10 0 559
211 20 181 301 0 0 1041
212 20 270 390 10 0 219
213 -26 281 401 10 374 0
214 -20 334 454 10 500 0
215 31 1239 1359 10 0 758
216 -10 186 306 10 353 0
217 30 155 275 10 0 778
218 -30 519 639 10 437 0
219 -20 1341 1461 10 212 0
220 -10 297 417 10 36 0
221 -20 211 331 10 997 0
222 -12 1472 1592 10 131 0
223 -14 1054 1174 10 25 0
224 -9 346 466 10 909 0
225 24 1125 1245 10 0 285
226 40 148 268 10 0 504
227 14 1062 1182 10 0 612
228 -25 208 328 10 302 0
229 21 70 190 10 0 270
230 -20 303 423 10 467 0
231 10 6 126 10 0 608
232 20 313 433 10 0 830
233 -20 1015 1135 10 942 0
234 -10 176 296 10 769 0
235 -20 46 166 10 273 0
236 -25 152 272 10 276 0
237 24 803 923 10 0 621
238 13 667 787 0 0 1039
239 10 159 279 10 0 947
240 -10 296 416 10 671 0
241 30 154 274 10 0 355
242 -21 931 1051 10 255 0
243 -20 316 436 10 457 0
244 -30 253 373 10 101 0
245 -10 39 159 10 872 0
246 10 246 366 10 0 821
247 -30 1565 1685 10 345 0
248 -9 822 942 10 472 0
249 -10 64 184 10 294 0
250 -36 481 601 10 321 0
251 -17 1347 1467 10 433 0
252 -10 293 413 10 860 0
253 -10 20 140 10 794 0
254 20 253 373 10 0 461
255 21 364 484 10 0 242
256 -18 770 890 10 145 0
257 19 220 340 10 0 379
258 -31 1274 1394 10 861 0
259 -17 359 479 10 930 0
260 -13 1305 1425 10 414 0
261 -20 282 402 10 972 0
262 10 49 169 10 0 797
263 40 296 416 10 0 73
264 -10 401 521 10 970 0
265 20 150 270 10 0 768
266 1 514 634 10 0 339
267 -20 331 451 10 205 0
268 20 219 339 10 0 979
269 20 284 404 10 0 706
270 -21 1332 1452 10 229 0
271 -29 1469 1589 10 760 0
272 34 114 234 10 0 203
273 20 39 159 10 0 235
274 -30 127 247 10 317 0
275 -20 359 479 10 365 0
276 25 57 177 10 0 236
277 18 277 397 10 0 435
278 22 627 747 10 0 5
279 -20 322 442 10 730 0
280 40 363 483 10 0 705
281 -25 580 700 10 816 0
282 18 189 309 10 0 297
283 10 333 453 10 0 453
284 18 1124 1244 0 0 1025
285 -24 1285 1405 10 225 0
286 14 122 242 10 0 788
287 -20 224 344 10 117 0
288 -20 276 396 10 475 0
289 -20 413 533 10 196 0
290 -30 280 400 10 640 0
291 -18 463 583 10 105 0
292 23 1213 1333 0 0 1020
293 36 892 1012 10 0 169
294 10 59 179 10 0 249
295 -28 1023 1143 10 412 0
296 -10 1041 1161 10 626 0
297 -18 1304 1424 10 282 0
298 10 211 331 10 0 808
299 30 170 290 10 0 892
300 -10 737 857 10 561 0
301 10 165 285 0 0 1032
302 25 195 315 10 0 228
303 31 1531 1651 10 0 736
304 10 256 376 10 0 776
305 -10 150 270 10 162 0
306 -10 156 276 10 956 0
307 -30 253 373 10 789 0
308 10 232 352 0 0 1015
309 20 254 374 10 0 620
310 10 283 403 10 0 704
311 10 267 387 10 0 416
312 20 141 261 10 0 877
313 -20 218 338 10 343 0
314 9 1235 1355 0 0 1005
315 -20 78 198 10 764 0
316 -17 166 286 10 932 0
317 30 126 246 10 0 274
318 -13 1621 1741 10 451 0
319 -32 328 448 10 813 0
320 -10 259 379 10 425 0
321 36 404 524 10 0 250
322 10 220 340 10 0 97
323 -20 1303 1423 10 58 0
324 10 246 366 10 0 875
325 12 650 770 10 0 443
326 20 162 282 10 0 668
327 10 155 275 10 0 850
328 20 155 275 10 0 83
329 -20 277 397 10 26 0
330 20 175 295 10 0 568
331 -10 233 353 10 535 0
332 7 583 703 10 0 750
333 27 937 1057 10 0 663
334 -10 790 910 10 32 0
335 -10 193 313 10 619 0
336 20 292 412 10 0 914
337 20 347 467 10 0 197
338 -30 352 472 10 617 0
339 -1 1373 1493 10 266 0
340 12 1118 1238 10 0 80
341 -26 837 957 10 792 0
342 20 163 283 10 0 376
343 20 217 337 10 0 313
344 20 307 427 10 0 419
345 30 89 209 10 0 247
346 10 262 382 10 0 400
347 20 87 207 10 0 945
348 19 609 729 10 0 459
349 4 759 879 10 0 47
350 20 53 173 10 0 977
351 20 127 247 10 0 952
352 -20 279 399 10 876 0
353 10 154 274 10 0 216
354 10 277 397 10 0 481
355 -30 151 271 10 241 0
356 10 155 275 10 0 567
357 22 318 438 10 0 157
358 -30 763 883 10 988 0
359 20 330 450 10 0 973
360 20 618 738 10 0 552
361 30 139 259 10 0 75
362 30 264 384 10 0 986
363 20 172 292 10 0 79
364 -10 125 245 10 772 0
365 20 273 393 10 0 275
366 -20 321 441 10 184 0
367 -17 335 455 10 148 0
368 -20 165 285 10 846 0
369 -8 1400 1520 10 91 0
370 16 1100 1220 10 0 624
371 15 119 239 10 0 460
372 -10 1092 1212 10 722 0
373 -4 675 795 10 527 0
374 26 239 359 10 0 213
375 10 107 227 10 0 465
376 -20 186 306 10 342 0
377 20 313 433 10 0 981
378 -10 272 392 10 991 0
379 -19 633 753 10 257 0
380 -20 702 822 10 589 0
381 -20 422 542 10 683 0
382 20 221 341 10 0 635
383 -10 275 395 10 76 0
384 -20 189 309 10 658 0
385 -10 1258 1378 10 3 0
386 -20 1292 1412 10 700 0
387 20 49 169 10 0 606
388 -11 1487 1607 10 786 0
389 25 122 242 10 0 146
390 -30 103 223 10 94 0
391 -27 563 683 10 494 0
392 12 367 487 10 0 187
393 -10 811 931 10 963 0
394 30 77 197 10 0 591
395 -28 1084 1204 10 943 0
396 10 155 275 10 0 426
397 -21 1261 1381 10 865 0
398 20 381 501 10 0 418
399 23 890 1010 10 0 598
400 -10 749 869 10 346 0
401 -33 803 923 10 86 0
402 20 193 313 10 0 601
403 30 92 212 10 0 88
404 -20 1297 1417 10 798 0
405 -10 277 397 10 682 0
406 -30 137 257 10 53 0
407 -1 1404 1524 10 655 0
408 8 36 156 10 0 790
409 -20 190 310 10 946 0
410 25 434 554 10 0 464
411 -25 1144 1264 10 936 0
412 28 730 850 10 0 295
413 29 837 957 10 0 193
414 13 1006 1126 10 0 260
415 30 196 316 10 0 588
416 -10 739 859 10 311 0
417 -20 192 312 10 482 0
418 -20 1171 1291 10 398 0
419 -20 369 489 10 344 0
420 -9 215 335 10 438 0
421 -10 1483 1603 10 696 0
422 -12 247 367 10 903 0
423 10 297 417 10 0 718
424 -18 1120 1240 10 716 0
425 10 200 320 10 0 320
426 -10 581 701 10 396 0
427 20 137 257 10 0 515
428 -30 1226 1346 10 968 0
429 -10 193 313 10 714 0
430 -10 432 552 10 569 0
431 -10 949 1069 10 895 0
432 -8 258 378 10 725 0
433 17 881 1001 10 0 251
434 -15 1442 1562 10 560 0
435 -18 1119 1239 10 277 0
436 -25 1181 1301 10 566 0
437 30 154 274 10 0 218
438 9 50 170 10 0 420
439 8 1212 1332 10 0 971
440 35 324 444 10 0 486
441 20 213 333 10 0 863
442 27 200 320 10 0 126
443 -12 711 831 10 325 0
444 10 321 441 10 0 849
445 26 977 1097 10 0 605
446 -10 253 373 10 524 0
447 -10 274 394 10 151 0
448 -10 1083 1203 10 523 0
449 20 197 317 10 0 68
450 20 169 289 10 0 41
451 13 695 815 10 0 318
452 21 43 163 10 0 912
453 -10 274 394 10 283 0
454 20 60 180 10 0 687
455 3 356 476 10 0 709
456 10 279 399 10 0 24
457 20 315 435 10 0 243
458 30 266 386 10 0 93
459 -19 611 731 10 348 0
460 -15 839 959 10 371 0
461 -20 1258 1378 10 254 0
462 -10 388 508 10 61 0
463 -24 236 356 10 695 0
464 -25 809 929 10 410 0
465 -10 54 174 10 375 0
466 -10 257 377 10 629 0
467 20 242 362 10 0 230
468 -15 500 620 10 627 0
469 31 327 447 10 0 940
470 20 221 341 0 0 1026
471 27 745 865 0 0 1031
472 9 213 333 10 0 248
473 -10 166 286 10 910 0
474 -30 311 431 10 703 0
475 20 209 329 10 0 288
476 7 445 565 10 0 209
477 28 89 209 0 0 1035
478 9 18 138 10 0 770
479 -10 1432 1552 10 543 0
480 20 234 354 10 0 995
481 -10 317 437 10 354 0
482 20 142 262 10 0 417
483 -10 685 805 10 189 0
484 20 213 333 10 0 919
485 22 59 179 10 0 699
486 -35 1148 1268 10 440 0
487 -10 299 419 10 516 0
488 10 175 295 10 0 550
489 -30 387 507 10 787 0
490 10 329 449 10 0 607
491 10 293 413 10 0 130
492 30 329 449 10 0 37
493 10 225 345 10 0 517
494 27 379 499 10 0 391
495 29 639 759 0 0 1042
496 -11 807 927 10 795 0
497 -10 245 365 10 646 0
498 -13 519 639 10 548 0
499 -17 821 941 10 9 0
500 20 347 467 10 0 214
501 -20 118 238 10 207 0
502 20 63 183 10 0 962
503 -19 1065 1185 10 728 0
504 -40 529 649 10 226 0
505 10 325 445 10 0 111
506 -40 597 717 10 804 0
507 18 999 1119 10 0 100
508 -15 491 611 10 11 0
509 -23 122 242 10 7 0
510 22 1150 1270 0 0 1045
511 -11 442 562 10 81 0
512 -20 448 568 10 153 0
513 -25 298 418 10 180 0
514 -5 362 482 10 923 0
515 -20 152 272 10 427 0
516 10 194 314 10 0 487
517 -10 201 321 10 493 0
518 20 130 250 0 0 1029
519 20 161 281 10 0 99
520 13 576 696 10 0 878
521 18 577 697 0 0 1018
522 -19 257 377 10 779 0
523 10 184 304 10 0 448
524 10 218 338 10 0 446
525 -20 674 794 10 72 0
526 20 225 345 10 0 29
527 4 721 841 10 0 373
528 10 1275 1395 10 0 791
529 20 196 316 10 0 982
530 -20 1152 1272 10 777 0
531 -30 250 370 10 564 0
532 -20 1463 1583 10 177 0
533 10 149 269 10 0 974
534 10 150 270 10 0 677
535 10 187 307 10 0 331
536 -10 311 431 10 729 0
537 -16 1486 1606 10 773 0
538 30 188 308 10 0 827
539 1 84 204 10 0 880
540 -20 211 331 10 838 0
541 19 502 622 10 0 941
542 -13 1378 1498 10 182 0
543 10 75 195 10 0 479
544 -18 321 441 10 191 0
545 20 159 279 10 0 82
546 20 164 284 10 0 759
547 15 969 1089 0 0 1011
548 13 56 176 10 0 498
549 -30 278 398 10 67 0
550 -10 159 279 10 488 0
551 10 341 461 10 0 555
552 -20 869 989 10 360 0
553 10 273 393 10 0 939
554 -10 263 383 10 820 0
555 -10 315 435 10 551 0
556 -13 1406 1526 10 152 0
557 24 115 235 10 0 739
558 25 1120 1240 10 0 116
559 -10 997 1117 10 210 0
560 15 726 846 10 0 434
561 10 221 341 10 0 300
562 -5 762 882 10 978 0
563 -17 748 868 10 980 0
564 30 253 373 10 0 531
565 -12 222 342 10 721 0
566 25 585 705 10 0 436
567 -10 1091 1211 10 356 0
568 -20 189 309 10 330 0
569 10 201 321 10 0 430
570 -20 356 476 10 616 0
571 24 1101 1221 10 0 49
572 17 461 581 0 0 1006
573 20 356 476 10 0 852
574 10 232 352 10 0 137
575 15 978 1098 10 0 154
576 -10 252 372 10 98 0
577 -20 277 397 10 897 0
578 19 383 503 10 0 803
579 23 124 244 10 0 633
580 -20 217 337 10 842 0
581 -24 1309 1429 10 206 0
582 38 121 241 10 0 746
583 -5 259 379 10 742 0
584 -30 964 1084 10 870 0
585 25 102 222 10 0 167
586 -10 266 386 10 741 0
587 10 278 398 10 0 926
588 -30 200 320 10 415 0
589 20 164 284 10 0 380
590 20 315 435 10 0 120
591 -30 1256 1376 10 394 0
592 -20 245 365 10 600 0
593 31 447 567 10 0 891
594 -30 325 445 10 690 0
595 14 295 415 0 0 1024
596 -24 1443 1563 10 34 0
597 -12 221 341 10 905 0
598 -23 881 1001 10 399 0
599 13 352 472 10 0 2
600 20 264 384 10 0 592
601 -20 703 823 10 402 0
602 10 208 328 10 0 881
603 10 137 257 10 0 679
604 20 216 336 10 0 692
605 -26 956 1076 10 445 0
606 -20 50 170 10 387 0
607 -10 330 450 10 490 0
608 -10 105 225 10 231 0
609 -10 1412 1532 10 848 0
610 -10 274 394 10 13 0
611 10 137 257 10 0 8
612 -14 1141 1261 10 227 0
613 30 171 291 0 0 1009
614 20 161 281 10 0 931
615 18 520 640 10 0 44
616 20 222 342 10 0 570
617 30 310 430 10 0 338
618 -10 359 479 10 149 0
619 10 175 295 10 0 335
620 -20 873 993 10 309 0
621 -24 946 1066 10 237 0
622 -10 253 373 10 917 0
623 -9 985 1105 10 985 0
624 -16 1414 1534 10 370 0
625 10 330 450 10 0 63
626 10 313 433 10 0 296
627 15 391 511 10 0 468
628 -10 159 279 10 901 0
629 10 254 374 10 0 466
630 20 166 286 10 0 732
631 20 253 373 10 0 713
632 -12 980 1100 10 864 0
633 -23 567 687 10 579 0
634 24 736 856 10 0 653
635 -20 298 418 10 382 0
636 -20 162 282 10 824 0
637 30 157 277 10 0 782
638 40 274 394 10 0 666
639 -10 239 359 10 172 0
640 30 274 394 10 0 290
641 10 290 410 10 0 915
642 -20 971 1091 10 660 0
643 19 203 323 10 0 836
644 -8 1133 1253 10 983 0
645 -15 117 237 10 990 0
646 10 233 353 10 0 497
647 -10 451 571 10 23 0
648 -20 64 184 10 869 0
649 -20 1211 1331 10 171 0
650 9 723 843 10 0 832
651 21 1152 1272 10 0 802
652 -14 662 782 10 949 0
653 -24 942 1062 10 634 0
654 -20 227 347 10 734 0
655 1 1081 1201 10 0 407
656 -20 572 692 10 984 0
657 19 353 473 10 0 762
658 20 156 276 10 0 384
659 4 510 630 10 0 841
660 20 55 175 10 0 642
661 10 46 166 0 0 1037
662 -20 1414 1534 10 122 0
663 -27 1148 1268 10 333 0
664 23 712 832 10 0 55
665 10 280 400 10 0 158
666 -40 309 429 10 638 0
667 23 486 606 10 0 141
668 -20 697 817 10 326 0
669 29 229 349 10 0 771
670 -10 948 1068 10 884 0
671 10 211 331 10 0 240
672 10 257 377 0 0 1027
673 37 197 317 10 0 964
674 -20 1026 1146 10 21 0
675 9 542 662 10 0 160
676 10 279 399 10 0 781
677 -10 210 330 10 534 0
678 -14 741 861 10 39 0
679 -10 434 554 10 603 0
680 20 151 271 10 0 129
681 20 334 454 0 0 1007
682 10 280 400 10 0 405
683 20 308 428 10 0 381
684 10 297 417 0 0 1036
685 10 167 287 10 0 749
686 -10 162 282 10 147 0
687 -20 73 193 10 454 0
688 -2 583 703 10 175 0
689 -8 1055 1175 10 996 0
690 30 289 409 10 0 594
691 10 244 364 10 0 92
692 -20 205 325 10 604 0
693 10 195 315 0 0 1022
694 -10 237 357 10 156 0
695 24 231 351 10 0 463
696 10 50 170 10 0 421
697 -20 396 516 10 831 0
698 -11 1367 1487 10 834 0
699 -22 296 416 10 485 0
700 20 236 356 10 0 386
701 27 898 1018 10 0 54
702 -10 324 444 10 168 0
703 30 237 357 10 0 474
704 -10 283 403 10 310 0
705 -40 417 537 10 280 0
706 -20 278 398 10 269 0
707 10 63 183 10 0 754
708 20 194 314 10 0 765
709 -3 349 469 10 455 0
710 -20 198 318 10 928 0
711 -20 190 310 10 38 0
712 -21 747 867 10 855 0
713 -20 373 493 10 631 0
714 10 196 316 10 0 429
715 -10 1337 1457 10 755 0
716 18 208 328 10 0 424
717 -10 259 379 10 951 0
718 -10 542 662 10 423 0
719 -29 845 965 10 929 0
720 30 274 394 10 0 85
721 12 179 299 10 0 565
722 10 301 421 10 0 372
723 -30 1121 1241 10 851 0
724 31 948 1068 10 0 731
725 8 215 335 10 0 432
726 10 168 288 10 0 957
727 -11 1431 1551 10 132 0
728 19 48 168 10 0 503
729 10 254 374 10 0 536
730 20 336 456 10 0 279
731 -31 953 1073 10 724 0
732 -20 233 353 10 630 0
733 10 215 335 10 0 998
734 20 226 346 10 0 654
735 -30 664 784 10 856 0
736 -31 1561 1681 10 303 0
737 10 245 365 10 0 904
738 20 229 349 10 0 806
739 -24 622 742 10 557 0
740 9 292 412 10 0 784
741 10 255 375 10 0 586
742 5 154 274 10 0 583
743 -17 201 321 10 818 0
744 -20 251 371 10 828 0
745 -23 1395 1515 10 174 0
746 -38 1239 1359 10 582 0
747 20 263 383 0 0 1004
748 -10 430 550 10 10 0
749 -10 246 366 10 685 0
750 -7 896 1016 10 332 0
751 -20 559 679 10 853 0
752 20 216 336 10 0 176
753 -10 289 409 10 918 0
754 -10 82 202 10 707 0
755 10 94 214 10 0 715
756 30 157 277 10 0 935
757 -20 248 368 10 889 0
758 -31 1545 1665 10 215 0
759 -20 821 941 10 546 0
760 29 1026 1146 10 0 271
761 -30 89 209 10 780 0
762 -19 604 724 10 657 0
763 -20 180 300 10 934 0
764 20 64 184 10 0 315
765 -20 200 320 10 708 0
766 -19 1458 1578 10 95 0
767 -8 1179 1299 10 112 0
768 -20 158 278 10 265 0
769 10 173 293 10 0 234
770 -9 1079 1199 10 478 0
771 -29 881 1001 10 669 0
772 10 76 196 10 0 364
773 16 555 675 10 0 537
774 20 320 440 10 0 950
775 20 241 361 0 0 1028
776 -10 735 855 10 304 0
777 20 253 373 10 0 530
778 -30 267 387 10 217 0
779 19 185 305 10 0 522
780 30 7 127 10 0 761
781 -10 1021 1141 10 676 0
782 -30 760 880 10 637 0
783 -10 318 438 10 103 0
784 -9 366 486 10 740 0
785 22 256 376 10 0 866
786 11 1081 1201 10 0 388
787 30 207 327 10 0 489
788 -14 143 263 10 286 0
789 30 237 357 10 0 307
790 -8 525 645 10 408 0
791 -10 1482 1602 10 528 0
792 26 181 301 10 0 341
793 30 77 197 10 0 179
794 10 5 125 10 0 253
795 11 483 603 10 0 496
796 20 1662 1782 0 0 1034
797 -10 301 421 10 262 0
798 20 206 326 10 0 404
799 10 234 354 10 0 898
800 -4 1190 1310 10 920 0
801 -20 219 339 10 138 0
802 -21 1477 1597 10 651 0
803 -19 1202 1322 10 578 0
804 40 231 351 10 0 506
805 15 1132 1252 10 0 104
806 -20 218 338 10 738 0
807 -10 149 269 10 955 0
808 -10 625 745 10 298 0
809 20 106 226 0 0 1019
810 40 302 422 10 0 874
811 20 224 344 10 0 837
812 -16 246 366 10 48 0
813 32 357 477 10 0 319
814 10 273 393 10 0 118
815 20 206 326 10 0 902
816 25 282 402 10 0 281
817 10 320 440 10 0 74
818 17 120 240 10 0 743
819 20 119 239 10 0 87
820 10 288 408 10 0 554
821 -10 1214 1334 10 246 0
822 20 245 365 10 0 893
823 20 201 321 10 0 908
824 20 212 332 10 0 636
825 -30 223 343 10 181 0
826 -30 257 377 10 840 0
827 -30 365 485 10 538 0
828 20 245 365 10 0 744
829 -10 241 361 10 56 0
830 -20 324 444 10 232 0
831 20 201 321 10 0 697
832 -9 1178 1298 10 650 0
833 -20 881 1001 10 994 0
834 11 275 395 10 0 698
835 -24 772 892 10 887 0
836 -19 226 346 10 643 0
837 -20 1475 1595 10 811 0
838 20 208 328 10 0 540
839 30 49 169 10 0 127
840 30 226 346 10 0 826
841 -4 692 812 10 659 0
842 20 212 332 10 0 580
843 -30 1327 1447 10 20 0
844 21 813 933 10 0 913
845 10 270 390 10 0 953
846 20 166 286 10 0 368
847 10 292 412 10 0 173
848 10 253 373 10 0 609
849 -10 372 492 10 444 0
850 -10 209 329 10 327 0
851 30 111 231 10 0 723
852 -20 296 416 10 573 0
853 20 211 331 10 0 751
854 10 190 310 10 0 907
855 21 537 657 10 0 712
856 30 146 266 10 0 735
857 20 297 417 10 0 166
858 -16 325 445 10 989 0
859 20 319 439 10 0 186
860 10 102 222 10 0 252
861 31 320 440 10 0 258
862 20 226 346 10 0 113
863 -20 369 489 10 441 0
864 12 672 792 10 0 632
865 21 74 194 10 0 397
866 -22 966 1086 10 785 0
867 20 143 263 10 0 52
868 30 211 331 10 0 107
869 20 95 215 10 0 648
870 30 199 319 10 0 584
871 30 159 279 10 0 43
872 10 10 130 10 0 245
873 -7 1412 1532 10 159 0
874 -40 366 486 10 810 0
875 -10 197 317 10 324 0
876 20 237 357 10 0 352
877 -20 172 292 10 312 0
878 -13 1206 1326 10 520 0
879 -20 158 278 10 975 0
880 -1 1010 1130 10 539 0
881 -10 328 448 10 602 0
882 -20 297 417 10 944 0
883 28 1019 1139 10 0 164
884 10 176 296 10 0 670
885 -10 165 285 10 22 0
886 40 227 347 10 0 899
887 24 204 324 10 0 835
888 30 160 280 10 0 51
889 20 240 360 10 0 757
890 -10 384 504 10 959 0
891 -31 584 704 10 593 0
892 -30 222 342 10 299 0
893 -20 238 358 10 822 0
894 20 1434 1554 0 0 1010
895 10 147 267 10 0 431
896 4 1094 1214 0 0 1044
897 20 291 411 10 0 577
898 -10 393 513 10 799 0
899 -40 239 359 10 886 0
900 -10 729 849 10 906 0
901 10 159 279 10 0 628
902 -20 268 388 10 815 0
903 12 236 356 10 0 422
904 -10 222 342 10 737 0
905 12 141 261 10 0 597
906 10 329 449 10 0 900
907 -10 161 281 10 854 0
908 -20 972 1092 10 823 0
909 9 250 370 10 0 224
910 10 144 264 10 0 473
911 20 749 869 10 0 937
912 -21 1324 1444 10 452 0
913 -21 1352 1472 10 844 0
914 -20 714 834 10 336 0
915 -10 344 464 10 641 0
916 20 269 389 10 0 165
917 10 252 372 10 0 622
918 10 257 377 10 0 753
919 -20 489 609 10 484 0
920 4 297 417 10 0 800
921 12 207 327 10 0 77
922 24 1393 1513 0 0 1017
923 5 47 167 10 0 514
924 10 179 299 10 0 161
925 -20 377 497 10 33 0
926 -10 270 390 10 587 0
927 15 1208 1328 10 0 70
928 20 126 246 10 0 710
929 29 477 597 10 0 719
930 17 31 151 10 0 259
931 -20 172 292 10 614 0
932 17 167 287 10 0 316
933 -10 153 273 10 108 0
934 20 145 265 10 0 763
935 -30 598 718 10 756 0
936 25 1003 1123 10 0 411
937 -20 749 869 10 911 0
938 30 221 341 10 0 140
939 -10 954 1074 10 553 0
940 -31 386 506 10 469 0
941 -19 1141 1261 10 541 0
942 20 232 352 10 0 233
943 28 812 932 10 0 395
944 20 296 416 10 0 882
945 -20 85 205 10 347 0
946 20 213 333 10 0 409
947 -10 911 1031 10 239 0
948 20 231 351 10 0 965
949 14 308 428 10 0 652
950 -20 325 445 10 774 0
951 10 263 383 10 0 717
952 -20 671 791 10 351 0
953 -10 306 426 10 845 0
954 5 766 886 10 0 133
955 10 179 299 10 0 807
956 10 98 218 10 0 306
957 -10 859 979 10 726 0
958 -11 1550 1670 10 155 0
959 10 209 329 10 0 890
960 -20 143 263 10 125 0
961 30 151 271 10 0 202
962 -20 130 250 10 502 0
963 10 313 433 10 0 393
964 -37 285 405 10 673 0
965 -20 1355 1475 10 948 0
966 10 376 496 0 0 1047
967 -30 311 431 10 976 0
968 30 56 176 10 0 428
969 29 943 1063 10 0 142
970 10 335 455 10 0 264
971 -8 1309 1429 10 439 0
972 20 208 328 10 0 261
973 -20 1298 1418 10 359 0
974 -10 218 338 10 533 0
975 20 152 272 10 0 879
976 30 313 433 10 0 967
977 -20 56 176 10 350 0
978 5 643 763 10 0 562
979 -20 1069 1189 10 268 0
980 17 787 907 10 0 563
981 -20 382 502 10 377 0
982 -20 247 367 10 529 0
983 8 957 1077 10 0 644
984 20 74 194 10 0 656
985 9 171 291 10 0 623
986 -30 496 616 10 362 0
987 -10 314 434 10 16 0
988 30 272 392 10 0 358
989 16 216 336 10 0 858
990 15 96 216 10 0 645
991 10 277 397 10 0 378
992 20 14 134 0 0 1016
993 -20 425 545 10 12 0
994 20 250 370 10 0 833
995 -20 1505 1625 10 480 0
996 8 646 766 10 0 689
997 20 211 331 10 0 221
998 -10 1173 1293 10 733 0
999 20 326 446 10 0 109
1000 30 314 434 10 0 201
1001 10 212 332 10 0 143
1002 -20 271 391 10 57 0
1003 -10 321 441 10 199 0
1004 -20 263 383 10 747 0
1005 -9 1235 1355 10 314 0
1006 -17 461 581 10 572 0
1007 -20 334 454 10 681 0
1008 -17 162 282 10 28 0
1009 -30 171 291 10 613 0
1010 -20 1434 1554 10 894 0
1011 -15 969 1089 10 547 0
1012 -40 191 311 10 27 0
1013 -40 147 267 10 18 0
1014 -20 786 906 10 40 0
1015 -10 232 352 10 308 0
1016 -20 14 134 10 992 0
1017 -24 1393 1513 10 922 0
1018 -18 577 697 10 521 0
1019 -20 106 226 10 809 0
1020 -23 1213 1333 10 292 0
1021 -10 179 299 10 19 0
1022 -10 195 315 10 693 0
1023 -8 858 978 10 192 0
1024 -14 295 415 10 595 0
1025 -18 1124 1244 10 284 0
1026 -20 221 341 10 470 0
1027 -10 257 377 10 672 0
1028 -20 241 361 10 775 0
1029 -20 130 250 10 518 0
1030 -3 1003 1123 10 188 0
1031 -27 745 865 10 471 0
1032 -10 165 285 10 301 0
1033 -20 172 292 10 106 0
1034 -20 1662 1782 10 796 0
1035 -28 89 209 10 477 0
1036 -10 297 417 10 684 0
1037 -10 46 166 10 661 0
1038 -10 324 444 10 4 0
1039 -13 667 787 10 238 0
1040 -20 137 257 10 136 0
1041 -20 181 301 10 211 0
1042 -29 639 759 10 495 0
1043 -44 930 1050 10 35 0
1044 -4 1094 1214 10 896 0
1045 -22 1150 1270 10 510 0
1046 -20 301 421 10 42 0
1047 -10 376 496 10 966 0
1048 -27 725 845 10 121 0
1049 -40 77 197 10 6 0
DEPOT_SECTION
1
-1
EOF
