NAME: lrc1_10_4
TYPE: PDPTW
COMMENT: Li & Lim PDPTW benchmark converted from SINTEF format
DIMENSION: 1043
VEHICLES: 250
CAPACITY: 200
EDGE_WEIGHT_TYPE: EUC_2D
NODE_COORD_SECTION
1 250 250
2 440 436
3 214 394
4 476 483
5 352 487
6 230 197
7 175 239
8 133 202
9 328 458
10 25 499
11 226 423
12 313 282
13 60 454
14 239 486
15 102 264
16 408 452
17 451 62
18 203 390
19 92 233
20 7 300
21 409 90
22 307 108
23 347 54
24 406 87
25 371 332
26 116 466
27 441 265
28 130 140
29 80 117
30 421 387
31 83 300
32 136 52
33 18 462
34 390 120
35 188 119
36 467 114
37 440 292
38 268 400
39 391 202
40 377 432
41 80 290
42 439 15
43 307 52
44 111 192
45 131 56
46 88 286
47 69 414
48 41 232
49 323 77
50 340 416
51 86 199
52 314 124
53 375 191
54 226 175
55 242 106
56 417 417
57 419 459
58 389 11
59 450 416
60 246 255
61 71 333
62 105 474
63 20 489
64 388 331
65 92 259
66 200 261
67 400 288
68 299 285
69 378 199
70 325 147
71 421 386
72 404 447
73 412 478
74 26 67
75 358 183
76 30 302
77 176 470
78 96 270
79 243 408
80 60 29
81 34 169
82 407 280
83 277 403
84 498 456
85 384 491
86 355 174
87 97 288
88 316 284
89 334 403
90 415 223
91 230 320
92 432 199
93 92 18
94 273 300
95 269 112
96 429 389
97 371 71
98 5 297
99 414 378
100 38 15
101 2 295
102 237 254
103 54 445
104 382 110
105 438 488
106 395 331
107 230 487
108 249 407
109 488 26
110 151 81
111 483 14
112 0 422
113 429 67
114 195 464
115 356 256
116 264 180
117 94 235
118 474 96
119 268 52
120 44 440
121 7 382
122 459 53
123 491 25
124 439 243
125 210 185
126 150 68
127 201 270
128 0 188
129 103 464
130 325 56
131 44 344
132 418 75
133 472 57
134 460 328
135 89 270
136 374 190
137 463 253
138 97 93
139 163 472
140 29 336
141 84 453
142 294 421
143 343 62
144 371 193
145 142 372
146 66 88
147 395 332
148 93 413
149 267 394
150 249 258
151 472 129
152 87 3
153 62 326
154 212 186
155 241 402
156 439 266
157 79 80
158 62 453
159 188 151
160 386 154
161 38 301
162 192 265
163 371 192
164 64 294
165 381 494
166 437 12
167 186 135
168 459 10
169 175 422
170 274 48
171 488 173
172 398 97
173 385 17
174 180 283
175 71 12
176 343 49
177 248 251
178 7 194
179 322 290
180 410 399
181 398 103
182 385 285
183 179 497
184 464 13
185 492 335
186 27 464
187 231 29
188 157 38
189 439 268
190 149 214
191 187 73
192 429 169
193 350 199
194 60 231
195 448 404
196 481 20
197 436 25
198 111 459
199 389 17
200 148 208
201 475 477
202 390 325
203 346 354
204 91 266
205 17 65
206 391 112
207 224 203
208 426 231
209 260 472
210 265 0
211 391 293
212 411 421
213 132 30
214 475 480
215 286 244
216 436 237
217 402 284
218 287 397
219 272 420
220 477 120
221 145 434
222 33 286
223 370 262
224 393 20
225 330 308
226 246 398
227 482 184
228 451 305
229 226 316
230 110 459
231 244 250
232 458 16
233 390 34
234 423 214
235 219 215
236 326 118
237 365 74
238 331 356
239 210 398
240 403 93
241 248 404
242 65 62
243 460 13
244 0 293
245 211 248
246 484 174
247 175 352
248 455 168
249 224 191
250 439 156
251 434 359
252 118 314
253 234 246
254 406 450
255 75 118
256 115 395
257 329 456
258 218 403
259 149 341
260 253 74
261 436 241
262 238 203
263 405 455
264 485 27
265 323 118
266 330 371
267 25 65
268 406 96
269 49 451
270 307 249
271 178 135
272 299 353
273 236 213
274 355 177
275 394 23
276 306 235
277 90 477
278 379 486
279 435 16
280 8 497
281 150 484
282 213 399
283 391 18
284 111 392
285 330 281
286 344 203
287 91 235
288 346 60
289 483 27
290 382 498
291 457 492
292 291 213
293 154 374
294 225 196
295 94 40
296 0 356
297 297 283
298 371 423
299 417 217
300 500 228
301 412 214
302 442 289
303 157 269
304 440 241
305 100 266
306 111 178
307 91 101
308 25 307
309 135 400
310 58 458
311 133 26
312 211 386
313 94 97
314 30 155
315 208 184
316 394 333
317 355 180
318 241 180
319 21 485
320 80 251
321 476 61
322 406 94
323 364 71
324 418 221
325 274 441
326 304 97
327 297 102
328 250 405
329 111 463
330 408 279
331 263 418
332 480 119
333 420 383
334 142 14
335 73 328
336 50 438
337 441 7
338 462 14
339 360 294
340 58 39
341 58 391
342 410 285
343 96 97
344 21 64
345 238 210
346 479 121
347 200 178
348 216 341
349 48 437
350 200 270
351 357 181
352 476 174
353 400 286
354 351 481
355 270 400
356 95 234
357 128 113
358 133 455
359 16 463
360 59 388
361 376 190
362 481 122
363 266 405
364 374 232
365 398 20
366 481 26
367 63 444
368 89 290
369 246 314
370 40 304
371 262 369
372 323 29
373 89 65
374 144 35
375 200 265
376 436 264
377 15 457
378 397 20
379 328 491
380 399 175
381 432 2
382 63 336
383 6 296
384 146 376
385 295 247
386 235 33
387 233 204
388 142 360
389 177 156
390 315 287
391 452 172
392 263 153
393 493 493
394 320 283
395 64 5
396 95 235
397 203 211
398 16 497
399 348 348
400 485 104
401 330 147
402 443 237
403 316 286
404 335 46
405 381 495
406 364 173
407 267 162
408 214 245
409 92 234
410 347 459
411 30 7
412 120 37
413 397 153
414 210 29
415 87 285
416 132 32
417 390 294
418 67 451
419 24 68
420 146 439
421 209 212
422 6 292
423 18 63
424 149 98
425 91 268
426 103 177
427 367 178
428 225 269
429 443 246
430 306 42
431 374 306
432 413 421
433 470 405
434 33 278
435 149 458
436 257 57
437 272 403
438 221 291
439 1 101
440 332 459
441 220 392
442 253 50
443 250 441
444 471 484
445 480 152
446 404 83
447 476 94
448 458 213
449 215 395
450 85 288
451 179 75
452 228 287
453 397 18
454 238 204
455 488 3
456 407 88
457 459 14
458 120 17
459 235 316
460 370 382
461 405 454
462 17 458
463 43 135
464 318 497
465 199 268
466 111 467
467 138 438
468 172 314
469 494 468
470 35 303
471 341 59
472 423 221
473 395 295
474 413 417
475 339 60
476 277 428
477 176 199
478 265 240
479 365 190
480 133 53
481 387 488
482 385 295
483 491 369
484 445 273
485 195 273
486 313 493
487 495 227
488 241 403
489 30 72
490 21 487
491 324 99
492 453 318
493 443 272
494 447 184
495 366 288
496 440 284
497 13 314
498 72 227
499 377 385
500 477 478
501 204 185
502 226 191
503 330 138
504 185 434
505 483 22
506 71 282
507 60 5
508 189 402
509 134 211
510 146 313
511 21 146
512 37 281
513 416 417
514 44 311
515 361 181
516 444 242
517 444 271
518 359 179
519 388 334
520 401 164
521 499 316
522 399 106
523 425 215
524 407 98
525 406 460
526 88 95
527 95 64
528 306 229
529 273 55
530 384 149
531 122 35
532 308 199
533 390 301
534 300 108
535 267 400
536 8 300
537 105 181
538 398 325
539 166 247
540 140 431
541 253 118
542 359 246
543 321 277
544 168 59
545 406 285
546 391 334
547 437 19
548 201 278
549 435 267
550 245 408
551 16 462
552 107 374
553 477 97
554 346 57
555 14 459
556 102 6
557 359 287
558 297 131
559 282 1
560 21 70
561 440 244
562 482 104
563 120 261
564 125 29
565 292 32
566 262 92
567 68 160
568 405 276
569 277 50
570 32 319
571 344 70
572 481 84
573 21 68
574 441 244
575 57 43
576 1 293
577 481 96
578 471 368
579 236 126
580 406 99
581 303 186
582 225 369
583 412 453
584 104 349
585 173 182
586 111 464
587 53 440
588 69 336
589 359 182
590 13 459
591 244 277
592 484 177
593 452 206
594 22 483
595 452 110
596 347 192
597 95 92
598 368 311
599 479 387
600 479 169
601 497 266
602 66 336
603 376 195
604 401 281
605 441 177
606 231 203
607 21 488
608 231 204
609 122 422
610 65 453
611 206 261
612 466 149
613 313 119
614 90 274
615 39 162
616 35 306
617 437 15
618 307 412
619 79 291
620 64 437
621 376 92
622 129 27
623 196 489
624 51 286
625 20 488
626 13 455
627 170 347
628 92 230
629 117 467
630 413 217
631 405 450
632 394 322
633 125 61
634 238 123
635 11 403
636 89 272
637 304 102
638 478 121
639 408 84
640 376 494
641 20 73
642 159 299
643 95 382
644 352 63
645 365 274
646 30 301
647 351 5
648 197 267
649 498 171
650 468 352
651 418 251
652 489 437
653 251 63
654 132 55
655 281 96
656 333 293
657 255 487
658 207 400
659 469 489
660 244 254
661 233 207
662 441 60
663 411 379
664 178 72
665 51 447
666 478 118
667 141 426
668 295 89
669 112 433
670 320 211
671 400 103
672 408 453
673 435 180
674 432 66
675 374 116
676 478 102
677 335 57
678 385 239
679 386 245
680 208 396
681 380 489
682 380 498
683 440 7
684 434 245
685 90 232
686 389 334
687 241 205
688 18 24
689 57 183
690 59 457
691 442 243
692 402 281
693 445 237
694 441 273
695 31 175
696 234 202
697 52 303
698 167 445
699 179 286
700 269 48
701 165 59
702 461 8
703 421 415
704 59 459
705 24 492
706 55 449
707 224 192
708 444 269
709 491 20
710 313 126
711 283 438
712 352 241
713 398 476
714 442 247
715 217 207
716 233 87
717 479 127
718 6 53
719 478 300
720 378 493
721 303 78
722 344 62
723 371 315
724 200 78
725 413 391
726 415 216
727 397 57
728 293 228
729 0 297
730 435 20
731 195 111
732 417 218
733 340 54
734 132 57
735 210 379
736 228 260
737 399 104
738 95 277
739 360 284
740 53 466
741 112 465
742 313 391
743 93 235
744 125 32
745 215 282
746 224 320
747 134 428
748 26 490
749 44 115
750 438 127
751 239 15
752 342 54
753 109 463
754 199 187
755 201 188
756 399 301
757 484 171
758 272 234
759 380 350
760 140 108
761 228 199
762 245 461
763 305 107
764 231 195
765 450 265
766 273 149
767 12 358
768 315 121
769 420 213
770 331 134
771 84 377
772 320 280
773 89 185
774 472 481
775 422 420
776 475 267
777 470 125
778 435 268
779 409 155
780 243 248
781 488 96
782 341 72
783 58 449
784 16 460
785 480 136
786 162 388
787 47 208
788 324 127
789 87 96
790 140 137
791 314 205
792 96 346
793 321 280
794 245 251
795 436 295
796 274 261
797 271 128
798 275 45
799 422 409
800 146 188
801 93 96
802 409 255
803 449 428
804 90 285
805 415 95
806 88 287
807 379 196
808 368 452
809 202 186
810 435 11
811 269 46
812 7 292
813 44 496
814 478 99
815 391 99
816 132 477
817 24 65
818 130 247
819 133 273
820 347 62
821 404 140
822 416 420
823 67 335
824 92 270
825 411 95
826 132 479
827 366 334
828 125 39
829 419 422
830 460 2
831 67 334
832 448 414
833 46 163
834 77 465
835 284 319
836 102 422
837 240 34
838 141 428
839 204 269
840 144 439
841 470 417
842 404 103
843 5 281
844 487 320
845 398 23
846 90 296
847 386 13
848 115 465
849 473 475
850 275 42
851 286 356
852 15 69
853 267 44
854 243 399
855 390 249
856 210 391
857 433 15
858 24 259
859 12 463
860 237 213
861 182 480
862 409 88
863 244 368
864 381 328
865 213 185
866 482 141
867 319 124
868 141 431
869 198 264
870 69 334
871 299 98
872 240 250
873 199 203
874 459 17
875 423 217
876 477 179
877 213 397
878 405 187
879 269 402
880 53 204
881 13 394
882 15 68
883 56 268
884 360 184
885 307 102
886 130 57
887 250 328
888 91 231
889 479 176
890 420 224
891 461 182
892 418 218
893 419 418
894 336 493
895 389 300
896 92 76
897 476 102
898 418 399
899 109 56
900 13 465
901 92 232
902 394 47
903 16 287
904 399 102
905 143 158
906 18 484
907 250 411
908 19 273
909 365 28
910 387 297
911 433 447
912 214 274
913 489 338
914 130 494
915 23 67
916 374 489
917 126 30
918 112 467
919 489 274
920 61 214
921 166 440
922 56 75
923 210 276
924 80 286
925 17 459
926 66 448
927 351 128
928 352 176
929 490 286
930 247 219
931 86 268
932 398 329
933 272 402
934 317 123
935 408 318
936 66 31
937 425 448
938 35 304
939 471 94
940 470 473
941 224 56
942 343 47
943 52 18
944 16 68
945 195 185
946 92 236
947 76 462
948 124 56
949 481 454
950 477 483
951 481 124
952 389 156
953 384 16
954 492 34
955 371 200
956 153 235
957 428 202
958 257 391
959 421 218
960 206 186
961 393 301
962 204 187
963 468 475
964 477 122
965 100 66
966 489 27
967 12 451
968 197 270
969 311 422
970 489 17
971 13 214
972 440 247
973 28 467
974 388 325
975 270 401
976 5 445
977 198 271
978 480 131
979 437 98
980 131 246
981 49 437
982 270 49
983 337 41
984 318 280
985 154 392
986 493 111
987 399 450
988 67 452
989 34 239
990 343 276
991 393 12
992 236 247
993 340 291
994 3 292
995 209 68
996 18 225
997 147 435
998 335 99
999 485 24
1000 470 475
1001 341 58
1002 475 480
1003 470 417
1004 432 2
1005 142 360
1006 341 58
1007 23 67
1008 109 56
1009 481 96
1010 109 463
1011 368 452
1012 488 26
1013 398 476
1014 178 72
1015 459 53
1016 172 314
1017 251 63
1018 175 352
1019 19 273
1020 264 180
1021 440 284
1022 348 348
1023 271 128
1024 92 234
1025 452 206
1026 452 172
1027 390 249
1028 450 265
1029 186 135
1030 269 402
1031 90 274
1032 412 478
1033 92 259
1034 175 239
1035 391 293
1036 201 278
1037 364 173
1038 343 276
1039 247 219
1040 284 319
1041 211 248
1042 226 191
1043 263 153
PICKUP_AND_DELIVERY_SECTION
1 0 0 1821 0 0 0
2 18 0 1546 10 0 599
3 -30 231 261 10 856 0
4 10 0 1487 10 0 201
5 -20 0 1553 10 486 0
6 40 122 152 10 0 294
7 23 0 1736 0 0 1034
8 -16 0 1685 10 773 0
9 -26 0 1589 10 89 0
10 -10 0 1476 10 748 0
11 15 0 1637 10 0 887
12 20 0 1741 10 0 297
13 10 347 377 10 0 47
14 3 1482 1512 10 0 328
15 10 0 1663 10 0 204
16 -20 0 1555 10 72 0
17 5 0 1536 10 0 132
18 -24 0 1664 10 169 0
19 -20 0 1653 10 117 0
20 -10 0 1563 10 422 0
21 20 0 1586 10 0 206
22 -20 0 1658 10 378 0
23 10 0 1593 10 0 372
24 -10 0 1586 10 456 0
25 -10 0 1665 10 893 0
26 20 254 284 10 0 358
27 40 0 1620 10 0 227
28 17 0 1649 10 0 800
29 24 824 854 10 0 509
30 -20 801 831 10 898 0
31 26 500 530 10 0 164
32 10 0 1583 10 0 744
33 20 0 1497 10 0 859
34 24 0 1620 10 0 268
35 -7 0 1667 10 159 0
36 -2 0 1555 10 750 0
37 24 940 970 10 0 778
38 20 0 1660 10 0 933
39 14 0 1663 10 0 605
40 -20 0 1590 10 987 0
41 10 0 1637 10 0 153
42 20 0 1510 10 0 927
43 -14 920 950 10 565 0
44 -21 0 1661 10 255 0
45 10 0 1584 10 0 451
46 10 0 1646 10 0 819
47 -10 0 1567 10 13 0
48 16 0 1602 10 0 883
49 36 1405 1435 10 0 934
50 36 0 1623 10 0 218
51 -10 0 1640 10 901 0
52 20 0 1670 10 0 265
53 -20 0 1673 10 807 0
54 23 0 1733 10 0 125
55 -27 0 1667 10 995 0
56 10 0 1575 10 0 474
57 -20 0 1543 10 254 0
58 20 0 1535 10 0 647
59 25 577 607 10 0 195
60 10 0 1805 10 0 345
61 -20 0 1614 10 335 0
62 27 0 1545 10 0 586
63 -30 0 1480 10 319 0
64 20 160 190 10 0 686
65 4 399 429 0 0 1033
66 10 166 196 10 0 231
67 -30 0 1657 10 756 0
68 3 0 1751 10 0 99
69 -30 207 237 10 163 0
70 14 0 1684 10 0 534
71 -25 0 1593 10 180 0
72 20 0 1561 10 0 16
73 7 0 1532 0 0 1032
74 -20 1317 1347 10 419 0
75 -20 0 1684 10 589 0
76 -30 0 1585 10 938 0
77 14 0 1579 10 0 623
78 20 162 192 10 0 931
79 -5 0 1653 10 443 0
80 -8 0 1520 10 718 0
81 11 484 514 10 0 749
82 -20 0 1652 10 692 0
83 -30 0 1656 10 437 0
84 27 1406 1436 10 0 652
85 -30 348 378 10 640 0
86 -20 0 1682 10 928 0
87 -30 0 1654 10 806 0
88 -20 0 1737 10 351 0
89 26 0 1637 10 0 9
90 -23 0 1644 10 802 0
91 8 0 1739 10 0 150
92 7 0 1622 10 0 875
93 -3 0 1531 10 556 0
94 30 55 85 10 0 476
95 -20 0 1672 10 529 0
96 18 0 1585 10 0 333
97 21 0 1595 10 0 820
98 10 0 1562 10 0 536
99 -3 495 525 10 68 0
100 3 0 1495 10 0 943
101 30 0 1559 10 0 244
102 20 0 1798 10 0 794
103 10 308 338 10 0 786
104 -20 0 1619 10 580 0
105 18 0 1508 10 0 263
106 20 217 247 10 0 147
107 -10 1130 1160 10 149 0
108 -25 0 1654 10 331 0
109 30 0 1485 0 0 1012
110 28 0 1616 10 0 724
111 -10 0 1480 10 970 0
112 -10 0 1508 10 626 0
113 -36 0 1556 10 321 0
114 -1 1541 1571 10 183 0
115 19 0 1705 10 0 223
116 33 1681 1711 0 0 1020
117 20 0 1655 10 0 19
118 -2 0 1540 10 250 0
119 10 0 1613 10 0 700
120 24 0 1531 10 0 148
121 27 0 1535 10 0 635
122 20 0 1524 0 0 1015
123 -30 0 1482 10 939 0
124 20 0 1622 10 0 304
125 -23 0 1735 10 54 0
126 -10 423 453 10 654 0
127 10 52 82 10 0 968
128 -8 0 1554 10 880 0
129 -20 0 1552 10 467 0
130 -20 0 1604 10 475 0
131 -15 0 1585 10 881 0
132 -5 0 1569 10 17 0
133 17 1295 1325 10 0 815
134 -29 0 1587 10 929 0
135 -17 0 1649 10 818 0
136 20 0 1674 10 0 670
137 23 0 1598 10 0 891
138 20 0 1592 10 0 789
139 9 653 683 10 0 861
140 -20 0 1574 10 470 0
141 -30 0 1549 10 610 0
142 -15 1575 1605 10 371 0
143 10 0 1602 10 0 677
144 20 0 1678 10 0 479
145 -20 0 1649 10 967 0
146 2 0 1566 10 0 340
147 -20 0 1645 10 106 0
148 -24 0 1585 10 120 0
149 10 259 289 10 0 107
150 -8 0 1803 10 91 0
151 10 0 1559 10 0 717
152 -10 1433 1463 10 531 0
153 -10 0 1609 10 41 0
154 11 1707 1737 10 0 860
155 -40 0 1659 10 226 0
156 10 189 219 10 0 708
157 19 0 1570 10 0 357
158 10 0 1535 10 0 981
159 7 0 1695 10 0 35
160 31 0 1645 10 0 825
161 -5 296 326 10 563 0
162 10 0 1752 10 0 977
163 30 134 164 10 0 69
164 -26 1101 1131 10 31 0
165 -20 0 1535 10 916 0
166 20 330 360 10 0 237
167 24 0 1680 0 0 1029
168 -20 0 1493 10 874 0
169 24 1446 1476 10 0 18
170 10 0 1608 10 0 569
171 -10 0 1561 10 246 0
172 -30 0 1599 10 446 0
173 -10 809 839 10 847 0
174 -8 0 1734 10 699 0
175 -18 0 1514 10 507 0
176 10 0 1590 10 0 942
177 20 2 32 10 0 758
178 -8 0 1562 10 408 0
179 23 1479 1509 10 0 403
180 25 0 1593 10 0 71
181 -10 0 1603 10 671 0
182 -30 0 1672 10 961 0
183 1 0 1554 10 0 114
184 20 0 1492 10 0 453
185 -18 828 858 10 521 0
186 21 0 1502 10 0 973
187 14 1226 1256 10 0 837
188 3 1048 1078 10 0 544
189 10 0 1622 10 0 487
190 -22 0 1704 10 200 0
191 18 0 1624 10 0 414
192 -30 0 1615 10 299 0
193 -20 0 1699 10 274 0
194 -25 0 1621 10 498 0
195 -25 0 1561 10 59 0
196 -10 347 377 10 505 0
197 19 0 1520 10 0 683
198 -20 0 1560 10 329 0
199 10 0 1540 10 0 953
200 22 0 1701 10 0 190
201 -10 0 1492 10 4 0
202 -12 0 1653 10 632 0
203 -19 0 1670 10 578 0
204 -10 0 1652 10 15 0
205 20 0 1514 10 0 344
206 -20 1000 1030 10 21 0
207 -14 0 1758 10 766 0
208 -10 0 1634 10 574 0
209 -20 1036 1066 10 363 0
210 -2 0 1561 10 751 0
211 20 0 1664 0 0 1035
212 20 0 1577 10 0 775
213 -10 0 1562 10 622 0
214 30 0 1490 0 0 1002
215 -23 1284 1314 10 292 0
216 20 186 216 10 0 472
217 -10 0 1656 10 910 0
218 -36 564 594 10 50 0
219 -10 0 1640 10 550 0
220 10 0 1550 10 0 612
221 -10 0 1600 10 420 0
222 -19 0 1592 10 858 0
223 -19 1099 1129 10 115 0
224 -7 0 1541 10 233 0
225 24 0 1713 10 0 796
226 40 148 178 10 0 155
227 -40 0 1570 10 27 0
228 13 208 238 10 0 694
229 -21 70 100 10 452 0
230 -19 0 1560 10 348 0
231 -10 0 1805 10 66 0
232 20 313 343 10 0 457
233 7 0 1554 10 0 224
234 20 217 247 10 0 673
235 32 46 76 10 0 754
236 10 0 1659 10 0 733
237 -20 0 1601 10 166 0
238 13 0 1678 10 0 410
239 10 0 1658 10 0 658
240 -17 0 1592 10 572 0
241 30 0 1657 10 0 907
242 15 0 1548 10 0 922
243 20 322 352 10 0 830
244 -30 0 1558 10 101 0
245 26 39 69 0 0 1041
246 10 265 295 10 0 171
247 12 0 1685 0 0 1018
248 -10 0 1591 10 301 0
249 -20 0 1747 10 764 0
250 2 0 1600 10 0 118
251 -25 0 1598 10 663 0
252 26 0 1665 10 0 846
253 -10 65 95 10 872 0
254 20 0 1558 10 0 57
255 21 0 1592 10 0 44
256 11 815 845 10 0 309
257 -35 0 1591 10 440 0
258 -25 0 1655 10 863 0
259 -15 0 1676 10 627 0
260 20 0 1635 10 0 430
261 -12 327 357 10 385 0
262 10 0 1763 10 0 387
263 -18 0 1554 10 105 0
264 -10 0 1488 10 966 0
265 -20 0 1661 10 52 0
266 -10 0 1666 10 298 0
267 -10 0 1520 10 852 0
268 -24 219 249 10 34 0
269 20 284 314 10 0 926
270 -20 0 1754 10 342 0
271 21 1514 1544 10 0 945
272 -36 0 1697 10 369 0
273 20 39 69 10 0 707
274 20 0 1684 10 0 193
275 20 0 1543 10 0 909
276 25 0 1754 10 0 528
277 18 277 307 10 0 629
278 -5 0 1543 10 742 0
279 10 0 1513 10 0 621
280 -10 0 1466 10 625 0
281 -10 0 1557 10 848 0
282 18 0 1658 10 0 642
283 -5 0 1540 10 902 0
284 18 0 1613 10 0 985
285 -22 1330 1360 10 993 0
286 14 0 1706 10 0 596
287 -1 0 1652 10 539 0
288 10 321 351 10 0 722
289 20 0 1489 10 0 999
290 -30 0 1531 10 720 0
291 7 0 1493 10 0 1000
292 23 0 1756 10 0 215
293 -8 0 1655 10 384 0
294 -40 0 1752 10 6 0
295 -30 0 1550 10 564 0
296 -21 1086 1116 10 570 0
297 -20 0 1754 10 12 0
298 10 0 1600 10 0 266
299 30 189 219 10 0 192
300 8 0 1561 10 0 913
301 10 0 1646 10 0 248
302 -30 0 1616 10 492 0
303 -10 0 1717 10 743 0
304 -20 0 1621 10 124 0
305 -30 0 1661 10 888 0
306 18 156 186 10 0 567
307 -20 0 1594 10 526 0
308 10 0 1579 10 0 434
309 -11 0 1622 10 256 0
310 -30 323 353 10 690 0
311 10 0 1559 10 0 828
312 -23 0 1670 10 667 0
313 20 218 248 10 0 896
314 9 1280 1310 10 0 511
315 -19 0 1733 10 541 0
316 -20 0 1645 10 519 0
317 -20 0 1685 10 515 0
318 -27 0 1741 10 701 0
319 30 0 1483 10 0 63
320 -30 0 1641 10 787 0
321 36 0 1517 10 0 113
322 -10 0 1591 10 737 0
323 5 0 1599 10 0 991
324 10 291 321 10 0 892
325 -3 695 725 10 711 0
326 20 182 212 10 0 721
327 -30 0 1656 10 637 0
328 -3 0 1656 10 14 0
329 20 0 1557 10 0 198
330 20 0 1651 10 0 568
331 25 0 1643 10 0 108
332 7 0 1547 10 0 777
333 -18 0 1596 10 96 0
334 18 0 1552 10 0 416
335 20 193 223 10 0 61
336 -11 0 1537 10 620 0
337 20 392 422 10 0 617
338 20 0 1494 10 0 702
339 -20 1418 1448 10 482 0
340 -2 1163 1193 10 146 0
341 -19 0 1573 10 643 0
342 20 0 1648 10 0 270
343 20 0 1594 10 0 597
344 -20 0 1516 10 205 0
345 -10 0 1770 10 60 0
346 -8 0 1549 10 821 0
347 -10 94 124 10 960 0
348 19 0 1714 10 0 230
349 -20 0 1536 10 706 0
350 20 0 1758 10 0 912
351 20 149 179 10 0 88
352 -20 0 1573 10 600 0
353 -29 154 184 10 495 0
354 -20 322 352 10 894 0
355 10 0 1660 10 0 975
356 10 163 193 10 0 920
357 -19 0 1628 10 157 0
358 -20 0 1575 10 26 0
359 20 0 1495 10 0 900
360 20 663 693 10 0 771
361 -34 0 1672 10 878 0
362 30 0 1547 10 0 785
363 20 0 1656 10 0 209
364 33 125 155 10 0 678
365 20 0 1538 10 0 730
366 30 0 1490 10 0 639
367 20 0 1542 10 0 783
368 20 0 1646 10 0 924
369 36 1445 1475 10 0 272
370 -27 1145 1175 10 514 0
371 15 0 1692 10 0 142
372 -10 0 1579 10 23 0
373 -15 0 1566 10 965 0
374 -28 0 1572 10 412 0
375 -20 0 1759 10 869 0
376 20 186 216 10 0 549
377 20 323 353 10 0 740
378 20 280 310 10 0 22
379 -21 0 1558 10 464 0
380 13 0 1645 10 0 530
381 20 467 497 0 0 1004
382 -10 0 1606 10 602 0
383 10 320 350 10 0 497
384 8 0 1648 10 0 293
385 12 0 1766 10 0 261
386 30 0 1594 10 0 811
387 -10 0 1762 10 262 0
388 20 1532 1562 0 0 1005
389 -25 0 1692 10 585 0
390 -27 0 1737 10 656 0
391 9 0 1595 0 0 1026
392 12 412 442 0 0 1043
393 -10 0 1468 10 963 0
394 -18 0 1734 10 542 0
395 14 0 1504 10 0 936
396 -17 155 185 10 980 0
397 20 0 1750 10 0 421
398 -30 0 1471 10 594 0
399 23 0 1673 0 0 1022
400 -10 0 1535 10 553 0
401 28 0 1681 10 0 503
402 20 193 223 10 0 448
403 -23 0 1736 10 179 0
404 18 1342 1372 10 0 983
405 -10 0 1534 10 682 0
406 30 180 210 0 0 1037
407 -13 1449 1479 10 941 0
408 8 0 1775 10 0 178
409 10 0 1653 0 0 1024
410 -13 0 1581 10 238 0
411 -32 0 1484 10 688 0
412 28 0 1562 10 0 374
413 -13 882 912 10 520 0
414 -18 0 1587 10 191 0
415 30 0 1645 10 0 804
416 -18 784 814 10 334 0
417 -30 0 1665 10 538 0
418 5 0 1540 10 0 704
419 20 0 1521 10 0 74
420 10 0 1596 10 0 221
421 -20 0 1756 10 397 0
422 10 0 1564 10 0 20
423 -20 339 369 10 944 0
424 4 0 1629 10 0 575
425 10 0 1651 10 0 946
426 28 0 1647 10 0 537
427 20 0 1674 10 0 779
428 -22 0 1780 10 485 0
429 20 0 1618 10 0 726
430 -20 477 507 10 260 0
431 4 0 1675 10 0 483
432 10 0 1575 10 0 803
433 -31 0 1542 10 469 0
434 -10 0 1593 10 308 0
435 -10 0 1580 10 918 0
436 18 1226 1256 10 0 566
437 30 190 220 10 0 83
438 -3 0 1761 10 609 0
439 8 0 1521 10 0 641
440 35 0 1587 10 0 257
441 -20 258 288 10 449 0
442 -18 0 1611 10 716 0
443 5 756 786 10 0 79
444 10 340 370 10 0 774
445 -10 0 1561 10 757 0
446 30 0 1584 10 0 172
447 -20 0 1537 10 897 0
448 -20 0 1600 10 402 0
449 20 0 1662 10 0 441
450 20 0 1642 10 0 506
451 -10 0 1623 10 45 0
452 21 0 1768 10 0 229
453 -20 0 1537 10 184 0
454 20 0 1764 10 0 696
455 -16 0 1468 10 979 0
456 10 0 1586 10 0 24
457 -20 315 345 10 232 0
458 -10 0 1545 10 917 0
459 -10 656 686 10 877 0
460 -20 884 914 10 481 0
461 -14 0 1555 10 949 0
462 -10 433 463 10 925 0
463 -20 0 1575 10 573 0
464 21 0 1555 10 0 379
465 20 0 1757 10 0 648
466 -10 0 1554 10 741 0
467 20 287 317 10 0 129
468 9 0 1711 0 0 1016
469 31 0 1484 10 0 433
470 20 0 1590 10 0 140
471 27 0 1600 10 0 554
472 -20 258 288 10 216 0
473 -10 0 1660 10 895 0
474 -10 0 1578 10 56 0
475 20 0 1602 10 0 130
476 -30 490 520 10 94 0
477 -20 0 1722 10 992 0
478 -27 0 1793 10 952 0
479 -20 0 1682 10 144 0
480 -40 0 1582 10 886 0
481 20 0 1537 10 0 460
482 20 0 1669 10 0 339
483 -4 0 1543 10 431 0
484 -11 0 1615 10 795 0
485 22 0 1752 10 0 428
486 20 0 1560 10 0 5
487 -10 0 1565 10 189 0
488 -10 220 250 10 854 0
489 -10 0 1529 10 882 0
490 10 350 380 10 0 607
491 -30 0 1643 10 613 0
492 30 374 404 10 0 302
493 10 0 1617 10 0 517
494 27 0 1604 10 0 603
495 29 0 1689 10 0 353
496 25 0 1618 0 0 1021
497 -10 0 1566 10 383 0
498 25 0 1632 10 0 194
499 6 0 1626 10 0 631
500 20 392 422 10 0 849
501 -20 0 1732 10 809 0
502 20 0 1748 0 0 1042
503 -28 0 1674 10 401 0
504 -12 0 1616 10 921 0
505 10 334 364 10 0 196
506 -20 0 1630 10 450 0
507 18 0 1501 10 0 175
508 -30 536 566 10 868 0
509 -24 0 1689 10 29 0
510 22 0 1690 10 0 745
511 -9 0 1560 10 314 0
512 -12 0 1596 10 903 0
513 20 0 1576 10 0 822
514 27 0 1597 10 0 370
515 20 0 1681 10 0 317
516 10 216 246 10 0 691
517 -10 0 1616 10 493 0
518 -14 0 1681 10 532 0
519 20 0 1650 10 0 316
520 13 621 651 10 0 413
521 18 622 652 10 0 185
522 -20 0 1604 10 842 0
523 10 0 1633 10 0 732
524 -20 0 1593 10 862 0
525 -20 0 1550 10 681 0
526 20 0 1587 10 0 307
527 -20 766 796 10 948 0
528 -25 0 1752 10 276 0
529 20 0 1615 10 0 95
530 -13 0 1644 10 380 0
531 10 250 280 10 0 152
532 14 0 1734 10 0 518
533 -15 0 1662 10 935 0
534 -14 0 1661 10 70 0
535 10 0 1661 10 0 762
536 -10 0 1564 10 98 0
537 -28 0 1651 10 426 0
538 30 233 263 10 0 417
539 1 0 1727 10 0 287
540 -23 0 1600 10 836 0
541 19 547 577 10 0 315
542 18 1423 1453 10 0 394
543 -20 0 1736 10 984 0
544 -3 0 1604 10 188 0
545 -20 0 1652 10 604 0
546 20 0 1647 10 0 759
547 15 0 1514 10 0 810
548 13 0 1755 0 0 1036
549 -20 323 353 10 376 0
550 10 204 234 10 0 219
551 10 0 1496 10 0 784
552 -10 914 944 10 665 0
553 10 0 1538 10 0 400
554 -27 308 338 10 471 0
555 -20 336 366 10 590 0
556 3 0 1526 10 0 93
557 -19 0 1696 10 739 0
558 25 0 1684 10 0 871
559 -29 0 1560 10 760 0
560 15 0 1520 10 0 817
561 -20 266 296 10 972 0
562 -10 0 1537 10 814 0
563 5 0 1681 10 0 161
564 30 283 313 10 0 295
565 14 0 1589 10 0 43
566 -18 0 1653 10 436 0
567 -18 1136 1166 10 306 0
568 -20 0 1654 10 330 0
569 -10 0 1610 10 170 0
570 21 401 431 10 0 296
571 -9 0 1608 10 782 0
572 17 506 536 10 0 240
573 20 0 1519 10 0 463
574 10 0 1620 10 0 208
575 -4 0 1528 10 424 0
576 -10 268 298 10 729 0
577 20 0 1534 0 0 1009
578 19 0 1561 10 0 203
579 -15 0 1687 10 731 0
580 20 0 1594 10 0 104
581 -9 1354 1384 10 675 0
582 38 121 151 10 0 735
583 10 297 327 10 0 911
584 -20 0 1635 10 823 0
585 25 0 1709 10 0 389
586 -27 0 1556 10 62 0
587 -30 0 1538 10 976 0
588 -30 218 248 10 870 0
589 20 209 239 10 0 75
590 20 0 1496 10 0 555
591 18 0 1784 10 0 851
592 -20 0 1566 10 876 0
593 31 492 522 0 0 1025
594 30 0 1486 10 0 398
595 14 340 370 10 0 662
596 -14 1488 1518 10 286 0
597 -20 0 1590 10 343 0
598 14 0 1679 10 0 723
599 -18 0 1545 10 2 0
600 20 0 1569 10 0 352
601 25 0 1564 10 0 919
602 10 0 1608 10 0 382
603 -27 0 1674 10 494 0
604 20 261 291 10 0 545
605 -14 0 1607 10 39 0
606 -10 0 1761 10 661 0
607 -10 361 391 10 490 0
608 -10 0 1762 10 761 0
609 3 1457 1487 10 0 438
610 30 282 312 10 0 141
611 -30 0 1766 10 780 0
612 -10 1186 1216 10 220 0
613 30 216 246 10 0 491
614 20 0 1650 0 0 1031
615 -8 0 1583 10 833 0
616 20 0 1589 10 0 767
617 -20 0 1511 10 337 0
618 -29 0 1640 10 969 0
619 10 0 1636 10 0 738
620 11 0 1548 10 0 336
621 -10 991 1021 10 279 0
622 10 298 328 10 0 213
623 -14 0 1566 10 77 0
624 -16 0 1609 10 843 0
625 10 372 402 10 0 280
626 10 0 1498 10 0 112
627 15 436 466 10 0 259
628 -10 0 1652 10 956 0
629 -18 0 1557 10 277 0
630 -10 0 1645 10 684 0
631 -6 0 1558 10 499 0
632 12 0 1651 10 0 202
633 -20 0 1585 10 734 0
634 24 781 811 10 0 865
635 -27 0 1528 10 121 0
636 -20 0 1649 10 824 0
637 30 0 1654 10 0 327
638 -10 0 1550 10 951 0
639 -30 0 1582 10 366 0
640 30 0 1537 10 0 85
641 -8 0 1521 10 439 0
642 -18 0 1708 10 282 0
643 19 0 1608 10 0 341
644 -17 0 1598 10 727 0
645 -16 0 1694 10 679 0
646 -25 0 1586 10 697 0
647 -20 0 1546 10 58 0
648 -20 109 139 10 465 0
649 -20 0 1551 10 889 0
650 -12 0 1571 10 719 0
651 21 0 1643 10 0 769
652 -27 0 1508 10 84 0
653 14 0 1624 0 0 1017
654 10 267 297 10 0 126
655 -30 0 1654 10 850 0
656 27 617 647 10 0 390
657 19 0 1574 10 0 958
658 -10 0 1655 10 239 0
659 4 0 1487 10 0 950
660 20 100 130 10 0 687
661 10 46 76 10 0 606
662 -14 1459 1489 10 595 0
663 25 1193 1223 10 0 251
664 23 0 1619 0 0 1014
665 10 0 1531 10 0 552
666 -26 0 1548 10 986 0
667 23 0 1604 10 0 312
668 -25 742 772 10 998 0
669 29 235 265 10 0 840
670 -20 0 1731 10 136 0
671 10 0 1601 10 0 181
672 10 0 1554 10 0 703
673 -20 0 1614 10 234 0
674 -20 0 1553 10 709 0
675 9 0 1629 10 0 581
676 10 0 1540 10 0 781
677 -10 0 1601 10 143 0
678 -33 0 1676 10 364 0
679 16 0 1675 10 0 645
680 -36 176 206 10 746 0
681 20 0 1539 10 0 525
682 10 0 1531 10 0 405
683 -19 314 344 10 197 0
684 10 342 372 10 0 630
685 10 0 1650 10 0 971
686 -20 0 1649 10 64 0
687 -20 0 1766 10 660 0
688 32 0 1488 10 0 411
689 15 0 1607 10 0 695
690 30 0 1530 10 0 310
691 -10 0 1619 10 516 0
692 20 0 1656 10 0 82
693 10 200 230 10 0 957
694 -13 0 1619 10 228 0
695 -15 247 277 10 689 0
696 -20 0 1761 10 454 0
697 25 441 471 10 0 646
698 -11 0 1600 10 826 0
699 8 0 1732 10 0 174
700 -10 0 1609 10 119 0
701 27 0 1602 10 0 318
702 -20 0 1490 10 338 0
703 -10 0 1574 10 672 0
704 -5 311 341 10 418 0
705 10 0 1480 10 0 906
706 20 0 1533 10 0 349
707 -20 0 1748 10 273 0
708 -10 0 1617 10 156 0
709 20 394 424 10 0 674
710 -11 243 273 10 770 0
711 3 0 1621 10 0 325
712 -10 0 1709 10 959 0
713 25 0 1541 0 0 1013
714 10 0 1619 10 0 890
715 26 0 1757 10 0 755
716 18 253 283 10 0 442
717 -10 270 300 10 151 0
718 8 0 1498 10 0 80
719 12 0 1578 10 0 650
720 30 0 1537 10 0 290
721 -20 0 1632 10 326 0
722 -10 0 1601 10 288 0
723 -14 0 1674 10 598 0
724 -28 0 1632 10 110 0
725 8 0 1596 10 0 827
726 -20 0 1643 10 429 0
727 17 1476 1506 10 0 644
728 -22 0 1763 10 791 0
729 10 0 1557 10 0 576
730 -20 0 1516 10 365 0
731 15 0 1662 10 0 579
732 -10 0 1641 10 523 0
733 -10 238 268 10 236 0
734 20 0 1585 10 0 633
735 -38 0 1676 10 582 0
736 -30 0 1787 10 839 0
737 10 0 1603 10 0 322
738 -10 0 1654 10 619 0
739 19 0 1696 10 0 557
740 -20 0 1519 10 377 0
741 10 0 1556 10 0 466
742 5 0 1657 10 0 278
743 10 0 1654 10 0 303
744 -10 0 1560 10 32 0
745 -22 1440 1470 10 510 0
746 36 0 1737 10 0 680
747 -5 0 1599 10 923 0
748 10 0 1483 10 0 10
749 -11 0 1565 10 81 0
750 2 0 1587 10 0 36
751 2 604 634 10 0 210
752 -30 0 1595 10 788 0
753 30 334 364 0 0 1010
754 -32 0 1730 10 235 0
755 -26 0 1732 10 715 0
756 30 194 224 10 0 67
757 10 293 323 10 0 445
758 -20 1590 1620 10 177 0
759 -20 0 1647 10 546 0
760 29 0 1632 10 0 559
761 10 0 1756 10 0 608
762 -10 649 679 10 535 0
763 20 0 1658 10 0 885
764 20 109 139 10 0 249
765 10 0 1611 0 0 1028
766 14 0 1708 10 0 207
767 -20 0 1550 10 616 0
768 10 203 233 10 0 867
769 -21 0 1638 10 651 0
770 11 0 1670 10 0 710
771 -20 0 1602 10 360 0
772 -30 0 1735 10 793 0
773 16 600 630 10 0 8
774 -10 0 1491 10 444 0
775 -20 0 1570 10 212 0
776 7 0 1586 10 0 844
777 -7 0 1558 10 332 0
778 -24 0 1626 10 37 0
779 -20 185 215 10 427 0
780 30 0 1804 10 0 611
781 -10 1066 1096 10 676 0
782 9 0 1612 10 0 571
783 -20 0 1535 10 367 0
784 -10 411 441 10 551 0
785 -30 0 1555 10 362 0
786 -10 0 1648 10 103 0
787 30 226 256 10 0 320
788 30 0 1668 10 0 752
789 -20 0 1587 10 138 0
790 32 0 1654 10 0 853
791 22 0 1733 10 0 728
792 -20 0 1630 10 831 0
793 30 0 1734 10 0 772
794 -20 0 1806 10 102 0
795 11 0 1620 10 0 484
796 -24 0 1785 10 225 0
797 12 346 376 0 0 1023
798 -30 0 1605 10 982 0
799 10 234 264 10 0 932
800 -17 0 1690 10 28 0
801 -12 225 255 10 905 0
802 23 0 1652 10 0 90
803 -10 0 1545 10 432 0
804 -30 0 1648 10 415 0
805 15 0 1585 10 0 904
806 30 0 1645 10 0 87
807 20 194 224 10 0 53
808 16 0 1578 0 0 1011
809 20 0 1731 10 0 501
810 -15 0 1509 10 547 0
811 -30 0 1607 10 386 0
812 -20 0 1565 10 994 0
813 -30 0 1491 10 988 0
814 10 0 1538 10 0 562
815 -17 0 1605 10 133 0
816 25 0 1556 10 0 914
817 -15 0 1519 10 560 0
818 17 120 150 10 0 135
819 -10 0 1692 10 46 0
820 -21 0 1600 10 97 0
821 8 0 1622 10 0 346
822 -20 0 1574 10 513 0
823 20 0 1610 10 0 584
824 20 257 287 10 0 636
825 -31 243 273 10 160 0
826 11 0 1554 10 0 698
827 -8 0 1668 10 725 0
828 -10 0 1566 10 311 0
829 20 276 306 10 0 832
830 -20 0 1487 10 243 0
831 20 0 1610 10 0 792
832 -20 0 1554 10 829 0
833 8 0 1590 10 0 615
834 -18 0 1536 10 947 0
835 17 817 847 0 0 1040
836 23 226 256 10 0 540
837 -14 0 1595 10 187 0
838 20 208 238 10 0 997
839 30 0 1762 10 0 736
840 -29 0 1595 10 669 0
841 11 0 1535 0 0 1003
842 20 0 1599 10 0 522
843 16 0 1565 10 0 624
844 -7 0 1564 10 776 0
845 10 270 300 10 0 857
846 -26 166 196 10 252 0
847 10 0 1538 10 0 173
848 10 0 1558 10 0 281
849 -20 0 1495 10 500 0
850 30 0 1602 10 0 655
851 -18 0 1700 10 591 0
852 10 296 326 10 0 267
853 -32 0 1605 10 790 0
854 10 235 265 10 0 488
855 21 0 1671 0 0 1027
856 30 0 1665 10 0 3
857 -10 0 1514 10 845 0
858 19 0 1585 10 0 222
859 -20 361 391 10 33 0
860 -11 0 1772 10 154 0
861 -9 0 1572 10 139 0
862 20 0 1585 10 0 524
863 25 0 1693 10 0 258
864 -10 717 747 10 974 0
865 -24 0 1737 10 634 0
866 -10 0 1555 10 964 0
867 -10 0 1668 10 768 0
868 30 0 1600 10 0 508
869 20 0 1758 10 0 375
870 30 0 1612 10 0 588
871 -25 0 1652 10 558 0
872 10 37 67 10 0 253
873 -30 1457 1487 10 962 0
874 20 0 1498 10 0 168
875 -7 0 1635 10 92 0
876 20 0 1574 10 0 592
877 10 0 1660 10 0 459
878 34 1251 1281 10 0 361
879 20 0 1658 0 0 1030
880 8 1055 1085 10 0 128
881 15 0 1534 10 0 131
882 10 0 1514 10 0 489
883 -16 0 1617 10 48 0
884 10 0 1683 10 0 955
885 -20 0 1653 10 763 0
886 40 0 1584 10 0 480
887 -15 0 1733 10 11 0
888 30 0 1651 10 0 305
889 20 240 270 10 0 649
890 -10 0 1640 10 714 0
891 -23 0 1590 10 137 0
892 -10 0 1640 10 324 0
893 10 0 1573 10 0 25
894 20 0 1554 10 0 354
895 10 0 1664 10 0 473
896 -20 1139 1169 10 313 0
897 20 0 1541 10 0 447
898 20 0 1587 10 0 30
899 27 0 1572 0 0 1008
900 -20 0 1492 10 359 0
901 10 177 207 10 0 51
902 5 313 343 10 0 283
903 12 0 1575 10 0 512
904 -15 0 1601 10 805 0
905 12 0 1670 10 0 801
906 -10 0 1482 10 705 0
907 -30 0 1650 10 241 0
908 25 0 1579 0 0 1019
909 -20 0 1561 10 275 0
910 10 144 174 10 0 217
911 -10 794 824 10 583 0
912 -20 0 1768 10 350 0
913 -8 0 1557 10 300 0
914 -25 0 1540 10 816 0
915 30 0 1520 0 0 1007
916 20 0 1542 10 0 165
917 10 0 1559 10 0 458
918 10 276 306 10 0 435
919 -25 534 564 10 601 0
920 -10 342 372 10 356 0
921 12 207 237 10 0 504
922 -15 1438 1468 10 242 0
923 5 47 77 10 0 747
924 -20 0 1638 10 368 0
925 10 0 1498 10 0 462
926 -20 0 1541 10 269 0
927 -20 1253 1283 10 42 0
928 20 126 156 10 0 86
929 29 0 1569 10 0 134
930 17 0 1780 0 0 1039
931 -20 0 1647 10 78 0
932 -10 0 1644 10 799 0
933 -20 0 1658 10 38 0
934 -36 0 1668 10 49 0
935 15 643 673 10 0 533
936 -14 1048 1078 10 395 0
937 -10 0 1547 10 940 0
938 30 0 1590 10 0 76
939 30 0 1541 10 0 123
940 10 0 1498 10 0 937
941 13 0 1616 10 0 407
942 -10 0 1588 10 176 0
943 -3 0 1506 10 100 0
944 20 0 1515 10 0 423
945 -21 0 1726 10 271 0
946 -10 0 1653 10 425 0
947 18 0 1537 10 0 834
948 20 0 1580 10 0 527
949 14 0 1503 10 0 461
950 -4 366 396 10 659 0
951 10 0 1548 10 0 638
952 27 0 1644 10 0 478
953 -10 0 1542 10 199 0
954 -5 0 1487 10 978 0
955 -10 224 254 10 884 0
956 10 0 1713 10 0 628
957 -10 904 934 10 693 0
958 -19 0 1670 10 657 0
959 10 0 1638 10 0 712
960 10 0 1734 10 0 347
961 30 0 1660 10 0 182
962 30 0 1733 10 0 873
963 10 313 343 10 0 393
964 10 330 360 10 0 866
965 15 0 1574 10 0 373
966 10 0 1485 10 0 264
967 20 0 1500 10 0 145
968 -10 0 1755 10 127 0
969 29 0 1629 10 0 618
970 10 0 1478 10 0 111
971 -10 0 1572 10 685 0
972 20 0 1621 10 0 561
973 -21 0 1501 10 186 0
974 10 0 1654 10 0 864
975 -10 0 1659 10 355 0
976 30 0 1498 10 0 587
977 -10 0 1755 10 162 0
978 5 0 1553 10 0 954
979 16 0 1571 10 0 455
980 17 0 1692 10 0 396
981 -10 0 1537 10 158 0
982 30 0 1610 10 0 798
983 -18 0 1585 10 404 0
984 20 0 1737 10 0 543
985 -18 0 1640 10 284 0
986 26 0 1532 10 0 666
987 20 0 1562 10 0 40
988 30 0 1539 10 0 813
989 -8 0 1595 10 996 0
990 15 96 126 0 0 1038
991 -5 0 1534 10 323 0
992 20 0 1797 10 0 477
993 22 0 1713 10 0 285
994 20 0 1561 10 0 812
995 27 1568 1598 10 0 55
996 8 0 1578 10 0 989
997 -20 245 275 10 838 0
998 25 0 1638 10 0 668
999 -20 0 1485 10 289 0
1000 -7 0 1497 10 291 0
1001 10 224 254 0 0 1006
1002 -30 0 1490 10 214 0
1003 -11 0 1535 10 841 0
1004 -20 467 497 10 381 0
1005 -20 1532 1562 10 388 0
1006 -10 224 254 10 1001 0
1007 -30 0 1520 10 915 0
1008 -27 0 1572 10 899 0
1009 -20 0 1534 10 577 0
1010 -30 334 364 10 753 0
1011 -16 0 1578 10 808 0
1012 -30 0 1485 10 109 0
1013 -25 0 1541 10 713 0
1014 -23 0 1619 10 664 0
1015 -20 0 1524 10 122 0
1016 -9 0 1711 10 468 0
1017 -14 0 1624 10 653 0
1018 -12 0 1685 10 247 0
1019 -25 0 1579 10 908 0
1020 -33 1681 1711 10 116 0
1021 -25 0 1618 10 496 0
1022 -23 0 1673 10 399 0
1023 -12 346 376 10 797 0
1024 -10 0 1653 10 409 0
1025 -31 492 522 10 593 0
1026 -9 0 1595 10 391 0
1027 -21 0 1671 10 855 0
1028 -10 0 1611 10 765 0
1029 -24 0 1680 10 167 0
1030 -20 0 1658 10 879 0
1031 -20 0 1650 10 614 0
1032 -7 0 1532 10 73 0
1033 -4 399 429 10 65 0
1034 -23 0 1736 10 7 0
1035 -20 0 1664 10 211 0
1036 -13 0 1755 10 548 0
1037 -30 180 210 10 406 0
1038 -15 96 126 10 990 0
1039 -17 0 1780 10 930 0
1040 -17 817 847 10 835 0
1041 -26 39 69 10 245 0
1042 -20 0 1748 10 502 0
1043 -12 412 442 10 392 0
DEPOT_SECTION
1
-1
EOF
