NAME: lrc1_10_10
TYPE: PDPTW
COMMENT: Li & Lim PDPTW benchmark converted from SINTEF format
DIMENSION: 1045
VEHICLES: 250
CAPACITY: 200
EDGE_WEIGHT_TYPE: EUC_2D
NODE_COORD_SECTION
1 250 250
2 440 436
3 214 394
4 476 483
5 352 487
6 230 197
7 175 239
8 133 202
9 328 458
10 25 499
11 226 423
12 313 282
13 60 454
14 239 486
15 102 264
16 408 452
17 451 62
18 203 390
19 92 233
20 7 300
21 409 90
22 307 108
23 347 54
24 406 87
25 371 332
26 116 466
27 441 265
28 130 140
29 80 117
30 421 387
31 83 300
32 136 52
33 18 462
34 390 120
35 188 119
36 467 114
37 440 292
38 268 400
39 391 202
40 377 432
41 80 290
42 439 15
43 307 52
44 111 192
45 131 56
46 88 286
47 69 414
48 41 232
49 323 77
50 340 416
51 86 199
52 314 124
53 375 191
54 226 175
55 242 106
56 417 417
57 419 459
58 389 11
59 450 416
60 246 255
61 71 333
62 105 474
63 20 489
64 388 331
65 92 259
66 200 261
67 400 288
68 299 285
69 378 199
70 325 147
71 421 386
72 404 447
73 412 478
74 26 67
75 358 183
76 30 302
77 176 470
78 96 270
79 243 408
80 60 29
81 34 169
82 407 280
83 277 403
84 498 456
85 384 491
86 355 174
87 97 288
88 316 284
89 334 403
90 415 223
91 230 320
92 432 199
93 92 18
94 273 300
95 269 112
96 429 389
97 371 71
98 5 297
99 414 378
100 38 15
101 2 295
102 237 254
103 54 445
104 382 110
105 438 488
106 395 331
107 230 487
108 249 407
109 488 26
110 151 81
111 483 14
112 0 422
113 429 67
114 195 464
115 356 256
116 264 180
117 94 235
118 474 96
119 268 52
120 44 440
121 7 382
122 459 53
123 491 25
124 439 243
125 210 185
126 150 68
127 201 270
128 0 188
129 103 464
130 325 56
131 44 344
132 418 75
133 472 57
134 460 328
135 89 270
136 374 190
137 463 253
138 97 93
139 163 472
140 29 336
141 84 453
142 294 421
143 343 62
144 371 193
145 142 372
146 66 88
147 395 332
148 93 413
149 267 394
150 249 258
151 472 129
152 87 3
153 62 326
154 212 186
155 241 402
156 439 266
157 79 80
158 62 453
159 188 151
160 386 154
161 38 301
162 192 265
163 371 192
164 64 294
165 381 494
166 437 12
167 186 135
168 459 10
169 175 422
170 274 48
171 488 173
172 398 97
173 385 17
174 180 283
175 71 12
176 343 49
177 248 251
178 7 194
179 322 290
180 410 399
181 398 103
182 385 285
183 179 497
184 464 13
185 492 335
186 27 464
187 231 29
188 157 38
189 439 268
190 149 214
191 187 73
192 429 169
193 350 199
194 60 231
195 448 404
196 481 20
197 436 25
198 111 459
199 389 17
200 148 208
201 475 477
202 390 325
203 346 354
204 91 266
205 17 65
206 391 112
207 224 203
208 426 231
209 260 472
210 265 0
211 391 293
212 411 421
213 132 30
214 475 480
215 286 244
216 436 237
217 402 284
218 287 397
219 272 420
220 477 120
221 145 434
222 33 286
223 370 262
224 393 20
225 330 308
226 246 398
227 482 184
228 451 305
229 226 316
230 110 459
231 244 250
232 458 16
233 390 34
234 423 214
235 219 215
236 326 118
237 365 74
238 331 356
239 210 398
240 403 93
241 248 404
242 65 62
243 460 13
244 0 293
245 211 248
246 484 174
247 175 352
248 455 168
249 224 191
250 439 156
251 434 359
252 118 314
253 234 246
254 406 450
255 75 118
256 115 395
257 329 456
258 218 403
259 149 341
260 253 74
261 436 241
262 238 203
263 405 455
264 485 27
265 323 118
266 330 371
267 25 65
268 406 96
269 49 451
270 307 249
271 178 135
272 299 353
273 236 213
274 355 177
275 394 23
276 306 235
277 90 477
278 379 486
279 435 16
280 8 497
281 150 484
282 213 399
283 391 18
284 111 392
285 330 281
286 344 203
287 91 235
288 346 60
289 483 27
290 382 498
291 457 492
292 291 213
293 154 374
294 225 196
295 94 40
296 0 356
297 297 283
298 371 423
299 417 217
300 500 228
301 412 214
302 442 289
303 157 269
304 440 241
305 100 266
306 111 178
307 91 101
308 25 307
309 135 400
310 58 458
311 133 26
312 211 386
313 94 97
314 30 155
315 208 184
316 394 333
317 355 180
318 241 180
319 21 485
320 80 251
321 476 61
322 406 94
323 364 71
324 418 221
325 274 441
326 304 97
327 297 102
328 250 405
329 111 463
330 408 279
331 263 418
332 480 119
333 420 383
334 142 14
335 73 328
336 50 438
337 441 7
338 462 14
339 360 294
340 58 39
341 58 391
342 410 285
343 96 97
344 21 64
345 238 210
346 479 121
347 200 178
348 216 341
349 48 437
350 200 270
351 357 181
352 476 174
353 400 286
354 351 481
355 270 400
356 95 234
357 128 113
358 133 455
359 16 463
360 59 388
361 376 190
362 481 122
363 266 405
364 374 232
365 398 20
366 481 26
367 63 444
368 89 290
369 246 314
370 40 304
371 262 369
372 323 29
373 89 65
374 144 35
375 200 265
376 436 264
377 15 457
378 397 20
379 328 491
380 399 175
381 432 2
382 63 336
383 6 296
384 146 376
385 295 247
386 235 33
387 233 204
388 142 360
389 177 156
390 315 287
391 452 172
392 263 153
393 493 493
394 320 283
395 64 5
396 95 235
397 203 211
398 16 497
399 348 348
400 485 104
401 330 147
402 443 237
403 316 286
404 335 46
405 381 495
406 364 173
407 267 162
408 214 245
409 92 234
410 347 459
411 30 7
412 120 37
413 397 153
414 210 29
415 87 285
416 132 32
417 390 294
418 67 451
419 24 68
420 146 439
421 209 212
422 6 292
423 18 63
424 149 98
425 91 268
426 103 177
427 367 178
428 225 269
429 443 246
430 306 42
431 374 306
432 413 421
433 470 405
434 33 278
435 149 458
436 257 57
437 272 403
438 221 291
439 1 101
440 332 459
441 220 392
442 253 50
443 250 441
444 471 484
445 480 152
446 404 83
447 476 94
448 458 213
449 215 395
450 85 288
451 179 75
452 228 287
453 397 18
454 238 204
455 488 3
456 407 88
457 459 14
458 120 17
459 235 316
460 370 382
461 405 454
462 17 458
463 43 135
464 318 497
465 199 268
466 111 467
467 138 438
468 172 314
469 494 468
470 35 303
471 341 59
472 423 221
473 395 295
474 413 417
475 339 60
476 277 428
477 176 199
478 265 240
479 365 190
480 133 53
481 387 488
482 385 295
483 491 369
484 445 273
485 195 273
486 313 493
487 495 227
488 241 403
489 30 72
490 21 487
491 324 99
492 453 318
493 443 272
494 447 184
495 366 288
496 440 284
497 13 314
498 72 227
499 377 385
500 477 478
501 204 185
502 226 191
503 330 138
504 185 434
505 483 22
506 71 282
507 60 5
508 189 402
509 134 211
510 146 313
511 21 146
512 37 281
513 416 417
514 44 311
515 361 181
516 444 242
517 444 271
518 359 179
519 388 334
520 401 164
521 499 316
522 399 106
523 425 215
524 407 98
525 406 460
526 88 95
527 95 64
528 306 229
529 273 55
530 384 149
531 122 35
532 308 199
533 390 301
534 300 108
535 267 400
536 8 300
537 105 181
538 398 325
539 166 247
540 140 431
541 253 118
542 359 246
543 321 277
544 168 59
545 406 285
546 391 334
547 437 19
548 201 278
549 435 267
550 245 408
551 16 462
552 107 374
553 477 97
554 346 57
555 14 459
556 102 6
557 359 287
558 297 131
559 282 1
560 21 70
561 440 244
562 482 104
563 120 261
564 125 29
565 292 32
566 262 92
567 68 160
568 405 276
569 277 50
570 32 319
571 344 70
572 481 84
573 21 68
574 441 244
575 57 43
576 1 293
577 481 96
578 471 368
579 236 126
580 406 99
581 303 186
582 225 369
583 412 453
584 104 349
585 173 182
586 111 464
587 53 440
588 69 336
589 359 182
590 13 459
591 244 277
592 484 177
593 452 206
594 22 483
595 452 110
596 347 192
597 95 92
598 368 311
599 479 387
600 479 169
601 497 266
602 66 336
603 376 195
604 401 281
605 441 177
606 231 203
607 21 488
608 231 204
609 122 422
610 65 453
611 206 261
612 466 149
613 313 119
614 90 274
615 39 162
616 35 306
617 437 15
618 307 412
619 79 291
620 64 437
621 376 92
622 129 27
623 196 489
624 51 286
625 20 488
626 13 455
627 170 347
628 92 230
629 117 467
630 413 217
631 405 450
632 394 322
633 125 61
634 238 123
635 11 403
636 89 272
637 304 102
638 478 121
639 408 84
640 376 494
641 20 73
642 159 299
643 95 382
644 352 63
645 365 274
646 30 301
647 351 5
648 197 267
649 498 171
650 468 352
651 418 251
652 489 437
653 251 63
654 132 55
655 281 96
656 333 293
657 255 487
658 207 400
659 469 489
660 244 254
661 233 207
662 441 60
663 411 379
664 178 72
665 51 447
666 478 118
667 141 426
668 295 89
669 112 433
670 320 211
671 400 103
672 408 453
673 435 180
674 432 66
675 374 116
676 478 102
677 335 57
678 385 239
679 386 245
680 208 396
681 380 489
682 380 498
683 440 7
684 434 245
685 90 232
686 389 334
687 241 205
688 18 24
689 57 183
690 59 457
691 442 243
692 402 281
693 445 237
694 441 273
695 31 175
696 234 202
697 52 303
698 167 445
699 179 286
700 269 48
701 165 59
702 461 8
703 421 415
704 59 459
705 24 492
706 55 449
707 224 192
708 444 269
709 491 20
710 313 126
711 283 438
712 352 241
713 398 476
714 442 247
715 217 207
716 233 87
717 479 127
718 6 53
719 478 300
720 378 493
721 303 78
722 344 62
723 371 315
724 200 78
725 413 391
726 415 216
727 397 57
728 293 228
729 0 297
730 435 20
731 195 111
732 417 218
733 340 54
734 132 57
735 210 379
736 228 260
737 399 104
738 95 277
739 360 284
740 53 466
741 112 465
742 313 391
743 93 235
744 125 32
745 215 282
746 224 320
747 134 428
748 26 490
749 44 115
750 438 127
751 239 15
752 342 54
753 109 463
754 199 187
755 201 188
756 399 301
757 484 171
758 272 234
759 380 350
760 140 108
761 228 199
762 245 461
763 305 107
764 231 195
765 450 265
766 273 149
767 12 358
768 315 121
769 420 213
770 331 134
771 84 377
772 320 280
773 89 185
774 472 481
775 422 420
776 475 267
777 470 125
778 435 268
779 409 155
780 243 248
781 488 96
782 341 72
783 58 449
784 16 460
785 480 136
786 162 388
787 47 208
788 324 127
789 87 96
790 140 137
791 314 205
792 96 346
793 321 280
794 245 251
795 436 295
796 274 261
797 271 128
798 275 45
799 422 409
800 146 188
801 93 96
802 409 255
803 449 428
804 90 285
805 415 95
806 88 287
807 379 196
808 368 452
809 202 186
810 435 11
811 269 46
812 7 292
813 44 496
814 478 99
815 391 99
816 132 477
817 24 65
818 130 247
819 133 273
820 347 62
821 404 140
822 416 420
823 67 335
824 92 270
825 411 95
826 132 479
827 366 334
828 125 39
829 419 422
830 460 2
831 67 334
832 448 414
833 46 163
834 77 465
835 284 319
836 102 422
837 240 34
838 141 428
839 204 269
840 144 439
841 470 417
842 404 103
843 5 281
844 487 320
845 398 23
846 90 296
847 386 13
848 115 465
849 473 475
850 275 42
851 286 356
852 15 69
853 267 44
854 243 399
855 390 249
856 210 391
857 433 15
858 24 259
859 12 463
860 237 213
861 182 480
862 409 88
863 244 368
864 381 328
865 213 185
866 482 141
867 319 124
868 141 431
869 198 264
870 69 334
871 299 98
872 240 250
873 199 203
874 459 17
875 423 217
876 477 179
877 213 397
878 405 187
879 269 402
880 53 204
881 13 394
882 15 68
883 56 268
884 360 184
885 307 102
886 130 57
887 250 328
888 91 231
889 479 176
890 420 224
891 461 182
892 418 218
893 419 418
894 336 493
895 389 300
896 92 76
897 476 102
898 418 399
899 109 56
900 13 465
901 92 232
902 394 47
903 16 287
904 399 102
905 143 158
906 18 484
907 250 411
908 19 273
909 365 28
910 387 297
911 433 447
912 214 274
913 489 338
914 130 494
915 23 67
916 374 489
917 126 30
918 112 467
919 489 274
920 61 214
921 166 440
922 56 75
923 210 276
924 80 286
925 17 459
926 66 448
927 351 128
928 352 176
929 490 286
930 247 219
931 86 268
932 398 329
933 272 402
934 317 123
935 408 318
936 66 31
937 425 448
938 35 304
939 471 94
940 470 473
941 224 56
942 343 47
943 52 18
944 16 68
945 195 185
946 92 236
947 76 462
948 124 56
949 481 454
950 477 483
951 481 124
952 389 156
953 384 16
954 492 34
955 371 200
956 153 235
957 428 202
958 257 391
959 421 218
960 206 186
961 393 301
962 204 187
963 468 475
964 477 122
965 100 66
966 489 27
967 12 451
968 197 270
969 311 422
970 489 17
971 13 214
972 440 247
973 28 467
974 388 325
975 270 401
976 5 445
977 198 271
978 480 131
979 437 98
980 131 246
981 49 437
982 270 49
983 337 41
984 318 280
985 154 392
986 493 111
987 399 450
988 67 452
989 34 239
990 343 276
991 393 12
992 236 247
993 340 291
994 3 292
995 209 68
996 18 225
997 147 435
998 335 99
999 485 24
1000 470 475
1001 341 58
1002 473 475
1003 102 6
1004 498 456
1005 476 61
1006 445 273
1007 5 445
1008 435 20
1009 140 137
1010 13 214
1011 477 97
1012 387 488
1013 468 352
1014 365 190
1015 163 472
1016 125 39
1017 195 464
1018 413 421
1019 299 353
1020 224 56
1021 64 294
1022 240 34
1023 306 229
1024 111 392
1025 142 372
1026 52 303
1027 199 187
1028 439 266
1029 178 135
1030 397 153
1031 244 368
1032 365 274
1033 307 102
1034 418 251
1035 91 266
1036 105 181
1037 319 124
1038 213 397
1039 371 315
1040 333 293
1041 264 180
1042 366 288
1043 201 270
1044 231 204
1045 217 207
PICKUP_AND_DELIVERY_SECTION
1 0 0 1821 0 0 0
2 18 832 982 10 0 803
3 10 171 321 10 0 735
4 -20 324 474 10 201 0
5 -22 842 992 10 278 0
6 40 62 212 10 0 249
7 -10 75 225 10 375 0
8 -22 401 551 10 200 0
9 -10 708 858 10 83 0
10 -30 385 535 10 319 0
11 -20 174 324 10 441 0
12 20 103 253 10 0 984
13 10 287 437 10 0 158
14 -20 1422 1572 10 466 0
15 -10 148 298 10 956 0
16 -10 256 406 10 298 0
17 5 275 425 10 0 366
18 -20 147 297 10 312 0
19 10 164 314 10 0 615
20 30 285 435 10 0 536
21 20 225 375 10 0 446
22 10 177 327 10 0 326
23 10 235 385 10 0 554
24 10 253 403 10 0 770
25 14 470 620 10 0 827
26 -10 254 404 10 848 0
27 40 191 341 10 0 216
28 17 162 312 10 0 138
29 24 764 914 10 0 760
30 -17 741 891 10 932 0
31 -10 440 590 10 619 0
32 10 233 383 10 0 311
33 -32 338 488 10 813 0
34 -9 944 1094 10 478 0
35 -15 915 1065 10 731 0
36 10 316 466 10 0 332
37 -11 880 1030 10 795 0
38 20 183 333 10 0 325
39 14 148 298 10 0 391
40 -6 771 921 10 499 0
41 -30 174 324 10 806 0
42 -10 301 451 10 168 0
43 -27 860 1010 10 471 0
44 -10 1139 1289 10 409 0
45 -40 227 377 10 886 0
46 10 192 342 10 0 303
47 -4 1203 1353 10 349 0
48 16 209 359 10 0 689
49 -30 1345 1495 10 677 0
50 36 261 411 10 0 808
51 23 218 368 10 0 146
52 20 171 321 10 0 236
53 -30 138 288 10 163 0
54 23 1583 1733 10 0 318
55 28 1208 1358 10 0 766
56 10 272 422 10 0 474
57 -10 268 418 10 583 0
58 -9 276 426 10 909 0
59 -15 517 667 10 195 0
60 -30 53 203 10 780 0
61 -20 197 347 10 846 0
62 27 411 561 10 0 698
63 -10 331 481 10 625 0
64 20 160 310 10 0 759
65 -20 339 489 10 161 0
66 10 106 256 10 0 869
67 30 154 304 10 0 217
68 -29 1194 1344 10 71 0
69 -10 147 297 10 603 0
70 -18 1127 1277 10 503 0
71 29 764 914 10 0 68
72 20 250 400 10 0 911
73 7 900 1050 10 0 461
74 -30 1257 1407 10 915 0
75 20 174 324 10 0 884
76 10 226 376 10 0 383
77 -20 487 637 10 997 0
78 -20 155 305 10 819 0
79 -10 1374 1524 10 550 0
80 32 1303 1453 10 0 157
81 -20 424 574 10 628 0
82 10 159 309 10 0 694
83 10 155 305 10 0 9
84 27 1339 1489 0 0 1004
85 20 288 438 10 0 681
86 -11 655 805 10 430 0
87 -17 1224 1374 10 818 0
88 20 74 224 10 0 225
89 26 174 324 10 0 657
90 -10 245 395 10 732 0
91 -5 1132 1282 10 443 0
92 7 579 729 10 0 192
93 -32 1064 1214 10 688 0
94 -20 55 205 10 660 0
95 -23 1203 1353 10 668 0
96 18 364 514 10 0 433
97 21 227 377 10 0 237
98 -20 271 421 10 616 0
99 -30 435 585 10 538 0
100 3 1031 1181 10 0 152
101 -10 252 402 10 422 0
102 -10 23 173 10 872 0
103 10 276 426 10 0 665
104 24 1052 1202 10 0 532
105 18 303 453 10 0 291
106 -10 166 316 10 974 0
107 20 1070 1220 10 0 623
108 -15 157 307 10 371 0
109 -10 373 523 10 970 0
110 -4 1466 1616 10 424 0
111 10 331 481 10 0 505
112 -20 761 911 10 377 0
113 16 672 822 10 0 621
114 20 1441 1591 0 0 1017
115 19 106 256 10 0 482
116 33 1590 1740 0 0 1041
117 -10 156 306 10 356 0
118 30 271 421 10 0 999
119 10 246 396 10 0 569
120 24 729 879 10 0 183
121 -14 710 860 10 497 0
122 20 1062 1212 10 0 133
123 -20 349 499 10 289 0
124 20 254 404 10 0 574
125 20 76 226 10 0 315
126 23 363 513 10 0 664
127 10 52 202 0 0 1043
128 -16 872 1022 10 989 0
129 -6 1213 1363 10 914 0
130 -10 736 886 10 820 0
131 -20 1019 1169 10 382 0
132 -10 388 538 10 639 0
133 -20 1235 1385 10 122 0
134 13 224 374 10 0 578
135 -10 162 312 10 425 0
136 20 137 287 10 0 361
137 -20 987 1137 10 487 0
138 -17 219 369 10 28 0
139 9 593 743 0 0 1015
140 22 272 422 10 0 881
141 -18 1163 1313 10 947 0
142 -29 1485 1635 10 969 0
143 10 297 447 10 0 782
144 20 133 283 10 0 807
145 18 162 312 0 0 1025
146 -23 770 920 10 51 0
147 -30 166 316 10 202 0
148 17 226 376 10 0 341
149 10 199 349 10 0 241
150 -20 67 217 10 177 0
151 10 252 402 10 0 362
152 -3 1366 1516 10 100 0
153 -20 226 376 10 335 0
154 -18 1587 1737 10 416 0
155 -40 965 1115 10 226 0
156 10 189 339 0 0 1028
157 -32 1322 1472 10 80 0
158 -10 276 426 10 13 0
159 -10 1237 1387 10 622 0
160 -13 1041 1191 10 380 0
161 20 236 386 10 0 65
162 10 64 214 10 0 873
163 30 134 284 10 0 53
164 12 1041 1191 0 0 1021
165 -10 276 426 10 682 0
166 -5 302 452 10 902 0
167 24 658 808 10 0 653
168 10 318 468 10 0 42
169 -20 1386 1536 10 221 0
170 10 203 353 10 0 850
171 -20 250 400 10 889 0
172 10 212 362 10 0 998
173 -10 749 899 10 283 0
174 23 684 834 10 0 591
175 2 297 447 10 0 943
176 -12 221 371 10 721 0
177 20 2 152 10 0 150
178 -19 891 1041 10 858 0
179 -23 1419 1569 10 399 0
180 25 218 368 10 0 898
181 30 218 368 10 0 815
182 -10 808 958 10 533 0
183 -24 1351 1501 10 120 0
184 -20 325 475 10 874 0
185 -10 768 918 10 189 0
186 -9 1231 1381 10 740 0
187 -18 1166 1316 10 559 0
188 -18 988 1138 10 334 0
189 10 238 388 10 0 185
190 7 422 572 10 0 260
191 18 232 382 10 0 544
192 -7 843 993 10 92 0
193 -27 1141 1291 10 952 0
194 -14 966 1116 10 320 0
195 15 539 689 10 0 59
196 -20 325 475 10 232 0
197 -20 1222 1372 10 243 0
198 -20 299 449 10 838 0
199 -10 306 456 10 991 0
200 22 466 616 10 0 8
201 20 345 495 10 0 4
202 30 191 341 10 0 147
203 8 757 907 10 0 285
204 10 173 323 0 0 1035
205 20 297 447 10 0 267
206 -20 940 1090 10 904 0
207 20 53 203 10 0 392
208 -10 968 1118 10 301 0
209 -35 976 1126 10 440 0
210 -14 836 986 10 565 0
211 -10 166 316 10 895 0
212 -8 255 405 10 725 0
213 20 266 416 10 0 414
214 -10 321 471 10 963 0
215 -12 1224 1374 10 385 0
216 -40 186 336 10 27 0
217 -30 155 305 10 67 0
218 -10 504 654 10 933 0
219 -7 1326 1476 10 476 0
220 -30 282 432 10 825 0
221 20 211 361 10 0 169
222 -30 1442 1592 10 244 0
223 15 1039 1189 10 0 542
224 -10 331 481 10 847 0
225 -20 1110 1260 10 88 0
226 40 148 298 10 0 155
227 14 1047 1197 10 0 649
228 -10 208 358 10 493 0
229 21 70 220 10 0 887
230 30 288 438 10 0 753
231 10 6 156 10 0 992
232 20 313 463 10 0 196
233 7 1000 1150 10 0 581
234 -20 176 326 10 892 0
235 32 46 196 10 0 960
236 -20 152 302 10 52 0
237 -21 788 938 10 97 0
238 13 652 802 10 0 598
239 -18 153 303 10 282 0
240 -10 281 431 10 322 0
241 -10 154 304 10 149 0
242 15 916 1066 10 0 922
243 20 316 466 10 0 197
244 30 253 403 10 0 222
245 26 39 189 10 0 611
246 -10 246 396 10 757 0
247 -11 1535 1685 10 786 0
248 -31 807 957 10 593 0
249 -40 64 214 10 6 0
250 -19 466 616 10 779 0
251 -10 1332 1482 10 517 0
252 -20 278 428 10 977 0
253 10 16 166 10 0 548
254 20 253 403 10 0 263
255 -30 349 499 10 789 0
256 -9 755 905 10 985 0
257 19 220 370 10 0 379
258 -10 1259 1409 10 488 0
259 6 344 494 10 0 627
260 -7 1290 1440 10 190 0
261 -20 267 417 10 972 0
262 10 48 198 10 0 345
263 -20 281 431 10 254 0
264 10 386 536 10 0 966
265 -20 150 300 10 934 0
266 -22 499 649 10 993 0
267 -20 316 466 10 205 0
268 -10 219 369 10 524 0
269 20 284 434 10 0 367
270 -24 1317 1467 10 557 0
271 21 1454 1604 0 0 1029
272 34 114 264 0 0 1019
273 20 39 189 10 0 502
274 -20 127 277 10 515 0
275 -20 344 494 10 953 0
276 25 57 207 10 0 758
277 18 277 427 10 0 336
278 22 612 762 10 0 5
279 10 307 457 10 0 547
280 -10 348 498 10 490 0
281 16 565 715 10 0 358
282 18 174 324 10 0 239
283 10 318 468 10 0 173
284 18 1109 1259 0 0 1024
285 -8 1270 1420 10 203 0
286 14 107 257 10 0 406
287 10 209 359 10 0 498
288 -10 261 411 10 1001 0
289 20 398 548 10 0 123
290 -30 280 430 10 640 0
291 -18 448 598 10 105 0
292 -30 1198 1348 10 317 0
293 -23 877 1027 10 667 0
294 10 59 209 10 0 707
295 -16 1008 1158 10 373 0
296 13 1026 1176 10 0 767
297 -30 1289 1439 10 403 0
298 10 211 361 10 0 16
299 30 170 320 10 0 802
300 8 722 872 10 0 776
301 10 165 315 10 0 208
302 25 195 345 10 0 339
303 -10 1516 1666 10 46 0
304 10 241 391 10 0 691
305 20 150 300 10 0 415
306 -35 156 306 10 509 0
307 -20 238 388 10 526 0
308 10 232 382 10 0 570
309 20 239 389 10 0 771
310 10 283 433 10 0 690
311 -10 252 402 10 32 0
312 20 141 291 10 0 18
313 -20 218 368 10 343 0
314 -10 1220 1370 10 641 0
315 -20 78 228 10 125 0
316 20 166 316 10 0 546
317 30 126 276 10 0 292
318 -23 1591 1741 10 54 0
319 30 328 478 10 0 10
320 14 244 394 10 0 194
321 36 389 539 0 0 1005
322 10 220 370 10 0 240
323 5 1288 1438 10 0 727
324 10 231 381 10 0 678
325 -20 635 785 10 38 0
326 -10 162 312 10 22 0
327 10 155 305 10 0 637
328 20 155 305 10 0 854
329 20 262 412 10 0 629
330 20 160 310 10 0 342
331 -20 218 368 10 879 0
332 -10 568 718 10 36 0
333 27 922 1072 10 0 663
334 18 775 925 10 0 188
335 20 193 343 10 0 153
336 -18 277 427 10 277 0
337 -10 332 482 10 453 0
338 20 337 487 10 0 455
339 -25 1358 1508 10 302 0
340 -26 1103 1253 10 633 0
341 -17 822 972 10 148 0
342 -20 163 313 10 330 0
343 20 217 367 10 0 313
344 -10 295 445 10 852 0
345 -10 74 224 10 262 0
346 10 262 412 10 0 785
347 -20 87 237 10 501 0
348 -10 594 744 10 508 0
349 4 744 894 10 0 47
350 20 53 203 10 0 510
351 -20 127 277 10 589 0
352 30 264 414 10 0 600
353 10 154 304 10 0 604
354 10 262 412 10 0 405
355 10 151 301 10 0 958
356 10 155 305 10 0 117
357 -25 303 453 10 389 0
358 -16 748 898 10 281 0
359 20 316 466 10 0 973
360 -19 603 753 10 643 0
361 -20 139 289 10 136 0
362 -10 264 414 10 151 0
363 20 157 307 10 0 762
364 33 125 275 10 0 957
365 20 273 423 10 0 845
366 -5 321 471 10 17 0
367 -20 320 470 10 269 0
368 -20 165 315 10 738 0
369 -21 1385 1535 10 452 0
370 -30 1085 1235 10 938 0
371 15 119 269 10 0 108
372 7 1077 1227 10 0 404
373 16 660 810 10 0 295
374 26 239 389 10 0 995
375 10 92 242 10 0 7
376 20 186 336 10 0 429
377 20 313 463 10 0 112
378 20 272 422 10 0 683
379 -19 618 768 10 257 0
380 13 687 837 10 0 160
381 -20 407 557 10 857 0
382 20 206 356 10 0 131
383 -10 260 410 10 76 0
384 8 174 324 10 0 388
385 12 1243 1393 10 0 215
386 -20 1277 1427 10 529 0
387 -10 49 199 10 696 0
388 -8 1472 1622 10 384 0
389 25 119 269 10 0 357
390 -30 88 238 10 793 0
391 -14 548 698 10 39 0
392 -20 352 502 10 207 0
393 -20 796 946 10 774 0
394 -10 77 227 10 772 0
395 -18 1069 1219 10 507 0
396 10 155 305 10 0 946
397 20 1246 1396 10 0 421
398 20 366 516 10 0 748
399 23 875 1025 10 0 179
400 -10 734 884 10 676 0
401 -10 788 938 10 768 0
402 20 193 343 10 0 601
403 30 77 227 10 0 297
404 -7 1282 1432 10 372 0
405 -10 277 427 10 354 0
406 -14 137 287 10 286 0
407 -25 1389 1539 10 585 0
408 8 36 186 10 0 994
409 10 175 325 10 0 44
410 -5 419 569 10 742 0
411 -8 1129 1279 10 718 0
412 28 715 865 10 0 527
413 29 822 972 0 0 1030
414 -20 991 1141 10 213 0
415 -20 181 331 10 305 0
416 18 724 874 10 0 154
417 20 177 327 10 0 692
418 -7 1156 1306 10 981 0
419 -10 354 504 10 817 0
420 10 215 365 10 0 861
421 -20 1468 1618 10 397 0
422 10 247 397 10 0 101
423 -10 297 447 10 882 0
424 4 1105 1255 10 0 110
425 10 185 335 10 0 135
426 -16 566 716 10 773 0
427 20 137 287 10 0 520
428 -30 1211 1361 10 839 0
429 -20 193 343 10 376 0
430 11 417 567 10 0 86
431 -12 934 1084 10 632 0
432 10 243 393 0 0 1018
433 -18 866 1016 10 96 0
434 -8 1427 1577 10 439 0
435 -25 1104 1254 10 816 0
436 -24 1166 1316 10 634 0
437 -20 154 304 10 975 0
438 9 50 200 10 0 582
439 8 1197 1347 10 0 434
440 35 309 459 10 0 209
441 20 198 348 10 0 11
442 27 200 350 10 0 811
443 5 696 846 10 0 91
444 10 321 471 10 0 950
445 26 962 1112 10 0 612
446 -20 238 388 10 21 0
447 -10 274 424 10 814 0
448 -10 1068 1218 10 769 0
449 20 182 332 10 0 658
450 20 169 319 10 0 924
451 -12 680 830 10 905 0
452 21 43 193 10 0 369
453 10 274 424 10 0 337
454 -17 47 197 10 930 0
455 -20 343 493 10 338 0
456 -20 264 414 10 862 0
457 20 315 465 10 0 830
458 -20 266 416 10 480 0
459 -20 596 746 10 680 0
460 -30 824 974 10 703 0
461 -7 1243 1393 10 73 0
462 10 373 523 10 0 784
463 31 236 386 10 0 489
464 21 794 944 10 0 894
465 20 54 204 10 0 648
466 20 257 407 10 0 14
467 20 227 377 10 0 921
468 -22 485 635 10 485 0
469 -10 327 477 10 672 0
470 20 221 371 10 0 514
471 27 730 880 10 0 43
472 -20 198 348 10 630 0
473 -30 151 301 10 961 0
474 -10 296 446 10 56 0
475 20 209 359 10 0 722
476 7 430 580 10 0 219
477 -10 89 239 10 755 0
478 9 18 168 10 0 34
479 22 1417 1567 0 0 1014
480 20 229 379 10 0 458
481 20 302 452 0 0 1012
482 -19 142 292 10 115 0
483 28 670 820 10 0 844
484 20 198 348 0 0 1006
485 22 59 209 10 0 468
486 -8 1133 1283 10 618 0
487 20 284 434 10 0 137
488 10 160 310 10 0 258
489 -31 372 522 10 463 0
490 10 329 479 10 0 280
491 -20 278 428 10 763 0
492 30 314 464 10 0 599
493 10 210 360 10 0 228
494 -37 364 514 10 673 0
495 29 624 774 0 0 1042
496 -12 792 942 10 719 0
497 14 245 395 10 0 121
498 -10 504 654 10 287 0
499 6 806 956 10 0 40
500 -30 332 482 10 1000 0
501 20 103 253 10 0 347
502 -20 63 213 10 273 0
503 18 1050 1200 10 0 70
504 -30 514 664 10 840 0
505 -10 325 475 10 111 0
506 -40 582 732 10 804 0
507 18 984 1134 10 0 395
508 10 476 626 10 0 348
509 35 122 272 10 0 306
510 -20 1135 1285 10 350 0
511 -10 427 577 10 901 0
512 -10 433 583 10 685 0
513 -20 283 433 10 775 0
514 -20 347 497 10 470 0
515 20 137 287 10 0 274
516 -10 194 344 10 714 0
517 10 195 345 10 0 251
518 20 130 280 10 0 670
519 -20 161 311 10 686 0
520 -20 561 711 10 427 0
521 -29 562 712 10 929 0
522 20 242 392 10 0 842
523 10 178 328 10 0 712
524 10 218 368 10 0 268
525 -25 659 809 10 713 0
526 20 224 374 10 0 307
527 -28 706 856 10 412 0
528 10 1260 1410 0 0 1023
529 20 196 346 10 0 386
530 -9 1137 1287 10 675 0
531 -27 250 400 10 899 0
532 -24 1448 1598 10 104 0
533 10 149 299 10 0 182
534 10 150 300 10 0 942
535 -30 172 322 10 851 0
536 -30 296 446 10 20 0
537 19 1471 1621 0 0 1036
538 30 173 323 10 0 99
539 1 84 234 10 0 996
540 30 211 361 10 0 826
541 19 487 637 10 0 558
542 -15 1363 1513 10 223 0
543 10 75 225 10 0 990
544 -18 306 456 10 191 0
545 -20 159 309 10 568 0
546 -20 164 314 10 316 0
547 -10 954 1104 10 279 0
548 -10 56 206 10 253 0
549 20 263 413 10 0 765
550 10 158 308 10 0 79
551 10 326 476 10 0 900
552 -29 854 1004 10 669 0
553 10 273 423 0 0 1011
554 -10 248 398 10 23 0
555 20 315 465 10 0 590
556 3 1376 1526 0 0 1003
557 24 115 265 10 0 270
558 -19 1105 1255 10 541 0
559 18 982 1132 10 0 187
560 -24 711 861 10 695 0
561 10 206 356 10 0 693
562 19 747 897 10 0 781
563 5 733 883 10 0 980
564 -10 253 403 10 654 0
565 14 222 372 10 0 210
566 -23 570 720 10 579 0
567 -8 1076 1226 10 833 0
568 20 174 324 10 0 545
569 -10 201 351 10 119 0
570 -10 341 491 10 308 0
571 -8 1086 1236 10 983 0
572 -20 446 596 10 577 0
573 20 341 491 10 0 944
574 -20 217 367 10 124 0
575 15 963 1113 10 0 936
576 10 252 402 10 0 843
577 20 277 427 10 0 572
578 -13 368 518 10 134 0
579 23 124 274 10 0 566
580 20 217 367 10 0 595
581 -7 1294 1444 10 233 0
582 -9 121 271 10 438 0
583 10 259 409 10 0 57
584 -30 949 1099 10 868 0
585 25 102 252 10 0 407
586 10 255 405 10 0 741
587 10 273 423 10 0 706
588 -26 200 350 10 792 0
589 20 149 299 10 0 351
590 -20 315 465 10 555 0
591 -23 1241 1391 10 174 0
592 -20 245 395 10 876 0
593 31 432 582 10 0 248
594 30 325 475 10 0 906
595 -20 280 430 10 580 0
596 18 1428 1578 10 0 791
597 20 221 371 10 0 801
598 -13 866 1016 10 238 0
599 -30 337 487 10 492 0
600 -30 249 399 10 352 0
601 -20 688 838 10 402 0
602 -30 203 353 10 870 0
603 10 137 287 10 0 69
604 -10 201 351 10 353 0
605 -10 941 1091 10 684 0
606 -30 50 200 10 687 0
607 10 330 480 10 0 705
608 20 90 240 0 0 1044
609 -20 1397 1547 10 859 0
610 -11 274 424 10 834 0
611 -26 122 272 10 245 0
612 -26 1126 1276 10 445 0
613 30 156 306 10 0 871
614 20 161 311 10 0 883
615 -10 505 655 10 19 0
616 20 222 372 10 0 98
617 -40 300 450 10 810 0
618 8 344 494 10 0 486
619 10 175 325 10 0 31
620 -10 858 1008 10 918 0
621 -16 931 1081 10 113 0
622 10 253 403 10 0 159
623 -20 970 1120 10 107 0
624 -25 1399 1549 10 908 0
625 10 330 480 10 0 63
626 -20 313 463 10 967 0
627 -6 376 526 10 259 0
628 20 159 309 10 0 81
629 -20 254 404 10 329 0
630 20 166 316 10 0 472
631 20 253 403 10 0 937
632 12 965 1115 10 0 431
633 26 552 702 10 0 340
634 24 721 871 10 0 436
635 18 283 433 10 0 925
636 -20 162 312 10 824 0
637 -10 157 307 10 327 0
638 40 261 411 10 0 717
639 10 229 379 10 0 132
640 30 274 424 10 0 290
641 10 290 440 10 0 314
642 -5 956 1106 10 923 0
643 19 203 353 10 0 360
644 -12 1118 1268 10 647 0
645 14 117 267 0 0 1032
646 10 225 375 10 0 729
647 12 436 586 10 0 644
648 -20 55 205 10 465 0
649 -14 1196 1346 10 227 0
650 9 708 858 0 0 1013
651 21 1137 1287 0 0 1034
652 -10 647 797 10 940 0
653 -24 927 1077 10 167 0
654 10 227 377 10 0 564
655 -12 1066 1216 10 797 0
656 27 557 707 0 0 1040
657 -26 338 488 10 89 0
658 -20 156 306 10 449 0
659 -14 495 645 10 949 0
660 20 40 190 10 0 94
661 10 46 196 10 0 860
662 -20 1392 1542 10 702 0
663 -27 1133 1283 10 333 0
664 -23 697 847 10 126 0
665 -10 280 430 10 103 0
666 -10 294 444 10 737 0
667 23 471 621 10 0 293
668 23 682 832 10 0 95
669 29 229 379 10 0 552
670 -20 933 1083 10 518 0
671 10 210 360 10 0 964
672 10 257 407 10 0 469
673 37 197 347 10 0 494
674 30 1011 1161 10 0 805
675 9 527 677 10 0 530
676 10 271 421 10 0 400
677 30 210 360 10 0 49
678 -10 726 876 10 324 0
679 -21 419 569 10 855 0
680 20 151 301 10 0 459
681 -20 319 469 10 85 0
682 10 280 430 10 0 165
683 -20 308 458 10 378 0
684 10 282 432 10 0 605
685 10 161 311 10 0 512
686 20 162 312 10 0 519
687 30 58 208 10 0 606
688 32 568 718 10 0 93
689 -16 1040 1190 10 48 0
690 -10 281 431 10 310 0
691 -10 229 379 10 304 0
692 -20 190 340 10 417 0
693 -10 195 345 10 561 0
694 -10 222 372 10 82 0
695 24 231 381 10 0 560
696 10 50 200 10 0 387
697 25 381 531 0 0 1026
698 -27 1352 1502 10 62 0
699 -30 281 431 10 968 0
700 -18 221 371 10 716 0
701 27 883 1033 10 0 724
702 20 321 471 10 0 662
703 30 237 387 10 0 460
704 -30 283 433 10 783 0
705 -10 402 552 10 607 0
706 -10 278 428 10 587 0
707 -10 63 213 10 294 0
708 -10 194 344 10 778 0
709 20 334 484 10 0 954
710 10 183 333 10 0 788
711 3 190 340 10 0 987
712 -10 732 882 10 523 0
713 25 358 508 10 0 525
714 10 192 342 10 0 516
715 26 1322 1472 0 0 1045
716 18 193 343 10 0 700
717 -40 259 409 10 638 0
718 8 527 677 10 0 411
719 12 830 980 10 0 496
720 -20 274 424 10 916 0
721 12 179 329 10 0 176
722 -20 286 436 10 475 0
723 18 1106 1256 0 0 1039
724 -27 933 1083 10 701 0
725 8 215 365 10 0 212
726 10 168 318 10 0 959
727 -5 1416 1566 10 323 0
728 19 48 198 10 0 928
729 -10 254 404 10 646 0
730 20 321 471 0 0 1008
731 15 938 1088 10 0 35
732 10 218 368 10 0 90
733 10 215 365 10 0 752
734 -20 226 376 10 948 0
735 -10 649 799 10 3 0
736 -36 1546 1696 10 746 0
737 10 230 380 10 0 666
738 20 214 364 10 0 368
739 19 607 757 10 0 864
740 9 292 442 10 0 186
741 -10 255 405 10 586 0
742 5 154 304 10 0 410
743 10 186 336 10 0 888
744 30 251 401 10 0 917
745 21 1380 1530 10 0 912
746 36 1224 1374 10 0 736
747 20 248 398 10 0 836
748 -20 415 565 10 398 0
749 -30 246 396 10 787 0
750 2 881 1031 10 0 927
751 -20 544 694 10 798 0
752 -10 216 366 10 733 0
753 -30 274 424 10 230 0
754 20 81 231 0 0 1027
755 10 79 229 10 0 477
756 -10 157 307 10 910 0
757 10 246 396 10 0 246
758 -25 1530 1680 10 276 0
759 -20 806 956 10 64 0
760 -24 1011 1161 10 29 0
761 10 74 224 10 0 764
762 -20 589 739 10 363 0
763 20 165 315 10 0 491
764 -10 58 208 10 761 0
765 -20 200 350 10 549 0
766 -28 1443 1593 10 55 0
767 -13 1164 1314 10 296 0
768 10 144 294 10 0 401
769 10 173 323 10 0 448
770 -10 1064 1214 10 24 0
771 -20 866 1016 10 309 0
772 10 76 226 10 0 394
773 16 540 690 10 0 426
774 20 320 470 10 0 393
775 20 241 391 10 0 513
776 -8 720 870 10 300 0
777 20 253 403 10 0 986
778 10 252 402 10 0 708
779 19 185 335 10 0 250
780 30 7 157 10 0 60
781 -19 1006 1156 10 562 0
782 -10 745 895 10 143 0
783 30 303 453 10 0 704
784 -10 351 501 10 462 0
785 -10 256 406 10 346 0
786 11 1066 1216 10 0 247
787 30 207 357 10 0 749
788 -10 143 293 10 710 0
789 30 224 374 10 0 255
790 32 510 660 0 0 1009
791 -18 1467 1617 10 596 0
792 26 181 331 10 0 588
793 30 77 227 10 0 390
794 10 5 155 10 0 835
795 11 468 618 10 0 37
796 -15 1635 1785 10 935 0
797 12 286 436 10 0 655
798 20 206 356 10 0 751
799 10 234 384 10 0 893
800 -10 1175 1325 10 931 0
801 -20 219 369 10 597 0
802 -30 1462 1612 10 299 0
803 -18 1187 1337 10 2 0
804 40 216 366 10 0 506
805 -30 1117 1267 10 674 0
806 30 203 353 10 0 41
807 -20 139 289 10 144 0
808 -36 610 760 10 50 0
809 20 91 241 10 0 945
810 40 302 452 10 0 617
811 -27 209 359 10 442 0
812 -12 246 396 10 903 0
813 32 342 492 10 0 33
814 10 273 423 10 0 447
815 -30 206 356 10 181 0
816 25 267 417 10 0 435
817 10 305 455 10 0 419
818 17 120 270 10 0 87
819 20 119 269 10 0 78
820 10 273 423 10 0 130
821 -5 1199 1349 10 978 0
822 20 237 387 10 0 829
823 -20 201 351 10 831 0
824 20 197 347 10 0 636
825 30 223 373 10 0 220
826 -30 257 407 10 540 0
827 -14 350 500 10 25 0
828 20 245 395 0 0 1016
829 -20 241 391 10 822 0
830 -20 324 474 10 457 0
831 20 201 351 10 0 823
832 -11 1163 1313 10 841 0
833 8 866 1016 10 0 567
834 11 275 425 10 0 610
835 -10 757 907 10 794 0
836 -20 226 376 10 747 0
837 28 1445 1595 0 0 1022
838 20 208 358 10 0 198
839 30 49 199 10 0 428
840 30 216 366 10 0 504
841 11 677 827 10 0 832
842 -20 212 362 10 522 0
843 -10 1312 1462 10 576 0
844 -28 798 948 10 483 0
845 -20 270 420 10 365 0
846 20 166 316 10 0 61
847 10 277 427 10 0 224
848 10 253 403 10 0 26
849 10 357 507 0 0 1002
850 -10 209 359 10 170 0
851 30 111 261 10 0 535
852 10 296 446 10 0 344
853 20 206 356 10 0 982
854 -20 175 325 10 328 0
855 21 522 672 10 0 679
856 30 146 296 10 0 907
857 20 297 447 10 0 381
858 19 310 460 10 0 178
859 20 319 469 10 0 609
860 -10 87 237 10 661 0
861 -10 305 455 10 420 0
862 20 226 376 10 0 456
863 25 354 504 0 0 1031
864 -19 657 807 10 739 0
865 21 74 224 10 0 962
866 -10 951 1101 10 951 0
867 20 143 293 0 0 1037
868 30 211 361 10 0 584
869 -10 80 230 10 66 0
870 30 199 349 10 0 602
871 -30 159 309 10 613 0
872 10 10 160 10 0 102
873 -10 1397 1547 10 162 0
874 20 351 501 10 0 184
875 20 182 332 10 0 890
876 20 237 387 10 0 592
877 10 157 307 0 0 1038
878 -13 1191 1341 10 891 0
879 20 153 303 10 0 331
880 -4 995 1145 10 920 0
881 -22 313 463 10 140 0
882 10 297 447 10 0 423
883 -20 1004 1154 10 614 0
884 -20 161 311 10 75 0
885 40 158 308 0 0 1033
886 40 227 377 10 0 45
887 -21 189 339 10 229 0
888 -10 160 310 10 743 0
889 20 240 390 10 0 171
890 -20 369 519 10 875 0
891 13 569 719 10 0 878
892 20 207 357 10 0 234
893 -10 238 388 10 799 0
894 -21 1404 1554 10 464 0
895 10 147 297 10 0 211
896 4 1079 1229 10 0 965
897 20 276 426 10 0 939
898 -25 378 528 10 180 0
899 27 239 389 10 0 531
900 -10 714 864 10 551 0
901 10 159 309 10 0 511
902 5 253 403 10 0 166
903 12 236 386 10 0 812
904 20 210 360 10 0 206
905 12 141 291 10 0 451
906 -30 329 479 10 594 0
907 -30 161 311 10 856 0
908 25 957 1107 10 0 624
909 9 250 400 10 0 58
910 10 144 294 10 0 756
911 -20 734 884 10 72 0
912 -21 1309 1459 10 745 0
913 -31 1337 1487 10 919 0
914 6 699 849 10 0 129
915 30 329 479 10 0 74
916 20 269 419 10 0 720
917 -30 252 402 10 744 0
918 10 257 407 10 0 620
919 31 474 624 10 0 913
920 4 282 432 10 0 880
921 -20 207 357 10 467 0
922 -15 1378 1528 10 242 0
923 5 47 197 10 0 642
924 -20 173 323 10 450 0
925 -18 362 512 10 635 0
926 -30 270 420 10 988 0
927 -2 1193 1343 10 750 0
928 -19 126 276 10 728 0
929 29 462 612 10 0 521
930 17 31 181 10 0 454
931 10 164 314 10 0 800
932 17 167 317 10 0 30
933 10 153 303 10 0 218
934 20 143 293 10 0 265
935 15 583 733 10 0 796
936 -15 988 1138 10 575 0
937 -20 734 884 10 631 0
938 30 221 371 10 0 370
939 -20 939 1089 10 897 0
940 10 371 521 10 0 652
941 13 1126 1276 0 0 1020
942 -10 223 373 10 534 0
943 -2 797 947 10 175 0
944 -20 296 446 10 573 0
945 -20 85 235 10 809 0
946 -10 198 348 10 396 0
947 18 896 1046 10 0 141
948 20 231 381 10 0 734
949 14 308 458 10 0 659
950 -10 325 475 10 444 0
951 10 263 413 10 0 866
952 27 656 806 10 0 193
953 20 291 441 10 0 275
954 -20 751 901 10 709 0
955 10 164 314 10 0 979
956 10 98 248 10 0 15
957 -33 844 994 10 364 0
958 -10 1520 1670 10 355 0
959 -10 194 344 10 726 0
960 -32 128 278 10 235 0
961 30 151 301 10 0 473
962 -21 115 265 10 865 0
963 10 313 463 10 0 214
964 -10 270 420 10 671 0
965 -4 1340 1490 10 896 0
966 -10 361 511 10 264 0
967 20 311 461 10 0 626
968 30 56 206 10 0 699
969 29 928 1078 10 0 142
970 10 333 483 10 0 109
971 21 1294 1444 0 0 1010
972 20 193 343 10 0 261
973 -20 1283 1433 10 359 0
974 10 203 353 10 0 106
975 20 152 302 10 0 437
976 30 313 463 0 0 1007
977 20 56 206 10 0 252
978 5 628 778 10 0 821
979 -10 1054 1204 10 955 0
980 -5 772 922 10 563 0
981 7 367 517 10 0 418
982 -20 232 382 10 853 0
983 8 942 1092 10 0 571
984 -20 74 224 10 12 0
985 9 171 321 10 0 256
986 -20 481 631 10 777 0
987 -3 299 449 10 711 0
988 30 272 422 10 0 926
989 16 216 366 10 0 128
990 -10 96 246 10 543 0
991 10 277 427 10 0 199
992 -10 14 164 10 231 0
993 22 410 560 10 0 266
994 -8 250 400 10 408 0
995 -26 1475 1625 10 374 0
996 -1 631 781 10 539 0
997 20 211 361 10 0 77
998 -10 1158 1308 10 172 0
999 -30 326 476 10 118 0
1000 30 314 464 10 0 500
1001 10 212 362 10 0 288
1002 -10 357 507 10 849 0
1003 -3 1376 1526 10 556 0
1004 -27 1339 1489 10 84 0
1005 -36 389 539 10 321 0
1006 -20 198 348 10 484 0
1007 -30 313 463 10 976 0
1008 -20 321 471 10 730 0
1009 -32 510 660 10 790 0
1010 -21 1294 1444 10 971 0
1011 -10 273 423 10 553 0
1012 -20 302 452 10 481 0
1013 -9 708 858 10 650 0
1014 -22 1417 1567 10 479 0
1015 -9 593 743 10 139 0
1016 -20 245 395 10 828 0
1017 -20 1441 1591 10 114 0
1018 -10 243 393 10 432 0
1019 -34 114 264 10 272 0
1020 -13 1126 1276 10 941 0
1021 -12 1041 1191 10 164 0
1022 -28 1445 1595 10 837 0
1023 -10 1260 1410 10 528 0
1024 -18 1109 1259 10 284 0
1025 -18 162 312 10 145 0
1026 -25 381 531 10 697 0
1027 -20 81 231 10 754 0
1028 -10 189 339 10 156 0
1029 -21 1454 1604 10 271 0
1030 -29 822 972 10 413 0
1031 -25 354 504 10 863 0
1032 -14 117 267 10 645 0
1033 -40 158 308 10 885 0
1034 -21 1137 1287 10 651 0
1035 -10 173 323 10 204 0
1036 -19 1471 1621 10 537 0
1037 -20 143 293 10 867 0
1038 -10 157 307 10 877 0
1039 -18 1106 1256 10 723 0
1040 -27 557 707 10 656 0
1041 -33 1590 1740 10 116 0
1042 -29 624 774 10 495 0
1043 -10 52 202 10 127 0
1044 -20 90 240 10 608 0
1045 -26 1322 1472 10 715 0
DEPOT_SECTION
1
-1
EOF
