NAME: lrc1_10_8
TYPE: PDPTW
COMMENT: Li & Lim PDPTW benchmark converted from SINTEF format
DIMENSION: 1045
VEHICLES: 250
CAPACITY: 200
EDGE_WEIGHT_TYPE: EUC_2D
NODE_COORD_SECTION
1 250 250
2 440 436
3 214 394
4 476 483
5 352 487
6 230 197
7 175 239
8 133 202
9 328 458
10 25 499
11 226 423
12 313 282
13 60 454
14 239 486
15 102 264
16 408 452
17 451 62
18 203 390
19 92 233
20 7 300
21 409 90
22 307 108
23 347 54
24 406 87
25 371 332
26 116 466
27 441 265
28 130 140
29 80 117
30 421 387
31 83 300
32 136 52
33 18 462
34 390 120
35 188 119
36 467 114
37 440 292
38 268 400
39 391 202
40 377 432
41 80 290
42 439 15
43 307 52
44 111 192
45 131 56
46 88 286
47 69 414
48 41 232
49 323 77
50 340 416
51 86 199
52 314 124
53 375 191
54 226 175
55 242 106
56 417 417
57 419 459
58 389 11
59 450 416
60 246 255
61 71 333
62 105 474
63 20 489
64 388 331
65 92 259
66 200 261
67 400 288
68 299 285
69 378 199
70 325 147
71 421 386
72 404 447
73 412 478
74 26 67
75 358 183
76 30 302
77 176 470
78 96 270
79 243 408
80 60 29
81 34 169
82 407 280
83 277 403
84 498 456
85 384 491
86 355 174
87 97 288
88 316 284
89 334 403
90 415 223
91 230 320
92 432 199
93 92 18
94 273 300
95 269 112
96 429 389
97 371 71
98 5 297
99 414 378
100 38 15
101 2 295
102 237 254
103 54 445
104 382 110
105 438 488
106 395 331
107 230 487
108 249 407
109 488 26
110 151 81
111 483 14
112 0 422
113 429 67
114 195 464
115 356 256
116 264 180
117 94 235
118 474 96
119 268 52
120 44 440
121 7 382
122 459 53
123 491 25
124 439 243
125 210 185
126 150 68
127 201 270
128 0 188
129 103 464
130 325 56
131 44 344
132 418 75
133 472 57
134 460 328
135 89 270
136 374 190
137 463 253
138 97 93
139 163 472
140 29 336
141 84 453
142 294 421
143 343 62
144 371 193
145 142 372
146 66 88
147 395 332
148 93 413
149 267 394
150 249 258
151 472 129
152 87 3
153 62 326
154 212 186
155 241 402
156 439 266
157 79 80
158 62 453
159 188 151
160 386 154
161 38 301
162 192 265
163 371 192
164 64 294
165 381 494
166 437 12
167 186 135
168 459 10
169 175 422
170 274 48
171 488 173
172 398 97
173 385 17
174 180 283
175 71 12
176 343 49
177 248 251
178 7 194
179 322 290
180 410 399
181 398 103
182 385 285
183 179 497
184 464 13
185 492 335
186 27 464
187 231 29
188 157 38
189 439 268
190 149 214
191 187 73
192 429 169
193 350 199
194 60 231
195 448 404
196 481 20
197 436 25
198 111 459
199 389 17
200 148 208
201 475 477
202 390 325
203 346 354
204 91 266
205 17 65
206 391 112
207 224 203
208 426 231
209 260 472
210 265 0
211 391 293
212 411 421
213 132 30
214 475 480
215 286 244
216 436 237
217 402 284
218 287 397
219 272 420
220 477 120
221 145 434
222 33 286
223 370 262
224 393 20
225 330 308
226 246 398
227 482 184
228 451 305
229 226 316
230 110 459
231 244 250
232 458 16
233 390 34
234 423 214
235 219 215
236 326 118
237 365 74
238 331 356
239 210 398
240 403 93
241 248 404
242 65 62
243 460 13
244 0 293
245 211 248
246 484 174
247 175 352
248 455 168
249 224 191
250 439 156
251 434 359
252 118 314
253 234 246
254 406 450
255 75 118
256 115 395
257 329 456
258 218 403
259 149 341
260 253 74
261 436 241
262 238 203
263 405 455
264 485 27
265 323 118
266 330 371
267 25 65
268 406 96
269 49 451
270 307 249
271 178 135
272 299 353
273 236 213
274 355 177
275 394 23
276 306 235
277 90 477
278 379 486
279 435 16
280 8 497
281 150 484
282 213 399
283 391 18
284 111 392
285 330 281
286 344 203
287 91 235
288 346 60
289 483 27
290 382 498
291 457 492
292 291 213
293 154 374
294 225 196
295 94 40
296 0 356
297 297 283
298 371 423
299 417 217
300 500 228
301 412 214
302 442 289
303 157 269
304 440 241
305 100 266
306 111 178
307 91 101
308 25 307
309 135 400
310 58 458
311 133 26
312 211 386
313 94 97
314 30 155
315 208 184
316 394 333
317 355 180
318 241 180
319 21 485
320 80 251
321 476 61
322 406 94
323 364 71
324 418 221
325 274 441
326 304 97
327 297 102
328 250 405
329 111 463
330 408 279
331 263 418
332 480 119
333 420 383
334 142 14
335 73 328
336 50 438
337 441 7
338 462 14
339 360 294
340 58 39
341 58 391
342 410 285
343 96 97
344 21 64
345 238 210
346 479 121
347 200 178
348 216 341
349 48 437
350 200 270
351 357 181
352 476 174
353 400 286
354 351 481
355 270 400
356 95 234
357 128 113
358 133 455
359 16 463
360 59 388
361 376 190
362 481 122
363 266 405
364 374 232
365 398 20
366 481 26
367 63 444
368 89 290
369 246 314
370 40 304
371 262 369
372 323 29
373 89 65
374 144 35
375 200 265
376 436 264
377 15 457
378 397 20
379 328 491
380 399 175
381 432 2
382 63 336
383 6 296
384 146 376
385 295 247
386 235 33
387 233 204
388 142 360
389 177 156
390 315 287
391 452 172
392 263 153
393 493 493
394 320 283
395 64 5
396 95 235
397 203 211
398 16 497
399 348 348
400 485 104
401 330 147
402 443 237
403 316 286
404 335 46
405 381 495
406 364 173
407 267 162
408 214 245
409 92 234
410 347 459
411 30 7
412 120 37
413 397 153
414 210 29
415 87 285
416 132 32
417 390 294
418 67 451
419 24 68
420 146 439
421 209 212
422 6 292
423 18 63
424 149 98
425 91 268
426 103 177
427 367 178
428 225 269
429 443 246
430 306 42
431 374 306
432 413 421
433 470 405
434 33 278
435 149 458
436 257 57
437 272 403
438 221 291
439 1 101
440 332 459
441 220 392
442 253 50
443 250 441
444 471 484
445 480 152
446 404 83
447 476 94
448 458 213
449 215 395
450 85 288
451 179 75
452 228 287
453 397 18
454 238 204
455 488 3
456 407 88
457 459 14
458 120 17
459 235 316
460 370 382
461 405 454
462 17 458
463 43 135
464 318 497
465 199 268
466 111 467
467 138 438
468 172 314
469 494 468
470 35 303
471 341 59
472 423 221
473 395 295
474 413 417
475 339 60
476 277 428
477 176 199
478 265 240
479 365 190
480 133 53
481 387 488
482 385 295
483 491 369
484 445 273
485 195 273
486 313 493
487 495 227
488 241 403
489 30 72
490 21 487
491 324 99
492 453 318
493 443 272
494 447 184
495 366 288
496 440 284
497 13 314
498 72 227
499 377 385
500 477 478
501 204 185
502 226 191
503 330 138
504 185 434
505 483 22
506 71 282
507 60 5
508 189 402
509 134 211
510 146 313
511 21 146
512 37 281
513 416 417
514 44 311
515 361 181
516 444 242
517 444 271
518 359 179
519 388 334
520 401 164
521 499 316
522 399 106
523 425 215
524 407 98
525 406 460
526 88 95
527 95 64
528 306 229
529 273 55
530 384 149
531 122 35
532 308 199
533 390 301
534 300 108
535 267 400
536 8 300
537 105 181
538 398 325
539 166 247
540 140 431
541 253 118
542 359 246
543 321 277
544 168 59
545 406 285
546 391 334
547 437 19
548 201 278
549 435 267
550 245 408
551 16 462
552 107 374
553 477 97
554 346 57
555 14 459
556 102 6
557 359 287
558 297 131
559 282 1
560 21 70
561 440 244
562 482 104
563 120 261
564 125 29
565 292 32
566 262 92
567 68 160
568 405 276
569 277 50
570 32 319
571 344 70
572 481 84
573 21 68
574 441 244
575 57 43
576 1 293
577 481 96
578 471 368
579 236 126
580 406 99
581 303 186
582 225 369
583 412 453
584 104 349
585 173 182
586 111 464
587 53 440
588 69 336
589 359 182
590 13 459
591 244 277
592 484 177
593 452 206
594 22 483
595 452 110
596 347 192
597 95 92
598 368 311
599 479 387
600 479 169
601 497 266
602 66 336
603 376 195
604 401 281
605 441 177
606 231 203
607 21 488
608 231 204
609 122 422
610 65 453
611 206 261
612 466 149
613 313 119
614 90 274
615 39 162
616 35 306
617 437 15
618 307 412
619 79 291
620 64 437
621 376 92
622 129 27
623 196 489
624 51 286
625 20 488
626 13 455
627 170 347
628 92 230
629 117 467
630 413 217
631 405 450
632 394 322
633 125 61
634 238 123
635 11 403
636 89 272
637 304 102
638 478 121
639 408 84
640 376 494
641 20 73
642 159 299
643 95 382
644 352 63
645 365 274
646 30 301
647 351 5
648 197 267
649 498 171
650 468 352
651 418 251
652 489 437
653 251 63
654 132 55
655 281 96
656 333 293
657 255 487
658 207 400
659 469 489
660 244 254
661 233 207
662 441 60
663 411 379
664 178 72
665 51 447
666 478 118
667 141 426
668 295 89
669 112 433
670 320 211
671 400 103
672 408 453
673 435 180
674 432 66
675 374 116
676 478 102
677 335 57
678 385 239
679 386 245
680 208 396
681 380 489
682 380 498
683 440 7
684 434 245
685 90 232
686 389 334
687 241 205
688 18 24
689 57 183
690 59 457
691 442 243
692 402 281
693 445 237
694 441 273
695 31 175
696 234 202
697 52 303
698 167 445
699 179 286
700 269 48
701 165 59
702 461 8
703 421 415
704 59 459
705 24 492
706 55 449
707 224 192
708 444 269
709 491 20
710 313 126
711 283 438
712 352 241
713 398 476
714 442 247
715 217 207
716 233 87
717 479 127
718 6 53
719 478 300
720 378 493
721 303 78
722 344 62
723 371 315
724 200 78
725 413 391
726 415 216
727 397 57
728 293 228
729 0 297
730 435 20
731 195 111
732 417 218
733 340 54
734 132 57
735 210 379
736 228 260
737 399 104
738 95 277
739 360 284
740 53 466
741 112 465
742 313 391
743 93 235
744 125 32
745 215 282
746 224 320
747 134 428
748 26 490
749 44 115
750 438 127
751 239 15
752 342 54
753 109 463
754 199 187
755 201 188
756 399 301
757 484 171
758 272 234
759 380 350
760 140 108
761 228 199
762 245 461
763 305 107
764 231 195
765 450 265
766 273 149
767 12 358
768 315 121
769 420 213
770 331 134
771 84 377
772 320 280
773 89 185
774 472 481
775 422 420
776 475 267
777 470 125
778 435 268
779 409 155
780 243 248
781 488 96
782 341 72
783 58 449
784 16 460
785 480 136
786 162 388
787 47 208
788 324 127
789 87 96
790 140 137
791 314 205
792 96 346
793 321 280
794 245 251
795 436 295
796 274 261
797 271 128
798 275 45
799 422 409
800 146 188
801 93 96
802 409 255
803 449 428
804 90 285
805 415 95
806 88 287
807 379 196
808 368 452
809 202 186
810 435 11
811 269 46
812 7 292
813 44 496
814 478 99
815 391 99
816 132 477
817 24 65
818 130 247
819 133 273
820 347 62
821 404 140
822 416 420
823 67 335
824 92 270
825 411 95
826 132 479
827 366 334
828 125 39
829 419 422
830 460 2
831 67 334
832 448 414
833 46 163
834 77 465
835 284 319
836 102 422
837 240 34
838 141 428
839 204 269
840 144 439
841 470 417
842 404 103
843 5 281
844 487 320
845 398 23
846 90 296
847 386 13
848 115 465
849 473 475
850 275 42
851 286 356
852 15 69
853 267 44
854 243 399
855 390 249
856 210 391
857 433 15
858 24 259
859 12 463
860 237 213
861 182 480
862 409 88
863 244 368
864 381 328
865 213 185
866 482 141
867 319 124
868 141 431
869 198 264
870 69 334
871 299 98
872 240 250
873 199 203
874 459 17
875 423 217
876 477 179
877 213 397
878 405 187
879 269 402
880 53 204
881 13 394
882 15 68
883 56 268
884 360 184
885 307 102
886 130 57
887 250 328
888 91 231
889 479 176
890 420 224
891 461 182
892 418 218
893 419 418
894 336 493
895 389 300
896 92 76
897 476 102
898 418 399
899 109 56
900 13 465
901 92 232
902 394 47
903 16 287
904 399 102
905 143 158
906 18 484
907 250 411
908 19 273
909 365 28
910 387 297
911 433 447
912 214 274
913 489 338
914 130 494
915 23 67
916 374 489
917 126 30
918 112 467
919 489 274
920 61 214
921 166 440
922 56 75
923 210 276
924 80 286
925 17 459
926 66 448
927 351 128
928 352 176
929 490 286
930 247 219
931 86 268
932 398 329
933 272 402
934 317 123
935 408 318
936 66 31
937 425 448
938 35 304
939 471 94
940 470 473
941 224 56
942 343 47
943 52 18
944 16 68
945 195 185
946 92 236
947 76 462
948 124 56
949 481 454
950 477 483
951 481 124
952 389 156
953 384 16
954 492 34
955 371 200
956 153 235
957 428 202
958 257 391
959 421 218
960 206 186
961 393 301
962 204 187
963 468 475
964 477 122
965 100 66
966 489 27
967 12 451
968 197 270
969 311 422
970 489 17
971 13 214
972 440 247
973 28 467
974 388 325
975 270 401
976 5 445
977 198 271
978 480 131
979 437 98
980 131 246
981 49 437
982 270 49
983 337 41
984 318 280
985 154 392
986 493 111
987 399 450
988 67 452
989 34 239
990 343 276
991 393 12
992 236 247
993 340 291
994 3 292
995 209 68
996 18 225
997 147 435
998 335 99
999 485 24
1000 470 475
1001 341 58
1002 408 318
1003 375 191
1004 92 76
1005 199 187
1006 72 227
1007 111 464
1008 131 246
1009 30 7
1010 277 428
1011 413 417
1012 115 395
1013 387 488
1014 179 497
1015 352 241
1016 141 426
1017 257 391
1018 487 320
1019 130 57
1020 168 59
1021 387 297
1022 391 18
1023 407 98
1024 132 32
1025 432 2
1026 8 300
1027 246 314
1028 377 385
1029 472 129
1030 441 265
1031 384 149
1032 235 33
1033 247 219
1034 313 493
1035 374 232
1036 13 465
1037 95 92
1038 13 214
1039 470 405
1040 374 306
1041 480 131
1042 477 97
1043 472 57
1044 268 400
1045 481 84
PICKUP_AND_DELIVERY_SECTION
1 0 0 1821 0 0 0
2 -10 849 964 10 940 0
3 10 178 313 10 0 508
4 10 324 443 10 0 291
5 -22 854 980 10 278 0
6 40 91 183 10 0 606
7 -20 75 156 10 992 0
8 -10 401 551 10 794 0
9 -21 731 834 10 379 0
10 -30 415 504 10 319 0
11 -18 174 263 10 282 0
12 20 121 236 10 0 796
13 -30 315 410 10 690 0
14 -10 1447 1548 10 629 0
15 10 148 282 10 0 305
16 10 256 358 10 0 894
17 5 275 393 10 0 547
18 40 147 254 10 0 441
19 10 162 315 10 0 44
20 -10 313 406 10 383 0
21 20 225 383 10 0 24
22 -9 198 306 10 478 0
23 10 279 341 10 0 143
24 -20 273 382 10 21 0
25 14 478 612 10 0 632
26 -10 254 334 10 741 0
27 40 191 337 0 0 1030
28 17 162 256 10 0 343
29 24 795 883 10 0 567
30 -20 760 872 10 898 0
31 -20 488 541 10 819 0
32 -20 250 365 10 734 0
33 20 345 480 10 0 359
34 -10 946 1093 10 324 0
35 -24 928 1052 10 634 0
36 10 335 446 10 0 750
37 -11 896 1015 10 795 0
38 20 190 326 0 0 1044
39 14 148 235 10 0 630
40 -25 786 906 10 302 0
41 -20 174 331 10 831 0
42 -40 301 420 10 810 0
43 -13 893 978 10 130 0
44 -10 1149 1279 10 19 0
45 10 227 358 10 0 458
46 -10 220 314 10 636 0
47 -7 1222 1335 10 981 0
48 16 209 252 10 0 787
49 -18 1381 1460 10 404 0
50 -30 302 370 10 437 0
51 -10 250 335 10 743 0
52 20 177 314 10 0 710
53 30 138 254 0 0 1003
54 -32 1623 1733 10 790 0
55 -20 1224 1342 10 207 0
56 10 285 409 10 0 72
57 20 268 401 10 0 469
58 -10 310 366 10 453 0
59 25 512 672 10 0 185
60 10 82 174 10 0 245
61 10 197 238 10 0 870
62 -30 408 564 10 753 0
63 -30 341 455 10 594 0
64 20 160 224 10 0 932
65 4 361 467 10 0 697
66 -30 123 239 10 839 0
67 -20 154 279 10 473 0
68 -8 1196 1341 10 203 0
69 -19 166 279 10 115 0
70 14 1145 1258 10 0 116
71 29 762 917 10 0 663
72 -10 250 365 10 56 0
73 -10 915 1035 10 682 0
74 15 1269 1395 10 0 439
75 20 212 285 10 0 532
76 -10 226 342 10 646 0
77 -30 506 618 10 840 0
78 20 155 251 10 0 804
79 -11 1386 1512 10 155 0
80 32 1305 1450 10 0 556
81 -31 444 554 10 463 0
82 -20 169 279 10 604 0
83 10 155 283 10 0 238
84 -20 1368 1473 10 393 0
85 -20 306 420 10 987 0
86 -14 694 766 10 286 0
87 -20 1260 1338 10 738 0
88 -30 81 199 10 390 0
89 26 174 258 10 0 339
90 20 287 352 10 0 472
91 -16 1153 1262 10 341 0
92 -31 607 700 10 593 0
93 -24 1071 1208 10 749 0
94 30 55 176 10 0 984
95 -20 1225 1331 10 502 0
96 -20 387 492 10 212 0
97 -20 253 351 10 815 0
98 -10 282 410 10 576 0
99 -8 445 574 10 725 0
100 -28 1029 1183 10 943 0
101 -10 264 377 10 729 0
102 20 21 176 10 0 745
103 10 276 403 10 0 783
104 -9 1044 1211 10 675 0
105 -20 303 422 10 916 0
106 20 171 293 10 0 546
107 -12 1097 1193 10 921 0
108 10 157 275 10 0 907
109 -20 384 512 10 196 0
110 -28 1496 1616 10 412 0
111 -20 331 456 10 709 0
112 -23 787 885 10 836 0
113 -10 699 796 10 172 0
114 -20 1469 1591 10 221 0
115 19 106 256 10 0 69
116 -14 1589 1740 10 70 0
117 -10 156 294 10 396 0
118 30 271 410 10 0 233
119 10 267 375 10 0 260
120 24 744 863 10 0 767
121 -17 734 837 10 148 0
122 -36 1089 1186 10 321 0
123 -10 367 480 10 505 0
124 -20 245 413 10 972 0
125 20 76 210 10 0 809
126 -20 416 459 10 811 0
127 10 52 131 10 0 968
128 -21 884 1010 10 511 0
129 22 1244 1332 10 0 609
130 13 753 870 10 0 43
131 12 1029 1159 10 0 164
132 -20 396 529 10 942 0
133 17 1244 1376 0 0 1043
134 -30 224 355 10 492 0
135 10 162 292 10 0 194
136 -10 137 252 10 603 0
137 -20 988 1136 10 708 0
138 20 219 323 10 0 899
139 -11 623 714 10 826 0
140 -21 287 406 10 570 0
141 -18 1196 1280 10 947 0
142 -33 1550 1630 10 209 0
143 -10 277 467 10 23 0
144 -30 133 269 10 163 0
145 18 162 248 10 0 293
146 -4 786 904 10 527 0
147 10 166 278 10 0 519
148 17 226 333 10 0 121
149 -40 197 352 10 226 0
150 30 80 203 10 0 179
151 10 252 388 0 0 1029
152 -10 1401 1495 10 489 0
153 -20 243 360 10 335 0
154 -25 1621 1737 10 585 0
155 11 1000 1080 10 0 79
156 10 189 268 10 0 493
157 -2 1351 1444 10 175 0
158 -10 276 455 10 310 0
159 -35 1277 1347 10 509 0
160 -13 1047 1185 10 520 0
161 -20 243 379 10 616 0
162 -22 71 207 10 485 0
163 30 134 184 10 0 144
164 -12 1064 1168 10 131 0
165 10 312 385 10 0 937
166 20 302 450 10 0 683
167 24 687 778 10 0 724
168 -20 318 407 10 232 0
169 -20 1383 1540 10 449 0
170 -10 203 333 10 534 0
171 20 250 376 10 0 757
172 10 212 291 10 0 113
173 -9 767 880 10 909 0
174 23 719 798 10 0 428
175 2 297 398 10 0 157
176 -10 246 313 10 1001 0
177 20 2 100 10 0 696
178 -18 874 1059 10 615 0
179 -30 1436 1551 10 150 0
180 25 218 318 10 0 893
181 -10 208 380 10 737 0
182 -16 804 962 10 679 0
183 1 1383 1470 0 0 1014
184 20 350 450 10 0 830
185 -25 773 913 10 59 0
186 -10 1242 1370 10 551 0
187 14 1198 1284 10 0 995
188 -18 1007 1118 10 334 0
189 10 252 373 10 0 765
190 -10 433 561 10 231 0
191 -20 236 378 10 853 0
192 -27 859 977 10 494 0
193 21 1123 1309 10 0 791
194 -10 966 1116 10 135 0
195 15 556 672 10 0 913
196 20 325 437 10 0 109
197 -20 1264 1331 10 730 0
198 -20 314 434 10 467 0
199 10 318 443 10 0 953
200 -8 483 600 10 408 0
201 -20 375 464 10 774 0
202 -30 205 327 10 756 0
203 8 773 892 10 0 68
204 -17 190 305 10 818 0
205 20 297 479 10 0 242
206 -10 966 1064 10 890 0
207 20 53 127 10 0 55
208 -20 992 1095 10 484 0
209 33 989 1112 10 0 142
210 -30 842 980 10 850 0
211 20 187 294 10 0 855
212 20 264 396 10 0 96
213 -10 279 402 10 622 0
214 30 331 458 10 0 950
215 31 1248 1349 10 0 270
216 20 186 355 10 0 429
217 30 155 249 10 0 330
218 12 509 650 10 0 723
219 -19 1334 1468 10 657 0
220 10 286 428 10 0 951
221 20 211 360 10 0 114
222 -19 1508 1592 10 858 0
223 -10 1063 1165 10 772 0
224 20 347 465 10 0 647
225 -20 1129 1242 10 482 0
226 40 148 268 10 0 149
227 -20 1048 1196 10 580 0
228 13 208 309 10 0 460
229 21 70 161 10 0 642
230 -20 305 420 10 838 0
231 10 6 127 10 0 190
232 20 313 442 10 0 168
233 -30 1004 1147 10 118 0
234 20 176 318 10 0 957
235 32 46 135 10 0 262
236 10 152 297 10 0 768
237 24 788 938 10 0 471
238 -10 690 763 10 83 0
239 -30 186 252 10 856 0
240 10 310 401 10 0 825
241 -20 154 262 10 328 0
242 -20 906 1076 10 205 0
243 20 316 386 10 0 702
244 -10 253 422 10 812 0
245 -10 39 161 10 60 0
246 10 246 362 10 0 250
247 -11 1584 1685 10 786 0
248 -37 848 916 10 673 0
249 20 64 197 10 0 318
250 -10 478 604 10 246 0
251 -27 1327 1488 10 333 0
252 26 285 420 10 0 259
253 10 44 116 10 0 306
254 -10 253 432 10 432 0
255 21 364 485 10 0 880
256 11 776 885 0 0 1012
257 19 220 348 10 0 808
258 -34 1260 1409 10 272 0
259 -26 355 483 10 252 0
260 -10 1298 1432 10 119 0
261 -10 246 438 10 561 0
262 -32 69 148 10 235 0
263 40 294 418 10 0 681
264 -3 391 530 10 455 0
265 -30 150 247 10 788 0
266 -15 522 626 10 371 0
267 10 297 486 10 0 688
268 -20 219 377 10 522 0
269 -10 284 327 10 665 0
270 -31 1341 1442 10 215 0
271 -29 1445 1613 10 760 0
272 34 114 208 10 0 258
273 20 39 188 10 0 345
274 20 127 249 10 0 518
275 20 351 486 10 0 372
276 -19 57 197 10 728 0
277 -11 277 328 10 834 0
278 22 619 754 10 0 5
279 10 334 431 10 0 337
280 40 368 477 10 0 705
281 -29 572 708 10 669 0
282 18 202 295 10 0 11
283 10 315 470 0 0 1022
284 -9 1116 1253 10 985 0
285 -30 1293 1397 10 317 0
286 14 106 259 10 0 86
287 -10 205 363 10 425 0
288 -20 277 395 10 475 0
289 20 418 528 10 0 323
290 -20 283 365 10 405 0
291 -10 475 571 10 4 0
292 23 1194 1351 10 0 528
293 -18 893 1011 10 145 0
294 10 59 175 10 0 392
295 -15 1004 1163 10 575 0
296 -20 1030 1173 10 367 0
297 -20 1308 1421 10 417 0
298 10 211 338 10 0 354
299 30 170 274 10 0 875
300 -20 714 879 10 487 0
301 10 165 325 10 0 769
302 25 195 363 10 0 40
303 -20 1516 1667 10 660 0
304 -10 253 380 10 574 0
305 -10 150 265 10 15 0
306 -10 156 262 10 253 0
307 -30 246 381 10 789 0
308 -30 232 361 10 938 0
309 20 251 376 10 0 552
310 10 283 398 10 0 158
311 -20 280 374 10 480 0
312 20 141 238 10 0 835
313 20 218 369 10 0 526
314 -15 1215 1375 10 689 0
315 20 78 178 10 0 421
316 20 166 305 10 0 759
317 30 126 188 10 0 285
318 -20 1655 1741 10 249 0
319 30 328 437 10 0 10
320 14 251 386 10 0 946
321 36 354 574 10 0 122
322 10 220 361 10 0 862
323 -20 1315 1412 10 289 0
324 10 234 379 10 0 34
325 -10 668 751 10 550 0
326 20 162 320 10 0 529
327 10 155 268 10 0 871
328 20 155 250 10 0 241
329 -20 293 381 10 466 0
330 -30 184 286 10 217 0
331 25 252 335 10 0 762
332 -40 589 698 10 638 0
333 27 923 1071 10 0 251
334 18 790 910 10 0 188
335 20 193 284 10 0 153
336 20 274 431 10 0 635
337 -10 351 462 10 279 0
338 20 363 462 10 0 874
339 -26 1387 1479 10 89 0
340 12 1111 1245 10 0 922
341 16 851 944 10 0 91
342 -20 163 358 10 545 0
343 -17 217 324 10 28 0
344 -10 295 457 10 882 0
345 -20 90 207 10 273 0
346 10 263 382 10 0 447
347 -20 87 210 10 501 0
348 -2 617 720 10 459 0
349 -20 778 860 10 704 0
350 20 53 145 10 0 611
351 20 127 247 10 0 515
352 30 273 405 10 0 391
353 -10 154 303 10 895 0
354 -10 280 394 10 298 0
355 10 151 295 10 0 969
356 10 155 256 10 0 901
357 -12 320 436 10 905 0
358 -10 785 861 10 918 0
359 -20 321 459 10 33 0
360 -30 629 726 10 988 0
361 30 139 287 10 0 427
362 30 264 412 10 0 781
363 -20 181 283 10 975 0
364 33 125 255 0 0 1035
365 20 273 400 10 0 983
366 30 321 455 10 0 457
367 20 364 426 10 0 296
368 20 165 264 10 0 924
369 36 1416 1504 0 0 1027
370 -10 1088 1231 10 619 0
371 15 119 223 10 0 266
372 -20 1098 1206 10 275 0
373 -20 685 786 10 948 0
374 -10 239 361 10 654 0
375 -20 113 222 10 977 0
376 20 186 283 10 0 517
377 20 313 383 10 0 555
378 20 272 410 10 0 991
379 21 637 749 10 0 9
380 -20 708 816 10 807 0
381 20 420 543 0 0 1025
382 20 221 341 10 0 388
383 10 270 400 10 0 20
384 8 187 312 10 0 792
385 -16 1259 1378 10 670 0
386 30 1285 1418 0 0 1032
387 -30 49 181 10 780 0
388 -20 1488 1606 10 382 0
389 25 119 250 10 0 731
390 30 122 204 10 0 88
391 -30 590 657 10 352 0
392 -10 380 474 10 294 0
393 20 801 942 10 0 84
394 -30 78 173 10 403 0
395 -10 1069 1219 10 423 0
396 10 155 242 10 0 117
397 -28 1247 1395 10 426 0
398 -10 364 518 10 607 0
399 -20 913 986 10 686 0
400 -10 751 868 10 964 0
401 28 796 931 10 0 581
402 20 193 288 10 0 693
403 30 82 222 10 0 394
404 18 1300 1414 10 0 49
405 20 286 389 10 0 290
406 -20 137 302 10 928 0
407 -21 1401 1527 10 865 0
408 8 36 134 10 0 200
409 10 184 315 10 0 628
410 -35 435 554 10 440 0
411 23 1145 1262 0 0 1009
412 28 727 853 10 0 110
413 29 833 961 10 0 596
414 -10 1014 1117 10 569 0
415 30 200 313 10 0 450
416 18 769 830 0 0 1024
417 20 199 305 10 0 297
418 -11 1178 1284 10 620 0
419 20 370 489 10 0 424
420 10 224 324 10 0 861
421 -20 1507 1578 10 315 0
422 10 247 348 10 0 994
423 10 297 457 10 0 395
424 -20 1133 1227 10 419 0
425 10 205 315 10 0 287
426 28 556 726 10 0 397
427 -30 137 266 10 361 0
428 -23 1239 1332 10 174 0
429 -20 193 329 10 216 0
430 11 433 550 10 0 571
431 4 959 1060 0 0 1040
432 10 272 363 10 0 254
433 17 890 991 0 0 1039
434 -16 1433 1571 10 989 0
435 -10 1142 1216 10 848 0
436 -12 1180 1302 10 721 0
437 30 154 300 10 0 50
438 9 50 157 10 0 912
439 -15 1213 1332 10 74 0
440 35 359 409 10 0 410
441 -40 231 314 10 18 0
442 27 200 365 10 0 965
443 -10 690 851 10 535 0
444 10 321 446 10 0 659
445 -20 996 1077 10 600 0
446 30 260 366 10 0 674
447 -10 274 405 10 346 0
448 -23 1064 1223 10 605 0
449 20 184 330 10 0 169
450 -30 169 266 10 415 0
451 -10 713 796 10 531 0
452 21 43 181 10 0 887
453 10 274 408 10 0 58
454 -10 71 169 10 860 0
455 3 365 466 10 0 264
456 10 262 417 10 0 639
457 -30 315 446 10 366 0
458 -10 266 419 10 45 0
459 2 600 742 10 0 348
460 -13 841 956 10 228 0
461 -30 1236 1399 10 640 0
462 -10 410 486 10 926 0
463 31 236 340 10 0 81
464 -5 800 938 10 742 0
465 20 54 178 10 0 869
466 20 257 364 10 0 329
467 20 237 368 10 0 198
468 -15 516 605 10 627 0
469 -20 327 430 10 57 0
470 -12 221 344 10 903 0
471 -24 744 866 10 237 0
472 -20 223 323 10 90 0
473 20 171 281 10 0 67
474 10 324 418 0 0 1011
475 20 209 330 10 0 288
476 7 480 531 0 0 1010
477 -30 89 217 10 962 0
478 9 18 144 10 0 22
479 -27 1443 1541 10 952 0
480 20 245 343 10 0 311
481 20 290 463 0 0 1013
482 20 142 270 10 0 225
483 -19 681 809 10 578 0
484 20 221 325 10 0 208
485 22 59 166 10 0 162
486 20 1172 1245 0 0 1034
487 20 284 433 10 0 300
488 10 156 315 10 0 711
489 10 364 530 10 0 152
490 10 329 463 10 0 748
491 10 286 420 10 0 998
492 30 324 453 10 0 134
493 -10 223 347 10 156 0
494 27 386 493 10 0 192
495 29 608 790 10 0 542
496 -20 812 922 10 694 0
497 14 245 441 10 0 563
498 25 522 636 0 0 1006
499 6 816 947 0 0 1028
500 -10 330 485 10 849 0
501 20 130 226 10 0 347
502 20 73 143 10 0 95
503 -18 1074 1175 10 716 0
504 -20 522 655 10 658 0
505 10 325 458 10 0 123
506 -20 600 714 10 823 0
507 18 988 1129 10 0 936
508 -10 482 621 10 3 0
509 35 122 262 10 0 159
510 22 1148 1272 10 0 746
511 21 442 561 10 0 128
512 17 437 580 10 0 514
513 20 293 423 10 0 775
514 -17 334 510 10 512 0
515 -20 159 266 10 351 0
516 10 208 254 10 0 691
517 -20 205 317 10 376 0
518 -20 130 237 10 274 0
519 -10 161 294 10 147 0
520 13 595 678 10 0 160
521 -20 588 685 10 777 0
522 20 267 367 10 0 268
523 10 202 286 10 0 891
524 10 218 364 0 0 1023
525 -30 693 776 10 703 0
526 -20 247 324 10 313 0
527 4 732 829 10 0 146
528 -23 1262 1409 10 292 0
529 -20 196 296 10 326 0
530 18 1181 1243 0 0 1031
531 10 250 336 10 0 451
532 -20 1460 1586 10 75 0
533 10 149 287 10 0 538
534 10 150 264 10 0 170
535 10 196 298 10 0 443
536 10 301 441 0 0 1026
537 -26 1498 1594 10 633 0
538 -10 169 327 10 533 0
539 1 84 189 10 0 824
540 30 211 359 10 0 747
541 19 489 635 10 0 770
542 -29 1349 1526 10 495 0
543 10 75 185 10 0 993
544 6 341 421 0 0 1020
545 20 159 258 10 0 342
546 -20 164 290 10 106 0
547 -5 975 1082 10 17 0
548 13 56 169 10 0 736
549 20 255 421 10 0 778
550 10 158 321 10 0 325
551 10 346 456 10 0 186
552 -20 849 1009 10 309 0
553 10 273 414 0 0 1042
554 -30 277 369 10 677 0
555 -20 315 418 10 377 0
556 -32 1424 1522 10 80 0
557 24 115 199 10 0 645
558 -30 1118 1242 10 613 0
559 -10 1014 1100 10 847 0
560 -10 741 832 10 852 0
561 10 205 358 10 0 261
562 -26 745 900 10 986 0
563 -14 761 855 10 497 0
564 30 253 404 10 0 701
565 14 222 360 10 0 751
566 -10 575 716 10 707 0
567 -24 1098 1203 10 29 0
568 -20 201 297 10 692 0
569 10 201 317 10 0 414
570 21 375 456 10 0 140
571 -11 1110 1212 10 430 0
572 17 423 619 0 0 1045
573 -20 364 468 10 944 0
574 10 203 382 10 0 304
575 15 989 1088 10 0 295
576 10 252 355 10 0 98
577 20 277 371 10 0 939
578 19 400 486 10 0 483
579 23 124 301 10 0 668
580 20 217 351 10 0 227
581 -28 1316 1422 10 401 0
582 38 121 231 10 0 735
583 10 259 407 10 0 963
584 -30 967 1082 10 610 0
585 25 102 267 10 0 154
586 10 255 412 0 0 1007
587 10 274 402 10 0 706
588 20 200 347 10 0 643
589 20 162 287 10 0 884
590 20 315 431 10 0 859
591 -10 1252 1380 10 854 0
592 -20 245 378 10 876 0
593 31 461 554 10 0 92
594 30 325 427 10 0 63
595 14 295 415 10 0 866
596 -29 1456 1550 10 413 0
597 20 221 320 0 0 1037
598 -8 873 1009 10 618 0
599 13 345 480 10 0 650
600 20 247 401 10 0 445
601 25 698 828 10 0 776
602 10 215 321 10 0 883
603 10 150 242 10 0 136
604 20 210 343 10 0 82
605 23 950 1082 10 0 448
606 -40 50 146 10 6 0
607 10 330 459 10 0 398
608 20 96 235 10 0 661
609 -22 1420 1523 10 129 0
610 30 274 357 10 0 584
611 -20 120 274 10 350 0
612 -20 1115 1288 10 842 0
613 30 149 313 10 0 558
614 20 161 268 10 0 931
615 18 507 653 10 0 178
616 20 222 301 10 0 161
617 -20 300 449 10 857 0
618 8 363 474 10 0 598
619 10 175 317 10 0 370
620 11 867 1000 10 0 418
621 10 924 1088 10 0 644
622 10 253 387 10 0 213
623 -20 1002 1088 10 997 0
624 -24 1423 1525 10 695 0
625 -10 330 455 10 906 0
626 10 313 434 10 0 967
627 15 398 503 10 0 468
628 -10 159 313 10 409 0
629 10 254 357 10 0 14
630 -14 166 298 10 39 0
631 -10 253 389 10 799 0
632 -14 1010 1069 10 25 0
633 26 548 705 10 0 537
634 24 749 843 10 0 35
635 -20 300 416 10 336 0
636 10 162 284 10 0 46
637 30 161 262 10 0 763
638 40 292 376 10 0 332
639 -10 249 349 10 456 0
640 30 274 402 10 0 461
641 10 290 471 10 0 915
642 -21 964 1098 10 229 0
643 -20 203 307 10 588 0
644 -10 1158 1229 10 621 0
645 -24 117 230 10 557 0
646 10 225 363 10 0 76
647 -20 451 571 10 224 0
648 -10 55 226 10 872 0
649 -20 1261 1281 10 889 0
650 -13 712 854 10 599 0
651 21 1164 1259 10 0 802
652 29 641 802 10 0 841
653 -30 921 1084 10 982 0
654 10 227 343 10 0 374
655 -10 1068 1214 10 845 0
656 -15 541 724 10 990 0
657 19 343 483 10 0 219
658 20 156 262 10 0 504
659 -10 523 618 10 444 0
660 20 33 197 10 0 303
661 -20 46 177 10 608 0
662 21 1434 1514 10 0 727
663 -29 1133 1284 10 71 0
664 -30 721 822 10 744 0
665 10 289 329 10 0 269
666 -22 300 438 10 785 0
667 23 493 600 0 0 1016
668 -23 714 800 10 579 0
669 29 229 383 10 0 281
670 16 942 1073 10 0 385
671 10 216 326 10 0 904
672 10 257 385 10 0 832
673 37 197 344 10 0 248
674 -30 1016 1156 10 446 0
675 9 524 680 10 0 104
676 -20 279 400 10 717 0
677 30 210 289 10 0 554
678 -10 747 855 10 955 0
679 16 452 536 10 0 182
680 20 151 261 10 0 877
681 -40 342 445 10 263 0
682 10 280 408 10 0 73
683 -20 308 397 10 166 0
684 -10 275 439 10 714 0
685 10 161 295 10 0 773
686 20 162 299 10 0 399
687 30 45 233 10 0 758
688 -10 568 718 10 267 0
689 15 1039 1191 10 0 314
690 30 299 399 10 0 13
691 -10 240 368 10 516 0
692 20 192 338 10 0 568
693 -20 195 383 10 402 0
694 20 228 366 10 0 496
695 24 231 397 10 0 624
696 -20 54 135 10 177 0
697 -4 408 504 10 65 0
698 -30 1383 1471 10 868 0
699 -5 289 424 10 923 0
700 20 244 347 10 0 941
701 -30 907 1009 10 564 0
702 -20 321 449 10 243 0
703 30 237 412 10 0 525
704 20 283 407 10 0 349
705 -40 413 540 10 280 0
706 -10 278 414 10 587 0
707 10 63 157 10 0 566
708 20 194 335 10 0 137
709 20 366 451 10 0 111
710 -20 164 353 10 52 0
711 -10 200 292 10 488 0
712 5 770 845 0 0 1015
713 -30 396 471 10 720 0
714 10 197 316 10 0 684
715 -10 1356 1439 10 956 0
716 18 186 349 10 0 503
717 20 259 402 10 0 676
718 -10 543 660 10 817 0
719 -19 834 975 10 779 0
720 30 274 413 10 0 713
721 12 179 243 10 0 436
722 10 301 421 10 0 782
723 -12 1119 1243 10 218 0
724 -24 960 1056 10 167 0
725 8 215 349 10 0 99
726 10 168 322 10 0 959
727 -21 1432 1550 10 662 0
728 19 48 206 10 0 276
729 10 268 347 10 0 101
730 20 344 449 10 0 197
731 -25 942 1085 10 389 0
732 10 257 329 10 0 892
733 10 215 326 10 0 902
734 20 226 300 10 0 32
735 -38 661 787 10 582 0
736 -13 1563 1678 10 548 0
737 10 224 385 10 0 181
738 20 222 357 10 0 87
739 -30 613 750 10 793 0
740 9 292 416 10 0 976
741 10 255 373 10 0 26
742 5 154 261 10 0 464
743 10 195 327 10 0 51
744 30 251 330 10 0 664
745 -20 1380 1530 10 102 0
746 -22 1231 1366 10 510 0
747 -30 253 393 10 540 0
748 -10 429 551 10 490 0
749 24 246 389 10 0 93
750 -10 893 1019 10 36 0
751 -14 550 688 10 565 0
752 20 216 317 10 0 820
753 30 284 413 10 0 62
754 20 90 194 0 0 1005
755 10 79 251 10 0 873
756 30 157 312 10 0 202
757 -20 246 392 10 171 0
758 -30 1538 1673 10 687 0
759 -20 807 956 10 316 0
760 29 1027 1145 10 0 271
761 -20 96 203 10 764 0
762 -25 615 714 10 331 0
763 -30 160 321 10 637 0
764 20 77 172 10 0 761
765 -10 200 349 10 189 0
766 -12 1457 1578 10 797 0
767 -24 1177 1302 10 120 0
768 -10 152 284 10 236 0
769 -10 173 341 10 301 0
770 -19 1086 1192 10 541 0
771 -15 902 981 10 881 0
772 10 76 208 10 0 223
773 -10 537 693 10 685 0
774 20 320 431 10 0 201
775 -20 241 405 10 513 0
776 -25 719 871 10 601 0
777 20 253 349 10 0 521
778 -20 270 384 10 549 0
779 19 185 288 10 0 719
780 30 7 171 10 0 387
781 -30 1019 1143 10 362 0
782 -10 747 893 10 722 0
783 -10 305 451 10 103 0
784 -10 371 481 10 925 0
785 22 256 381 10 0 666
786 11 1080 1203 10 0 247
787 -16 207 323 10 48 0
788 30 143 254 10 0 265
789 30 224 379 10 0 307
790 32 525 645 10 0 54
791 -21 1490 1593 10 193 0
792 -8 181 359 10 384 0
793 30 77 180 10 0 739
794 10 5 162 10 0 8
795 11 511 575 10 0 37
796 -20 1672 1772 10 12 0
797 12 292 430 10 0 766
798 20 206 310 10 0 837
799 10 234 353 10 0 631
800 -30 1168 1332 10 888 0
801 20 219 317 10 0 833
802 -21 1446 1629 10 651 0
803 -20 1188 1336 10 911 0
804 -20 225 358 10 78 0
805 -16 1113 1270 10 979 0
806 30 229 328 10 0 846
807 20 139 288 10 0 380
808 -19 636 734 10 257 0
809 -20 113 220 10 125 0
810 40 302 414 10 0 42
811 20 227 341 10 0 126
812 10 246 335 10 0 244
813 32 374 460 10 0 973
814 -20 273 408 10 897 0
815 20 206 352 10 0 97
816 25 260 425 10 0 914
817 10 320 440 10 0 718
818 17 120 256 10 0 204
819 20 119 279 10 0 31
820 -20 285 411 10 752 0
821 8 1209 1339 10 0 878
822 -20 241 369 10 829 0
823 20 201 344 10 0 506
824 -1 226 318 10 539 0
825 -10 223 358 10 240 0
826 11 257 363 10 0 139
827 -30 368 483 10 961 0
828 20 245 341 10 0 917
829 20 241 375 10 0 822
830 -20 324 489 10 184 0
831 20 201 376 10 0 41
832 -10 1182 1293 10 672 0
833 -20 857 1025 10 801 0
834 11 275 395 10 0 277
835 -20 763 901 10 312 0
836 23 226 346 10 0 112
837 -20 1431 1595 10 798 0
838 20 208 317 10 0 230
839 30 49 143 10 0 66
840 30 238 334 10 0 77
841 -29 686 817 10 652 0
842 20 212 370 10 0 612
843 -8 1333 1441 10 996 0
844 21 793 952 0 0 1018
845 10 270 377 10 0 655
846 -30 166 287 10 806 0
847 10 301 403 10 0 559
848 10 253 383 10 0 435
849 10 365 500 10 0 500
850 30 209 325 10 0 210
851 30 111 206 10 0 863
852 10 296 398 10 0 560
853 20 214 327 10 0 191
854 10 197 303 10 0 591
855 -20 550 643 10 211 0
856 30 146 288 10 0 239
857 20 297 404 10 0 617
858 19 351 420 10 0 222
859 -20 332 419 10 590 0
860 10 86 237 10 0 454
861 -10 327 433 10 420 0
862 -10 226 355 10 322 0
863 -30 356 503 10 851 0
864 -10 682 782 10 974 0
865 21 74 161 10 0 407
866 -14 965 1086 10 595 0
867 20 143 285 10 0 934
868 30 211 387 10 0 698
869 -20 84 226 10 465 0
870 -10 199 331 10 61 0
871 -10 159 290 10 327 0
872 10 10 143 10 0 648
873 -10 1418 1526 10 755 0
874 -20 332 521 10 338 0
875 -30 176 377 10 299 0
876 20 237 348 10 0 592
877 -20 188 276 10 680 0
878 -8 1215 1316 10 821 0
879 -10 188 248 10 933 0
880 -21 1020 1120 10 255 0
881 15 347 428 10 0 771
882 10 297 382 10 0 344
883 -10 987 1171 10 602 0
884 -20 184 288 10 589 0
885 40 179 270 10 0 927
886 40 227 372 0 0 1019
887 -21 191 336 10 452 0
888 30 160 275 10 0 800
889 20 240 362 10 0 649
890 10 399 489 10 0 206
891 -10 580 707 10 523 0
892 -10 240 325 10 732 0
893 -25 238 398 10 180 0
894 -10 1439 1554 10 16 0
895 10 147 291 10 0 353
896 4 1108 1200 0 0 1004
897 20 289 413 10 0 814
898 20 390 515 10 0 30
899 -20 239 406 10 138 0
900 31 716 861 0 0 1036
901 -10 159 273 10 356 0
902 -10 282 373 10 733 0
903 12 236 357 10 0 470
904 -10 214 350 10 671 0
905 12 141 231 10 0 357
906 10 329 435 10 0 625
907 -10 161 264 10 108 0
908 -4 955 1109 10 920 0
909 9 250 334 10 0 173
910 10 144 242 0 0 1021
911 20 755 863 10 0 803
912 -9 1311 1457 10 438 0
913 -15 1366 1459 10 195 0
914 -25 701 847 10 816 0
915 -10 342 466 10 641 0
916 20 269 398 10 0 105
917 -20 252 419 10 828 0
918 10 260 321 10 0 358
919 31 480 618 10 0 929
920 4 291 422 10 0 908
921 12 207 308 10 0 107
922 -12 1393 1512 10 340 0
923 5 47 221 10 0 699
924 -20 206 271 10 368 0
925 10 367 507 10 0 784
926 10 270 397 10 0 462
927 -40 1202 1334 10 885 0
928 20 126 213 10 0 406
929 -31 495 580 10 919 0
930 17 31 172 0 0 1033
931 -20 192 273 10 614 0
932 -20 167 206 10 64 0
933 10 153 324 10 0 879
934 -20 160 251 10 867 0
935 15 585 731 0 0 1002
936 -18 1008 1119 10 507 0
937 -10 760 859 10 165 0
938 30 221 335 10 0 308
939 -20 955 1073 10 577 0
940 10 356 536 10 0 2
941 -20 1151 1251 10 700 0
942 20 225 359 10 0 132
943 28 821 922 10 0 100
944 20 296 414 10 0 573
945 -10 85 191 10 960 0
946 -14 210 335 10 320 0
947 18 900 1041 10 0 141
948 20 231 370 10 0 373
949 -30 308 429 10 1000 0
950 -30 326 435 10 214 0
951 -10 263 351 10 220 0
952 27 649 813 10 0 479
953 -10 309 423 10 199 0
954 -20 752 899 10 999 0
955 10 185 293 10 0 678
956 10 98 221 10 0 715
957 -20 866 972 10 234 0
958 22 1550 1670 0 0 1017
959 -10 219 320 10 726 0
960 10 135 270 10 0 945
961 30 151 242 10 0 827
962 30 116 264 10 0 477
963 -10 313 432 10 583 0
964 10 278 412 10 0 400
965 -27 1343 1487 10 442 0
966 -10 350 523 10 970 0
967 -10 311 461 10 626 0
968 -10 60 162 10 127 0
969 -10 953 1053 10 355 0
970 10 339 450 10 0 966
971 21 1316 1421 0 0 1038
972 20 207 330 10 0 124
973 -32 1303 1412 10 813 0
974 10 231 325 10 0 864
975 20 152 309 10 0 363
976 -9 313 476 10 740 0
977 20 56 175 10 0 375
978 5 661 744 0 0 1041
979 16 1067 1191 10 0 805
980 17 799 895 0 0 1008
981 7 385 499 10 0 47
982 30 216 398 10 0 653
983 -20 952 1083 10 365 0
984 -30 74 171 10 94 0
985 9 171 296 10 0 284
986 26 477 636 10 0 562
987 20 301 447 10 0 85
988 30 272 377 10 0 360
989 16 216 348 10 0 434
990 15 96 210 10 0 656
991 -20 277 484 10 378 0
992 20 14 150 10 0 7
993 -10 432 538 10 543 0
994 -10 250 371 10 422 0
995 -14 1476 1625 10 187 0
996 8 647 765 10 0 843
997 20 211 309 10 0 623
998 -10 1158 1309 10 491 0
999 20 326 487 10 0 954
1000 30 314 420 10 0 949
1001 10 212 333 10 0 176
1002 -15 585 731 10 935 0
1003 -30 138 254 10 53 0
1004 -4 1108 1200 10 896 0
1005 -20 90 194 10 754 0
1006 -25 522 636 10 498 0
1007 -10 255 412 10 586 0
1008 -17 799 895 10 980 0
1009 -23 1145 1262 10 411 0
1010 -7 480 531 10 476 0
1011 -10 324 418 10 474 0
1012 -11 776 885 10 256 0
1013 -20 290 463 10 481 0
1014 -1 1383 1470 10 183 0
1015 -5 770 845 10 712 0
1016 -23 493 600 10 667 0
1017 -22 1550 1670 10 958 0
1018 -21 793 952 10 844 0
1019 -40 227 372 10 886 0
1020 -6 341 421 10 544 0
1021 -10 144 242 10 910 0
1022 -10 315 470 10 283 0
1023 -10 218 364 10 524 0
1024 -18 769 830 10 416 0
1025 -20 420 543 10 381 0
1026 -10 301 441 10 536 0
1027 -36 1416 1504 10 369 0
1028 -6 816 947 10 499 0
1029 -10 252 388 10 151 0
1030 -40 191 337 10 27 0
1031 -18 1181 1243 10 530 0
1032 -30 1285 1418 10 386 0
1033 -17 31 172 10 930 0
1034 -20 1172 1245 10 486 0
1035 -33 125 255 10 364 0
1036 -31 716 861 10 900 0
1037 -20 221 320 10 597 0
1038 -21 1316 1421 10 971 0
1039 -17 890 991 10 433 0
1040 -4 959 1060 10 431 0
1041 -5 661 744 10 978 0
1042 -10 273 414 10 553 0
1043 -17 1244 1376 10 133 0
1044 -20 190 326 10 38 0
1045 -17 423 619 10 572 0
DEPOT_SECTION
1
-1
EOF
