NAME: lrc2_10_1
TYPE: PDPTW
COMMENT: Li & Lim PDPTW benchmark converted from SINTEF format
DIMENSION: 1015
VEHICLES: 250
CAPACITY: 1000
EDGE_WEIGHT_TYPE: EUC_2D
NODE_COORD_SECTION
1 250 250
2 440 436
3 214 394
4 476 483
5 352 487
6 230 197
7 175 239
8 133 202
9 328 458
10 25 499
11 226 423
12 313 282
13 60 454
14 239 486
15 102 264
16 408 452
17 451 62
18 203 390
19 92 233
20 7 300
21 409 90
22 307 108
23 347 54
24 406 87
25 371 332
26 116 466
27 441 265
28 130 140
29 80 117
30 421 387
31 83 300
32 136 52
33 18 462
34 390 120
35 188 119
36 467 114
37 440 292
38 268 400
39 391 202
40 377 432
41 80 290
42 439 15
43 307 52
44 111 192
45 131 56
46 88 286
47 69 414
48 41 232
49 323 77
50 340 416
51 86 199
52 314 124
53 375 191
54 226 175
55 242 106
56 417 417
57 419 459
58 389 11
59 450 416
60 246 255
61 71 333
62 105 474
63 20 489
64 388 331
65 92 259
66 200 261
67 400 288
68 299 285
69 378 199
70 325 147
71 421 386
72 404 447
73 412 478
74 26 67
75 358 183
76 30 302
77 176 470
78 96 270
79 243 408
80 60 29
81 34 169
82 407 280
83 277 403
84 498 456
85 384 491
86 355 174
87 97 288
88 316 284
89 334 403
90 415 223
91 230 320
92 432 199
93 92 18
94 273 300
95 269 112
96 429 389
97 371 71
98 5 297
99 414 378
100 38 15
101 2 295
102 237 254
103 54 445
104 382 110
105 438 488
106 395 331
107 230 487
108 249 407
109 488 26
110 151 81
111 483 14
112 0 422
113 429 67
114 195 464
115 356 256
116 264 180
117 94 235
118 474 96
119 268 52
120 44 440
121 7 382
122 459 53
123 491 25
124 439 243
125 210 185
126 150 68
127 201 270
128 0 188
129 103 464
130 325 56
131 44 344
132 418 75
133 472 57
134 460 328
135 89 270
136 374 190
137 463 253
138 97 93
139 163 472
140 29 336
141 84 453
142 294 421
143 343 62
144 371 193
145 142 372
146 66 88
147 395 332
148 93 413
149 267 394
150 249 258
151 472 129
152 87 3
153 62 326
154 212 186
155 241 402
156 439 266
157 79 80
158 62 453
159 188 151
160 386 154
161 38 301
162 192 265
163 371 192
164 64 294
165 381 494
166 437 12
167 186 135
168 459 10
169 175 422
170 274 48
171 488 173
172 398 97
173 385 17
174 180 283
175 71 12
176 343 49
177 248 251
178 7 194
179 322 290
180 410 399
181 398 103
182 385 285
183 179 497
184 464 13
185 492 335
186 27 464
187 231 29
188 157 38
189 439 268
190 149 214
191 187 73
192 429 169
193 350 199
194 60 231
195 448 404
196 481 20
197 436 25
198 111 459
199 389 17
200 148 208
201 475 477
202 390 325
203 346 354
204 91 266
205 17 65
206 391 112
207 224 203
208 426 231
209 260 472
210 265 0
211 391 293
212 411 421
213 132 30
214 475 480
215 286 244
216 436 237
217 402 284
218 287 397
219 272 420
220 477 120
221 145 434
222 33 286
223 370 262
224 393 20
225 330 308
226 246 398
227 482 184
228 451 305
229 226 316
230 110 459
231 244 250
232 458 16
233 390 34
234 423 214
235 219 215
236 326 118
237 365 74
238 331 356
239 210 398
240 403 93
241 248 404
242 65 62
243 460 13
244 0 293
245 211 248
246 484 174
247 175 352
248 455 168
249 224 191
250 439 156
251 434 359
252 118 314
253 234 246
254 406 450
255 75 118
256 115 395
257 329 456
258 218 403
259 149 341
260 253 74
261 436 241
262 238 203
263 405 455
264 485 27
265 323 118
266 330 371
267 25 65
268 406 96
269 49 451
270 307 249
271 178 135
272 299 353
273 236 213
274 355 177
275 394 23
276 306 235
277 90 477
278 379 486
279 435 16
280 8 497
281 150 484
282 213 399
283 391 18
284 111 392
285 330 281
286 344 203
287 91 235
288 346 60
289 483 27
290 382 498
291 457 492
292 291 213
293 154 374
294 225 196
295 94 40
296 0 356
297 297 283
298 371 423
299 417 217
300 500 228
301 412 214
302 442 289
303 157 269
304 440 241
305 100 266
306 111 178
307 91 101
308 25 307
309 135 400
310 58 458
311 133 26
312 211 386
313 94 97
314 30 155
315 208 184
316 394 333
317 355 180
318 241 180
319 21 485
320 80 251
321 476 61
322 406 94
323 364 71
324 418 221
325 274 441
326 304 97
327 297 102
328 250 405
329 111 463
330 408 279
331 263 418
332 480 119
333 420 383
334 142 14
335 73 328
336 50 438
337 441 7
338 462 14
339 360 294
340 58 39
341 58 391
342 410 285
343 96 97
344 21 64
345 238 210
346 479 121
347 200 178
348 216 341
349 48 437
350 200 270
351 357 181
352 476 174
353 400 286
354 351 481
355 270 400
356 95 234
357 128 113
358 133 455
359 16 463
360 59 388
361 376 190
362 481 122
363 266 405
364 374 232
365 398 20
366 481 26
367 63 444
368 89 290
369 246 314
370 40 304
371 262 369
372 323 29
373 89 65
374 144 35
375 200 265
376 436 264
377 15 457
378 397 20
379 328 491
380 399 175
381 432 2
382 63 336
383 6 296
384 146 376
385 295 247
386 235 33
387 233 204
388 142 360
389 177 156
390 315 287
391 452 172
392 263 153
393 493 493
394 320 283
395 64 5
396 95 235
397 203 211
398 16 497
399 348 348
400 485 104
401 330 147
402 443 237
403 316 286
404 335 46
405 381 495
406 364 173
407 267 162
408 214 245
409 92 234
410 347 459
411 30 7
412 120 37
413 397 153
414 210 29
415 87 285
416 132 32
417 390 294
418 67 451
419 24 68
420 146 439
421 209 212
422 6 292
423 18 63
424 149 98
425 91 268
426 103 177
427 367 178
428 225 269
429 443 246
430 306 42
431 374 306
432 413 421
433 470 405
434 33 278
435 149 458
436 257 57
437 272 403
438 221 291
439 1 101
440 332 459
441 220 392
442 253 50
443 250 441
444 471 484
445 480 152
446 404 83
447 476 94
448 458 213
449 215 395
450 85 288
451 179 75
452 228 287
453 397 18
454 238 204
455 488 3
456 407 88
457 459 14
458 120 17
459 235 316
460 370 382
461 405 454
462 17 458
463 43 135
464 318 497
465 199 268
466 111 467
467 138 438
468 172 314
469 494 468
470 35 303
471 341 59
472 423 221
473 395 295
474 413 417
475 339 60
476 277 428
477 176 199
478 265 240
479 365 190
480 133 53
481 387 488
482 385 295
483 491 369
484 445 273
485 195 273
486 313 493
487 495 227
488 241 403
489 30 72
490 21 487
491 324 99
492 453 318
493 443 272
494 447 184
495 366 288
496 440 284
497 13 314
498 72 227
499 377 385
500 477 478
501 204 185
502 226 191
503 330 138
504 185 434
505 483 22
506 71 282
507 60 5
508 189 402
509 134 211
510 146 313
511 21 146
512 37 281
513 416 417
514 44 311
515 361 181
516 444 242
517 444 271
518 359 179
519 388 334
520 401 164
521 499 316
522 399 106
523 425 215
524 407 98
525 406 460
526 88 95
527 95 64
528 306 229
529 273 55
530 384 149
531 122 35
532 308 199
533 390 301
534 300 108
535 267 400
536 8 300
537 105 181
538 398 325
539 166 247
540 140 431
541 253 118
542 359 246
543 321 277
544 168 59
545 406 285
546 391 334
547 437 19
548 201 278
549 435 267
550 245 408
551 16 462
552 107 374
553 477 97
554 346 57
555 14 459
556 102 6
557 359 287
558 297 131
559 282 1
560 21 70
561 440 244
562 482 104
563 120 261
564 125 29
565 292 32
566 262 92
567 68 160
568 405 276
569 277 50
570 32 319
571 344 70
572 481 84
573 21 68
574 441 244
575 57 43
576 1 293
577 481 96
578 471 368
579 236 126
580 406 99
581 303 186
582 225 369
583 412 453
584 104 349
585 173 182
586 111 464
587 53 440
588 69 336
589 359 182
590 13 459
591 244 277
592 484 177
593 452 206
594 22 483
595 452 110
596 347 192
597 95 92
598 368 311
599 479 387
600 479 169
601 497 266
602 66 336
603 376 195
604 401 281
605 441 177
606 231 203
607 21 488
608 231 204
609 122 422
610 65 453
611 206 261
612 466 149
613 313 119
614 90 274
615 39 162
616 35 306
617 437 15
618 307 412
619 79 291
620 64 437
621 376 92
622 129 27
623 196 489
624 51 286
625 20 488
626 13 455
627 170 347
628 92 230
629 117 467
630 413 217
631 405 450
632 394 322
633 125 61
634 238 123
635 11 403
636 89 272
637 304 102
638 478 121
639 408 84
640 376 494
641 20 73
642 159 299
643 95 382
644 352 63
645 365 274
646 30 301
647 351 5
648 197 267
649 498 171
650 468 352
651 418 251
652 489 437
653 251 63
654 132 55
655 281 96
656 333 293
657 255 487
658 207 400
659 469 489
660 244 254
661 233 207
662 441 60
663 411 379
664 178 72
665 51 447
666 478 118
667 141 426
668 295 89
669 112 433
670 320 211
671 400 103
672 408 453
673 435 180
674 432 66
675 374 116
676 478 102
677 335 57
678 385 239
679 386 245
680 208 396
681 380 489
682 380 498
683 440 7
684 434 245
685 90 232
686 389 334
687 241 205
688 18 24
689 57 183
690 59 457
691 442 243
692 402 281
693 445 237
694 441 273
695 31 175
696 234 202
697 52 303
698 167 445
699 179 286
700 269 48
701 165 59
702 461 8
703 421 415
704 59 459
705 24 492
706 55 449
707 224 192
708 444 269
709 491 20
710 313 126
711 283 438
712 352 241
713 398 476
714 442 247
715 217 207
716 233 87
717 479 127
718 6 53
719 478 300
720 378 493
721 303 78
722 344 62
723 371 315
724 200 78
725 413 391
726 415 216
727 397 57
728 293 228
729 0 297
730 435 20
731 195 111
732 417 218
733 340 54
734 132 57
735 210 379
736 228 260
737 399 104
738 95 277
739 360 284
740 53 466
741 112 465
742 313 391
743 93 235
744 125 32
745 215 282
746 224 320
747 134 428
748 26 490
749 44 115
750 438 127
751 239 15
752 342 54
753 109 463
754 199 187
755 201 188
756 399 301
757 484 171
758 272 234
759 380 350
760 140 108
761 228 199
762 245 461
763 305 107
764 231 195
765 450 265
766 273 149
767 12 358
768 315 121
769 420 213
770 331 134
771 84 377
772 320 280
773 89 185
774 472 481
775 422 420
776 475 267
777 470 125
778 435 268
779 409 155
780 243 248
781 488 96
782 341 72
783 58 449
784 16 460
785 480 136
786 162 388
787 47 208
788 324 127
789 87 96
790 140 137
791 314 205
792 96 346
793 321 280
794 245 251
795 436 295
796 274 261
797 271 128
798 275 45
799 422 409
800 146 188
801 93 96
802 409 255
803 449 428
804 90 285
805 415 95
806 88 287
807 379 196
808 368 452
809 202 186
810 435 11
811 269 46
812 7 292
813 44 496
814 478 99
815 391 99
816 132 477
817 24 65
818 130 247
819 133 273
820 347 62
821 404 140
822 416 420
823 67 335
824 92 270
825 411 95
826 132 479
827 366 334
828 125 39
829 419 422
830 460 2
831 67 334
832 448 414
833 46 163
834 77 465
835 284 319
836 102 422
837 240 34
838 141 428
839 204 269
840 144 439
841 470 417
842 404 103
843 5 281
844 487 320
845 398 23
846 90 296
847 386 13
848 115 465
849 473 475
850 275 42
851 286 356
852 15 69
853 267 44
854 243 399
855 390 249
856 210 391
857 433 15
858 24 259
859 12 463
860 237 213
861 182 480
862 409 88
863 244 368
864 381 328
865 213 185
866 482 141
867 319 124
868 141 431
869 198 264
870 69 334
871 299 98
872 240 250
873 199 203
874 459 17
875 423 217
876 477 179
877 213 397
878 405 187
879 269 402
880 53 204
881 13 394
882 15 68
883 56 268
884 360 184
885 307 102
886 130 57
887 250 328
888 91 231
889 479 176
890 420 224
891 461 182
892 418 218
893 419 418
894 336 493
895 389 300
896 92 76
897 476 102
898 418 399
899 109 56
900 13 465
901 92 232
902 394 47
903 16 287
904 399 102
905 143 158
906 18 484
907 250 411
908 19 273
909 365 28
910 387 297
911 433 447
912 214 274
913 489 338
914 130 494
915 23 67
916 374 489
917 126 30
918 112 467
919 489 274
920 61 214
921 166 440
922 56 75
923 210 276
924 80 286
925 17 459
926 66 448
927 351 128
928 352 176
929 490 286
930 247 219
931 86 268
932 398 329
933 272 402
934 317 123
935 408 318
936 66 31
937 425 448
938 35 304
939 471 94
940 470 473
941 224 56
942 343 47
943 52 18
944 16 68
945 195 185
946 92 236
947 76 462
948 124 56
949 481 454
950 477 483
951 481 124
952 389 156
953 384 16
954 492 34
955 371 200
956 153 235
957 428 202
958 257 391
959 421 218
960 206 186
961 393 301
962 204 187
963 468 475
964 477 122
965 100 66
966 489 27
967 12 451
968 197 270
969 311 422
970 489 17
971 13 214
972 440 247
973 28 467
974 388 325
975 270 401
976 5 445
977 198 271
978 480 131
979 437 98
980 131 246
981 49 437
982 270 49
983 337 41
984 318 280
985 154 392
986 493 111
987 399 450
988 67 452
989 34 239
990 343 276
991 393 12
992 236 247
993 340 291
994 3 292
995 209 68
996 18 225
997 147 435
998 335 99
999 485 24
1000 470 475
1001 341 58
1002 274 261
1003 328 458
1004 401 164
1005 323 77
1006 409 255
1007 228 260
1008 238 123
1009 175 352
1010 406 99
1011 418 251
1012 366 334
1013 260 472
1014 303 186
1015 359 246
PICKUP_AND_DELIVERY_SECTION
1 0 0 7284 0 0 0
2 18 3568 3688 10 0 155
3 10 922 1042 10 0 495
4 -30 1419 1539 10 241 0
5 -30 3607 3727 10 319 0
6 40 486 606 10 0 664
7 23 243 363 10 0 468
8 33 1842 1962 10 0 164
9 17 3071 3191 0 0 1003
10 -20 1780 1900 10 377 0
11 -30 788 908 10 907 0
12 20 654 774 10 0 484
13 10 1389 1509 10 0 551
14 -20 5928 6048 10 359 0
15 -20 535 655 10 660 0
16 10 1088 1208 10 0 663
17 5 1129 1249 10 0 220
18 40 635 755 10 0 918
19 -20 895 1015 10 117 0
20 30 1379 1499 10 0 128
21 -10 1033 1153 10 524 0
22 10 950 1070 10 0 191
23 10 1180 1300 10 0 820
24 -10 1252 1372 10 959 0
25 -10 2118 2238 10 684 0
26 -20 1004 1124 10 221 0
27 40 789 909 10 0 875
28 17 776 896 10 0 126
29 -21 3297 3417 10 511 0
30 15 3205 3325 10 0 969
31 26 1999 2119 10 0 698
32 10 1171 1291 10 0 564
33 -20 1591 1711 10 680 0
34 24 4017 4137 10 0 649
35 44 3899 4019 10 0 731
36 10 1504 1624 10 0 503
37 -30 3760 3880 10 492 0
38 -20 973 1093 10 975 0
39 14 536 656 10 0 447
40 -25 3326 3446 10 713 0
41 10 790 910 10 0 994
42 -30 1373 1493 10 361 0
43 23 3682 3802 10 0 386
44 -29 4798 4918 10 178 0
45 -27 1023 1143 10 899 0
46 10 1010 1130 10 0 252
47 6 5053 5173 10 0 183
48 -35 821 941 10 509 0
49 36 5620 5740 0 0 1005
50 36 1284 1404 10 0 182
51 23 1111 1231 10 0 858
52 20 924 1044 10 0 392
53 30 667 787 10 0 902
54 -31 6775 6895 10 724 0
55 -1 5074 5194 10 655 0
56 10 1328 1448 10 0 141
57 -8 1265 1385 10 725 0
58 -10 1293 1413 10 639 0
59 -10 2307 2427 10 488 0
60 10 450 570 10 0 619
61 10 775 895 10 0 715
62 -40 1883 2003 10 280 0
63 -10 1533 1653 10 665 0
64 -10 580 700 10 895 0
65 4 1598 1718 10 0 370
66 10 666 786 10 0 441
67 -10 559 679 10 543 0
68 -31 5015 5135 10 593 0
69 -20 829 949 10 515 0
70 14 4747 4867 10 0 193
71 29 3297 3417 10 0 79
72 20 940 1060 10 0 263
73 7 3839 3959 10 0 258
74 -18 5267 5387 10 334 0
75 20 935 1055 10 0 487
76 10 1066 1186 10 0 729
77 -20 2187 2307 10 467 0
78 20 649 769 10 0 194
79 -29 5735 5855 10 71 0
80 32 5451 5571 10 0 154
81 11 1938 2058 10 0 303
82 -30 834 954 10 403 0
83 10 699 819 10 0 535
84 -3 5624 5744 10 711 0
85 20 1391 1511 10 0 266
86 -25 2861 2981 10 276 0
87 -25 5136 5256 10 908 0
88 20 499 619 10 0 496
89 26 638 758 10 0 180
90 -25 1219 1339 10 302 0
91 -30 4768 4888 10 720 0
92 7 2554 2674 10 0 270
93 -20 4497 4617 10 344 0
94 30 160 280 10 0 822
95 -10 5051 5171 10 236 0
96 -20 1696 1816 10 261 0
97 21 1147 1267 10 0 674
98 10 1325 1445 10 0 900
99 23 1979 2099 10 0 339
100 3 4364 4484 10 0 965
101 -20 1223 1343 10 465 0
102 20 333 453 10 0 938
103 10 1232 1352 10 0 667
104 -31 4450 4570 10 160 0
105 -10 1309 1429 10 672 0
106 20 866 986 10 0 679
107 -10 4518 4638 10 925 0
108 10 695 815 10 0 774
109 -10 1731 1851 10 966 0
110 28 6232 6352 10 0 995
111 10 1453 1573 10 0 986
112 8 3284 3404 10 0 388
113 -20 2929 3049 10 904 0
114 -7 6165 6285 10 981 0
115 19 365 485 10 0 737
116 -20 6723 6843 10 260 0
117 20 607 727 10 0 19
118 30 1027 1147 10 0 380
119 -20 1222 1342 10 763 0
120 -10 3155 3275 10 812 0
121 27 3082 3202 10 0 609
122 -30 4489 4609 10 939 0
123 10 1634 1754 10 0 547
124 20 1254 1374 10 0 179
125 20 245 365 10 0 205
126 -17 1691 1811 10 28 0
127 10 192 312 10 0 643
128 -30 3728 3848 10 20 0
129 -30 5092 5212 10 703 0
130 13 3186 3306 10 0 983
131 -22 4318 4438 10 140 0
132 -20 1792 1912 10 876 0
133 -19 5179 5299 10 728 0
134 -20 876 996 10 342 0
135 -10 814 934 10 636 0
136 -30 573 693 10 163 0
137 -13 4188 4308 10 599 0
138 20 962 1082 10 0 622
139 -10 2614 2734 10 607 0
140 22 1326 1446 10 0 131
141 -10 4892 5012 10 56 0
142 -20 6302 6422 10 894 0
143 -10 1430 1550 10 569 0
144 20 475 595 10 0 726
145 18 592 712 10 0 625
146 -10 3319 3439 10 755 0
147 10 822 942 10 0 202
148 17 845 965 10 0 748
149 -10 1037 1157 10 933 0
150 30 507 627 10 0 879
151 10 1010 1130 10 0 814
152 -20 5732 5852 10 944 0
153 20 1145 1265 10 0 563
154 -32 6886 7006 10 80 0
155 -18 4099 4219 10 2 0
156 -33 741 861 10 364 0
157 -28 5528 5648 10 943 0
158 -20 1179 1299 10 312 0
159 -8 5187 5307 10 552 0
160 31 4404 4524 10 0 104
161 -20 1182 1302 10 614 0
162 10 497 617 10 0 305
163 30 519 639 10 0 136
164 -33 4405 4525 10 8 0
165 -10 1334 1454 10 355 0
166 20 1318 1438 10 0 381
167 -32 2871 2991 10 790 0
168 10 1340 1460 10 0 321
169 -20 5786 5906 10 846 0
170 10 845 965 10 0 700
171 20 1115 1235 10 0 362
172 10 836 956 10 0 617
173 40 3235 3355 10 0 621
174 -12 2975 3095 10 735 0
175 2 1172 1292 10 0 773
176 10 1060 1180 10 0 378
177 20 2 122 10 0 839
178 29 3805 3925 10 0 44
179 -20 5916 6036 10 124 0
180 -26 935 1055 10 89 0
181 -20 1114 1234 10 815 0
182 -36 3472 3592 10 50 0
183 -6 5644 5764 10 47 0
184 -30 1539 1659 10 366 0
185 10 3313 3433 10 0 803
186 -25 5164 5284 10 697 0
187 -10 4905 5025 10 456 0
188 -6 4191 4311 10 544 0
189 -30 1191 1311 10 961 0
190 -10 1928 2048 10 602 0
191 -10 1168 1288 10 22 0
192 -20 3611 3731 10 600 0
193 -14 4806 4926 10 70 0
194 -20 4104 4224 10 78 0
195 15 2396 2516 10 0 333
196 -30 1388 1508 10 677 0
197 -2 5129 5249 10 750 0
198 -20 1435 1555 10 747 0
199 -14 1463 1583 10 565 0
200 -20 2106 2226 10 382 0
201 -10 1618 1738 10 963 0
202 -10 1005 1125 10 147 0
203 -10 3270 3390 10 290 0
204 10 930 1050 10 0 415
205 -20 1307 1427 10 125 0
206 24 4001 4121 10 0 979
207 20 155 275 10 0 306
208 -10 4114 4234 10 533 0
209 33 4144 4264 0 0 1013
210 -30 3584 3704 10 613 0
211 -20 903 1023 10 417 0
212 20 1260 1380 10 0 474
213 20 1303 1423 10 0 760
214 -20 1518 1638 10 950 0
215 -20 5136 5256 10 316 0
216 20 686 806 10 0 941
217 30 658 778 10 0 517
218 -19 2257 2377 10 657 0
219 -9 5543 5663 10 937 0
220 -5 1368 1488 10 17 0
221 20 932 1052 10 0 26
222 -26 6184 6304 10 374 0
223 -30 4398 4518 10 780 0
224 20 1563 1683 10 0 821
225 -18 4682 4802 10 723 0
226 40 532 652 10 0 500
227 14 4427 4547 10 0 479
228 13 774 894 10 0 399
229 -9 221 341 10 438 0
230 30 1391 1511 10 0 861
231 10 47 167 10 0 806
232 -10 1192 1312 10 262 0
233 -10 4241 4361 10 733 0
234 20 867 987 10 0 964
235 32 127 247 10 0 477
236 10 591 711 10 0 95
237 -30 3394 3514 10 850 0
238 -20 2847 2967 10 681 0
239 -10 817 937 10 611 0
240 -20 1363 1483 10 429 0
241 30 598 718 10 0 4
242 -10 3906 4026 10 641 0
243 20 1287 1407 10 0 372
244 30 1115 1235 10 0 506
245 -10 96 216 10 872 0
246 10 1058 1178 10 0 248
247 12 6660 6780 0 0 1009
248 -10 3467 3587 10 246 0
249 20 324 444 10 0 865
250 -10 2103 2223 10 574 0
251 -19 5569 5689 10 578 0
252 -10 1350 1470 10 46 0
253 10 259 379 10 0 618
254 20 1037 1157 10 0 410
255 -20 1636 1756 10 828 0
256 11 3261 3381 10 0 421
257 19 996 1116 10 0 1000
258 -7 5277 5397 10 73 0
259 -1 1616 1736 10 539 0
260 20 5400 5520 10 0 116
261 20 1309 1429 10 0 96
262 10 375 495 10 0 232
263 -20 1363 1483 10 72 0
264 -10 1784 1904 10 1001 0
265 20 643 763 10 0 710
266 -20 2234 2354 10 85 0
267 10 1505 1625 10 0 395
268 20 863 983 10 0 337
269 20 1120 1240 10 0 490
270 -7 5506 5626 10 92 0
271 -3 6055 6175 10 556 0
272 34 396 516 10 0 742
273 20 98 218 10 0 953
274 20 497 617 10 0 955
275 -10 1615 1735 10 283 0
276 25 172 292 10 0 86
277 18 1051 1171 10 0 555
278 22 2687 2807 10 0 393
279 -30 1470 1590 10 446 0
280 40 1631 1751 10 0 62
281 16 2501 2621 10 0 800
282 18 936 1056 10 0 887
283 10 1511 1631 10 0 275
284 -20 4676 4796 10 829 0
285 -14 5322 5442 10 598 0
286 14 669 789 10 0 671
287 10 1076 1196 10 0 537
288 -20 1285 1405 10 811 0
289 20 1832 1952 10 0 954
290 10 1237 1357 10 0 203
291 -14 2032 2152 10 949 0
292 -20 5031 5151 10 686 0
293 -20 3748 3868 10 335 0
294 10 223 343 10 0 526
295 -20 4272 4392 10 347 0
296 -20 4345 4465 10 450 0
297 -13 5398 5518 10 891 0
298 10 784 904 10 0 435
299 30 754 874 10 0 675
300 -30 3127 3247 10 352 0
301 10 604 724 10 0 717
302 25 764 884 10 0 90
303 -11 6305 6425 10 81 0
304 -14 1205 1325 10 645 0
305 -10 586 706 10 162 0
306 -20 566 686 10 207 0
307 -10 1193 1313 10 860 0
308 -20 998 1118 10 616 0
309 -22 1194 1314 10 485 0
310 10 1291 1411 10 0 623
311 -20 1247 1367 10 734 0
312 20 506 626 10 0 158
313 20 856 976 10 0 633
314 9 5122 5242 10 0 843
315 20 294 414 10 0 411
316 20 777 897 10 0 215
317 30 549 669 10 0 413
318 -14 6778 6898 10 653 0
319 30 1353 1473 10 0 5
320 -10 1214 1334 10 931 0
321 -10 1795 1915 10 168 0
322 10 911 1031 10 0 842
323 -12 5394 5514 10 721 0
324 10 1165 1285 10 0 890
325 12 2778 2898 10 0 443
326 20 727 847 10 0 647
327 10 609 729 10 0 871
328 20 646 766 10 0 583
329 20 1286 1406 10 0 816
330 20 880 1000 10 0 549
331 -20 1114 1234 10 992 0
332 -10 2514 2634 10 534 0
333 -15 3928 4048 10 195 0
334 18 3341 3461 10 0 74
335 20 714 834 10 0 293
336 -10 1347 1467 10 741 0
337 -20 1566 1686 10 268 0
338 20 1588 1708 10 0 781
339 -23 5671 5791 10 99 0
340 -4 4652 4772 10 527 0
341 -20 3529 3649 10 360 0
342 20 771 891 10 0 134
343 -20 808 928 10 606 0
344 20 1409 1529 10 0 93
345 30 535 655 10 0 458
346 10 1231 1351 10 0 957
347 20 374 494 10 0 295
348 19 2616 2736 10 0 428
349 -14 3215 3335 10 497 0
350 20 236 356 10 0 588
351 20 598 718 10 0 807
352 30 1297 1417 10 0 300
353 10 607 727 10 0 499
354 -10 1287 1407 10 682 0
355 10 545 665 10 0 165
356 10 653 773 10 0 627
357 22 1451 1571 10 0 971
358 25 3232 3352 10 0 397
359 20 1499 1619 10 0 14
360 20 2651 2771 10 0 341
361 30 621 741 10 0 42
362 -20 1182 1302 10 171 0
363 -30 868 988 10 437 0
364 33 441 561 10 0 156
365 -40 1076 1196 10 885 0
366 30 1227 1347 10 0 184
367 20 1519 1639 10 0 462
368 -20 670 790 10 977 0
369 -30 5781 5901 10 851 0
370 -4 4579 4699 10 65 0
371 15 517 637 10 0 444
372 -20 4550 4670 10 243 0
373 -20 2881 3001 10 801 0
374 26 899 1019 10 0 222
375 -20 610 730 10 869 0
376 20 686 806 10 0 430
377 20 1294 1414 10 0 10
378 -10 1120 1240 10 176 0
379 -8 2713 2833 10 762 0
380 -30 2988 3108 10 118 0
381 -20 1866 1986 10 166 0
382 20 1065 1185 10 0 200
383 -10 1279 1399 10 422 0
384 -26 937 1057 10 792 0
385 -14 5214 5334 10 595 0
386 -23 5348 5468 10 43 0
387 20 217 337 10 0 554
388 -8 6128 6248 10 112 0
389 25 669 789 10 0 917
390 30 592 712 10 0 795
391 -20 2433 2553 10 972 0
392 -20 1650 1770 10 52 0
393 -22 3426 3546 10 278 0
394 30 442 562 10 0 670
395 -10 4516 4636 10 267 0
396 10 563 683 10 0 425
397 -25 5226 5346 10 358 0
398 20 1703 1823 10 0 486
399 -13 3739 3859 10 228 0
400 -20 3178 3298 10 457 0
401 28 3394 3514 10 0 530
402 20 754 874 10 0 714
403 30 547 667 10 0 82
404 -15 5367 5487 10 805 0
405 20 1290 1410 10 0 440
406 30 721 841 10 0 605
407 -10 5797 5917 10 491 0
408 8 85 205 10 0 409
409 -8 939 1059 10 408 0
410 -20 1918 2038 10 254 0
411 -20 4754 4874 10 315 0
412 28 3101 3221 10 0 896
413 -30 3530 3650 10 317 0
414 -23 4203 4323 10 668 0
415 -10 964 1084 10 204 0
416 18 3138 3258 10 0 575
417 20 949 1069 10 0 211
418 -20 4862 4982 10 911 0
419 -10 1658 1778 10 707 0
420 -20 1037 1157 10 838 0
421 -11 6111 6231 10 256 0
422 10 970 1090 10 0 383
423 10 1356 1476 10 0 507
424 4 4660 4780 10 0 837
425 -10 978 1098 10 396 0
426 28 2506 2626 10 0 434
427 -9 721 841 10 478 0
428 -19 5083 5203 10 348 0
429 20 919 1039 10 0 240
430 -20 1907 2027 10 376 0
431 -15 3976 4096 10 759 0
432 -20 1212 1332 10 631 0
433 -9 3703 3823 10 650 0
434 -28 5949 6069 10 426 0
435 -10 4655 4775 10 298 0
436 -25 4904 5024 10 566 0
437 30 759 879 10 0 363
438 9 184 304 10 0 229
439 -8 5029 5149 10 718 0
440 -20 1475 1595 10 405 0
441 -10 1031 1151 10 66 0
442 -20 903 1023 10 798 0
443 -12 3023 3143 10 325 0
444 -15 1359 1479 10 371 0
445 -25 4086 4206 10 601 0
446 30 1194 1314 10 0 279
447 -14 1079 1199 10 39 0
448 -10 4513 4633 10 757 0
449 -10 968 1088 10 877 0
450 20 728 848 10 0 296
451 -40 2960 3080 10 886 0
452 21 112 232 10 0 856
453 -20 1168 1288 10 475 0
454 20 419 539 10 0 702
455 3 1602 1722 10 0 562
456 10 1298 1418 10 0 187
457 20 1241 1361 10 0 400
458 -30 1116 1236 10 345 0
459 -17 2623 2743 10 818 0
460 11 3535 3655 10 0 632
461 -23 5212 5332 10 832 0
462 -20 1732 1852 10 367 0
463 31 887 1007 10 0 922
464 -20 3415 3535 10 590 0
465 20 285 405 10 0 101
466 20 1148 1268 10 0 783
467 20 1149 1269 10 0 77
468 -23 2182 2302 10 7 0
469 31 1410 1530 10 0 659
470 20 826 946 10 0 620
471 -9 3159 3279 10 782 0
472 -10 1033 1153 10 765 0
473 20 845 965 10 0 568
474 -20 1424 1544 10 212 0
475 20 844 964 10 0 453
476 -30 1961 2081 10 640 0
477 -32 299 419 10 235 0
478 9 18 138 10 0 427
479 -14 5910 6030 10 227 0
480 -10 1118 1238 10 654 0
481 20 1448 1568 10 0 746
482 -30 509 629 10 793 0
483 -10 2918 3038 10 849 0
484 -20 1031 1151 10 12 0
485 22 178 298 10 0 309
486 -20 4772 4892 10 398 0
487 -20 1376 1496 10 75 0
488 10 881 1001 10 0 59
489 -25 1726 1846 10 585 0
490 -20 1401 1521 10 269 0
491 10 1352 1472 10 0 407
492 30 1495 1615 10 0 37
493 10 1080 1200 10 0 778
494 27 1698 1818 10 0 864
495 -10 2735 2855 10 3 0
496 -20 3407 3527 10 88 0
497 14 975 1095 10 0 349
498 -24 2255 2375 10 695 0
499 -10 3465 3585 10 353 0
500 -40 1569 1689 10 226 0
501 20 653 773 10 0 948
502 20 372 492 10 0 529
503 -10 4438 4558 10 36 0
504 -10 2294 2414 10 508 0
505 10 1336 1456 10 0 709
506 -30 2567 2687 10 244 0
507 -10 4175 4295 10 423 0
508 10 2144 2264 10 0 504
509 35 482 602 10 0 48
510 22 4781 4901 10 0 873
511 21 1947 2067 10 0 29
512 -4 1973 2093 10 920 0
513 -20 1372 1492 10 775 0
514 -18 1630 1750 10 635 0
515 20 788 908 10 0 69
516 10 862 982 10 0 732
517 -30 982 1102 10 217 0
518 -20 649 769 10 928 0
519 20 632 752 10 0 712
520 13 2485 2605 0 0 1004
521 18 2487 2607 10 0 758
522 -20 1207 1327 10 892 0
523 -10 916 1036 10 693 0
524 10 814 934 10 0 21
525 -20 2877 2997 10 987 0
526 -10 1081 1201 10 294 0
527 4 3064 3184 10 0 340
528 -11 5281 5401 10 770 0
529 -20 725 845 10 502 0
530 -28 4789 4909 10 401 0
531 10 981 1101 10 0 744
532 -21 6033 6153 10 662 0
533 10 661 781 10 0 208
534 10 542 662 10 0 332
535 -10 929 1049 10 83 0
536 -16 1423 1543 10 989 0
537 -10 6125 6245 10 287 0
538 -20 933 1053 10 984 0
539 1 276 396 10 0 259
540 30 828 948 10 0 826
541 -18 2189 2309 10 716 0
542 18 5691 5811 0 0 1015
543 10 244 364 10 0 67
544 6 1464 1584 10 0 188
545 20 715 835 10 0 935
546 20 724 844 10 0 678
547 -10 4056 4176 10 123 0
548 13 166 286 10 0 669
549 -20 1291 1411 10 330 0
550 10 815 935 10 0 719
551 -10 1543 1663 10 13 0
552 8 3657 3777 10 0 159
553 10 1131 1251 10 0 666
554 -20 1233 1353 10 387 0
555 -18 1343 1463 10 277 0
556 3 5834 5954 10 0 271
557 24 400 520 10 0 932
558 -27 4662 4782 10 952 0
559 -2 4170 4290 10 751 0
560 -20 3085 3205 10 573 0
561 -20 1064 1184 10 708 0
562 -3 3230 3350 10 455 0
563 -20 3173 3293 10 153 0
564 -10 1133 1253 10 32 0
565 14 917 1037 10 0 199
566 25 2522 2642 10 0 436
567 -10 4543 4663 10 901 0
568 -20 937 1057 10 473 0
569 10 791 911 10 0 143
570 -12 1602 1722 10 903 0
571 24 4583 4703 10 0 998
572 17 2022 2142 10 0 644
573 20 1606 1726 10 0 560
574 10 1108 1228 10 0 250
575 -18 4094 4214 10 416 0
576 10 1071 1191 10 0 584
577 -20 1188 1308 10 630 0
578 19 1712 1832 10 0 251
579 -10 439 559 10 696 0
580 20 908 1028 0 0 1010
581 10 5417 5537 0 0 1014
582 38 426 546 10 0 587
583 -20 1188 1308 10 328 0
584 -10 4037 4157 10 576 0
585 25 351 471 10 0 489
586 -30 1242 1362 10 870 0
587 -38 1292 1412 10 582 0
588 -20 872 992 10 350 0
589 20 837 957 10 0 919
590 20 1387 1507 10 0 464
591 -17 5205 5325 10 835 0
592 20 1006 1126 10 0 878
593 31 1969 2089 10 0 68
594 30 1244 1364 10 0 906
595 14 1361 1481 10 0 385
596 -7 5953 6073 10 776 0
597 -24 1011 1131 10 749 0
598 14 3704 3824 10 0 285
599 13 1590 1710 10 0 137
600 20 1234 1354 10 0 192
601 25 2990 3110 10 0 445
602 10 1013 1133 10 0 190
603 10 724 844 10 0 951
604 20 1044 1164 10 0 692
605 -30 4005 4125 10 406 0
606 20 266 386 10 0 343
607 10 1445 1565 10 0 139
608 20 601 721 10 0 962
609 -27 5827 5947 10 121 0
610 30 1127 1247 10 0 859
611 10 730 850 10 0 239
612 16 4744 4864 10 0 766
613 30 863 983 10 0 210
614 20 717 837 10 0 161
615 18 2261 2381 10 0 624
616 20 918 1038 10 0 308
617 -10 1421 1541 10 172 0
618 -10 1615 1735 10 253 0
619 -10 835 955 10 60 0
620 -20 3673 3793 10 470 0
621 -40 3962 4082 10 173 0
622 -20 1190 1310 10 138 0
623 -10 4121 4241 10 310 0
624 -18 5836 5956 10 615 0
625 -18 1489 1609 10 145 0
626 -11 1243 1363 10 834 0
627 -10 1743 1863 10 356 0
628 20 755 875 10 0 787
629 10 958 1078 10 0 705
630 20 656 776 10 0 577
631 20 993 1113 10 0 432
632 -11 4099 4219 10 460 0
633 -20 2447 2567 10 313 0
634 24 3124 3244 0 0 1008
635 18 1372 1492 10 0 514
636 10 766 886 10 0 135
637 30 787 907 10 0 752
638 -37 1275 1395 10 673 0
639 10 1137 1257 10 0 58
640 30 1079 1199 10 0 476
641 10 1101 1221 10 0 242
642 -10 4062 4182 10 771 0
643 -10 925 1045 10 127 0
644 -17 4713 4833 10 572 0
645 14 410 530 10 0 304
646 -10 1110 1230 10 794 0
647 -20 1984 2104 10 326 0
648 10 435 555 10 0 823
649 -24 5026 5146 10 34 0
650 9 3073 3193 10 0 433
651 21 4787 4907 0 0 1011
652 29 2827 2947 10 0 841
653 14 3950 4070 10 0 318
654 10 1069 1189 10 0 480
655 1 4503 4623 10 0 55
656 -22 2468 2588 10 993 0
657 19 1592 1712 10 0 218
658 20 762 882 10 0 690
659 -31 2222 2342 10 469 0
660 20 401 521 10 0 15
661 10 165 285 10 0 701
662 21 5835 5955 10 0 532
663 -10 4773 4893 10 16 0
664 -40 3027 3147 10 6 0
665 10 1178 1298 10 0 63
666 -10 1417 1537 10 553 0
667 -10 2126 2246 10 103 0
668 23 2968 3088 10 0 414
669 -13 940 1060 10 548 0
670 -30 3970 4090 10 394 0
671 -14 1022 1142 10 286 0
672 10 1132 1252 10 0 105
673 37 898 1018 10 0 638
674 -21 4285 4405 10 97 0
675 -30 2349 2469 10 299 0
676 10 1297 1417 10 0 897
677 30 784 904 10 0 196
678 -20 3142 3262 10 546 0
679 -20 1916 2036 10 106 0
680 20 706 826 10 0 33
681 20 1516 1636 10 0 238
682 10 1189 1309 10 0 354
683 20 1255 1375 10 0 999
684 10 1367 1487 10 0 25
685 -10 846 966 10 956 0
686 20 676 796 10 0 292
687 -17 472 592 10 930 0
688 -30 2513 2633 10 915 0
689 -8 4401 4521 10 880 0
690 -20 1337 1457 10 658 0
691 -15 1154 1274 10 990 0
692 -20 1000 1120 10 604 0
693 10 802 922 10 0 523
694 -30 1129 1249 10 756 0
695 24 986 1106 10 0 498
696 10 319 439 10 0 579
697 25 1765 1885 10 0 186
698 -26 5648 5768 10 31 0
699 -20 1365 1485 10 738 0
700 -10 1122 1242 10 170 0
701 -10 3771 3891 10 661 0
702 -20 1476 1596 10 454 0
703 30 941 1061 10 0 129
704 -12 1245 1365 10 921 0
705 -10 1848 1968 10 629 0
706 20 1054 1174 10 0 976
707 10 280 400 10 0 419
708 20 934 1054 10 0 561
709 -10 1574 1694 10 505 0
710 -20 973 1093 10 265 0
711 3 926 1046 10 0 84
712 -20 3169 3289 10 519 0
713 25 1672 1792 10 0 40
714 -20 964 1084 10 402 0
715 -10 5530 5650 10 61 0
716 18 1010 1130 10 0 541
717 -10 1079 1199 10 301 0
718 8 2348 2468 10 0 439
719 -10 3558 3678 10 550 0
720 30 1127 1247 10 0 91
721 12 660 780 10 0 323
722 -20 1386 1506 10 853 0
723 18 4663 4783 10 0 225
724 31 3971 4091 10 0 54
725 8 868 988 10 0 57
726 -20 705 825 10 144 0
727 -10 5904 6024 10 991 0
728 19 133 253 10 0 133
729 -10 1171 1291 10 76 0
730 -20 1526 1646 10 862 0
731 -44 3992 4112 10 35 0
732 -10 1112 1232 10 516 0
733 10 951 1071 10 0 233
734 20 978 1098 10 0 311
735 12 2835 2955 10 0 174
736 12 6422 6542 0 0 1007
737 -19 1159 1279 10 115 0
738 20 1098 1218 10 0 699
739 -25 2666 2786 10 863 0
740 -10 1340 1460 10 848 0
741 10 1197 1317 10 0 336
742 -34 598 718 10 272 0
743 10 985 1105 10 0 996
744 -10 1038 1158 10 531 0
745 -24 5762 5882 10 912 0
746 -20 5135 5255 10 481 0
747 20 1232 1352 10 0 198
748 -17 1899 2019 10 148 0
749 24 925 1045 10 0 597
750 2 3764 3884 10 0 197
751 2 2415 2535 10 0 559
752 -30 999 1119 10 637 0
753 -20 1334 1454 10 997 0
754 20 507 627 10 0 945
755 10 555 675 10 0 146
756 30 777 897 10 0 694
757 10 1173 1293 10 0 448
758 -18 6361 6481 10 521 0
759 15 3466 3586 10 0 431
760 -20 4285 4405 10 213 0
761 10 537 657 10 0 960
762 8 2597 2717 10 0 379
763 20 901 1021 10 0 119
764 20 437 557 10 0 942
765 10 865 985 10 0 472
766 -16 6011 6131 10 612 0
767 -18 4897 5017 10 947 0
768 10 812 932 10 0 797
769 10 814 934 10 0 777
770 11 4495 4615 10 0 528
771 10 3705 3825 10 0 642
772 10 340 460 10 0 910
773 -2 2399 2519 10 175 0
774 -10 1306 1426 10 108 0
775 20 1050 1170 10 0 513
776 7 3118 3238 10 0 596
777 -10 952 1072 10 769 0
778 -10 1247 1367 10 493 0
779 19 681 801 10 0 825
780 30 96 216 10 0 223
781 -20 4265 4385 10 338 0
782 9 3219 3339 10 0 471
783 -20 1451 1571 10 466 0
784 -30 1643 1763 10 868 0
785 -20 967 1087 10 889 0
786 -16 4504 4624 10 808 0
787 -20 906 1026 10 628 0
788 30 514 634 10 0 982
789 30 1127 1247 10 0 852
790 32 2279 2399 10 0 167
791 -14 6107 6227 10 866 0
792 26 741 861 10 0 384
793 30 296 416 10 0 482
794 10 5 125 10 0 646
795 -30 2113 2233 10 390 0
796 20 6828 6948 0 0 1002
797 -10 1382 1502 10 768 0
798 20 898 1018 10 0 442
799 10 877 997 10 0 893
800 -16 4940 5060 10 281 0
801 20 902 1022 10 0 373
802 23 6090 6210 0 0 1006
803 -10 4987 5107 10 185 0
804 -20 1105 1225 10 824 0
805 15 4707 4827 10 0 404
806 -10 1054 1174 10 231 0
807 -20 776 896 10 351 0
808 16 2680 2800 10 0 786
809 20 604 724 10 0 833
810 -20 1189 1309 10 857 0
811 20 1074 1194 10 0 288
812 10 926 1046 10 0 120
813 -30 1607 1727 10 988 0
814 -10 1245 1365 10 151 0
815 20 766 886 10 0 181
816 -20 1309 1429 10 329 0
817 -10 1461 1581 10 882 0
818 17 420 540 10 0 459
819 20 417 537 10 0 881
820 -10 1334 1454 10 23 0
821 -20 5035 5155 10 224 0
822 -30 1159 1279 10 94 0
823 -10 967 1087 10 648 0
824 20 1027 1147 10 0 804
825 -19 971 1091 10 779 0
826 -30 970 1090 10 540 0
827 5 1641 1761 0 0 1012
828 20 921 1041 10 0 255
829 20 1105 1225 10 0 284
830 -9 1412 1532 10 909 0
831 -10 923 1043 10 924 0
832 23 4891 5011 10 0 461
833 -20 3704 3824 10 809 0
834 11 1044 1164 10 0 626
835 17 3267 3387 10 0 591
836 -9 905 1025 10 985 0
837 -4 6238 6358 10 424 0
838 20 775 895 10 0 420
839 -20 139 259 10 177 0
840 30 1085 1205 10 0 914
841 -29 2947 3067 10 652 0
842 -10 966 1086 10 322 0
843 -9 5486 5606 10 314 0
844 -10 3431 3551 10 940 0
845 10 1024 1144 10 0 978
846 20 606 726 10 0 169
847 10 1348 1468 10 0 874
848 10 1049 1169 10 0 740
849 10 1669 1789 10 0 483
850 30 950 1070 10 0 237
851 30 388 508 10 0 369
852 -30 1167 1287 10 789 0
853 20 1023 1143 10 0 722
854 10 939 1059 10 0 916
855 -10 2327 2447 10 974 0
856 -21 566 686 10 452 0
857 20 1131 1251 10 0 810
858 -23 1480 1600 10 51 0
859 -30 1443 1563 10 610 0
860 10 588 708 10 0 307
861 -30 1459 1579 10 230 0
862 20 1081 1201 10 0 730
863 25 1656 1776 10 0 739
864 -27 2869 2989 10 494 0
865 -20 239 359 10 249 0
866 14 4043 4163 10 0 791
867 20 712 832 10 0 934
868 30 872 992 10 0 784
869 20 561 681 10 0 375
870 30 824 944 10 0 586
871 -10 667 787 10 327 0
872 10 150 270 10 0 245
873 -22 5829 5949 10 510 0
874 -10 1645 1765 10 847 0
875 -40 967 1087 10 27 0
876 20 891 1011 10 0 132
877 10 869 989 10 0 449
878 -20 5002 5122 10 592 0
879 -30 811 931 10 150 0
880 8 4220 4340 10 0 689
881 -20 1490 1610 10 819 0
882 10 1211 1331 10 0 817
883 -17 4256 4376 10 980 0
884 10 886 1006 10 0 929
885 40 839 959 10 0 365
886 40 930 1050 10 0 451
887 -18 995 1115 10 282 0
888 30 801 921 10 0 946
889 20 946 1066 10 0 785
890 -10 1716 1836 10 324 0
891 13 2516 2636 10 0 297
892 20 1068 1188 10 0 522
893 -10 996 1116 10 799 0
894 20 5972 6092 10 0 142
895 10 615 735 10 0 64
896 -28 4556 4676 10 412 0
897 -10 1345 1465 10 676 0
898 20 1751 1871 10 0 913
899 27 899 1019 10 0 45
900 -10 3094 3214 10 98 0
901 10 707 827 10 0 567
902 -30 1252 1372 10 53 0
903 12 1083 1203 10 0 570
904 20 1068 1188 10 0 113
905 12 550 670 10 0 936
906 -30 1300 1420 10 594 0
907 30 752 872 10 0 11
908 25 4066 4186 10 0 87
909 9 1073 1193 10 0 830
910 -10 561 681 10 772 0
911 20 3177 3297 10 0 418
912 24 5476 5596 10 0 745
913 -20 5589 5709 10 898 0
914 -30 3035 3155 10 840 0
915 30 1557 1677 10 0 688
916 -10 1017 1137 10 854 0
917 -25 1087 1207 10 389 0
918 -40 1104 1224 10 18 0
919 -20 2135 2255 10 589 0
920 4 1367 1487 10 0 512
921 12 771 891 10 0 704
922 -31 5751 5871 10 463 0
923 5 131 251 10 0 967
924 10 896 1016 10 0 831
925 10 1688 1808 10 0 107
926 10 1021 1141 10 0 958
927 -10 5013 5133 10 970 0
928 20 444 564 10 0 518
929 -10 2089 2209 10 884 0
930 17 65 185 10 0 687
931 10 869 989 10 0 320
932 -24 611 731 10 557 0
933 10 638 758 10 0 149
934 -20 761 881 10 867 0
935 -20 2572 2692 10 545 0
936 -12 4194 4314 10 905 0
937 9 3178 3298 10 0 219
938 -20 870 990 10 102 0
939 30 3995 4115 10 0 122
940 10 1724 1844 10 0 844
941 -20 4746 4866 10 216 0
942 -20 1108 1228 10 764 0
943 28 3428 3548 10 0 157
944 20 1255 1375 10 0 152
945 -20 449 569 10 754 0
946 -30 1031 1151 10 888 0
947 18 3824 3944 10 0 767
948 -20 865 985 10 501 0
949 14 1282 1402 10 0 291
950 20 1463 1583 10 0 214
951 -10 1134 1254 10 603 0
952 27 2862 2982 10 0 558
953 -20 1402 1522 10 273 0
954 -20 3242 3362 10 289 0
955 -20 897 1017 10 274 0
956 10 333 453 10 0 685
957 -10 3615 3735 10 346 0
958 -10 6532 6652 10 926 0
959 10 1016 1136 10 0 24
960 -10 750 870 10 761 0
961 30 713 833 10 0 189
962 -20 701 821 10 608 0
963 10 1193 1313 10 0 201
964 -20 1320 1440 10 234 0
965 -3 5599 5719 10 100 0
966 10 1685 1805 10 0 109
967 -5 1186 1306 10 923 0
968 30 383 503 10 0 973
969 -15 3952 4072 10 30 0
970 10 1520 1640 10 0 927
971 -22 5414 5534 10 357 0
972 20 1012 1132 10 0 391
973 -30 5370 5490 10 968 0
974 10 1053 1173 10 0 855
975 20 589 709 10 0 38
976 -20 1244 1364 10 706 0
977 20 337 457 10 0 368
978 -10 2750 2870 10 845 0
979 -24 4455 4575 10 206 0
980 17 3328 3448 10 0 883
981 7 1710 1830 10 0 114
982 -30 1168 1288 10 788 0
983 -13 4009 4129 10 130 0
984 20 388 508 10 0 538
985 9 626 746 10 0 836
986 -10 2164 2284 10 111 0
987 20 1435 1555 10 0 525
988 30 1078 1198 10 0 813
989 16 876 996 10 0 536
990 15 326 446 10 0 691
991 10 1237 1357 10 0 727
992 20 210 330 10 0 331
993 22 1882 2002 10 0 656
994 -10 1022 1142 10 41 0
995 -28 6272 6392 10 110 0
996 -10 2765 2885 10 743 0
997 20 980 1100 10 0 753
998 -24 4874 4994 10 571 0
999 -20 1285 1405 10 683 0
1000 -19 1241 1361 10 257 0
1001 10 895 1015 10 0 264
1002 -20 6828 6948 10 796 0
1003 -17 3071 3191 10 9 0
1004 -13 2485 2605 10 520 0
1005 -36 5620 5740 10 49 0
1006 -23 6090 6210 10 802 0
1007 -12 6422 6542 10 736 0
1008 -24 3124 3244 10 634 0
1009 -12 6660 6780 10 247 0
1010 -20 908 1028 10 580 0
1011 -21 4787 4907 10 651 0
1012 -5 1641 1761 10 827 0
1013 -33 4144 4264 10 209 0
1014 -10 5417 5537 10 581 0
1015 -18 5691 5811 10 542 0
DEPOT_SECTION
1
-1
EOF
