NAME: lrc2_10_2
TYPE: PDPTW
COMMENT: Li & Lim PDPTW benchmark converted from SINTEF format
DIMENSION: 1011
VEHICLES: 250
CAPACITY: 1000
EDGE_WEIGHT_TYPE: EUC_2D
NODE_COORD_SECTION
1 250 250
2 440 436
3 214 394
4 476 483
5 352 487
6 230 197
7 175 239
8 133 202
9 328 458
10 25 499
11 226 423
12 313 282
13 60 454
14 239 486
15 102 264
16 408 452
17 451 62
18 203 390
19 92 233
20 7 300
21 409 90
22 307 108
23 347 54
24 406 87
25 371 332
26 116 466
27 441 265
28 130 140
29 80 117
30 421 387
31 83 300
32 136 52
33 18 462
34 390 120
35 188 119
36 467 114
37 440 292
38 268 400
39 391 202
40 377 432
41 80 290
42 439 15
43 307 52
44 111 192
45 131 56
46 88 286
47 69 414
48 41 232
49 323 77
50 340 416
51 86 199
52 314 124
53 375 191
54 226 175
55 242 106
56 417 417
57 419 459
58 389 11
59 450 416
60 246 255
61 71 333
62 105 474
63 20 489
64 388 331
65 92 259
66 200 261
67 400 288
68 299 285
69 378 199
70 325 147
71 421 386
72 404 447
73 412 478
74 26 67
75 358 183
76 30 302
77 176 470
78 96 270
79 243 408
80 60 29
81 34 169
82 407 280
83 277 403
84 498 456
85 384 491
86 355 174
87 97 288
88 316 284
89 334 403
90 415 223
91 230 320
92 432 199
93 92 18
94 273 300
95 269 112
96 429 389
97 371 71
98 5 297
99 414 378
100 38 15
101 2 295
102 237 254
103 54 445
104 382 110
105 438 488
106 395 331
107 230 487
108 249 407
109 488 26
110 151 81
111 483 14
112 0 422
113 429 67
114 195 464
115 356 256
116 264 180
117 94 235
118 474 96
119 268 52
120 44 440
121 7 382
122 459 53
123 491 25
124 439 243
125 210 185
126 150 68
127 201 270
128 0 188
129 103 464
130 325 56
131 44 344
132 418 75
133 472 57
134 460 328
135 89 270
136 374 190
137 463 253
138 97 93
139 163 472
140 29 336
141 84 453
142 294 421
143 343 62
144 371 193
145 142 372
146 66 88
147 395 332
148 93 413
149 267 394
150 249 258
151 472 129
152 87 3
153 62 326
154 212 186
155 241 402
156 439 266
157 79 80
158 62 453
159 188 151
160 386 154
161 38 301
162 192 265
163 371 192
164 64 294
165 381 494
166 437 12
167 186 135
168 459 10
169 175 422
170 274 48
171 488 173
172 398 97
173 385 17
174 180 283
175 71 12
176 343 49
177 248 251
178 7 194
179 322 290
180 410 399
181 398 103
182 385 285
183 179 497
184 464 13
185 492 335
186 27 464
187 231 29
188 157 38
189 439 268
190 149 214
191 187 73
192 429 169
193 350 199
194 60 231
195 448 404
196 481 20
197 436 25
198 111 459
199 389 17
200 148 208
201 475 477
202 390 325
203 346 354
204 91 266
205 17 65
206 391 112
207 224 203
208 426 231
209 260 472
210 265 0
211 391 293
212 411 421
213 132 30
214 475 480
215 286 244
216 436 237
217 402 284
218 287 397
219 272 420
220 477 120
221 145 434
222 33 286
223 370 262
224 393 20
225 330 308
226 246 398
227 482 184
228 451 305
229 226 316
230 110 459
231 244 250
232 458 16
233 390 34
234 423 214
235 219 215
236 326 118
237 365 74
238 331 356
239 210 398
240 403 93
241 248 404
242 65 62
243 460 13
244 0 293
245 211 248
246 484 174
247 175 352
248 455 168
249 224 191
250 439 156
251 434 359
252 118 314
253 234 246
254 406 450
255 75 118
256 115 395
257 329 456
258 218 403
259 149 341
260 253 74
261 436 241
262 238 203
263 405 455
264 485 27
265 323 118
266 330 371
267 25 65
268 406 96
269 49 451
270 307 249
271 178 135
272 299 353
273 236 213
274 355 177
275 394 23
276 306 235
277 90 477
278 379 486
279 435 16
280 8 497
281 150 484
282 213 399
283 391 18
284 111 392
285 330 281
286 344 203
287 91 235
288 346 60
289 483 27
290 382 498
291 457 492
292 291 213
293 154 374
294 225 196
295 94 40
296 0 356
297 297 283
298 371 423
299 417 217
300 500 228
301 412 214
302 442 289
303 157 269
304 440 241
305 100 266
306 111 178
307 91 101
308 25 307
309 135 400
310 58 458
311 133 26
312 211 386
313 94 97
314 30 155
315 208 184
316 394 333
317 355 180
318 241 180
319 21 485
320 80 251
321 476 61
322 406 94
323 364 71
324 418 221
325 274 441
326 304 97
327 297 102
328 250 405
329 111 463
330 408 279
331 263 418
332 480 119
333 420 383
334 142 14
335 73 328
336 50 438
337 441 7
338 462 14
339 360 294
340 58 39
341 58 391
342 410 285
343 96 97
344 21 64
345 238 210
346 479 121
347 200 178
348 216 341
349 48 437
350 200 270
351 357 181
352 476 174
353 400 286
354 351 481
355 270 400
356 95 234
357 128 113
358 133 455
359 16 463
360 59 388
361 376 190
362 481 122
363 266 405
364 374 232
365 398 20
366 481 26
367 63 444
368 89 290
369 246 314
370 40 304
371 262 369
372 323 29
373 89 65
374 144 35
375 200 265
376 436 264
377 15 457
378 397 20
379 328 491
380 399 175
381 432 2
382 63 336
383 6 296
384 146 376
385 295 247
386 235 33
387 233 204
388 142 360
389 177 156
390 315 287
391 452 172
392 263 153
393 493 493
394 320 283
395 64 5
396 95 235
397 203 211
398 16 497
399 348 348
400 485 104
401 330 147
402 443 237
403 316 286
404 335 46
405 381 495
406 364 173
407 267 162
408 214 245
409 92 234
410 347 459
411 30 7
412 120 37
413 397 153
414 210 29
415 87 285
416 132 32
417 390 294
418 67 451
419 24 68
420 146 439
421 209 212
422 6 292
423 18 63
424 149 98
425 91 268
426 103 177
427 367 178
428 225 269
429 443 246
430 306 42
431 374 306
432 413 421
433 470 405
434 33 278
435 149 458
436 257 57
437 272 403
438 221 291
439 1 101
440 332 459
441 220 392
442 253 50
443 250 441
444 471 484
445 480 152
446 404 83
447 476 94
448 458 213
449 215 395
450 85 288
451 179 75
452 228 287
453 397 18
454 238 204
455 488 3
456 407 88
457 459 14
458 120 17
459 235 316
460 370 382
461 405 454
462 17 458
463 43 135
464 318 497
465 199 268
466 111 467
467 138 438
468 172 314
469 494 468
470 35 303
471 341 59
472 423 221
473 395 295
474 413 417
475 339 60
476 277 428
477 176 199
478 265 240
479 365 190
480 133 53
481 387 488
482 385 295
483 491 369
484 445 273
485 195 273
486 313 493
487 495 227
488 241 403
489 30 72
490 21 487
491 324 99
492 453 318
493 443 272
494 447 184
495 366 288
496 440 284
497 13 314
498 72 227
499 377 385
500 477 478
501 204 185
502 226 191
503 330 138
504 185 434
505 483 22
506 71 282
507 60 5
508 189 402
509 134 211
510 146 313
511 21 146
512 37 281
513 416 417
514 44 311
515 361 181
516 444 242
517 444 271
518 359 179
519 388 334
520 401 164
521 499 316
522 399 106
523 425 215
524 407 98
525 406 460
526 88 95
527 95 64
528 306 229
529 273 55
530 384 149
531 122 35
532 308 199
533 390 301
534 300 108
535 267 400
536 8 300
537 105 181
538 398 325
539 166 247
540 140 431
541 253 118
542 359 246
543 321 277
544 168 59
545 406 285
546 391 334
547 437 19
548 201 278
549 435 267
550 245 408
551 16 462
552 107 374
553 477 97
554 346 57
555 14 459
556 102 6
557 359 287
558 297 131
559 282 1
560 21 70
561 440 244
562 482 104
563 120 261
564 125 29
565 292 32
566 262 92
567 68 160
568 405 276
569 277 50
570 32 319
571 344 70
572 481 84
573 21 68
574 441 244
575 57 43
576 1 293
577 481 96
578 471 368
579 236 126
580 406 99
581 303 186
582 225 369
583 412 453
584 104 349
585 173 182
586 111 464
587 53 440
588 69 336
589 359 182
590 13 459
591 244 277
592 484 177
593 452 206
594 22 483
595 452 110
596 347 192
597 95 92
598 368 311
599 479 387
600 479 169
601 497 266
602 66 336
603 376 195
604 401 281
605 441 177
606 231 203
607 21 488
608 231 204
609 122 422
610 65 453
611 206 261
612 466 149
613 313 119
614 90 274
615 39 162
616 35 306
617 437 15
618 307 412
619 79 291
620 64 437
621 376 92
622 129 27
623 196 489
624 51 286
625 20 488
626 13 455
627 170 347
628 92 230
629 117 467
630 413 217
631 405 450
632 394 322
633 125 61
634 238 123
635 11 403
636 89 272
637 304 102
638 478 121
639 408 84
640 376 494
641 20 73
642 159 299
643 95 382
644 352 63
645 365 274
646 30 301
647 351 5
648 197 267
649 498 171
650 468 352
651 418 251
652 489 437
653 251 63
654 132 55
655 281 96
656 333 293
657 255 487
658 207 400
659 469 489
660 244 254
661 233 207
662 441 60
663 411 379
664 178 72
665 51 447
666 478 118
667 141 426
668 295 89
669 112 433
670 320 211
671 400 103
672 408 453
673 435 180
674 432 66
675 374 116
676 478 102
677 335 57
678 385 239
679 386 245
680 208 396
681 380 489
682 380 498
683 440 7
684 434 245
685 90 232
686 389 334
687 241 205
688 18 24
689 57 183
690 59 457
691 442 243
692 402 281
693 445 237
694 441 273
695 31 175
696 234 202
697 52 303
698 167 445
699 179 286
700 269 48
701 165 59
702 461 8
703 421 415
704 59 459
705 24 492
706 55 449
707 224 192
708 444 269
709 491 20
710 313 126
711 283 438
712 352 241
713 398 476
714 442 247
715 217 207
716 233 87
717 479 127
718 6 53
719 478 300
720 378 493
721 303 78
722 344 62
723 371 315
724 200 78
725 413 391
726 415 216
727 397 57
728 293 228
729 0 297
730 435 20
731 195 111
732 417 218
733 340 54
734 132 57
735 210 379
736 228 260
737 399 104
738 95 277
739 360 284
740 53 466
741 112 465
742 313 391
743 93 235
744 125 32
745 215 282
746 224 320
747 134 428
748 26 490
749 44 115
750 438 127
751 239 15
752 342 54
753 109 463
754 199 187
755 201 188
756 399 301
757 484 171
758 272 234
759 380 350
760 140 108
761 228 199
762 245 461
763 305 107
764 231 195
765 450 265
766 273 149
767 12 358
768 315 121
769 420 213
770 331 134
771 84 377
772 320 280
773 89 185
774 472 481
775 422 420
776 475 267
777 470 125
778 435 268
779 409 155
780 243 248
781 488 96
782 341 72
783 58 449
784 16 460
785 480 136
786 162 388
787 47 208
788 324 127
789 87 96
790 140 137
791 314 205
792 96 346
793 321 280
794 245 251
795 436 295
796 274 261
797 271 128
798 275 45
799 422 409
800 146 188
801 93 96
802 409 255
803 449 428
804 90 285
805 415 95
806 88 287
807 379 196
808 368 452
809 202 186
810 435 11
811 269 46
812 7 292
813 44 496
814 478 99
815 391 99
816 132 477
817 24 65
818 130 247
819 133 273
820 347 62
821 404 140
822 416 420
823 67 335
824 92 270
825 411 95
826 132 479
827 366 334
828 125 39
829 419 422
830 460 2
831 67 334
832 448 414
833 46 163
834 77 465
835 284 319
836 102 422
837 240 34
838 141 428
839 204 269
840 144 439
841 470 417
842 404 103
843 5 281
844 487 320
845 398 23
846 90 296
847 386 13
848 115 465
849 473 475
850 275 42
851 286 356
852 15 69
853 267 44
854 243 399
855 390 249
856 210 391
857 433 15
858 24 259
859 12 463
860 237 213
861 182 480
862 409 88
863 244 368
864 381 328
865 213 185
866 482 141
867 319 124
868 141 431
869 198 264
870 69 334
871 299 98
872 240 250
873 199 203
874 459 17
875 423 217
876 477 179
877 213 397
878 405 187
879 269 402
880 53 204
881 13 394
882 15 68
883 56 268
884 360 184
885 307 102
886 130 57
887 250 328
888 91 231
889 479 176
890 420 224
891 461 182
892 418 218
893 419 418
894 336 493
895 389 300
896 92 76
897 476 102
898 418 399
899 109 56
900 13 465
901 92 232
902 394 47
903 16 287
904 399 102
905 143 158
906 18 484
907 250 411
908 19 273
909 365 28
910 387 297
911 433 447
912 214 274
913 489 338
914 130 494
915 23 67
916 374 489
917 126 30
918 112 467
919 489 274
920 61 214
921 166 440
922 56 75
923 210 276
924 80 286
925 17 459
926 66 448
927 351 128
928 352 176
929 490 286
930 247 219
931 86 268
932 398 329
933 272 402
934 317 123
935 408 318
936 66 31
937 425 448
938 35 304
939 471 94
940 470 473
941 224 56
942 343 47
943 52 18
944 16 68
945 195 185
946 92 236
947 76 462
948 124 56
949 481 454
950 477 483
951 481 124
952 389 156
953 384 16
954 492 34
955 371 200
956 153 235
957 428 202
958 257 391
959 421 218
960 206 186
961 393 301
962 204 187
963 468 475
964 477 122
965 100 66
966 489 27
967 12 451
968 197 270
969 311 422
970 489 17
971 13 214
972 440 247
973 28 467
974 388 325
975 270 401
976 5 445
977 198 271
978 480 131
979 437 98
980 131 246
981 49 437
982 270 49
983 337 41
984 318 280
985 154 392
986 493 111
987 399 450
988 67 452
989 34 239
990 343 276
991 393 12
992 236 247
993 340 291
994 3 292
995 209 68
996 18 225
997 147 435
998 335 99
999 485 24
1000 470 475
1001 341 58
1002 491 25
1003 238 210
1004 49 437
1005 497 266
1006 335 99
1007 253 118
1008 406 450
1009 149 214
1010 303 186
1011 441 273
PICKUP_AND_DELIVERY_SECTION
1 0 0 7284 0 0 0
2 -20 0 7009 10 212 0
3 10 0 7126 10 0 18
4 10 1419 1539 10 0 950
5 -13 3607 3727 10 599 0
6 40 486 606 10 0 486
7 23 0 7199 10 0 267
8 33 1842 1962 10 0 800
9 -20 3071 3191 10 822 0
10 -10 1780 1900 10 127 0
11 -20 788 908 10 441 0
12 -20 654 774 10 608 0
13 10 0 6996 10 0 360
14 -12 0 7038 10 325 0
15 10 535 655 10 0 78
16 -19 0 7018 10 578 0
17 -10 0 6999 10 149 0
18 -10 0 7127 10 3 0
19 10 0 7116 10 0 989
20 30 1379 1499 10 0 697
21 -10 1033 1153 10 524 0
22 -20 950 1070 10 934 0
23 10 1180 1300 10 0 97
24 -20 1252 1372 10 862 0
25 -10 2118 2238 10 877 0
26 -29 1004 1124 10 669 0
27 -10 789 909 10 772 0
28 17 776 896 10 0 255
29 -20 3297 3417 10 526 0
30 -20 0 7055 10 393 0
31 -30 0 7100 10 610 0
32 -10 0 7046 10 531 0
33 20 0 6960 10 0 112
34 24 4017 4137 10 0 104
35 44 3899 4019 10 0 421
36 10 1504 1624 10 0 751
37 -10 3760 3880 10 185 0
38 20 973 1093 10 0 331
39 14 536 656 10 0 815
40 -19 3326 3446 10 257 0
41 10 790 910 10 0 259
42 20 1373 1493 10 0 184
43 23 3682 3802 10 0 503
44 -19 0 7124 10 537 0
45 10 1023 1143 10 0 175
46 -20 1010 1130 10 102 0
47 6 0 7030 10 0 552
48 16 821 941 10 0 318
49 -10 5620 5740 10 535 0
50 36 0 7086 10 0 443
51 -20 1111 1231 10 946 0
52 20 924 1044 10 0 724
53 -20 667 787 10 928 0
54 -20 0 7196 10 522 0
55 -10 5074 5194 10 240 0
56 10 1328 1448 10 0 803
57 20 1265 1385 10 0 85
58 20 0 6998 10 0 196
59 -20 0 7015 10 987 0
60 10 450 570 10 0 840
61 10 775 895 10 0 161
62 -9 1883 2003 10 985 0
63 10 1533 1653 10 0 813
64 20 580 700 10 0 473
65 -20 0 7116 10 117 0
66 10 666 786 10 0 619
67 30 0 7120 10 0 778
68 -40 5015 5135 10 226 0
69 10 829 949 10 0 684
70 -25 4747 4867 10 558 0
71 -20 0 7056 10 898 0
72 20 940 1060 10 0 150
73 7 0 6995 10 0 500
74 -15 5267 5387 10 689 0
75 20 935 1055 10 0 574
76 -30 1066 1186 10 870 0
77 14 2187 2307 10 0 247
78 -10 649 769 10 15 0
79 -10 5735 5855 10 672 0
80 -16 5451 5571 10 843 0
81 11 1938 2058 10 0 773
82 10 834 954 10 0 417
83 10 699 819 10 0 160
84 -30 5624 5744 10 640 0
85 -20 1391 1511 10 57 0
86 -10 2861 2981 10 682 0
87 -10 5136 5256 10 848 0
88 20 499 619 10 0 935
89 26 638 758 10 0 444
90 -10 1219 1339 10 493 0
91 -11 0 7202 10 620 0
92 -20 2554 2674 10 708 0
93 -25 4497 4617 10 936 0
94 30 0 7219 10 0 1000
95 -10 0 7135 10 710 0
96 -10 1696 1816 10 895 0
97 -10 1147 1267 10 23 0
98 10 0 7025 10 0 186
99 23 1979 2099 10 0 142
100 -8 4364 4484 10 718 0
101 -10 1223 1343 10 646 0
102 20 333 453 10 0 46
103 10 1232 1352 10 0 490
104 -24 4450 4570 10 34 0
105 18 1309 1429 10 0 464
106 20 866 986 10 0 488
107 -33 4518 4638 10 209 0
108 -38 695 815 10 582 0
109 -30 0 6948 10 850 0
110 -10 0 7079 10 622 0
111 -20 1453 1573 10 999 0
112 -20 3284 3404 10 33 0
113 -20 2929 3049 10 381 0
114 -27 6165 6285 10 121 0
115 19 365 485 10 0 492
116 -13 0 7203 10 414 0
117 20 0 7118 10 0 65
118 -30 1027 1147 10 299 0
119 -20 1222 1342 10 763 0
120 -30 3155 3275 10 938 0
121 27 0 6998 10 0 114
122 -10 4489 4609 10 354 0
123 10 1634 1754 0 0 1002
124 -10 1254 1374 10 304 0
125 20 0 7198 10 0 962
126 23 1691 1811 10 0 633
127 10 0 7222 10 0 10
128 -20 3728 3848 10 207 0
129 -4 5092 5212 10 349 0
130 -30 3186 3306 10 613 0
131 12 4318 4438 10 0 624
132 -20 1792 1912 10 897 0
133 -20 0 6980 10 224 0
134 13 876 996 10 0 832
135 -10 814 934 10 636 0
136 20 573 693 10 0 779
137 -10 4188 4308 10 561 0
138 -20 962 1082 10 754 0
139 -25 2614 2734 10 816 0
140 -20 1326 1446 10 994 0
141 -10 4892 5012 10 925 0
142 -23 6302 6422 10 99 0
143 -10 1430 1550 10 170 0
144 20 0 7141 10 0 726
145 -20 0 7112 10 153 0
146 -10 0 7029 10 641 0
147 -10 0 7108 10 761 0
148 17 845 965 10 0 252
149 10 1037 1157 10 0 17
150 -20 0 7266 10 72 0
151 10 0 7022 10 0 621
152 -8 5732 5852 10 880 0
153 20 1145 1265 10 0 145
154 -18 6886 7006 10 416 0
155 -10 0 7122 10 262 0
156 -29 741 861 10 495 0
157 -20 5528 5648 10 944 0
158 10 1179 1299 10 0 587
159 -12 5187 5307 10 392 0
160 -10 0 7108 10 83 0
161 -10 1182 1302 10 61 0
162 10 497 617 10 0 695
163 30 519 639 10 0 580
164 -10 0 7083 10 356 0
165 -22 1334 1454 10 958 0
166 20 1318 1438 10 0 939
167 -27 2871 2991 10 899 0
168 10 0 6956 10 0 562
169 24 5786 5906 10 0 312
170 10 845 965 10 0 143
171 -20 1115 1235 10 376 0
172 10 836 956 10 0 671
173 -30 3235 3355 10 982 0
174 -10 2975 3095 10 375 0
175 -10 1172 1292 10 45 0
176 10 1060 1180 10 0 909
177 20 2 122 10 0 997
178 29 0 7025 10 0 971
179 23 5916 6036 10 0 390
180 25 935 1055 10 0 219
181 -20 1114 1234 10 268 0
182 13 0 7135 10 0 545
183 -6 0 7017 10 914 0
184 -20 1539 1659 10 42 0
185 10 3313 3433 10 0 37
186 -10 5164 5284 10 98 0
187 -27 4905 5025 10 701 0
188 3 4191 4311 10 0 407
189 -17 1191 1311 10 932 0
190 7 0 7167 0 0 1009
191 18 1168 1288 10 0 782
192 8 3611 3731 10 0 612
193 21 0 7162 10 0 589
194 -19 4104 4224 10 858 0
195 15 2396 2516 10 0 432
196 -20 1388 1508 10 58 0
197 -20 5129 5249 10 518 0
198 -30 1435 1555 10 868 0
199 -30 1463 1583 10 788 0
200 -30 2106 2226 10 744 0
201 20 1618 1738 10 0 291
202 -20 1005 1125 10 211 0
203 8 3270 3390 10 0 632
204 -10 930 1050 10 924 0
205 20 1307 1427 10 0 423
206 -5 4001 4121 10 978 0
207 20 155 275 10 0 128
208 -10 4114 4234 10 884 0
209 33 4144 4264 10 0 107
210 -14 3584 3704 10 595 0
211 20 903 1023 10 0 202
212 20 1260 1380 10 0 2
213 20 0 7025 10 0 507
214 30 0 6953 10 0 663
215 -16 5136 5256 10 670 0
216 -10 0 7088 10 732 0
217 -19 658 778 10 739 0
218 12 2257 2377 10 0 723
219 -25 5543 5663 10 180 0
220 10 1368 1488 10 0 430
221 20 932 1052 10 0 336
222 -20 6184 6304 10 368 0
223 15 4398 4518 10 0 285
224 20 1563 1683 10 0 133
225 -4 4682 4802 10 431 0
226 40 532 652 10 0 68
227 -9 4427 4547 10 391 0
228 -30 774 894 10 961 0
229 -21 221 341 10 452 0
230 30 0 7023 10 0 512
231 10 47 167 10 0 567
232 20 1192 1312 10 0 874
233 7 4241 4361 10 0 662
234 20 867 987 10 0 362
235 32 127 247 10 0 828
236 10 0 7122 10 0 475
237 -27 3394 3514 10 656 0
238 13 2847 2967 10 0 759
239 10 817 937 10 0 735
240 10 0 7055 10 0 55
241 30 598 718 10 0 399
242 -10 3906 4026 10 956 0
243 -20 1287 1407 10 683 0
244 30 1115 1235 10 0 635
245 26 96 216 10 0 373
246 10 1058 1178 10 0 494
247 -14 6660 6780 10 77 0
248 -10 3467 3587 10 769 0
249 20 324 444 10 0 970
250 2 2103 2223 10 0 520
251 13 5569 5689 10 0 796
252 -17 0 7128 10 148 0
253 10 259 379 10 0 836
254 20 1037 1157 0 0 1008
255 -17 1636 1756 10 28 0
256 -20 3261 3381 10 329 0
257 19 996 1116 10 0 40
258 -20 5277 5397 10 316 0
259 -10 1616 1736 10 41 0
260 -30 5400 5520 10 386 0
261 -19 1309 1429 10 728 0
262 10 375 495 10 0 155
263 -27 0 7017 10 333 0
264 10 0 6951 10 0 380
265 20 643 763 10 0 677
266 -20 2234 2354 10 328 0
267 -23 1505 1625 10 7 0
268 20 863 983 10 0 181
269 -22 1120 1240 10 510 0
270 -20 5506 5626 10 984 0
271 -28 6055 6175 10 943 0
272 34 396 516 10 0 659
273 20 98 218 10 0 530
274 20 497 617 10 0 317
275 -10 1615 1735 10 733 0
276 25 172 292 10 0 630
277 -10 1051 1171 10 918 0
278 22 2687 2807 10 0 461
279 10 1470 1590 10 0 791
280 -22 0 6929 10 485 0
281 -20 2501 2621 10 467 0
282 18 936 1056 10 0 804
283 10 1511 1631 10 0 572
284 -30 0 7076 10 783 0
285 -15 5322 5442 10 223 0
286 14 669 789 10 0 324
287 10 1076 1196 10 0 812
288 10 1285 1405 10 0 397
289 -10 1832 1952 10 966 0
290 10 1237 1357 10 0 547
291 -20 2032 2152 10 201 0
292 -15 5031 5151 10 927 0
293 -30 0 7118 10 540 0
294 -24 0 7215 10 749 0
295 -15 4272 4392 10 560 0
296 -30 4345 4465 10 690 0
297 -9 0 7217 10 937 0
298 10 784 904 10 0 774
299 30 754 874 10 0 118
300 -22 0 7024 10 785 0
301 10 604 724 10 0 842
302 25 764 884 10 0 808
303 31 0 7180 10 0 869
304 10 1205 1325 10 0 124
305 20 586 706 10 0 504
306 18 566 686 10 0 419
307 10 1193 1313 10 0 463
308 -1 998 1118 10 539 0
309 -20 1194 1314 10 588 0
310 10 1291 1411 10 0 508
311 -25 0 7022 10 498 0
312 -24 0 7133 10 169 0
313 -20 856 976 10 809 0
314 -8 5122 5242 10 833 0
315 20 294 414 10 0 945
316 20 777 897 10 0 258
317 -20 549 669 10 274 0
318 -16 6778 6898 10 48 0
319 -20 1353 1473 10 367 0
320 -10 1214 1334 10 648 0
321 -12 1795 1915 10 647 0
322 10 911 1031 10 0 404
323 5 0 7062 10 0 644
324 -14 0 7104 10 286 0
325 12 2778 2898 10 0 14
326 20 727 847 10 0 424
327 -20 0 7119 10 853 0
328 20 646 766 10 0 266
329 20 1286 1406 10 0 256
330 -20 0 7114 10 692 0
331 -20 1114 1234 10 38 0
332 -22 2514 2634 10 781 0
333 27 3928 4048 10 0 263
334 18 3341 3461 10 0 896
335 20 714 834 10 0 470
336 -20 1347 1467 10 221 0
337 -10 0 6965 10 1001 0
338 20 1588 1708 10 0 479
339 -17 5671 5791 10 913 0
340 -32 4652 4772 10 688 0
341 -30 3529 3649 10 976 0
342 20 0 7111 10 0 484
343 20 808 928 10 0 996
344 20 1409 1529 10 0 915
345 30 0 7233 0 0 1003
346 10 1231 1351 10 0 674
347 20 374 494 10 0 501
348 -8 2616 2736 10 699 0
349 4 3215 3335 10 0 129
350 -20 236 356 10 992 0
351 20 598 718 10 0 592
352 -20 1297 1417 10 876 0
353 10 0 7120 10 0 855
354 10 1287 1407 10 0 122
355 10 545 665 10 0 969
356 10 653 773 10 0 164
357 22 1451 1571 10 0 760
358 25 0 7038 10 0 698
359 20 0 6958 10 0 643
360 -10 2651 2771 10 13 0
361 -5 621 741 10 712 0
362 -20 0 7010 10 234 0
363 -3 868 988 10 711 0
364 33 441 561 10 0 456
365 20 1076 1196 10 0 378
366 30 1227 1347 10 0 758
367 20 0 7005 10 0 319
368 20 0 7109 10 0 222
369 -6 5781 5901 10 499 0
370 -10 0 7058 10 901 0
371 15 0 7155 10 0 854
372 -14 0 7042 10 565 0
373 -26 2881 3001 10 245 0
374 -20 0 7035 10 628 0
375 10 610 730 10 0 174
376 20 686 806 10 0 171
377 -10 0 6961 10 729 0
378 -20 0 7002 10 365 0
379 -10 2713 2833 10 533 0
380 -10 0 7108 10 264 0
381 20 1866 1986 10 0 113
382 20 0 7069 10 0 627
383 -4 0 7026 10 920 0
384 8 937 1057 10 0 835
385 -20 5214 5334 10 686 0
386 30 5348 5468 10 0 260
387 20 217 337 10 0 707
388 -11 6128 6248 10 786 0
389 25 0 7155 10 0 948
390 -23 0 7200 10 179 0
391 9 0 7058 10 0 227
392 12 1650 1770 10 0 159
393 20 3426 3546 10 0 30
394 30 442 562 10 0 402
395 -10 0 6967 10 489 0
396 10 563 683 10 0 888
397 -10 5226 5346 10 288 0
398 20 1703 1823 10 0 771
399 -30 3739 3859 10 241 0
400 -20 3178 3298 10 447 0
401 -22 3394 3514 10 993 0
402 -30 754 874 10 394 0
403 30 547 667 10 0 568
404 -10 0 7053 10 322 0
405 20 1290 1410 10 0 990
406 30 721 841 10 0 577
407 -3 5797 5917 10 188 0
408 8 85 205 10 0 616
409 10 0 7116 10 0 931
410 -20 0 7044 10 775 0
411 -10 4754 4874 10 817 0
412 -24 3101 3221 10 922 0
413 -10 3530 3650 10 991 0
414 13 4203 4323 10 0 116
415 30 964 1084 10 0 823
416 18 3138 3258 10 0 154
417 -10 949 1069 10 82 0
418 -9 0 7003 10 740 0
419 -18 1658 1778 10 306 0
420 -12 1037 1157 10 921 0
421 -44 0 7219 10 35 0
422 -20 970 1090 10 450 0
423 -20 1356 1476 10 205 0
424 -20 4660 4780 10 326 0
425 -10 978 1098 10 794 0
426 28 0 7110 10 0 882
427 20 721 841 10 0 676
428 30 5083 5203 10 0 591
429 -24 919 1039 10 557 0
430 -10 1907 2027 10 220 0
431 4 0 7138 10 0 225
432 -15 0 7038 10 195 0
433 -20 0 7005 10 829 0
434 18 5949 6069 10 0 736
435 -18 4655 4775 10 947 0
436 -20 4904 5024 10 666 0
437 30 0 7120 10 0 879
438 9 184 304 10 0 824
439 -20 5029 5149 10 465 0
440 35 1475 1595 10 0 825
441 20 0 7129 10 0 11
442 27 903 1023 10 0 821
443 -36 0 7083 10 50 0
444 -26 0 6953 10 89 0
445 26 4086 4206 10 0 649
446 -20 1194 1314 10 904 0
447 20 0 7000 10 0 400
448 -10 4513 4633 10 959 0
449 20 968 1088 10 0 826
450 20 728 848 10 0 422
451 13 2960 3080 10 0 664
452 21 112 232 10 0 229
453 10 1168 1288 10 0 902
454 20 419 539 10 0 657
455 -30 1602 1722 10 617 0
456 -33 1298 1418 10 364 0
457 20 1241 1361 10 0 830
458 30 1116 1236 10 0 544
459 -12 0 7207 10 903 0
460 11 3535 3655 10 0 907
461 -22 5212 5332 10 278 0
462 -10 1732 1852 10 626 0
463 -10 0 7038 10 307 0
464 -18 0 7018 10 105 0
465 20 0 7220 10 0 439
466 -23 0 7017 10 667 0
467 20 1149 1269 10 0 281
468 9 2182 2302 10 0 923
469 -14 1410 1530 10 949 0
470 -20 0 7053 10 335 0
471 27 3159 3279 10 0 768
472 9 1033 1153 10 0 693
473 -20 845 965 10 64 0
474 10 1424 1544 10 0 894
475 -10 844 964 10 236 0
476 7 0 7094 10 0 805
477 28 299 419 10 0 905
478 9 18 138 10 0 814
479 -20 5910 6030 10 338 0
480 20 0 7045 10 0 654
481 20 1448 1568 10 0 681
482 20 509 629 10 0 893
483 28 2918 3038 10 0 496
484 -20 1031 1151 10 342 0
485 22 0 7215 10 0 280
486 -40 4772 4892 10 6 0
487 -37 1376 1496 10 673 0
488 -20 0 7121 10 106 0
489 10 1726 1846 10 0 395
490 -10 1401 1521 10 103 0
491 10 1352 1472 10 0 668
492 -19 0 7060 10 115 0
493 10 0 7080 10 0 90
494 -10 1698 1818 10 246 0
495 29 0 7152 10 0 156
496 -28 0 7081 10 483 0
497 -20 975 1095 10 831 0
498 25 0 7095 10 0 311
499 6 3465 3585 10 0 369
500 -7 0 6953 10 73 0
501 -20 0 7195 10 347 0
502 20 372 492 10 0 702
503 -23 4438 4558 10 43 0
504 -20 0 7079 10 305 0
505 -20 0 6949 10 857 0
506 -17 2567 2687 10 818 0
507 -20 0 6964 10 213 0
508 -10 2144 2264 10 310 0
509 -10 482 602 10 872 0
510 22 0 7153 10 0 269
511 -20 1947 2067 10 801 0
512 -30 0 7059 10 230 0
513 20 1372 1492 10 0 525
514 27 1630 1750 10 0 556
515 20 0 7144 10 0 875
516 -10 862 982 10 543 0
517 10 982 1102 10 0 593
518 20 0 7144 10 0 197
519 20 0 7113 10 0 974
520 -2 0 7101 10 250 0
521 -10 2487 2607 10 691 0
522 20 1207 1327 10 0 54
523 10 916 1036 10 0 919
524 10 814 934 10 0 21
525 -20 2877 2997 10 513 0
526 20 0 7050 10 0 29
527 4 3064 3184 10 0 965
528 -20 5281 5401 10 600 0
529 20 725 845 10 0 811
530 -20 4789 4909 10 273 0
531 10 981 1101 10 0 32
532 -17 6033 6153 10 727 0
533 10 661 781 10 0 379
534 10 542 662 10 0 634
535 10 929 1049 10 0 49
536 10 1423 1543 10 0 837
537 19 6125 6245 10 0 44
538 30 933 1053 10 0 604
539 1 276 396 10 0 308
540 30 0 7063 10 0 293
541 19 2189 2309 0 0 1007
542 18 0 7165 10 0 730
543 10 244 364 10 0 516
544 -30 1464 1584 10 458 0
545 -13 0 7115 10 182 0
546 20 724 844 10 0 864
547 -10 4056 4176 10 290 0
548 13 166 286 10 0 838
549 20 1291 1411 10 0 679
550 -20 815 935 10 975 0
551 10 0 6959 10 0 906
552 -6 3657 3777 10 47 0
553 -20 1131 1251 10 807 0
554 20 1233 1353 10 0 871
555 20 1343 1463 10 0 859
556 -27 5834 5954 10 514 0
557 24 0 7159 10 0 429
558 25 4662 4782 10 0 70
559 18 4170 4290 10 0 715
560 15 3085 3205 10 0 295
561 10 0 7084 10 0 137
562 -10 3230 3350 10 168 0
563 -30 3173 3293 10 787 0
564 -10 1133 1253 10 917 0
565 14 917 1037 10 0 372
566 25 0 7116 10 0 653
567 -10 0 7071 10 231 0
568 -30 937 1057 10 403 0
569 10 791 911 10 0 700
570 21 0 7046 10 0 881
571 24 0 7071 10 0 867
572 -10 2022 2142 10 283 0
573 -10 1606 1726 10 852 0
574 -20 1108 1228 10 75 0
575 15 0 6991 10 0 606
576 -20 1071 1191 10 846 0
577 -30 1188 1308 10 406 0
578 19 1712 1832 10 0 16
579 23 439 559 10 0 810
580 -30 908 1028 10 163 0
581 10 5417 5537 0 0 1010
582 38 426 546 10 0 108
583 -10 1188 1308 10 860 0
584 20 4037 4157 10 0 746
585 25 351 471 10 0 886
586 -24 1242 1362 10 887 0
587 -10 1292 1412 10 158 0
588 20 0 7074 10 0 309
589 -21 0 7146 10 193 0
590 -30 0 6959 10 594 0
591 -30 5205 5325 10 428 0
592 -20 1006 1126 10 351 0
593 -10 1969 2089 10 517 0
594 30 1244 1364 10 0 590
595 14 1361 1481 10 0 210
596 -34 5953 6073 10 878 0
597 -21 1011 1131 10 865 0
598 -20 3704 3824 10 738 0
599 13 1590 1710 10 0 5
600 20 1234 1354 10 0 528
601 25 2990 3110 0 0 1005
602 10 1013 1133 10 0 912
603 10 724 844 10 0 929
604 -30 1044 1164 10 538 0
605 -10 4005 4125 10 890 0
606 -15 0 7224 10 575 0
607 -10 1445 1565 10 665 0
608 20 601 721 10 0 12
609 3 5827 5947 10 0 680
610 30 1127 1247 10 0 31
611 -20 0 7229 10 704 0
612 -8 0 7036 10 192 0
613 30 863 983 10 0 130
614 20 717 837 10 0 792
615 -30 2261 2381 10 789 0
616 -8 918 1038 10 408 0
617 30 1421 1541 10 0 455
618 8 1615 1735 10 0 983
619 -10 835 955 10 66 0
620 11 3673 3793 10 0 91
621 -10 3962 4082 10 151 0
622 10 1190 1310 10 0 110
623 23 4121 4241 10 0 973
624 -12 5836 5956 10 131 0
625 -30 1489 1609 10 988 0
626 10 0 6961 10 0 462
627 -20 1743 1863 10 382 0
628 20 755 875 10 0 374
629 -30 958 1078 10 780 0
630 -25 656 776 10 276 0
631 -30 0 7021 10 720 0
632 -8 4099 4219 10 203 0
633 -23 2447 2567 10 126 0
634 -10 3124 3244 10 534 0
635 -30 1372 1492 10 244 0
636 10 766 886 10 0 135
637 30 0 7117 10 0 722
638 -20 1275 1395 10 889 0
639 10 1137 1257 10 0 737
640 30 1079 1199 10 0 84
641 10 1101 1221 10 0 146
642 -20 4062 4182 10 977 0
643 -20 0 7071 10 359 0
644 -5 4713 4833 10 323 0
645 14 410 530 10 0 799
646 10 1110 1230 10 0 101
647 12 0 7009 10 0 321
648 10 435 555 10 0 320
649 -26 5026 5146 10 445 0
650 -30 0 7034 10 756 0
651 21 4787 4907 10 0 719
652 -30 2827 2947 10 851 0
653 -25 3950 4070 10 566 0
654 -20 1069 1189 10 480 0
655 -12 4503 4623 10 797 0
656 27 2468 2588 10 0 237
657 -20 1592 1712 10 454 0
658 -30 762 882 10 856 0
659 -34 0 6950 10 272 0
660 20 401 521 10 0 908
661 10 165 285 10 0 709
662 -7 5835 5955 10 233 0
663 -30 0 7068 10 214 0
664 -13 0 7082 10 451 0
665 10 1178 1298 10 0 607
666 20 1417 1537 10 0 436
667 23 0 7067 10 0 466
668 -10 2968 3088 10 491 0
669 29 940 1060 10 0 26
670 16 3970 4090 10 0 215
671 -10 1022 1142 10 172 0
672 10 1132 1252 10 0 79
673 37 898 1018 10 0 487
674 -10 4285 4405 10 346 0
675 -5 0 7092 10 954 0
676 -20 0 7003 10 427 0
677 -20 784 904 10 265 0
678 -23 3142 3262 10 802 0
679 -20 1916 2036 10 549 0
680 -3 0 7123 10 609 0
681 -20 1516 1636 10 481 0
682 10 1189 1309 10 0 86
683 20 1255 1375 10 0 243
684 -10 1367 1487 10 69 0
685 -30 0 7113 10 968 0
686 20 0 7112 10 0 385
687 -27 0 7229 10 995 0
688 32 2513 2633 10 0 340
689 15 4401 4521 10 0 74
690 30 0 6993 10 0 296
691 10 1154 1274 10 0 521
692 20 1000 1120 10 0 330
693 -9 0 7079 10 472 0
694 20 0 7082 0 0 1011
695 -10 986 1106 10 162 0
696 10 319 439 10 0 725
697 -30 1765 1885 10 20 0
698 -25 0 7063 10 358 0
699 8 1365 1485 10 0 348
700 -10 1122 1242 10 569 0
701 27 3771 3891 10 0 187
702 -20 0 6953 10 502 0
703 -10 941 1061 10 910 0
704 20 1245 1365 10 0 611
705 10 1848 1968 10 0 748
706 -10 1054 1174 10 926 0
707 -20 280 400 10 387 0
708 20 934 1054 10 0 92
709 -10 1574 1694 10 661 0
710 10 973 1093 10 0 95
711 3 926 1046 10 0 363
712 5 0 7172 10 0 361
713 25 0 7004 10 0 963
714 10 0 7082 10 0 757
715 -18 5530 5650 10 559 0
716 18 1010 1130 10 0 953
717 -20 1079 1199 10 777 0
718 8 2348 2468 10 0 100
719 -21 0 7041 10 651 0
720 30 1127 1247 10 0 631
721 12 660 780 10 0 820
722 -30 1386 1506 10 637 0
723 -12 4663 4783 10 218 0
724 -20 0 7095 10 52 0
725 -10 868 988 10 696 0
726 -20 705 825 10 144 0
727 17 5904 6024 10 0 532
728 19 0 7226 10 0 261
729 10 1171 1291 10 0 377
730 -18 0 6979 10 542 0
731 -14 3992 4112 10 766 0
732 10 1112 1232 10 0 216
733 10 951 1071 10 0 275
734 20 978 1098 10 0 790
735 -10 2835 2955 10 239 0
736 -18 6422 6542 10 434 0
737 -10 0 7066 10 639 0
738 20 1098 1218 10 0 598
739 19 0 7159 10 0 217
740 9 1340 1460 10 0 418
741 10 1197 1317 10 0 861
742 5 598 718 10 0 916
743 10 0 7117 10 0 883
744 30 0 7023 10 0 200
745 -31 5762 5882 10 900 0
746 -20 5135 5255 10 584 0
747 20 1232 1352 10 0 753
748 -10 1899 2019 10 705 0
749 24 925 1045 10 0 294
750 -7 3764 3884 10 776 0
751 -10 2415 2535 10 36 0
752 20 999 1119 10 0 845
753 -20 1334 1454 10 747 0
754 20 507 627 10 0 138
755 10 555 675 10 0 960
756 30 777 897 10 0 650
757 -10 0 7028 10 714 0
758 -30 6361 6481 10 366 0
759 -13 3466 3586 10 238 0
760 -22 0 7095 10 357 0
761 10 537 657 10 0 147
762 -17 2597 2717 10 930 0
763 20 901 1021 10 0 119
764 20 437 557 10 0 863
765 -30 865 985 10 793 0
766 14 0 7171 10 0 731
767 7 4897 5017 10 0 819
768 -27 0 7130 10 471 0
769 10 814 934 10 0 248
770 -10 0 7133 10 933 0
771 -20 3705 3825 10 398 0
772 10 340 460 10 0 27
773 -11 2399 2519 10 81 0
774 -10 1306 1426 10 298 0
775 20 1050 1170 10 0 410
776 7 3118 3238 10 0 750
777 20 952 1072 10 0 717
778 -30 1247 1367 10 67 0
779 -20 681 801 10 136 0
780 30 96 216 10 0 629
781 22 0 6991 10 0 332
782 -18 3219 3339 10 191 0
783 30 1451 1571 10 0 284
784 -20 1643 1763 10 967 0
785 22 0 7018 10 0 300
786 11 4504 4624 10 0 388
787 30 906 1026 10 0 563
788 30 514 634 10 0 199
789 30 1127 1247 10 0 615
790 -20 2279 2399 10 734 0
791 -10 6107 6227 10 279 0
792 -20 741 861 10 614 0
793 30 296 416 10 0 765
794 10 5 125 10 0 425
795 11 2113 2233 10 0 844
796 -13 6828 6948 10 251 0
797 12 1382 1502 10 0 655
798 20 0 7068 10 0 873
799 -14 0 7040 10 645 0
800 -33 0 7153 10 8 0
801 20 902 1022 10 0 511
802 23 0 7115 10 0 678
803 -10 4987 5107 10 56 0
804 -18 1105 1225 10 282 0
805 -7 4707 4827 10 476 0
806 30 1054 1174 10 0 827
807 20 776 896 10 0 553
808 -25 2680 2800 10 302 0
809 20 604 724 10 0 313
810 -23 1189 1309 10 579 0
811 -20 1074 1194 10 529 0
812 -10 0 7028 10 287 0
813 -10 1607 1727 10 63 0
814 -9 1245 1365 10 478 0
815 -14 766 886 10 39 0
816 25 1309 1429 10 0 139
817 10 1461 1581 10 0 411
818 17 0 7154 10 0 506
819 -7 0 7155 10 767 0
820 -12 1334 1454 10 721 0
821 -27 5035 5155 10 442 0
822 20 1159 1279 10 0 9
823 -30 967 1087 10 415 0
824 -9 1027 1147 10 438 0
825 -35 0 7051 10 440 0
826 -20 0 7017 10 449 0
827 -30 1641 1761 10 806 0
828 -32 921 1041 10 235 0
829 20 1105 1225 10 0 433
830 -20 1412 1532 10 457 0
831 20 923 1043 10 0 497
832 -13 4891 5011 10 134 0
833 8 3704 3824 10 0 314
834 -30 1044 1164 10 839 0
835 -8 3267 3387 10 384 0
836 -10 905 1025 10 253 0
837 -10 6238 6358 10 536 0
838 -13 775 895 10 548 0
839 30 0 7225 10 0 834
840 -10 1085 1205 10 60 0
841 -10 2947 3067 10 849 0
842 -10 966 1086 10 301 0
843 16 0 7028 10 0 80
844 -11 0 7027 10 795 0
845 -20 1024 1144 10 752 0
846 20 606 726 10 0 576
847 10 1348 1468 10 0 986
848 10 1049 1169 10 0 87
849 10 1669 1789 10 0 841
850 30 950 1070 10 0 109
851 30 388 508 10 0 652
852 10 1167 1287 10 0 573
853 20 1023 1143 10 0 327
854 -15 939 1059 10 371 0
855 -10 0 7134 10 353 0
856 30 566 686 10 0 658
857 20 1131 1251 10 0 505
858 19 0 7048 10 0 194
859 -20 0 6955 10 555 0
860 10 588 708 10 0 583
861 -10 1459 1579 10 741 0
862 20 1081 1201 10 0 24
863 -20 0 7156 10 764 0
864 -20 2869 2989 10 546 0
865 21 239 359 10 0 597
866 -24 0 7018 10 957 0
867 -24 0 7131 10 571 0
868 30 872 992 10 0 198
869 -31 0 7221 10 303 0
870 30 824 944 10 0 76
871 -20 0 7115 10 554 0
872 10 150 270 10 0 509
873 -20 5829 5949 10 798 0
874 -20 1645 1765 10 232 0
875 -20 967 1087 10 515 0
876 20 891 1011 10 0 352
877 10 869 989 10 0 25
878 34 5002 5122 10 0 596
879 -30 811 931 10 437 0
880 8 4220 4340 10 0 152
881 -21 1490 1610 10 570 0
882 -28 1211 1331 10 426 0
883 -10 4256 4376 10 743 0
884 10 0 7146 10 0 208
885 -16 0 7116 10 979 0
886 -25 930 1050 10 585 0
887 24 995 1115 10 0 586
888 -10 801 921 10 396 0
889 20 946 1066 10 0 638
890 10 1716 1836 10 0 605
891 -20 0 7053 10 972 0
892 -10 1068 1188 10 955 0
893 -20 0 7036 10 482 0
894 -10 5972 6092 10 474 0
895 10 615 735 10 0 96
896 -18 0 7039 10 334 0
897 20 1345 1465 10 0 132
898 20 1751 1871 10 0 71
899 27 0 7035 10 0 167
900 31 3094 3214 10 0 745
901 10 707 827 10 0 370
902 -10 1252 1372 10 453 0
903 12 1083 1203 10 0 459
904 20 1068 1188 10 0 446
905 -28 0 7133 10 477 0
906 -10 1300 1420 10 551 0
907 -11 0 7113 10 460 0
908 -20 0 7042 10 660 0
909 -10 1073 1193 10 176 0
910 10 561 681 10 0 703
911 -10 3177 3297 10 940 0
912 -10 0 7231 10 602 0
913 17 5589 5709 10 0 339
914 6 0 7003 10 0 183
915 -20 1557 1677 10 344 0
916 -5 1017 1137 10 742 0
917 10 1087 1207 10 0 564
918 10 1104 1224 10 0 277
919 -10 2135 2255 10 523 0
920 4 1367 1487 10 0 383
921 12 771 891 10 0 420
922 24 0 7013 10 0 412
923 -9 0 7227 10 468 0
924 10 896 1016 10 0 204
925 10 1688 1808 10 0 141
926 10 1021 1141 10 0 706
927 15 5013 5133 10 0 292
928 20 444 564 10 0 53
929 -10 0 7032 10 603 0
930 17 65 185 10 0 762
931 -10 869 989 10 409 0
932 17 611 731 10 0 189
933 10 638 758 10 0 770
934 20 761 881 10 0 22
935 -20 0 7102 10 88 0
936 25 4194 4314 10 0 93
937 9 3178 3298 10 0 297
938 30 870 990 10 0 120
939 -20 0 7004 10 166 0
940 10 1724 1844 10 0 911
941 -17 0 7079 10 980 0
942 -27 0 7051 10 952 0
943 28 3428 3548 10 0 271
944 20 1255 1375 10 0 157
945 -20 449 569 10 315 0
946 20 0 7116 10 0 51
947 18 3824 3944 10 0 435
948 -25 865 985 10 389 0
949 14 1282 1402 10 0 469
950 -10 1463 1583 10 4 0
951 10 1134 1254 10 0 964
952 27 2862 2982 10 0 942
953 -18 0 7005 10 716 0
954 5 3242 3362 10 0 675
955 10 897 1017 10 0 892
956 10 333 453 10 0 242
957 24 0 7090 10 0 866
958 22 0 7133 10 0 165
959 10 0 7101 10 0 448
960 -10 750 870 10 755 0
961 30 713 833 10 0 228
962 -20 0 7196 10 125 0
963 -25 1193 1313 10 713 0
964 -10 1320 1440 10 951 0
965 -4 5599 5719 10 527 0
966 10 1685 1805 10 0 289
967 20 0 6963 10 0 784
968 30 383 503 10 0 685
969 -10 0 7092 10 355 0
970 -20 0 6941 10 249 0
971 -29 5414 5534 10 178 0
972 20 0 7084 10 0 891
973 -23 5370 5490 10 623 0
974 -20 1053 1173 10 519 0
975 20 0 7122 10 0 550
976 30 0 6961 10 0 341
977 20 337 457 10 0 642
978 5 2750 2870 10 0 206
979 16 4455 4575 10 0 885
980 17 0 7155 10 0 941
981 7 1710 1830 0 0 1004
982 30 1168 1288 10 0 173
983 -8 4009 4129 10 618 0
984 20 0 7200 10 0 270
985 9 626 746 10 0 62
986 -10 0 6995 10 847 0
987 20 0 7025 10 0 59
988 30 1078 1198 10 0 625
989 -10 876 996 10 19 0
990 -20 0 7178 10 405 0
991 10 0 6997 10 0 413
992 20 210 330 10 0 350
993 22 1882 2002 10 0 401
994 20 1022 1142 10 0 140
995 27 6272 6392 10 0 687
996 -20 0 7041 10 343 0
997 -20 0 7063 10 177 0
998 25 4874 4994 0 0 1006
999 20 1285 1405 10 0 111
1000 -30 0 6960 10 94 0
1001 10 895 1015 10 0 337
1002 -10 1634 1754 10 123 0
1003 -30 0 7233 10 345 0
1004 -7 1710 1830 10 981 0
1005 -25 2990 3110 10 601 0
1006 -25 4874 4994 10 998 0
1007 -19 2189 2309 10 541 0
1008 -20 1037 1157 10 254 0
1009 -7 0 7167 10 190 0
1010 -10 5417 5537 10 581 0
1011 -20 0 7082 10 694 0
DEPOT_SECTION
1
-1
EOF
