NAME: lrc2_10_5
TYPE: PDPTW
COMMENT: Li & Lim PDPTW benchmark converted from SINTEF format
DIMENSION: 1009
VEHICLES: 250
CAPACITY: 1000
EDGE_WEIGHT_TYPE: EUC_2D
NODE_COORD_SECTION
1 250 250
2 440 436
3 214 394
4 476 483
5 352 487
6 230 197
7 175 239
8 133 202
9 328 458
10 25 499
11 226 423
12 313 282
13 60 454
14 239 486
15 102 264
16 408 452
17 451 62
18 203 390
19 92 233
20 7 300
21 409 90
22 307 108
23 347 54
24 406 87
25 371 332
26 116 466
27 441 265
28 130 140
29 80 117
30 421 387
31 83 300
32 136 52
33 18 462
34 390 120
35 188 119
36 467 114
37 440 292
38 268 400
39 391 202
40 377 432
41 80 290
42 439 15
43 307 52
44 111 192
45 131 56
46 88 286
47 69 414
48 41 232
49 323 77
50 340 416
51 86 199
52 314 124
53 375 191
54 226 175
55 242 106
56 417 417
57 419 459
58 389 11
59 450 416
60 246 255
61 71 333
62 105 474
63 20 489
64 388 331
65 92 259
66 200 261
67 400 288
68 299 285
69 378 199
70 325 147
71 421 386
72 404 447
73 412 478
74 26 67
75 358 183
76 30 302
77 176 470
78 96 270
79 243 408
80 60 29
81 34 169
82 407 280
83 277 403
84 498 456
85 384 491
86 355 174
87 97 288
88 316 284
89 334 403
90 415 223
91 230 320
92 432 199
93 92 18
94 273 300
95 269 112
96 429 389
97 371 71
98 5 297
99 414 378
100 38 15
101 2 295
102 237 254
103 54 445
104 382 110
105 438 488
106 395 331
107 230 487
108 249 407
109 488 26
110 151 81
111 483 14
112 0 422
113 429 67
114 195 464
115 356 256
116 264 180
117 94 235
118 474 96
119 268 52
120 44 440
121 7 382
122 459 53
123 491 25
124 439 243
125 210 185
126 150 68
127 201 270
128 0 188
129 103 464
130 325 56
131 44 344
132 418 75
133 472 57
134 460 328
135 89 270
136 374 190
137 463 253
138 97 93
139 163 472
140 29 336
141 84 453
142 294 421
143 343 62
144 371 193
145 142 372
146 66 88
147 395 332
148 93 413
149 267 394
150 249 258
151 472 129
152 87 3
153 62 326
154 212 186
155 241 402
156 439 266
157 79 80
158 62 453
159 188 151
160 386 154
161 38 301
162 192 265
163 371 192
164 64 294
165 381 494
166 437 12
167 186 135
168 459 10
169 175 422
170 274 48
171 488 173
172 398 97
173 385 17
174 180 283
175 71 12
176 343 49
177 248 251
178 7 194
179 322 290
180 410 399
181 398 103
182 385 285
183 179 497
184 464 13
185 492 335
186 27 464
187 231 29
188 157 38
189 439 268
190 149 214
191 187 73
192 429 169
193 350 199
194 60 231
195 448 404
196 481 20
197 436 25
198 111 459
199 389 17
200 148 208
201 475 477
202 390 325
203 346 354
204 91 266
205 17 65
206 391 112
207 224 203
208 426 231
209 260 472
210 265 0
211 391 293
212 411 421
213 132 30
214 475 480
215 286 244
216 436 237
217 402 284
218 287 397
219 272 420
220 477 120
221 145 434
222 33 286
223 370 262
224 393 20
225 330 308
226 246 398
227 482 184
228 451 305
229 226 316
230 110 459
231 244 250
232 458 16
233 390 34
234 423 214
235 219 215
236 326 118
237 365 74
238 331 356
239 210 398
240 403 93
241 248 404
242 65 62
243 460 13
244 0 293
245 211 248
246 484 174
247 175 352
248 455 168
249 224 191
250 439 156
251 434 359
252 118 314
253 234 246
254 406 450
255 75 118
256 115 395
257 329 456
258 218 403
259 149 341
260 253 74
261 436 241
262 238 203
263 405 455
264 485 27
265 323 118
266 330 371
267 25 65
268 406 96
269 49 451
270 307 249
271 178 135
272 299 353
273 236 213
274 355 177
275 394 23
276 306 235
277 90 477
278 379 486
279 435 16
280 8 497
281 150 484
282 213 399
283 391 18
284 111 392
285 330 281
286 344 203
287 91 235
288 346 60
289 483 27
290 382 498
291 457 492
292 291 213
293 154 374
294 225 196
295 94 40
296 0 356
297 297 283
298 371 423
299 417 217
300 500 228
301 412 214
302 442 289
303 157 269
304 440 241
305 100 266
306 111 178
307 91 101
308 25 307
309 135 400
310 58 458
311 133 26
312 211 386
313 94 97
314 30 155
315 208 184
316 394 333
317 355 180
318 241 180
319 21 485
320 80 251
321 476 61
322 406 94
323 364 71
324 418 221
325 274 441
326 304 97
327 297 102
328 250 405
329 111 463
330 408 279
331 263 418
332 480 119
333 420 383
334 142 14
335 73 328
336 50 438
337 441 7
338 462 14
339 360 294
340 58 39
341 58 391
342 410 285
343 96 97
344 21 64
345 238 210
346 479 121
347 200 178
348 216 341
349 48 437
350 200 270
351 357 181
352 476 174
353 400 286
354 351 481
355 270 400
356 95 234
357 128 113
358 133 455
359 16 463
360 59 388
361 376 190
362 481 122
363 266 405
364 374 232
365 398 20
366 481 26
367 63 444
368 89 290
369 246 314
370 40 304
371 262 369
372 323 29
373 89 65
374 144 35
375 200 265
376 436 264
377 15 457
378 397 20
379 328 491
380 399 175
381 432 2
382 63 336
383 6 296
384 146 376
385 295 247
386 235 33
387 233 204
388 142 360
389 177 156
390 315 287
391 452 172
392 263 153
393 493 493
394 320 283
395 64 5
396 95 235
397 203 211
398 16 497
399 348 348
400 485 104
401 330 147
402 443 237
403 316 286
404 335 46
405 381 495
406 364 173
407 267 162
408 214 245
409 92 234
410 347 459
411 30 7
412 120 37
413 397 153
414 210 29
415 87 285
416 132 32
417 390 294
418 67 451
419 24 68
420 146 439
421 209 212
422 6 292
423 18 63
424 149 98
425 91 268
426 103 177
427 367 178
428 225 269
429 443 246
430 306 42
431 374 306
432 413 421
433 470 405
434 33 278
435 149 458
436 257 57
437 272 403
438 221 291
439 1 101
440 332 459
441 220 392
442 253 50
443 250 441
444 471 484
445 480 152
446 404 83
447 476 94
448 458 213
449 215 395
450 85 288
451 179 75
452 228 287
453 397 18
454 238 204
455 488 3
456 407 88
457 459 14
458 120 17
459 235 316
460 370 382
461 405 454
462 17 458
463 43 135
464 318 497
465 199 268
466 111 467
467 138 438
468 172 314
469 494 468
470 35 303
471 341 59
472 423 221
473 395 295
474 413 417
475 339 60
476 277 428
477 176 199
478 265 240
479 365 190
480 133 53
481 387 488
482 385 295
483 491 369
484 445 273
485 195 273
486 313 493
487 495 227
488 241 403
489 30 72
490 21 487
491 324 99
492 453 318
493 443 272
494 447 184
495 366 288
496 440 284
497 13 314
498 72 227
499 377 385
500 477 478
501 204 185
502 226 191
503 330 138
504 185 434
505 483 22
506 71 282
507 60 5
508 189 402
509 134 211
510 146 313
511 21 146
512 37 281
513 416 417
514 44 311
515 361 181
516 444 242
517 444 271
518 359 179
519 388 334
520 401 164
521 499 316
522 399 106
523 425 215
524 407 98
525 406 460
526 88 95
527 95 64
528 306 229
529 273 55
530 384 149
531 122 35
532 308 199
533 390 301
534 300 108
535 267 400
536 8 300
537 105 181
538 398 325
539 166 247
540 140 431
541 253 118
542 359 246
543 321 277
544 168 59
545 406 285
546 391 334
547 437 19
548 201 278
549 435 267
550 245 408
551 16 462
552 107 374
553 477 97
554 346 57
555 14 459
556 102 6
557 359 287
558 297 131
559 282 1
560 21 70
561 440 244
562 482 104
563 120 261
564 125 29
565 292 32
566 262 92
567 68 160
568 405 276
569 277 50
570 32 319
571 344 70
572 481 84
573 21 68
574 441 244
575 57 43
576 1 293
577 481 96
578 471 368
579 236 126
580 406 99
581 303 186
582 225 369
583 412 453
584 104 349
585 173 182
586 111 464
587 53 440
588 69 336
589 359 182
590 13 459
591 244 277
592 484 177
593 452 206
594 22 483
595 452 110
596 347 192
597 95 92
598 368 311
599 479 387
600 479 169
601 497 266
602 66 336
603 376 195
604 401 281
605 441 177
606 231 203
607 21 488
608 231 204
609 122 422
610 65 453
611 206 261
612 466 149
613 313 119
614 90 274
615 39 162
616 35 306
617 437 15
618 307 412
619 79 291
620 64 437
621 376 92
622 129 27
623 196 489
624 51 286
625 20 488
626 13 455
627 170 347
628 92 230
629 117 467
630 413 217
631 405 450
632 394 322
633 125 61
634 238 123
635 11 403
636 89 272
637 304 102
638 478 121
639 408 84
640 376 494
641 20 73
642 159 299
643 95 382
644 352 63
645 365 274
646 30 301
647 351 5
648 197 267
649 498 171
650 468 352
651 418 251
652 489 437
653 251 63
654 132 55
655 281 96
656 333 293
657 255 487
658 207 400
659 469 489
660 244 254
661 233 207
662 441 60
663 411 379
664 178 72
665 51 447
666 478 118
667 141 426
668 295 89
669 112 433
670 320 211
671 400 103
672 408 453
673 435 180
674 432 66
675 374 116
676 478 102
677 335 57
678 385 239
679 386 245
680 208 396
681 380 489
682 380 498
683 440 7
684 434 245
685 90 232
686 389 334
687 241 205
688 18 24
689 57 183
690 59 457
691 442 243
692 402 281
693 445 237
694 441 273
695 31 175
696 234 202
697 52 303
698 167 445
699 179 286
700 269 48
701 165 59
702 461 8
703 421 415
704 59 459
705 24 492
706 55 449
707 224 192
708 444 269
709 491 20
710 313 126
711 283 438
712 352 241
713 398 476
714 442 247
715 217 207
716 233 87
717 479 127
718 6 53
719 478 300
720 378 493
721 303 78
722 344 62
723 371 315
724 200 78
725 413 391
726 415 216
727 397 57
728 293 228
729 0 297
730 435 20
731 195 111
732 417 218
733 340 54
734 132 57
735 210 379
736 228 260
737 399 104
738 95 277
739 360 284
740 53 466
741 112 465
742 313 391
743 93 235
744 125 32
745 215 282
746 224 320
747 134 428
748 26 490
749 44 115
750 438 127
751 239 15
752 342 54
753 109 463
754 199 187
755 201 188
756 399 301
757 484 171
758 272 234
759 380 350
760 140 108
761 228 199
762 245 461
763 305 107
764 231 195
765 450 265
766 273 149
767 12 358
768 315 121
769 420 213
770 331 134
771 84 377
772 320 280
773 89 185
774 472 481
775 422 420
776 475 267
777 470 125
778 435 268
779 409 155
780 243 248
781 488 96
782 341 72
783 58 449
784 16 460
785 480 136
786 162 388
787 47 208
788 324 127
789 87 96
790 140 137
791 314 205
792 96 346
793 321 280
794 245 251
795 436 295
796 274 261
797 271 128
798 275 45
799 422 409
800 146 188
801 93 96
802 409 255
803 449 428
804 90 285
805 415 95
806 88 287
807 379 196
808 368 452
809 202 186
810 435 11
811 269 46
812 7 292
813 44 496
814 478 99
815 391 99
816 132 477
817 24 65
818 130 247
819 133 273
820 347 62
821 404 140
822 416 420
823 67 335
824 92 270
825 411 95
826 132 479
827 366 334
828 125 39
829 419 422
830 460 2
831 67 334
832 448 414
833 46 163
834 77 465
835 284 319
836 102 422
837 240 34
838 141 428
839 204 269
840 144 439
841 470 417
842 404 103
843 5 281
844 487 320
845 398 23
846 90 296
847 386 13
848 115 465
849 473 475
850 275 42
851 286 356
852 15 69
853 267 44
854 243 399
855 390 249
856 210 391
857 433 15
858 24 259
859 12 463
860 237 213
861 182 480
862 409 88
863 244 368
864 381 328
865 213 185
866 482 141
867 319 124
868 141 431
869 198 264
870 69 334
871 299 98
872 240 250
873 199 203
874 459 17
875 423 217
876 477 179
877 213 397
878 405 187
879 269 402
880 53 204
881 13 394
882 15 68
883 56 268
884 360 184
885 307 102
886 130 57
887 250 328
888 91 231
889 479 176
890 420 224
891 461 182
892 418 218
893 419 418
894 336 493
895 389 300
896 92 76
897 476 102
898 418 399
899 109 56
900 13 465
901 92 232
902 394 47
903 16 287
904 399 102
905 143 158
906 18 484
907 250 411
908 19 273
909 365 28
910 387 297
911 433 447
912 214 274
913 489 338
914 130 494
915 23 67
916 374 489
917 126 30
918 112 467
919 489 274
920 61 214
921 166 440
922 56 75
923 210 276
924 80 286
925 17 459
926 66 448
927 351 128
928 352 176
929 490 286
930 247 219
931 86 268
932 398 329
933 272 402
934 317 123
935 408 318
936 66 31
937 425 448
938 35 304
939 471 94
940 470 473
941 224 56
942 343 47
943 52 18
944 16 68
945 195 185
946 92 236
947 76 462
948 124 56
949 481 454
950 477 483
951 481 124
952 389 156
953 384 16
954 492 34
955 371 200
956 153 235
957 428 202
958 257 391
959 421 218
960 206 186
961 393 301
962 204 187
963 468 475
964 477 122
965 100 66
966 489 27
967 12 451
968 197 270
969 311 422
970 489 17
971 13 214
972 440 247
973 28 467
974 388 325
975 270 401
976 5 445
977 198 271
978 480 131
979 437 98
980 131 246
981 49 437
982 270 49
983 337 41
984 318 280
985 154 392
986 493 111
987 399 450
988 67 452
989 34 239
990 343 276
991 393 12
992 236 247
993 340 291
994 3 292
995 209 68
996 18 225
997 147 435
998 335 99
999 485 24
1000 470 475
1001 341 58
1002 35 303
1003 120 261
1004 306 229
1005 377 432
1006 488 26
1007 1 101
1008 12 451
1009 287 397
PICKUP_AND_DELIVERY_SECTION
1 0 0 7284 0 0 0
2 -15 3544 3711 10 371 0
3 10 852 1113 10 0 50
4 -20 1298 1660 10 774 0
5 -1 3617 3718 10 266 0
6 40 542 551 10 0 754
7 23 109 498 10 0 271
8 33 1636 2168 10 0 434
9 -10 3111 3152 10 602 0
10 -20 1665 2014 10 26 0
11 -40 627 1069 10 18 0
12 20 581 847 10 0 390
13 -10 1292 1607 10 231 0
14 -12 5778 6199 10 131 0
15 10 331 858 10 0 41
16 10 918 1379 10 0 469
17 5 1059 1320 10 0 617
18 40 623 766 10 0 11
19 10 777 1134 10 0 98
20 30 1340 1539 10 0 615
21 20 995 1190 10 0 577
22 10 841 1178 10 0 283
23 10 1197 1284 10 0 199
24 10 1225 1398 10 0 675
25 -20 2054 2302 10 692 0
26 20 895 1233 10 0 10
27 40 694 1004 10 0 604
28 17 794 879 10 0 801
29 -27 3274 3439 10 899 0
30 15 3070 3460 10 0 84
31 26 1821 2297 10 0 293
32 10 1109 1353 10 0 724
33 20 1627 1675 10 0 87
34 24 3770 4383 10 0 530
35 -6 3916 4002 10 544 0
36 -33 1465 1662 10 364 0
37 -17 3704 3936 10 932 0
38 -24 926 1140 10 887 0
39 14 402 790 10 0 769
40 20 3344 3428 0 0 1005
41 -10 536 1164 10 15 0
42 -20 1391 1474 10 447 0
43 -10 3556 3927 10 710 0
44 -17 4737 4979 10 980 0
45 -31 885 1281 10 463 0
46 10 1007 1132 10 0 958
47 -26 4851 5375 10 252 0
48 -10 852 911 10 253 0
49 -14 5647 5713 10 187 0
50 -10 1196 1492 10 3 0
51 23 998 1344 10 0 922
52 -40 942 1025 10 885 0
53 30 565 889 10 0 518
54 -3 6692 6978 10 100 0
55 28 5009 5258 10 0 581
56 10 1168 1608 10 0 898
57 20 1109 1542 10 0 849
58 -9 1163 1544 10 909 0
59 -10 2240 2494 10 940 0
60 10 359 661 10 0 102
61 10 606 1065 10 0 643
62 -20 1918 1968 10 377 0
63 -29 1585 1601 10 669 0
64 -20 514 766 10 88 0
65 4 1455 1861 10 0 74
66 10 467 985 10 0 186
67 30 421 817 10 0 974
68 3 4840 5311 10 0 297
69 10 719 1058 10 0 825
70 14 4556 5058 10 0 95
71 -14 3168 3547 10 949 0
72 -34 949 1051 10 272 0
73 -30 3771 4027 10 720 0
74 -4 5266 5389 10 65 0
75 20 742 1247 10 0 875
76 10 1005 1248 10 0 821
77 -10 2087 2406 10 926 0
78 20 516 901 10 0 367
79 -7 5747 5842 10 219 0
80 -26 5365 5657 10 633 0
81 -30 1896 2099 10 101 0
82 10 764 1025 10 0 189
83 10 687 830 10 0 437
84 -15 5482 5885 10 30 0
85 -10 1436 1465 10 550 0
86 33 2900 2943 10 0 401
87 -20 4927 5466 10 33 0
88 20 464 654 10 0 64
89 26 589 807 10 0 254
90 20 1266 1292 10 0 656
91 8 4768 4889 10 0 745
92 -10 2414 2814 10 726 0
93 8 4381 4733 10 0 152
94 30 144 296 10 0 631
95 -14 4961 5261 10 70 0
96 18 1521 1992 10 0 99
97 21 1126 1288 10 0 260
98 -10 1075 1695 10 19 0
99 -18 1958 2121 10 96 0
100 3 4342 4507 10 0 54
101 30 1160 1406 10 0 81
102 -10 342 444 10 60 0
103 10 1192 1392 10 0 462
104 -20 4414 4605 10 819 0
105 -10 1344 1393 10 583 0
106 20 663 1189 10 0 829
107 -20 4398 4759 10 335 0
108 10 627 884 10 0 278
109 30 1734 1848 0 0 1006
110 -23 5996 6588 10 411 0
111 -20 1355 1671 10 999 0
112 -10 3162 3526 10 535 0
113 -10 2817 3161 10 553 0
114 -10 6109 6341 10 924 0
115 19 184 665 10 0 484
116 -14 6725 6840 10 766 0
117 20 476 858 10 0 320
118 -10 981 1194 10 671 0
119 -10 1263 1302 10 170 0
120 -10 3085 3344 10 877 0
121 -10 2940 3344 10 854 0
122 -13 4449 4649 10 380 0
123 -10 1634 1755 10 327 0
124 -20 1088 1540 10 708 0
125 20 106 505 10 0 896
126 -20 1614 1888 10 526 0
127 10 145 359 10 0 464
128 -30 3516 4060 10 230 0
129 -25 5121 5182 10 697 0
130 -23 3175 3316 10 668 0
131 12 4295 4461 10 0 14
132 -20 1732 1972 10 166 0
133 -25 5214 5265 10 276 0
134 -20 913 959 10 402 0
135 -30 793 955 10 345 0
136 -20 589 677 10 274 0
137 -10 4066 4430 10 799 0
138 20 946 1097 10 0 416
139 -40 2615 2733 10 280 0
140 22 1237 1535 10 0 169
141 -23 4814 5089 10 623 0
142 -9 6224 6500 10 937 0
143 10 1463 1517 10 0 953
144 20 349 722 10 0 322
145 18 561 743 10 0 319
146 -32 3234 3524 10 688 0
147 10 805 959 10 0 432
148 17 771 1039 10 0 704
149 -10 999 1194 10 488 0
150 30 546 588 10 0 468
151 -20 914 1227 10 777 0
152 -8 5714 5871 10 93 0
153 -20 1043 1368 10 608 0
154 -10 6884 7008 10 383 0
155 -13 3968 4350 10 182 0
156 -30 685 916 10 961 0
157 -24 5530 5647 10 695 0
158 10 1115 1362 10 0 740
159 -29 4940 5554 10 760 0
160 -30 4258 4669 10 244 0
161 20 1055 1429 10 0 920
162 10 467 646 10 0 826
163 30 421 738 10 0 515
164 -20 4280 4650 10 502 0
165 10 1227 1561 10 0 393
166 20 1202 1554 10 0 132
167 24 2647 3214 10 0 397
168 -10 1319 1481 10 453 0
169 -22 5728 5963 10 140 0
170 10 740 1070 10 0 119
171 20 1062 1288 10 0 638
172 10 791 1000 10 0 580
173 40 3287 3304 10 0 941
174 -20 2915 3155 10 994 0
175 -28 1082 1382 10 477 0
176 -10 909 1331 10 733 0
177 20 2 46 10 0 629
178 -21 3761 3970 10 229 0
179 -25 5932 6020 10 803 0
180 -20 857 1134 10 519 0
181 -20 1052 1296 10 234 0
182 13 3394 3670 10 0 155
183 -10 5558 5850 10 960 0
184 20 1519 1680 10 0 192
185 -29 3168 3578 10 929 0
186 -10 5092 5357 10 66 0
187 14 4832 5098 10 0 49
188 -13 4034 4469 10 451 0
189 -10 1136 1366 10 82 0
190 -20 1779 2197 10 221 0
191 -20 915 1541 10 313 0
192 -20 3411 3932 10 184 0
193 -10 4635 5097 10 964 0
194 -24 3887 4441 10 634 0
195 15 2239 2673 10 0 652
196 -20 1304 1591 10 942 0
197 -22 5116 5262 10 781 0
198 -30 1237 1753 10 540 0
199 -10 1271 1775 10 23 0
200 -9 2026 2306 10 438 0
201 -10 1512 1845 10 672 0
202 30 893 1238 10 0 538
203 -20 3153 3507 10 549 0
204 10 665 1316 10 0 698
205 20 1304 1430 10 0 423
206 -31 3790 4333 10 593 0
207 20 67 363 10 0 395
208 -10 4160 4187 10 534 0
209 -12 4118 4289 10 325 0
210 -20 3428 3861 10 867 0
211 20 891 1035 10 0 568
212 20 1179 1461 10 0 578
213 20 1111 1615 10 0 790
214 -20 1326 1829 10 950 0
215 -15 5019 5372 10 927 0
216 20 742 749 10 0 693
217 30 535 902 10 0 517
218 12 2144 2490 0 0 1009
219 7 5443 5763 10 0 79
220 -30 1223 1634 10 362 0
221 20 852 1131 10 0 190
222 -10 6203 6284 10 420 0
223 15 4413 4503 10 0 285
224 -20 1408 1838 10 265 0
225 -10 4513 4971 10 772 0
226 40 498 686 10 0 257
227 14 4448 4527 10 0 727
228 13 773 895 10 0 890
229 21 112 449 10 0 178
230 30 1312 1589 10 0 128
231 10 6 436 10 0 13
232 -12 1041 1464 10 721 0
233 -14 4218 4385 10 595 0
234 20 723 1131 10 0 181
235 32 122 253 10 0 654
236 10 391 912 10 0 323
237 -20 3219 3689 10 475 0
238 13 2745 3070 10 0 399
239 10 690 1064 10 0 586
240 -10 1400 1446 10 456 0
241 30 319 996 10 0 355
242 -15 3741 4190 10 575 0
243 20 1226 1468 10 0 300
244 30 954 1396 10 0 160
245 26 137 175 10 0 981
246 -10 923 1313 10 523 0
247 -34 6541 6900 10 973 0
248 21 3445 3610 10 0 605
249 20 244 523 10 0 556
250 2 2099 2227 10 0 750
251 -4 5493 5765 10 659 0
252 26 1300 1520 10 0 47
253 10 308 329 10 0 48
254 -26 1056 1137 10 89 0
255 21 1637 1755 10 0 511
256 -20 3254 3387 10 706 0
257 -40 843 1270 10 226 0
258 15 5277 5397 10 0 369
259 -20 1469 1883 10 466 0
260 -21 5293 5628 10 97 0
261 -10 1213 1524 10 561 0
262 -17 366 505 10 930 0
263 40 1410 1437 10 0 651
264 10 1684 2003 10 0 978
265 20 601 806 10 0 224
266 1 2182 2406 10 0 5
267 10 1491 1639 10 0 489
268 20 768 1078 10 0 939
269 -11 1173 1187 10 834 0
270 -10 5499 5634 10 505 0
271 -23 6095 6136 10 7 0
272 34 316 596 10 0 72
273 20 87 230 10 0 606
274 20 471 642 10 0 136
275 -20 1486 1865 10 763 0
276 25 57 703 10 0 133
277 18 852 1370 10 0 859
278 -10 2708 2786 10 108 0
279 -20 1475 1584 10 842 0
280 40 1437 1945 10 0 139
281 -30 2350 2772 10 988 0
282 18 939 1053 10 0 354
283 -10 1387 1755 10 22 0
284 -20 4604 4868 10 590 0
285 -15 5310 5453 10 223 0
286 14 613 846 10 0 562
287 10 938 1334 10 0 965
288 10 1203 1487 10 0 430
289 20 1618 2166 10 0 601
290 -10 1154 1440 10 682 0
291 -10 2028 2157 10 963 0
292 -25 4911 5271 10 998 0
293 -26 3703 3912 10 31 0
294 10 59 559 10 0 307
295 -25 4262 4402 10 936 0
296 -10 4154 4656 10 425 0
297 -3 5314 5601 10 68 0
298 -5 539 1149 10 742 0
299 30 553 1075 10 0 571
300 -20 3033 3342 10 243 0
301 10 454 873 10 0 592
302 25 754 893 10 0 352
303 -6 6297 6433 10 914 0
304 10 1153 1378 10 0 969
305 20 505 787 10 0 881
306 18 443 810 10 0 828
307 -10 1112 1394 10 294 0
308 -10 897 1218 10 872 0
309 20 1217 1291 10 0 467
310 -20 1304 1398 10 450 0
311 10 1179 1434 10 0 414
312 20 349 783 10 0 868
313 20 821 1012 10 0 191
314 -12 5008 5355 10 903 0
315 20 161 547 10 0 585
316 -20 792 881 10 686 0
317 -20 422 796 10 928 0
318 -27 6567 7109 10 995 0
319 -18 1346 1481 10 145 0
320 -20 1187 1362 10 117 0
321 -20 1779 1931 10 702 0
322 -20 848 1095 10 144 0
323 -10 5357 5551 10 236 0
324 10 1088 1362 10 0 684
325 12 2753 2923 10 0 209
326 20 612 963 10 0 709
327 10 472 866 10 0 123
328 20 501 912 10 0 975
329 -20 1342 1351 10 449 0
330 -20 863 1016 10 376 0
331 25 1120 1228 10 0 618
332 -20 2433 2715 10 365 0
333 -10 3941 4035 10 444 0
334 -30 3293 3509 10 458 0
335 20 689 859 10 0 107
336 -20 1401 1413 10 614 0
337 20 1487 1765 10 0 837
338 -30 1575 1722 10 677 0
339 -25 5437 6025 10 663 0
340 -21 4640 4783 10 865 0
341 -4 3460 3718 10 349 0
342 -20 632 1029 10 545 0
343 20 750 987 10 0 731
344 -35 1396 1542 10 509 0
345 30 435 756 10 0 135
346 -10 1212 1369 10 951 0
347 -10 293 576 10 707 0
348 -10 2471 2880 10 576 0
349 4 3242 3307 10 0 341
350 20 53 538 10 0 609
351 -19 594 722 10 728 0
352 -25 1305 1409 10 302 0
353 10 389 945 10 0 778
354 -18 1187 1507 10 282 0
355 -30 530 680 10 241 0
356 10 664 762 10 0 685
357 22 1246 1775 10 0 653
358 25 3111 3472 10 0 510
359 -10 1490 1629 10 607 0
360 -35 2497 2925 10 440 0
361 30 550 812 10 0 503
362 30 1175 1309 10 0 220
363 20 801 1055 10 0 894
364 33 344 658 10 0 36
365 20 886 1386 10 0 332
366 -30 1133 1441 10 871 0
367 -20 1466 1693 10 78 0
368 20 590 870 10 0 635
369 -15 5665 6018 10 258 0
370 -30 4565 4713 10 415 0
371 15 440 715 10 0 2
372 -12 4456 4763 10 647 0
373 16 2798 3084 10 0 527
374 26 937 980 10 0 886
375 10 458 882 10 0 611
376 20 623 869 10 0 330
377 20 1172 1536 10 0 62
378 20 987 1373 10 0 457
379 21 2634 2912 10 0 486
380 13 2965 3130 10 0 122
381 -10 1812 2041 10 814 0
382 -26 972 1278 10 792 0
383 10 1167 1512 10 0 154
384 8 845 1150 10 0 490
385 -6 5090 5457 10 644 0
386 30 5333 5483 10 0 407
387 20 57 497 10 0 850
388 -30 6110 6265 10 870 0
389 25 498 959 10 0 905
390 -20 627 678 10 12 0
391 9 2314 2672 10 0 805
392 -10 1588 1831 10 661 0
393 -10 3321 3651 10 165 0
394 30 370 634 10 0 473
395 -20 4350 4801 10 207 0
396 -30 500 746 10 780 0
397 -24 5131 5441 10 167 0
398 -10 1684 1841 10 625 0
399 -13 3729 3869 10 238 0
400 21 3230 3246 10 0 445
401 -33 3292 3616 10 86 0
402 20 589 1038 10 0 134
403 30 383 831 10 0 822
404 -10 5213 5641 10 820 0
405 20 1332 1367 10 0 433
406 30 756 806 10 0 770
407 -30 5688 6026 10 386 0
408 8 114 177 10 0 938
409 -10 852 1146 10 860 0
410 25 1826 2129 10 0 911
411 23 4625 5004 10 0 110
412 -10 3060 3263 10 622 0
413 29 3475 3704 10 0 979
414 -10 4253 4273 10 311 0
415 30 1018 1030 10 0 370
416 -20 3085 3311 10 138 0
417 -20 991 1027 10 984 0
418 -13 4872 4973 10 435 0
419 20 1537 1899 10 0 573
420 10 939 1254 10 0 222
421 -28 6068 6275 10 943 0
422 -10 925 1135 10 729 0
423 -20 1375 1457 10 205 0
424 -20 4624 4817 10 944 0
425 10 845 1232 10 0 296
426 -30 2551 2580 10 753 0
427 20 592 971 10 0 892
428 -36 5068 5219 10 746 0
429 20 899 1058 10 0 516
430 -10 1911 2022 10 288 0
431 -24 4026 4046 10 557 0
432 -10 1265 1278 10 147 0
433 -20 3553 3973 10 405 0
434 -33 5978 6039 10 8 0
435 13 4513 4917 10 0 418
436 -5 4813 5115 10 902 0
437 -10 757 880 10 83 0
438 9 50 467 10 0 200
439 8 4853 5326 0 0 1007
440 35 1424 1645 10 0 360
441 20 1011 1172 10 0 620
442 -20 939 986 10 798 0
443 -20 2981 3184 10 747 0
444 10 1389 1450 10 0 333
445 -21 4000 4293 10 400 0
446 -10 1192 1315 10 884 0
447 20 989 1289 10 0 42
448 -12 4557 4588 10 719 0
449 20 751 1304 10 0 329
450 20 521 1055 10 0 310
451 13 2859 3181 10 0 188
452 21 43 366 10 0 624
453 10 1072 1384 10 0 168
454 20 437 522 10 0 888
455 -20 1620 1705 10 857 0
456 10 1108 1607 10 0 240
457 -20 1231 1371 10 378 0
458 30 1087 1265 10 0 334
459 -23 2479 2887 10 667 0
460 -6 3380 3810 10 499 0
461 -23 5201 5343 10 832 0
462 -10 1757 1828 10 103 0
463 31 717 1178 10 0 45
464 -10 3394 3557 10 127 0
465 -22 335 355 10 485 0
466 20 1148 1268 10 0 259
467 -20 1092 1326 10 309 0
468 -30 2081 2403 10 150 0
469 -10 1384 1555 10 16 0
470 20 692 1079 0 0 1002
471 27 3041 3398 10 0 655
472 -20 960 1226 10 589 0
473 -30 708 1103 10 394 0
474 10 1257 1712 10 0 919
475 20 541 1266 10 0 237
476 7 1860 2182 10 0 762
477 28 97 621 10 0 175
478 9 18 199 10 0 904
479 22 5745 6194 10 0 791
480 20 1057 1298 10 0 852
481 20 1307 1709 10 0 808
482 -15 229 909 10 990 0
483 28 2865 3091 10 0 844
484 -19 919 1263 10 115 0
485 22 221 255 10 0 465
486 -21 4800 4865 10 379 0
487 -10 1361 1511 10 493 0
488 10 754 1127 10 0 149
489 -10 1684 1889 10 267 0
490 -8 1340 1583 10 384 0
491 10 1198 1626 10 0 541
492 -20 1309 1800 10 694 0
493 10 1067 1213 10 0 487
494 27 1551 1965 10 0 674
495 -22 2750 2839 10 993 0
496 25 3366 3567 10 0 596
497 -10 887 1183 10 812 0
498 -30 2297 2333 10 840 0
499 6 3416 3634 10 0 460
500 20 1442 1816 10 0 841
501 20 604 823 10 0 824
502 20 266 598 10 0 164
503 -30 4447 4549 10 361 0
504 9 2185 2523 10 0 508
505 10 1373 1419 10 0 270
506 29 2538 2715 10 0 771
507 -10 4161 4309 10 817 0
508 -9 2086 2322 10 504 0
509 35 508 576 10 0 344
510 -25 4758 4925 10 358 0
511 -21 1947 2067 10 255 0
512 -20 1932 2134 10 738 0
513 20 1310 1554 10 0 795
514 -30 1423 1956 10 806 0
515 -30 789 908 10 163 0
516 -20 913 931 10 429 0
517 -30 835 1250 10 217 0
518 -30 422 995 10 53 0
519 20 538 847 10 0 180
520 -20 2414 2676 10 600 0
521 18 2514 2580 10 0 802
522 -10 1145 1389 10 959 0
523 10 873 1079 10 0 246
524 10 810 939 10 0 676
525 -30 2870 3003 10 907 0
526 20 1016 1266 10 0 126
527 -16 2884 3364 10 373 0
528 10 5318 5365 0 0 1004
529 20 783 788 10 0 797
530 -24 4614 5083 10 34 0
531 10 991 1090 10 0 560
532 14 6030 6156 10 0 758
533 10 626 815 10 0 714
534 10 366 838 10 0 208
535 10 828 1150 10 0 112
536 -16 1382 1585 10 989 0
537 -16 5916 6453 10 773 0
538 -30 832 1155 10 202 0
539 1 138 535 10 0 784
540 30 604 1172 10 0 198
541 -10 2082 2417 10 491 0
542 -17 5651 5852 10 835 0
543 10 187 421 10 0 598
544 6 1381 1668 10 0 35
545 20 537 1012 10 0 342
546 20 657 911 10 0 987
547 -37 3931 4301 10 673 0
548 13 82 370 10 0 736
549 20 1149 1553 10 0 203
550 10 788 963 10 0 85
551 10 1423 1783 10 0 705
552 -25 3598 3837 10 863 0
553 10 894 1488 10 0 113
554 20 1253 1333 10 0 722
555 -30 1297 1508 10 594 0
556 -20 5675 6113 10 249 0
557 24 310 610 10 0 431
558 -10 4602 4842 10 732 0
559 18 4124 4335 10 0 983
560 -10 2918 3372 10 531 0
561 10 1024 1225 10 0 261
562 -14 3152 3427 10 286 0
563 5 3134 3332 0 0 1003
564 -30 1181 1205 10 789 0
565 14 896 1057 10 0 715
566 -10 2505 2658 10 1001 0
567 21 4528 4679 10 0 800
568 -20 732 1262 10 211 0
569 -10 775 927 10 696 0
570 -10 1494 1830 10 743 0
571 -30 4580 4705 10 299 0
572 -20 1876 2288 10 874 0
573 -20 1539 1793 10 419 0
574 -10 1051 1286 10 765 0
575 15 4133 4175 10 0 242
576 10 906 1357 10 0 348
577 -20 1078 1418 10 21 0
578 -20 1609 1936 10 212 0
579 23 445 554 10 0 853
580 -10 901 1035 10 172 0
581 -28 5394 5559 10 55 0
582 38 283 689 10 0 996
583 10 1103 1394 10 0 105
584 -20 3929 4265 10 764 0
585 -20 176 645 10 315 0
586 -10 1066 1539 10 239 0
587 -20 1137 1567 10 616 0
588 -30 785 1079 10 839 0
589 20 723 1070 10 0 472
590 20 1270 1624 10 0 284
591 -18 5089 5441 10 947 0
592 -10 873 1259 10 301 0
593 31 1813 2244 10 0 206
594 30 1170 1437 10 0 555
595 14 1291 1551 10 0 233
596 -25 5900 6125 10 496 0
597 -20 1064 1078 10 945 0
598 -10 3621 3907 10 543 0
599 -10 1349 1950 10 893 0
600 20 1084 1504 10 0 520
601 -20 2806 3294 10 289 0
602 10 907 1239 10 0 9
603 10 745 822 10 0 683
604 -40 858 1350 10 27 0
605 -21 3857 4273 10 248 0
606 -20 160 493 10 273 0
607 10 1426 1585 10 0 359
608 20 436 885 10 0 153
609 -20 5754 6021 10 350 0
610 -23 999 1375 10 836 0
611 -10 602 978 10 375 0
612 -20 4698 4910 10 807 0
613 -20 855 992 10 934 0
614 20 667 887 10 0 336
615 -30 2240 2402 10 20 0
616 20 895 1060 10 0 587
617 -5 1337 1625 10 17 0
618 -25 1534 1815 10 331 0
619 10 776 1015 10 0 925
620 -20 3539 3927 10 441 0
621 -20 3768 4276 10 717 0
622 10 1124 1377 10 0 412
623 23 4070 4291 10 0 141
624 -21 5720 6072 10 452 0
625 10 1530 1569 10 0 398
626 -30 1036 1570 10 976 0
627 15 1780 1827 10 0 900
628 20 733 897 10 0 908
629 -20 967 1069 10 177 0
630 20 649 783 10 0 876
631 -30 881 1224 10 94 0
632 12 4021 4297 10 0 723
633 26 2347 2667 10 0 80
634 24 3039 3329 10 0 194
635 -20 1333 1531 10 368 0
636 -10 587 1066 10 761 0
637 30 462 1232 10 0 782
638 -20 1270 1399 10 171 0
639 -10 1156 1239 10 955 0
640 30 1051 1226 10 0 713
641 10 1030 1292 10 0 882
642 12 4057 4187 10 0 883
643 -10 838 1132 10 61 0
644 6 4670 4875 10 0 385
645 14 406 534 10 0 712
646 -20 1041 1300 10 992 0
647 12 1861 2227 10 0 372
648 10 377 613 10 0 869
649 -20 4896 5275 10 730 0
650 -20 3042 3223 10 775 0
651 -40 4798 4897 10 263 0
652 -15 2771 3003 10 195 0
653 -22 3841 4178 10 357 0
654 -32 1005 1253 10 235 0
655 -27 4558 4568 10 471 0
656 -20 2412 2644 10 90 0
657 -30 1527 1776 10 968 0
658 -30 612 1032 10 856 0
659 4 2204 2359 10 0 251
660 20 278 645 10 0 916
661 10 46 672 10 0 392
662 -14 5744 6045 10 866 0
663 25 4704 4963 10 0 339
664 23 2968 3206 10 0 701
665 10 1096 1379 10 0 906
666 20 1354 1601 10 0 952
667 23 1993 2378 10 0 459
668 23 2908 3148 10 0 130
669 29 879 1122 10 0 63
670 16 3835 4226 10 0 878
671 10 963 1201 10 0 118
672 10 922 1462 10 0 201
673 37 852 1064 10 0 547
674 -27 4225 4464 10 494 0
675 -10 2285 2532 10 24 0
676 -10 1096 1618 10 524 0
677 30 768 919 10 0 338
678 21 3141 3263 10 0 759
679 -20 1718 2233 10 972 0
680 20 457 1074 10 0 997
681 -20 1454 1698 10 879 0
682 10 1135 1363 10 0 290
683 -10 1146 1484 10 603 0
684 -10 1356 1498 10 324 0
685 -10 804 1009 10 356 0
686 20 549 924 10 0 316
687 30 348 715 10 0 962
688 32 2499 2648 10 0 146
689 -8 4421 4501 10 880 0
690 -20 1241 1553 10 846 0
691 10 1068 1361 10 0 739
692 20 874 1246 10 0 25
693 -20 733 990 10 216 0
694 20 986 1392 10 0 492
695 24 958 1135 10 0 157
696 10 290 467 10 0 569
697 25 1809 1840 10 0 129
698 -10 5539 5878 10 204 0
699 -10 1169 1680 10 918 0
700 20 999 1365 10 0 982
701 -23 3758 3904 10 664 0
702 20 1426 1647 10 0 321
703 -8 924 1078 10 725 0
704 -17 1186 1425 10 148 0
705 -10 1680 2135 10 551 0
706 20 1011 1217 10 0 256
707 10 63 654 10 0 347
708 20 888 1100 10 0 124
709 -20 1526 1742 10 326 0
710 10 803 1262 10 0 43
711 -10 941 1031 10 933 0
712 -14 3027 3432 10 645 0
713 -30 1624 1841 10 640 0
714 -10 819 1230 10 533 0
715 -14 5535 5645 10 565 0
716 18 938 1203 10 0 811
717 20 1108 1171 10 0 621
718 8 2404 2411 10 0 873
719 12 3459 3778 10 0 448
720 30 1166 1209 10 0 73
721 12 680 759 10 0 232
722 -20 1327 1565 10 554 0
723 -12 4543 4904 10 632 0
724 -10 3906 4155 10 32 0
725 8 881 975 10 0 703
726 10 722 809 10 0 92
727 -14 5861 6067 10 227 0
728 19 48 345 10 0 351
729 10 1060 1403 10 0 422
730 20 1570 1602 10 0 649
731 -20 3998 4106 10 343 0
732 10 920 1425 10 0 558
733 10 933 1089 10 0 176
734 -20 934 1142 10 948 0
735 -30 2704 3086 10 783 0
736 -13 6297 6667 10 548 0
737 -20 1096 1342 10 862 0
738 20 1075 1240 10 0 512
739 -10 2611 2842 10 691 0
740 -10 1200 1600 10 158 0
741 -12 1144 1369 10 921 0
742 5 450 867 10 0 298
743 10 844 1246 10 0 570
744 -24 908 1287 10 749 0
745 -8 5795 5849 10 91 0
746 36 5091 5298 10 0 428
747 20 1141 1444 10 0 443
748 -32 1753 2165 10 813 0
749 24 698 1272 10 0 744
750 -2 3629 4018 10 250 0
751 -10 2260 2691 10 847 0
752 20 1040 1079 10 0 845
753 30 1298 1491 10 0 426
754 -40 544 589 10 6 0
755 10 354 876 10 0 931
756 30 546 1128 10 0 827
757 -22 1214 1252 10 785 0
758 -14 6289 6554 10 532 0
759 -21 3422 3629 10 678 0
760 29 4296 4394 10 0 159
761 10 412 783 10 0 636
762 -7 2497 2818 10 476 0
763 20 740 1182 10 0 275
764 20 443 551 10 0 584
765 10 744 1107 10 0 574
766 14 6032 6110 10 0 116
767 -40 4917 4997 10 804 0
768 -30 784 960 10 788 0
769 -14 807 942 10 39 0
770 -30 4375 4735 10 406 0
771 -29 3577 3953 10 506 0
772 10 382 418 10 0 225
773 16 2326 2593 10 0 537
774 20 1239 1494 10 0 4
775 20 1000 1221 10 0 650
776 -10 2930 3427 10 991 0
777 20 861 1164 10 0 151
778 -10 1238 1375 10 353 0
779 19 596 886 10 0 815
780 30 55 257 10 0 396
781 22 3991 4659 10 0 197
782 -30 3109 3450 10 637 0
783 30 1178 1843 10 0 735
784 -1 1573 1833 10 539 0
785 22 901 1152 10 0 757
786 11 4532 4597 10 0 912
787 -10 832 1099 10 956 0
788 30 529 619 10 0 768
789 30 1056 1319 10 0 564
790 -20 2215 2462 10 213 0
791 -22 6032 6302 10 479 0
792 26 647 954 10 0 382
793 30 228 484 10 0 895
794 10 8 113 10 0 831
795 -20 1919 2428 10 513 0
796 -17 6568 7207 10 913 0
797 -20 1339 1546 10 529 0
798 20 909 1008 10 0 442
799 10 818 1056 10 0 137
800 -21 4953 5046 10 567 0
801 -17 847 1077 10 28 0
802 -18 5984 6316 10 521 0
803 25 4907 5188 10 0 179
804 40 1101 1228 10 0 767
805 -9 4615 4918 10 391 0
806 30 961 1266 10 0 514
807 20 740 933 10 0 612
808 -20 2696 2784 10 481 0
809 20 584 745 10 0 901
810 40 1158 1340 10 0 986
811 -18 1079 1189 10 716 0
812 10 940 1033 10 0 497
813 32 1625 1709 10 0 748
814 10 1077 1533 10 0 381
815 -19 596 1057 10 779 0
816 -20 1363 1375 10 823 0
817 10 1415 1628 10 0 507
818 17 333 627 10 0 858
819 20 231 723 10 0 104
820 10 1126 1661 10 0 404
821 -10 4984 5206 10 76 0
822 -30 1150 1287 10 403 0
823 20 878 1177 10 0 816
824 -20 922 1253 10 501 0
825 -10 827 1236 10 69 0
826 -10 731 1329 10 162 0
827 -30 1491 1911 10 756 0
828 -18 792 1170 10 306 0
829 -20 1055 1274 10 106 0
830 20 1318 1626 10 0 966
831 -10 734 1232 10 794 0
832 23 4871 5031 10 0 461
833 -20 3724 3804 10 946 0
834 11 946 1261 10 0 269
835 17 3152 3502 10 0 542
836 23 784 1146 10 0 610
837 -20 6068 6528 10 337 0
838 20 632 1038 10 0 848
839 30 93 305 10 0 588
840 30 1065 1224 10 0 498
841 -20 2891 3123 10 500 0
842 20 920 1132 10 0 279
843 -21 5513 5579 10 971 0
844 -28 3288 3693 10 483 0
845 -20 988 1179 10 752 0
846 20 587 745 10 0 690
847 10 1148 1668 10 0 751
848 -20 991 1227 10 838 0
849 -20 1640 1818 10 57 0
850 -20 750 1271 10 387 0
851 30 437 459 10 0 1000
852 -20 1022 1431 10 480 0
853 -23 878 1289 10 579 0
854 10 895 1103 10 0 121
855 -10 2311 2462 10 910 0
856 30 539 714 10 0 658
857 20 1077 1306 10 0 455
858 -17 1495 1586 10 818 0
859 -18 1468 1538 10 277 0
860 10 441 855 10 0 409
861 -20 1450 1589 10 977 0
862 20 955 1327 10 0 737
863 25 1675 1757 10 0 552
864 -15 2700 3159 10 935 0
865 21 137 461 10 0 340
866 14 3839 4367 10 0 662
867 20 684 860 10 0 210
868 -20 785 1079 10 312 0
869 -10 306 936 10 648 0
870 30 691 1078 10 0 388
871 30 648 806 10 0 366
872 10 10 451 10 0 308
873 -8 5813 5966 10 718 0
874 20 1490 1921 10 0 572
875 -20 876 1178 10 75 0
876 -20 773 1129 10 630 0
877 10 837 1022 10 0 120
878 -16 4932 5193 10 670 0
879 20 720 1022 10 0 681
880 8 4080 4480 10 0 689
881 -20 1412 1689 10 305 0
882 -10 979 1563 10 641 0
883 -12 4146 4486 10 642 0
884 10 894 998 10 0 446
885 40 831 967 10 0 52
886 -26 955 1024 10 374 0
887 24 907 1202 10 0 38
888 -20 709 1012 10 454 0
889 20 989 1023 10 0 891
890 -13 1713 1839 10 228 0
891 -20 2359 2793 10 889 0
892 -20 973 1284 10 427 0
893 10 911 1200 10 0 599
894 -20 5941 6123 10 363 0
895 -30 502 848 10 793 0
896 -20 4328 4903 10 125 0
897 20 1244 1566 10 0 954
898 -10 1641 1981 10 56 0
899 27 890 1029 10 0 29
900 -15 3036 3272 10 627 0
901 -20 568 966 10 809 0
902 5 1043 1580 10 0 436
903 12 812 1475 10 0 314
904 -9 931 1326 10 478 0
905 -25 560 660 10 389 0
906 -10 1266 1454 10 665 0
907 30 699 924 10 0 525
908 -20 4049 4203 10 628 0
909 9 933 1332 10 0 58
910 10 554 687 10 0 855
911 -25 3145 3328 10 410 0
912 -11 5288 5784 10 786 0
913 17 5469 5828 10 0 796
914 6 2901 3289 10 0 303
915 -10 1591 1642 10 917 0
916 -20 802 1352 10 660 0
917 10 1029 1265 10 0 915
918 10 1040 1287 10 0 699
919 -10 2090 2300 10 474 0
920 -20 1103 1751 10 161 0
921 12 761 900 10 0 741
922 -23 5526 6095 10 51 0
923 5 51 331 10 0 985
924 10 884 1027 10 0 114
925 -10 1682 1814 10 619 0
926 10 779 1383 10 0 77
927 15 4970 5175 10 0 215
928 20 273 736 10 0 317
929 29 2021 2276 10 0 185
930 17 31 248 10 0 262
931 -10 737 1121 10 755 0
932 17 297 1045 10 0 37
933 10 535 861 10 0 711
934 20 595 1046 10 0 613
935 15 2547 2718 10 0 864
936 25 4039 4469 10 0 295
937 9 3072 3403 10 0 142
938 -8 927 933 10 408 0
939 -20 3752 4358 10 268 0
940 10 1667 1900 10 0 59
941 -40 4480 5131 10 173 0
942 20 906 1430 10 0 196
943 28 3370 3605 10 0 421
944 20 1246 1384 10 0 424
945 20 388 629 10 0 597
946 20 1020 1161 10 0 833
947 18 3612 4156 10 0 591
948 20 808 1043 10 0 734
949 14 1159 1524 10 0 71
950 20 1201 1846 10 0 214
951 10 1004 1383 10 0 346
952 -20 2729 3115 10 666 0
953 -10 1263 1662 10 143 0
954 -20 3102 3503 10 897 0
955 10 942 973 10 0 639
956 10 128 658 10 0 787
957 -10 3290 4061 10 970 0
958 -10 6432 6752 10 46 0
959 10 889 1264 10 0 522
960 10 699 921 10 0 183
961 30 648 897 10 0 156
962 -30 670 852 10 687 0
963 10 1182 1325 10 0 291
964 10 1085 1675 10 0 193
965 -10 5437 5881 10 287 0
966 -20 1697 1793 10 830 0
967 20 1036 1457 0 0 1008
968 30 422 463 10 0 657
969 -10 3905 4118 10 304 0
970 10 1345 1815 10 0 957
971 21 5329 5620 10 0 843
972 20 975 1169 10 0 679
973 34 5219 5641 10 0 247
974 -30 1054 1172 10 67 0
975 -20 563 736 10 328 0
976 30 1095 1513 10 0 626
977 20 142 653 10 0 861
978 -10 2590 3031 10 264 0
979 -29 4457 4573 10 413 0
980 17 3262 3514 10 0 44
981 -26 1640 1899 10 245 0
982 -20 1219 1237 10 700 0
983 -18 3875 4263 10 559 0
984 20 285 611 10 0 417
985 -5 652 720 10 923 0
986 -40 2141 2307 10 810 0
987 -20 1374 1616 10 546 0
988 30 840 1436 10 0 281
989 16 690 1181 10 0 536
990 15 224 548 10 0 482
991 10 1004 1589 10 0 776
992 20 184 356 10 0 646
993 22 1910 1974 10 0 495
994 20 972 1192 10 0 174
995 27 6181 6484 10 0 318
996 -38 2818 2833 10 582 0
997 -20 943 1138 10 680 0
998 25 4803 5064 10 0 292
999 20 1269 1421 10 0 111
1000 -30 1115 1488 10 851 0
1001 10 688 1222 10 0 566
1002 -20 692 1079 10 470 0
1003 -5 3134 3332 10 563 0
1004 -10 5318 5365 10 528 0
1005 -20 3344 3428 10 40 0
1006 -30 1734 1848 10 109 0
1007 -8 4853 5326 10 439 0
1008 -20 1036 1457 10 967 0
1009 -12 2144 2490 10 218 0
DEPOT_SECTION
1
-1
EOF
