NAME: lrc2_10_6
TYPE: PDPTW
COMMENT: Li & Lim PDPTW benchmark converted from SINTEF format
DIMENSION: 1009
VEHICLES: 250
CAPACITY: 1000
EDGE_WEIGHT_TYPE: EUC_2D
NODE_COORD_SECTION
1 250 250
2 440 436
3 214 394
4 476 483
5 352 487
6 230 197
7 175 239
8 133 202
9 328 458
10 25 499
11 226 423
12 313 282
13 60 454
14 239 486
15 102 264
16 408 452
17 451 62
18 203 390
19 92 233
20 7 300
21 409 90
22 307 108
23 347 54
24 406 87
25 371 332
26 116 466
27 441 265
28 130 140
29 80 117
30 421 387
31 83 300
32 136 52
33 18 462
34 390 120
35 188 119
36 467 114
37 440 292
38 268 400
39 391 202
40 377 432
41 80 290
42 439 15
43 307 52
44 111 192
45 131 56
46 88 286
47 69 414
48 41 232
49 323 77
50 340 416
51 86 199
52 314 124
53 375 191
54 226 175
55 242 106
56 417 417
57 419 459
58 389 11
59 450 416
60 246 255
61 71 333
62 105 474
63 20 489
64 388 331
65 92 259
66 200 261
67 400 288
68 299 285
69 378 199
70 325 147
71 421 386
72 404 447
73 412 478
74 26 67
75 358 183
76 30 302
77 176 470
78 96 270
79 243 408
80 60 29
81 34 169
82 407 280
83 277 403
84 498 456
85 384 491
86 355 174
87 97 288
88 316 284
89 334 403
90 415 223
91 230 320
92 432 199
93 92 18
94 273 300
95 269 112
96 429 389
97 371 71
98 5 297
99 414 378
100 38 15
101 2 295
102 237 254
103 54 445
104 382 110
105 438 488
106 395 331
107 230 487
108 249 407
109 488 26
110 151 81
111 483 14
112 0 422
113 429 67
114 195 464
115 356 256
116 264 180
117 94 235
118 474 96
119 268 52
120 44 440
121 7 382
122 459 53
123 491 25
124 439 243
125 210 185
126 150 68
127 201 270
128 0 188
129 103 464
130 325 56
131 44 344
132 418 75
133 472 57
134 460 328
135 89 270
136 374 190
137 463 253
138 97 93
139 163 472
140 29 336
141 84 453
142 294 421
143 343 62
144 371 193
145 142 372
146 66 88
147 395 332
148 93 413
149 267 394
150 249 258
151 472 129
152 87 3
153 62 326
154 212 186
155 241 402
156 439 266
157 79 80
158 62 453
159 188 151
160 386 154
161 38 301
162 192 265
163 371 192
164 64 294
165 381 494
166 437 12
167 186 135
168 459 10
169 175 422
170 274 48
171 488 173
172 398 97
173 385 17
174 180 283
175 71 12
176 343 49
177 248 251
178 7 194
179 322 290
180 410 399
181 398 103
182 385 285
183 179 497
184 464 13
185 492 335
186 27 464
187 231 29
188 157 38
189 439 268
190 149 214
191 187 73
192 429 169
193 350 199
194 60 231
195 448 404
196 481 20
197 436 25
198 111 459
199 389 17
200 148 208
201 475 477
202 390 325
203 346 354
204 91 266
205 17 65
206 391 112
207 224 203
208 426 231
209 260 472
210 265 0
211 391 293
212 411 421
213 132 30
214 475 480
215 286 244
216 436 237
217 402 284
218 287 397
219 272 420
220 477 120
221 145 434
222 33 286
223 370 262
224 393 20
225 330 308
226 246 398
227 482 184
228 451 305
229 226 316
230 110 459
231 244 250
232 458 16
233 390 34
234 423 214
235 219 215
236 326 118
237 365 74
238 331 356
239 210 398
240 403 93
241 248 404
242 65 62
243 460 13
244 0 293
245 211 248
246 484 174
247 175 352
248 455 168
249 224 191
250 439 156
251 434 359
252 118 314
253 234 246
254 406 450
255 75 118
256 115 395
257 329 456
258 218 403
259 149 341
260 253 74
261 436 241
262 238 203
263 405 455
264 485 27
265 323 118
266 330 371
267 25 65
268 406 96
269 49 451
270 307 249
271 178 135
272 299 353
273 236 213
274 355 177
275 394 23
276 306 235
277 90 477
278 379 486
279 435 16
280 8 497
281 150 484
282 213 399
283 391 18
284 111 392
285 330 281
286 344 203
287 91 235
288 346 60
289 483 27
290 382 498
291 457 492
292 291 213
293 154 374
294 225 196
295 94 40
296 0 356
297 297 283
298 371 423
299 417 217
300 500 228
301 412 214
302 442 289
303 157 269
304 440 241
305 100 266
306 111 178
307 91 101
308 25 307
309 135 400
310 58 458
311 133 26
312 211 386
313 94 97
314 30 155
315 208 184
316 394 333
317 355 180
318 241 180
319 21 485
320 80 251
321 476 61
322 406 94
323 364 71
324 418 221
325 274 441
326 304 97
327 297 102
328 250 405
329 111 463
330 408 279
331 263 418
332 480 119
333 420 383
334 142 14
335 73 328
336 50 438
337 441 7
338 462 14
339 360 294
340 58 39
341 58 391
342 410 285
343 96 97
344 21 64
345 238 210
346 479 121
347 200 178
348 216 341
349 48 437
350 200 270
351 357 181
352 476 174
353 400 286
354 351 481
355 270 400
356 95 234
357 128 113
358 133 455
359 16 463
360 59 388
361 376 190
362 481 122
363 266 405
364 374 232
365 398 20
366 481 26
367 63 444
368 89 290
369 246 314
370 40 304
371 262 369
372 323 29
373 89 65
374 144 35
375 200 265
376 436 264
377 15 457
378 397 20
379 328 491
380 399 175
381 432 2
382 63 336
383 6 296
384 146 376
385 295 247
386 235 33
387 233 204
388 142 360
389 177 156
390 315 287
391 452 172
392 263 153
393 493 493
394 320 283
395 64 5
396 95 235
397 203 211
398 16 497
399 348 348
400 485 104
401 330 147
402 443 237
403 316 286
404 335 46
405 381 495
406 364 173
407 267 162
408 214 245
409 92 234
410 347 459
411 30 7
412 120 37
413 397 153
414 210 29
415 87 285
416 132 32
417 390 294
418 67 451
419 24 68
420 146 439
421 209 212
422 6 292
423 18 63
424 149 98
425 91 268
426 103 177
427 367 178
428 225 269
429 443 246
430 306 42
431 374 306
432 413 421
433 470 405
434 33 278
435 149 458
436 257 57
437 272 403
438 221 291
439 1 101
440 332 459
441 220 392
442 253 50
443 250 441
444 471 484
445 480 152
446 404 83
447 476 94
448 458 213
449 215 395
450 85 288
451 179 75
452 228 287
453 397 18
454 238 204
455 488 3
456 407 88
457 459 14
458 120 17
459 235 316
460 370 382
461 405 454
462 17 458
463 43 135
464 318 497
465 199 268
466 111 467
467 138 438
468 172 314
469 494 468
470 35 303
471 341 59
472 423 221
473 395 295
474 413 417
475 339 60
476 277 428
477 176 199
478 265 240
479 365 190
480 133 53
481 387 488
482 385 295
483 491 369
484 445 273
485 195 273
486 313 493
487 495 227
488 241 403
489 30 72
490 21 487
491 324 99
492 453 318
493 443 272
494 447 184
495 366 288
496 440 284
497 13 314
498 72 227
499 377 385
500 477 478
501 204 185
502 226 191
503 330 138
504 185 434
505 483 22
506 71 282
507 60 5
508 189 402
509 134 211
510 146 313
511 21 146
512 37 281
513 416 417
514 44 311
515 361 181
516 444 242
517 444 271
518 359 179
519 388 334
520 401 164
521 499 316
522 399 106
523 425 215
524 407 98
525 406 460
526 88 95
527 95 64
528 306 229
529 273 55
530 384 149
531 122 35
532 308 199
533 390 301
534 300 108
535 267 400
536 8 300
537 105 181
538 398 325
539 166 247
540 140 431
541 253 118
542 359 246
543 321 277
544 168 59
545 406 285
546 391 334
547 437 19
548 201 278
549 435 267
550 245 408
551 16 462
552 107 374
553 477 97
554 346 57
555 14 459
556 102 6
557 359 287
558 297 131
559 282 1
560 21 70
561 440 244
562 482 104
563 120 261
564 125 29
565 292 32
566 262 92
567 68 160
568 405 276
569 277 50
570 32 319
571 344 70
572 481 84
573 21 68
574 441 244
575 57 43
576 1 293
577 481 96
578 471 368
579 236 126
580 406 99
581 303 186
582 225 369
583 412 453
584 104 349
585 173 182
586 111 464
587 53 440
588 69 336
589 359 182
590 13 459
591 244 277
592 484 177
593 452 206
594 22 483
595 452 110
596 347 192
597 95 92
598 368 311
599 479 387
600 479 169
601 497 266
602 66 336
603 376 195
604 401 281
605 441 177
606 231 203
607 21 488
608 231 204
609 122 422
610 65 453
611 206 261
612 466 149
613 313 119
614 90 274
615 39 162
616 35 306
617 437 15
618 307 412
619 79 291
620 64 437
621 376 92
622 129 27
623 196 489
624 51 286
625 20 488
626 13 455
627 170 347
628 92 230
629 117 467
630 413 217
631 405 450
632 394 322
633 125 61
634 238 123
635 11 403
636 89 272
637 304 102
638 478 121
639 408 84
640 376 494
641 20 73
642 159 299
643 95 382
644 352 63
645 365 274
646 30 301
647 351 5
648 197 267
649 498 171
650 468 352
651 418 251
652 489 437
653 251 63
654 132 55
655 281 96
656 333 293
657 255 487
658 207 400
659 469 489
660 244 254
661 233 207
662 441 60
663 411 379
664 178 72
665 51 447
666 478 118
667 141 426
668 295 89
669 112 433
670 320 211
671 400 103
672 408 453
673 435 180
674 432 66
675 374 116
676 478 102
677 335 57
678 385 239
679 386 245
680 208 396
681 380 489
682 380 498
683 440 7
684 434 245
685 90 232
686 389 334
687 241 205
688 18 24
689 57 183
690 59 457
691 442 243
692 402 281
693 445 237
694 441 273
695 31 175
696 234 202
697 52 303
698 167 445
699 179 286
700 269 48
701 165 59
702 461 8
703 421 415
704 59 459
705 24 492
706 55 449
707 224 192
708 444 269
709 491 20
710 313 126
711 283 438
712 352 241
713 398 476
714 442 247
715 217 207
716 233 87
717 479 127
718 6 53
719 478 300
720 378 493
721 303 78
722 344 62
723 371 315
724 200 78
725 413 391
726 415 216
727 397 57
728 293 228
729 0 297
730 435 20
731 195 111
732 417 218
733 340 54
734 132 57
735 210 379
736 228 260
737 399 104
738 95 277
739 360 284
740 53 466
741 112 465
742 313 391
743 93 235
744 125 32
745 215 282
746 224 320
747 134 428
748 26 490
749 44 115
750 438 127
751 239 15
752 342 54
753 109 463
754 199 187
755 201 188
756 399 301
757 484 171
758 272 234
759 380 350
760 140 108
761 228 199
762 245 461
763 305 107
764 231 195
765 450 265
766 273 149
767 12 358
768 315 121
769 420 213
770 331 134
771 84 377
772 320 280
773 89 185
774 472 481
775 422 420
776 475 267
777 470 125
778 435 268
779 409 155
780 243 248
781 488 96
782 341 72
783 58 449
784 16 460
785 480 136
786 162 388
787 47 208
788 324 127
789 87 96
790 140 137
791 314 205
792 96 346
793 321 280
794 245 251
795 436 295
796 274 261
797 271 128
798 275 45
799 422 409
800 146 188
801 93 96
802 409 255
803 449 428
804 90 285
805 415 95
806 88 287
807 379 196
808 368 452
809 202 186
810 435 11
811 269 46
812 7 292
813 44 496
814 478 99
815 391 99
816 132 477
817 24 65
818 130 247
819 133 273
820 347 62
821 404 140
822 416 420
823 67 335
824 92 270
825 411 95
826 132 479
827 366 334
828 125 39
829 419 422
830 460 2
831 67 334
832 448 414
833 46 163
834 77 465
835 284 319
836 102 422
837 240 34
838 141 428
839 204 269
840 144 439
841 470 417
842 404 103
843 5 281
844 487 320
845 398 23
846 90 296
847 386 13
848 115 465
849 473 475
850 275 42
851 286 356
852 15 69
853 267 44
854 243 399
855 390 249
856 210 391
857 433 15
858 24 259
859 12 463
860 237 213
861 182 480
862 409 88
863 244 368
864 381 328
865 213 185
866 482 141
867 319 124
868 141 431
869 198 264
870 69 334
871 299 98
872 240 250
873 199 203
874 459 17
875 423 217
876 477 179
877 213 397
878 405 187
879 269 402
880 53 204
881 13 394
882 15 68
883 56 268
884 360 184
885 307 102
886 130 57
887 250 328
888 91 231
889 479 176
890 420 224
891 461 182
892 418 218
893 419 418
894 336 493
895 389 300
896 92 76
897 476 102
898 418 399
899 109 56
900 13 465
901 92 232
902 394 47
903 16 287
904 399 102
905 143 158
906 18 484
907 250 411
908 19 273
909 365 28
910 387 297
911 433 447
912 214 274
913 489 338
914 130 494
915 23 67
916 374 489
917 126 30
918 112 467
919 489 274
920 61 214
921 166 440
922 56 75
923 210 276
924 80 286
925 17 459
926 66 448
927 351 128
928 352 176
929 490 286
930 247 219
931 86 268
932 398 329
933 272 402
934 317 123
935 408 318
936 66 31
937 425 448
938 35 304
939 471 94
940 470 473
941 224 56
942 343 47
943 52 18
944 16 68
945 195 185
946 92 236
947 76 462
948 124 56
949 481 454
950 477 483
951 481 124
952 389 156
953 384 16
954 492 34
955 371 200
956 153 235
957 428 202
958 257 391
959 421 218
960 206 186
961 393 301
962 204 187
963 468 475
964 477 122
965 100 66
966 489 27
967 12 451
968 197 270
969 311 422
970 489 17
971 13 214
972 440 247
973 28 467
974 388 325
975 270 401
976 5 445
977 198 271
978 480 131
979 437 98
980 131 246
981 49 437
982 270 49
983 337 41
984 318 280
985 154 392
986 493 111
987 399 450
988 67 452
989 34 239
990 343 276
991 393 12
992 236 247
993 340 291
994 3 292
995 209 68
996 18 225
997 147 435
998 335 99
999 485 24
1000 470 475
1001 341 58
1002 238 210
1003 448 404
1004 347 192
1005 323 29
1006 244 277
1007 76 462
1008 51 286
1009 257 391
PICKUP_AND_DELIVERY_SECTION
1 0 0 7284 0 0 0
2 -10 3508 3748 10 583 0
3 10 862 1102 10 0 753
4 -20 1359 1599 10 342 0
5 -20 3547 3787 10 212 0
6 40 426 666 10 0 736
7 -8 183 423 10 408 0
8 33 1782 2022 10 0 790
9 17 3011 3251 10 0 632
10 -40 1720 1960 10 280 0
11 15 728 968 10 0 474
12 20 594 834 10 0 521
13 -11 1329 1569 10 834 0
14 -11 5868 6108 10 786 0
15 10 475 715 10 0 931
16 10 1028 1268 10 0 659
17 5 1069 1309 10 0 766
18 40 575 815 10 0 510
19 10 835 1075 10 0 320
20 30 1319 1559 10 0 360
21 20 973 1213 10 0 392
22 -23 890 1130 10 579 0
23 10 1120 1360 10 0 159
24 10 1192 1432 10 0 653
25 -5 2058 2298 10 827 0
26 -20 944 1184 10 221 0
27 40 729 969 10 0 757
28 -12 716 956 10 905 0
29 -30 3237 3477 10 915 0
30 -7 3145 3385 10 476 0
31 26 1939 2179 10 0 169
32 -10 1111 1351 10 294 0
33 -20 1531 1771 10 359 0
34 24 3957 4197 10 0 530
35 -27 3839 4079 10 701 0
36 -14 1444 1684 10 595 0
37 -20 3700 3940 10 549 0
38 20 913 1153 10 0 230
39 -19 476 716 10 115 0
40 -10 3266 3506 10 755 0
41 -20 730 970 10 78 0
42 -30 1313 1553 10 677 0
43 -10 3622 3862 10 279 0
44 11 4738 4978 10 0 537
45 10 963 1203 10 0 205
46 -10 950 1190 10 924 0
47 6 4993 5233 10 0 141
48 16 761 1001 10 0 654
49 36 5560 5800 10 0 116
50 -10 1224 1464 10 933 0
51 -17 1051 1291 10 818 0
52 20 864 1104 10 0 615
53 30 607 847 10 0 361
54 -27 6715 6955 10 995 0
55 -19 5014 5254 10 95 0
56 -40 1268 1508 10 226 0
57 -20 1205 1445 10 829 0
58 -30 1233 1473 10 118 0
59 25 2247 2487 10 0 73
60 10 390 630 10 0 767
61 -20 715 955 10 335 0
62 27 1823 2063 10 0 642
63 10 1473 1713 10 0 183
64 20 520 760 10 0 519
65 4 1538 1778 10 0 413
66 10 606 846 10 0 869
67 30 499 739 10 0 82
68 -10 4955 5195 10 149 0
69 -20 769 1009 10 515 0
70 -11 4687 4927 10 132 0
71 29 3237 3477 10 0 225
72 20 880 1120 10 0 500
73 -25 3779 4019 10 59 0
74 15 5207 5447 10 0 965
75 -20 875 1115 10 351 0
76 -20 1006 1246 10 831 0
77 -10 2127 2367 10 918 0
78 20 589 829 10 0 41
79 15 5675 5915 10 0 219
80 -18 5391 5631 10 507 0
81 11 1878 2118 10 0 222
82 -30 774 1014 10 67 0
83 -26 639 879 10 89 0
84 -25 5564 5804 10 663 0
85 -20 1331 1571 10 987 0
86 -30 2801 3041 10 352 0
87 -12 5076 5316 10 164 0
88 20 439 679 10 0 891
89 26 578 818 10 0 83
90 -19 1159 1399 10 728 0
91 -20 4708 4948 10 269 0
92 7 2494 2734 10 0 712
93 8 4437 4677 10 0 411
94 30 100 340 10 0 851
95 19 4991 5231 10 0 55
96 -20 1636 1876 10 473 0
97 -20 1087 1327 10 752 0
98 -10 1265 1505 10 646 0
99 23 1919 2159 10 0 137
100 -20 4304 4544 10 944 0
101 -10 1163 1403 10 308 0
102 20 273 513 10 0 512
103 10 1172 1412 10 0 367
104 24 4390 4630 10 0 770
105 18 1249 1489 10 0 433
106 20 806 1046 10 0 919
107 -29 4458 4698 10 969 0
108 -10 635 875 10 239 0
109 -40 1671 1911 10 810 0
110 -8 6172 6412 10 439 0
111 10 1393 1633 10 0 581
112 -30 3224 3464 10 319 0
113 16 2869 3109 10 0 471
114 -32 6105 6345 10 813 0
115 19 305 545 10 0 39
116 -36 6663 6903 10 49 0
117 20 547 787 10 0 409
118 30 967 1207 10 0 58
119 10 1162 1402 10 0 880
120 -8 3095 3335 10 384 0
121 27 3022 3262 10 0 435
122 -10 4429 4669 10 955 0
123 -20 1574 1814 10 683 0
124 -30 1194 1434 10 217 0
125 -20 185 425 10 207 0
126 -20 1631 1871 10 138 0
127 10 132 372 10 0 305
128 -30 3668 3908 10 982 0
129 -10 5032 5272 10 748 0
130 13 3126 3366 10 0 715
131 12 4258 4498 10 0 296
132 11 1732 1972 10 0 70
133 -7 5119 5359 10 776 0
134 13 816 1056 10 0 940
135 10 754 994 10 0 806
136 -25 513 753 10 276 0
137 -23 4128 4368 10 99 0
138 20 902 1142 10 0 126
139 -11 2554 2794 10 826 0
140 22 1266 1506 10 0 584
141 -6 4832 5072 10 47 0
142 -20 6242 6482 10 894 0
143 -20 1370 1610 10 268 0
144 20 415 655 10 0 825
145 18 532 772 10 0 551
146 -10 3259 3499 10 531 0
147 10 762 1002 10 0 492
148 17 785 1025 10 0 625
149 10 977 1217 10 0 68
150 30 447 687 10 0 778
151 10 950 1190 10 0 647
152 -28 5672 5912 10 943 0
153 -29 1085 1325 10 669 0
154 -19 6826 7066 10 541 0
155 -10 4039 4279 10 877 0
156 10 681 921 10 0 380
157 -30 5468 5708 10 564 0
158 10 1119 1359 10 0 635
159 -10 5127 5367 10 23 0
160 -18 4344 4584 10 503 0
161 20 1122 1362 10 0 552
162 -20 437 677 10 465 0
163 30 459 699 10 0 779
164 12 4345 4585 10 0 87
165 -20 1274 1514 10 405 0
166 20 1258 1498 10 0 366
167 24 2811 3051 10 0 750
168 10 1280 1520 10 0 289
169 -26 5726 5966 10 31 0
170 -30 785 1025 10 788 0
171 -20 1055 1295 10 984 0
172 10 776 1016 10 0 456
173 -10 3175 3415 10 676 0
174 -10 2915 3155 10 425 0
175 -20 1112 1352 10 948 0
176 10 1000 1240 10 0 845
177 20 2 242 10 0 643
178 29 3745 3985 10 0 434
179 -12 5856 6096 10 649 0
180 -15 875 1115 10 990 0
181 -20 1054 1294 10 815 0
182 -15 3412 3652 10 759 0
183 -10 5584 5824 10 63 0
184 -20 1479 1719 10 338 0
185 -9 3253 3493 10 650 0
186 21 5104 5344 10 0 698
187 -25 4845 5085 10 585 0
188 -26 4131 4371 10 633 0
189 10 1131 1371 10 0 285
190 7 1868 2108 10 0 401
191 18 1108 1348 10 0 833
192 -10 3551 3791 10 743 0
193 21 4746 4986 10 0 215
194 -8 4044 4284 10 699 0
195 15 2336 2576 0 0 1003
196 20 1328 1568 10 0 970
197 -30 5069 5309 10 939 0
198 -10 1375 1615 10 420 0
199 10 1403 1643 10 0 404
200 -10 2046 2286 10 901 0
201 -20 1558 1798 10 950 0
202 30 945 1185 10 0 604
203 -10 3210 3450 10 854 0
204 -30 870 1110 10 968 0
205 -10 1247 1487 10 45 0
206 -40 3941 4181 10 638 0
207 20 95 335 10 0 125
208 -20 4054 4294 10 546 0
209 33 4084 4324 10 0 623
210 -20 3524 3764 10 630 0
211 20 843 1083 10 0 692
212 20 1200 1440 10 0 5
213 20 1243 1483 10 0 260
214 30 1458 1698 10 0 333
215 -21 5076 5316 10 193 0
216 -33 626 866 10 364 0
217 30 598 838 10 0 124
218 -10 2197 2437 10 741 0
219 -15 5483 5723 10 79 0
220 -20 1308 1548 10 554 0
221 20 872 1112 10 0 26
222 -11 6124 6364 10 81 0
223 15 4338 4578 10 0 297
224 20 1503 1743 10 0 655
225 -29 4622 4862 10 71 0
226 40 472 712 10 0 56
227 14 4367 4607 10 0 796
228 13 714 954 10 0 631
229 21 161 401 10 0 629
230 -20 1331 1571 10 38 0
231 10 6 246 10 0 872
232 -20 1132 1372 10 857 0
233 -17 4181 4421 10 572 0
234 -10 807 1047 10 523 0
235 32 67 307 10 0 789
236 10 531 771 10 0 562
237 -12 3334 3574 10 721 0
238 -20 2787 3027 10 449 0
239 10 757 997 10 0 108
240 10 1303 1543 10 0 751
241 30 538 778 10 0 486
242 -25 3846 4086 10 389 0
243 20 1227 1467 10 0 321
244 -12 1055 1295 10 903 0
245 -10 39 279 10 253 0
246 10 998 1238 10 0 447
247 -20 6600 6840 10 388 0
248 -10 3407 3647 10 959 0
249 20 264 504 10 0 941
250 2 2043 2283 10 0 952
251 -11 5509 5749 10 461 0
252 -20 1290 1530 10 450 0
253 10 199 439 10 0 245
254 -20 977 1217 10 545 0
255 -20 1576 1816 10 934 0
256 -20 3201 3441 10 706 0
257 19 936 1176 10 0 682
258 15 5217 5457 10 0 369
259 -10 1556 1796 10 648 0
260 -20 5340 5580 10 213 0
261 -9 1249 1489 10 472 0
262 10 315 555 10 0 687
263 -10 1303 1543 10 432 0
264 -20 1724 1964 10 874 0
265 20 583 823 10 0 639
266 -10 2174 2414 10 586 0
267 -30 1445 1685 10 458 0
268 20 803 1043 10 0 143
269 20 1060 1300 10 0 91
270 -29 5446 5686 10 929 0
271 -10 5995 6235 10 820 0
272 34 336 576 10 0 437
273 20 39 279 10 0 613
274 20 437 677 10 0 855
275 20 1555 1795 10 0 430
276 25 112 352 10 0 136
277 18 991 1231 10 0 358
278 -21 2627 2867 10 379 0
279 10 1410 1650 10 0 43
280 40 1571 1811 10 0 10
281 -30 2441 2681 10 783 0
282 18 876 1116 10 0 467
283 10 1451 1691 10 0 407
284 -10 4616 4856 10 607 0
285 -10 5262 5502 10 189 0
286 14 609 849 10 0 842
287 -20 1016 1256 10 628 0
288 10 1225 1465 10 0 491
289 -10 1772 2012 10 168 0
290 -20 1177 1417 10 754 0
291 -30 1972 2212 10 1000 0
292 23 4971 5211 10 0 385
293 -10 3688 3928 10 926 0
294 10 163 403 10 0 32
295 -10 4212 4452 10 852 0
296 -12 4285 4525 10 131 0
297 -15 5338 5578 10 223 0
298 10 724 964 10 0 399
299 30 694 934 10 0 516
300 -10 3067 3307 10 884 0
301 10 544 784 10 0 693
302 25 704 944 10 0 725
303 -20 6245 6485 10 764 0
304 -10 1145 1385 10 574 0
305 -10 526 766 10 127 0
306 18 506 746 10 0 749
307 10 1133 1373 10 0 311
308 10 938 1178 10 0 101
309 20 1134 1374 10 0 816
310 10 1231 1471 10 0 746
311 -10 1187 1427 10 307 0
312 20 446 686 10 0 658
313 20 796 1036 10 0 882
314 -20 5062 5302 10 763 0
315 20 234 474 10 0 989
316 20 717 957 10 0 578
317 30 489 729 10 0 875
318 -28 6718 6958 10 412 0
319 30 1293 1533 10 0 112
320 -10 1154 1394 10 19 0
321 -20 1735 1975 10 243 0
322 10 851 1091 10 0 524
323 -20 5334 5574 10 717 0
324 10 1105 1345 10 0 935
325 12 2718 2958 10 0 598
326 20 667 907 10 0 798
327 10 549 789 10 0 811
328 -15 586 826 10 371 0
329 20 1226 1466 10 0 466
330 20 820 1060 10 0 708
331 -10 1054 1294 10 550 0
332 -20 2454 2694 10 702 0
333 -30 3868 4108 10 214 0
334 -4 3281 3521 10 527 0
335 20 654 894 10 0 61
336 20 1287 1527 10 0 587
337 20 1506 1746 10 0 547
338 20 1528 1768 10 0 184
339 -18 5611 5851 10 542 0
340 12 4592 4832 10 0 922
341 -27 3469 3709 10 514 0
342 20 711 951 10 0 4
343 20 748 988 10 0 744
344 -26 1349 1589 10 374 0
345 30 475 715 0 0 1002
346 10 1171 1411 10 0 782
347 20 314 554 10 0 526
348 -20 2556 2796 10 846 0
349 -10 3155 3395 10 925 0
350 20 176 416 10 0 368
351 20 538 778 10 0 75
352 30 1237 1477 10 0 86
353 10 547 787 10 0 487
354 -30 1227 1467 10 720 0
355 10 485 725 10 0 681
356 -10 593 833 10 956 0
357 -20 1391 1631 10 700 0
358 -18 3172 3412 10 277 0
359 20 1439 1679 10 0 33
360 -30 2591 2831 10 20 0
361 -30 561 801 10 53 0
362 30 1122 1362 10 0 559
363 20 808 1048 10 0 840
364 33 381 621 10 0 216
365 20 1016 1256 10 0 378
366 -20 1167 1407 10 166 0
367 -10 1459 1699 10 103 0
368 -20 610 850 10 350 0
369 -15 5721 5961 10 258 0
370 16 4519 4759 10 0 745
371 15 457 697 10 0 328
372 7 4490 4730 0 0 1005
373 16 2821 3061 10 0 416
374 26 839 1079 10 0 344
375 10 550 790 10 0 792
376 -10 626 866 10 772 0
377 -30 1234 1474 10 976 0
378 -20 1060 1300 10 365 0
379 21 2653 2893 10 0 278
380 -10 2928 3168 10 156 0
381 20 1806 2046 10 0 644
382 -5 1005 1245 10 923 0
383 -10 1219 1459 10 422 0
384 8 877 1117 10 0 120
385 -23 5154 5394 10 292 0
386 -20 5288 5528 10 480 0
387 -10 157 397 10 661 0
388 20 6068 6308 10 0 247
389 25 609 849 10 0 242
390 -30 532 772 10 403 0
391 9 2373 2613 10 0 678
392 -20 1590 1830 10 21 0
393 -29 3366 3606 10 652 0
394 30 382 622 10 0 961
395 -15 4456 4696 10 560 0
396 -20 503 743 10 992 0
397 -20 5166 5406 10 897 0
398 -10 1643 1883 10 906 0
399 -10 3679 3919 10 298 0
400 -3 3118 3358 10 455 0
401 -7 3334 3574 10 190 0
402 20 694 934 10 0 902
403 30 487 727 10 0 390
404 -10 5307 5547 10 199 0
405 20 1230 1470 10 0 165
406 30 661 901 10 0 679
407 -10 5737 5977 10 283 0
408 8 36 276 10 0 7
409 -20 879 1119 10 117 0
410 25 1858 2098 10 0 808
411 -8 4694 4934 10 93 0
412 28 3041 3281 10 0 318
413 -4 3470 3710 10 65 0
414 -20 4143 4383 10 945 0
415 -20 904 1144 10 977 0
416 -16 3078 3318 10 373 0
417 -17 889 1129 10 932 0
418 -31 4802 5042 10 900 0
419 -20 1598 1838 10 573 0
420 10 977 1217 10 0 198
421 -20 6051 6291 10 873 0
422 10 910 1150 10 0 383
423 -40 1296 1536 10 886 0
424 4 4600 4840 10 0 896
425 10 918 1158 10 0 174
426 -25 2446 2686 10 498 0
427 20 661 901 10 0 601
428 -22 5023 5263 10 485 0
429 -20 859 1099 10 484 0
430 -20 1847 2087 10 275 0
431 -6 3916 4156 10 499 0
432 10 1152 1392 10 0 263
433 -18 3643 3883 10 105 0
434 -29 5889 6129 10 178 0
435 -27 4595 4835 10 121 0
436 -21 4844 5084 10 865 0
437 -34 699 939 10 272 0
438 9 124 364 10 0 848
439 8 4969 5209 10 0 110
440 -20 1415 1655 10 809 0
441 20 971 1211 10 0 835
442 27 843 1083 10 0 446
443 -8 2963 3203 10 762 0
444 -10 1299 1539 10 672 0
445 -10 4026 4266 10 732 0
446 -27 1134 1374 10 442 0
447 -10 1019 1259 10 246 0
448 -23 4453 4693 10 668 0
449 20 908 1148 10 0 238
450 20 668 908 10 0 252
451 -10 2900 3140 10 671 0
452 21 52 292 10 0 868
453 -10 1108 1348 10 1001 0
454 20 359 599 10 0 711
455 3 1542 1782 10 0 400
456 -10 1238 1478 10 172 0
457 20 1181 1421 10 0 966
458 30 1056 1296 10 0 267
459 -20 2563 2803 10 819 0
460 11 3475 3715 10 0 723
461 11 5152 5392 10 0 251
462 -30 1672 1912 10 594 0
463 31 827 1067 10 0 597
464 -20 3355 3595 10 481 0
465 20 225 465 10 0 162
466 -20 1088 1328 10 329 0
467 -18 1089 1329 10 282 0
468 9 2122 2362 10 0 980
469 31 1350 1590 10 0 911
470 20 766 1006 10 0 506
471 -16 3099 3339 10 113 0
472 9 973 1213 10 0 261
473 20 785 1025 10 0 96
474 -15 1364 1604 10 11 0
475 20 784 1024 10 0 942
476 7 1901 2141 10 0 30
477 -10 239 479 10 707 0
478 9 18 258 10 0 866
479 -17 5850 6090 10 727 0
480 20 1058 1298 10 0 386
481 20 1388 1628 10 0 464
482 20 449 689 10 0 670
483 -20 2858 3098 10 694 0
484 20 971 1211 10 0 429
485 22 118 358 10 0 428
486 -30 4712 4952 10 241 0
487 -10 1316 1556 10 353 0
488 -10 821 1061 10 535 0
489 -10 1666 1906 10 641 0
490 10 1341 1581 10 0 784
491 -10 1292 1532 10 288 0
492 -10 1435 1675 10 147 0
493 10 1020 1260 10 0 600
494 27 1638 1878 10 0 528
495 -20 2675 2915 10 892 0
496 -11 3347 3587 10 795 0
497 -30 915 1155 10 938 0
498 25 2195 2435 10 0 426
499 6 3405 3645 10 0 431
500 -20 1509 1749 10 72 0
501 20 593 833 10 0 916
502 20 312 552 10 0 637
503 18 4378 4618 10 0 160
504 -30 2234 2474 10 690 0
505 10 1276 1516 10 0 927
506 -20 2507 2747 10 470 0
507 18 4115 4355 10 0 80
508 -30 2084 2324 10 610 0
509 35 422 662 10 0 837
510 -40 4721 4961 10 18 0
511 -30 1887 2127 10 871 0
512 -20 1913 2153 10 102 0
513 -20 1312 1552 10 680 0
514 27 1570 1810 10 0 341
515 20 728 968 10 0 69
516 -30 802 1042 10 299 0
517 10 922 1162 10 0 765
518 20 589 829 10 0 589
519 -20 572 812 10 64 0
520 -10 2425 2665 10 714 0
521 -20 2427 2667 10 12 0
522 20 1147 1387 10 0 731
523 10 856 1096 10 0 234
524 -10 754 994 10 322 0
525 -25 2817 3057 10 713 0
526 -20 1021 1261 10 347 0
527 4 3004 3244 10 0 334
528 -27 5221 5461 10 494 0
529 -10 665 905 10 569 0
530 -24 4729 4969 10 34 0
531 10 921 1161 10 0 146
532 -22 5973 6213 10 791 0
533 -30 601 841 10 793 0
534 -10 482 722 10 696 0
535 10 869 1109 10 0 488
536 10 1363 1603 10 0 570
537 -11 6065 6305 10 44 0
538 30 873 1113 10 0 756
539 1 216 456 10 0 888
540 -38 768 1008 10 582 0
541 19 2129 2369 10 0 154
542 18 5631 5871 10 0 339
543 10 184 424 10 0 949
544 6 1404 1644 10 0 773
545 20 655 895 10 0 254
546 20 664 904 10 0 208
547 -20 3996 4236 10 337 0
548 13 106 346 10 0 626
549 20 1231 1471 10 0 37
550 10 755 995 10 0 331
551 -18 1483 1723 10 145 0
552 -20 3597 3837 10 161 0
553 10 1071 1311 10 0 847
554 20 1173 1413 10 0 220
555 -10 1283 1523 10 602 0
556 -20 5774 6014 10 828 0
557 24 340 580 10 0 593
558 -10 4602 4842 10 964 0
559 -30 4110 4350 10 362 0
560 15 3025 3265 10 0 395
561 10 1004 1244 10 0 675
562 -10 3170 3410 10 236 0
563 -12 3113 3353 10 735 0
564 30 1073 1313 10 0 157
565 -20 857 1097 10 853 0
566 -10 2462 2702 10 737 0
567 -8 4483 4723 10 996 0
568 -20 877 1117 10 686 0
569 10 731 971 10 0 529
570 -10 1542 1782 10 536 0
571 24 4523 4763 10 0 998
572 17 1962 2202 10 0 233
573 20 1546 1786 10 0 419
574 10 1048 1288 10 0 304
575 -27 4034 4274 10 899 0
576 -20 1011 1251 10 994 0
577 -20 1128 1368 10 889 0
578 -20 1652 1892 10 316 0
579 23 379 619 10 0 22
580 -10 848 1088 10 603 0
581 -10 5357 5597 10 111 0
582 38 366 606 10 0 540
583 10 1128 1368 10 0 2
584 -22 3977 4217 10 140 0
585 25 291 531 10 0 187
586 10 1182 1422 10 0 266
587 -20 1232 1472 10 336 0
588 20 812 1052 10 0 616
589 -20 777 1017 10 518 0
590 20 1327 1567 10 0 859
591 18 5145 5385 0 0 1006
592 -10 946 1186 10 726 0
593 -24 1909 2149 10 557 0
594 30 1184 1424 10 0 462
595 14 1301 1541 10 0 36
596 18 5893 6133 0 0 1004
597 -31 951 1191 10 463 0
598 -12 3644 3884 10 325 0
599 13 1530 1770 10 0 898
600 -10 1174 1414 10 493 0
601 -20 2930 3170 10 427 0
602 10 953 1193 10 0 555
603 10 664 904 10 0 580
604 -30 984 1224 10 202 0
605 -24 3945 4185 10 634 0
606 20 206 446 10 0 689
607 10 1385 1625 10 0 284
608 20 541 781 10 0 761
609 -34 5767 6007 10 973 0
610 30 1067 1307 10 0 508
611 10 670 910 10 0 640
612 16 4684 4924 10 0 878
613 -20 803 1043 10 273 0
614 20 657 897 10 0 636
615 -20 2201 2441 10 52 0
616 -20 858 1098 10 588 0
617 -9 1361 1601 10 909 0
618 -17 1555 1795 10 930 0
619 10 775 1015 10 0 804
620 -10 3613 3853 10 705 0
621 -20 3902 4142 10 666 0
622 -24 1130 1370 10 695 0
623 -33 4061 4301 10 209 0
624 14 5776 6016 0 0 1008
625 -17 1429 1669 10 148 0
626 -13 1183 1423 10 548 0
627 -20 1683 1923 10 824 0
628 20 695 935 10 0 287
629 -21 898 1138 10 229 0
630 20 596 836 10 0 210
631 -13 933 1173 10 228 0
632 -17 4039 4279 10 9 0
633 26 2387 2627 10 0 188
634 24 3064 3304 10 0 605
635 -10 1312 1552 10 158 0
636 -20 706 946 10 614 0
637 -20 727 967 10 502 0
638 40 1215 1455 10 0 206
639 -20 1077 1317 10 265 0
640 -10 1019 1259 10 611 0
641 10 1041 1281 10 0 489
642 -27 4002 4242 10 62 0
643 -20 865 1105 10 177 0
644 -20 4653 4893 10 381 0
645 14 350 590 10 0 799
646 10 1050 1290 10 0 98
647 -10 1924 2164 10 151 0
648 10 375 615 10 0 259
649 12 4966 5206 10 0 179
650 9 3013 3253 10 0 185
651 -21 4727 4967 10 844 0
652 29 2767 3007 10 0 393
653 -10 3890 4130 10 24 0
654 -16 1009 1249 10 48 0
655 -20 4443 4683 10 224 0
656 27 2408 2648 10 0 758
657 -20 1532 1772 10 879 0
658 -20 702 942 10 312 0
659 -10 2162 2402 10 16 0
660 20 341 581 10 0 729
661 10 105 345 10 0 387
662 -22 5775 6015 10 781 0
663 25 4713 4953 10 0 84
664 -12 2967 3207 10 797 0
665 -20 1118 1358 10 838 0
666 20 1357 1597 10 0 621
667 -30 2066 2306 10 988 0
668 23 2908 3148 10 0 448
669 29 880 1120 10 0 153
670 -20 3910 4150 10 482 0
671 10 962 1202 10 0 451
672 10 1072 1312 10 0 444
673 -10 838 1078 10 769 0
674 -5 4225 4465 10 954 0
675 -10 2289 2529 10 561 0
676 10 1237 1477 10 0 173
677 30 724 964 10 0 42
678 -9 3082 3322 10 391 0
679 -30 1856 2096 10 406 0
680 20 646 886 10 0 513
681 -10 1456 1696 10 355 0
682 -19 1129 1369 10 257 0
683 20 1195 1435 10 0 123
684 10 1307 1547 10 0 864
685 10 786 1026 10 0 946
686 20 616 856 10 0 568
687 -10 412 652 10 262 0
688 32 2453 2693 10 0 718
689 -20 4341 4581 10 606 0
690 30 1277 1517 10 0 504
691 -20 1094 1334 10 972 0
692 -20 940 1180 10 211 0
693 -10 742 982 10 301 0
694 20 1069 1309 10 0 483
695 24 926 1166 10 0 622
696 10 259 499 10 0 534
697 -20 1705 1945 10 823 0
698 -21 5588 5828 10 186 0
699 8 1305 1545 10 0 194
700 20 1062 1302 10 0 357
701 27 3711 3951 10 0 35
702 20 1416 1656 10 0 332
703 30 881 1121 10 0 937
704 -12 1185 1425 10 921 0
705 10 1788 2028 10 0 620
706 20 994 1234 10 0 256
707 10 220 460 10 0 477
708 -20 874 1114 10 330 0
709 20 1514 1754 10 0 805
710 -40 913 1153 10 885 0
711 -20 866 1106 10 454 0
712 -7 3109 3349 10 92 0
713 25 1612 1852 10 0 525
714 10 904 1144 10 0 520
715 -13 5470 5710 10 130 0
716 18 950 1190 10 0 843
717 20 1019 1259 10 0 323
718 -32 2288 2528 10 688 0
719 -10 3498 3738 10 974 0
720 30 1067 1307 10 0 354
721 12 600 840 10 0 237
722 10 1326 1566 10 0 724
723 -11 4603 4843 10 460 0
724 -10 3911 4151 10 722 0
725 -25 808 1048 10 302 0
726 10 645 885 10 0 592
727 17 5844 6084 10 0 479
728 19 73 313 10 0 90
729 -20 1111 1351 10 660 0
730 -10 1466 1706 10 814 0
731 -20 3932 4172 10 522 0
732 10 1052 1292 10 0 445
733 -30 891 1131 10 850 0
734 20 918 1158 10 0 936
735 12 2775 3015 10 0 563
736 -40 6362 6602 10 6 0
737 10 1099 1339 10 0 566
738 20 1038 1278 10 0 883
739 -22 2606 2846 10 993 0
740 9 1280 1520 10 0 981
741 10 1137 1377 10 0 218
742 5 538 778 10 0 747
743 10 925 1165 10 0 192
744 -20 978 1218 10 343 0
745 -16 5702 5942 10 370 0
746 -10 5075 5315 10 310 0
747 -5 1172 1412 10 742 0
748 10 1839 2079 10 0 129
749 -18 865 1105 10 306 0
750 -24 3704 3944 10 167 0
751 -10 2355 2595 10 240 0
752 20 939 1179 10 0 97
753 -10 1274 1514 10 3 0
754 20 447 687 10 0 290
755 10 495 735 10 0 40
756 -30 717 957 10 538 0
757 -40 1113 1353 10 27 0
758 -27 6301 6541 10 656 0
759 15 3406 3646 10 0 182
760 29 4225 4465 10 0 800
761 -20 477 717 10 608 0
762 8 2537 2777 10 0 443
763 20 841 1081 10 0 314
764 20 377 617 10 0 303
765 -10 805 1045 10 517 0
766 -5 5951 6191 10 17 0
767 -10 4837 5077 10 60 0
768 10 752 992 10 0 971
769 10 754 994 10 0 673
770 -24 4435 4675 10 104 0
771 -19 3645 3885 10 858 0
772 10 280 520 10 0 376
773 -6 2339 2579 10 544 0
774 20 1246 1486 10 0 963
775 -10 990 1230 10 893 0
776 7 3058 3298 10 0 133
777 -22 892 1132 10 785 0
778 -30 1187 1427 10 150 0
779 -30 621 861 10 163 0
780 30 36 276 10 0 920
781 22 4205 4445 10 0 662
782 -10 3159 3399 10 346 0
783 30 1391 1631 10 0 281
784 -10 1583 1823 10 490 0
785 22 907 1147 10 0 777
786 11 4444 4684 10 0 14
787 30 846 1086 10 0 801
788 30 454 694 10 0 170
789 -32 1067 1307 10 235 0
790 -33 2219 2459 10 8 0
791 22 6047 6287 10 0 532
792 -10 681 921 10 375 0
793 30 236 476 10 0 533
794 10 5 245 10 0 839
795 11 2053 2293 10 0 496
796 -14 6768 7008 10 227 0
797 12 1322 1562 10 0 664
798 -20 838 1078 10 326 0
799 -14 817 1057 10 645 0
800 -29 4880 5120 10 760 0
801 -30 842 1082 10 787 0
802 -11 6030 6270 10 841 0
803 -10 4927 5167 10 849 0
804 -10 1045 1285 10 619 0
805 -20 4647 4887 10 709 0
806 -10 994 1234 10 135 0
807 -20 716 956 10 928 0
808 -25 2620 2860 10 410 0
809 20 544 784 10 0 440
810 40 1129 1369 10 0 109
811 -10 1014 1254 10 327 0
812 -30 866 1106 10 870 0
813 32 1547 1787 10 0 114
814 10 1185 1425 10 0 730
815 20 706 946 10 0 181
816 -20 1249 1489 10 309 0
817 -10 1401 1641 10 917 0
818 17 360 600 10 0 51
819 20 357 597 10 0 459
820 10 1274 1514 10 0 271
821 -5 4975 5215 10 978 0
822 -20 1099 1339 10 975 0
823 20 907 1147 10 0 697
824 20 967 1207 10 0 627
825 -20 911 1151 10 144 0
826 11 910 1150 10 0 139
827 5 1581 1821 10 0 25
828 20 861 1101 10 0 556
829 20 1045 1285 10 0 57
830 -20 1352 1592 10 999 0
831 20 863 1103 10 0 76
832 23 4831 5071 10 0 913
833 -18 3644 3884 10 191 0
834 11 984 1224 10 0 13
835 -20 3207 3447 10 441 0
836 23 845 1085 10 0 967
837 -35 6178 6418 10 509 0
838 20 715 955 10 0 665
839 -10 79 319 10 794 0
840 -20 1025 1265 10 363 0
841 11 2887 3127 10 0 802
842 -14 906 1146 10 286 0
843 -18 5426 5666 10 716 0
844 21 3371 3611 10 0 651
845 -10 964 1204 10 176 0
846 20 546 786 10 0 348
847 -10 1288 1528 10 553 0
848 -9 989 1229 10 438 0
849 10 1609 1849 10 0 803
850 30 890 1130 10 0 733
851 -30 328 568 10 94 0
852 10 1107 1347 10 0 295
853 20 963 1203 10 0 565
854 10 879 1119 10 0 203
855 -20 2267 2507 10 274 0
856 30 506 746 10 0 907
857 20 1071 1311 10 0 232
858 19 1420 1660 10 0 771
859 -20 1383 1623 10 590 0
860 10 528 768 10 0 960
861 31 1399 1639 10 0 863
862 -20 1021 1261 10 904 0
863 -31 1596 1836 10 861 0
864 -10 2809 3049 10 684 0
865 21 179 419 10 0 436
866 -9 3983 4223 10 478 0
867 20 652 892 10 0 991
868 -21 812 1052 10 452 0
869 -10 501 741 10 66 0
870 30 764 1004 10 0 812
871 30 607 847 10 0 511
872 -10 90 330 10 231 0
873 20 5769 6009 10 0 421
874 20 1585 1825 10 0 264
875 -30 907 1147 10 317 0
876 20 831 1071 10 0 951
877 10 809 1049 10 0 155
878 -16 4942 5182 10 612 0
879 20 751 991 10 0 657
880 -10 4160 4400 10 119 0
881 -20 1430 1670 10 997 0
882 -20 1151 1391 10 313 0
883 -20 4196 4436 10 738 0
884 10 826 1066 10 0 300
885 40 779 1019 10 0 710
886 40 870 1110 10 0 423
887 -30 935 1175 10 962 0
888 -1 741 981 10 539 0
889 20 886 1126 10 0 577
890 10 1656 1896 10 0 957
891 -20 2456 2696 10 88 0
892 20 1008 1248 10 0 495
893 10 936 1176 10 0 775
894 20 5912 6152 10 0 142
895 -10 555 795 10 910 0
896 -4 4496 4736 10 424 0
897 20 1285 1525 10 0 397
898 -13 1691 1931 10 599 0
899 27 839 1079 10 0 575
900 31 3034 3274 10 0 418
901 10 647 887 10 0 200
902 -20 1192 1432 10 402 0
903 12 1023 1263 10 0 244
904 20 1008 1248 10 0 862
905 12 490 730 10 0 28
906 10 1240 1480 10 0 398
907 -30 692 932 10 856 0
908 25 4006 4246 10 0 912
909 9 1013 1253 10 0 617
910 10 501 741 10 0 895
911 -31 3117 3357 10 469 0
912 -25 5416 5656 10 908 0
913 -23 5529 5769 10 832 0
914 -9 2975 3215 10 985 0
915 30 1497 1737 10 0 29
916 -20 957 1197 10 501 0
917 10 1027 1267 10 0 817
918 10 1044 1284 10 0 77
919 -20 2075 2315 10 106 0
920 -30 1307 1547 10 780 0
921 12 711 951 10 0 704
922 -12 5691 5931 10 340 0
923 5 71 311 10 0 382
924 10 836 1076 10 0 46
925 10 1628 1868 10 0 349
926 10 961 1201 10 0 293
927 -10 4953 5193 10 505 0
928 20 384 624 10 0 807
929 29 2029 2269 10 0 270
930 17 31 271 10 0 618
931 -10 809 1049 10 15 0
932 17 551 791 10 0 417
933 10 578 818 10 0 50
934 20 701 941 10 0 255
935 -10 2512 2752 10 324 0
936 -20 4134 4374 10 734 0
937 -30 3118 3358 10 703 0
938 30 810 1050 10 0 497
939 30 3935 4175 10 0 197
940 -13 1664 1904 10 134 0
941 -20 4686 4926 10 249 0
942 -20 1048 1288 10 475 0
943 28 3368 3608 10 0 152
944 20 1195 1435 10 0 100
945 20 389 629 10 0 414
946 -10 971 1211 10 685 0
947 18 3764 4004 0 0 1007
948 20 805 1045 10 0 175
949 -10 1222 1462 10 543 0
950 20 1403 1643 10 0 201
951 -20 1074 1314 10 876 0
952 -2 2802 3042 10 250 0
953 20 1342 1582 10 0 983
954 5 3182 3422 10 0 674
955 10 837 1077 10 0 122
956 10 273 513 10 0 356
957 -10 3555 3795 10 890 0
958 22 6472 6712 0 0 1009
959 10 956 1196 10 0 248
960 -10 690 930 10 860 0
961 -30 653 893 10 394 0
962 30 641 881 10 0 887
963 -20 1133 1373 10 774 0
964 10 1260 1500 10 0 558
965 -15 5539 5779 10 74 0
966 -20 1625 1865 10 457 0
967 -23 1126 1366 10 836 0
968 30 323 563 10 0 204
969 29 3892 4132 10 0 107
970 -20 1460 1700 10 196 0
971 -10 5354 5594 10 768 0
972 20 952 1192 10 0 691
973 34 5310 5550 10 0 609
974 10 993 1233 10 0 719
975 20 529 769 10 0 822
976 30 1184 1424 10 0 377
977 20 277 517 10 0 415
978 5 2690 2930 10 0 821
979 -26 4395 4635 10 986 0
980 -9 3268 3508 10 468 0
981 -9 1650 1890 10 740 0
982 30 1108 1348 10 0 128
983 -20 3949 4189 10 953 0
984 20 328 568 10 0 171
985 9 566 806 10 0 914
986 26 2104 2344 10 0 979
987 20 1375 1615 10 0 85
988 30 1018 1258 10 0 667
989 -20 816 1056 10 315 0
990 15 266 506 10 0 180
991 -20 1177 1417 10 867 0
992 20 150 390 10 0 396
993 22 1822 2062 10 0 739
994 20 962 1202 10 0 576
995 27 6212 6452 10 0 54
996 8 2705 2945 10 0 567
997 20 920 1160 10 0 881
998 -24 4814 5054 10 571 0
999 20 1225 1465 10 0 830
1000 30 1181 1421 10 0 291
1001 10 835 1075 10 0 453
1002 -30 475 715 10 345 0
1003 -15 2336 2576 10 195 0
1004 -18 5893 6133 10 596 0
1005 -7 4490 4730 10 372 0
1006 -18 5145 5385 10 591 0
1007 -18 3764 4004 10 947 0
1008 -14 5776 6016 10 624 0
1009 -22 6472 6712 10 958 0
DEPOT_SECTION
1
-1
EOF
