NAME: lc1_8_2
TYPE: PDPTW
COMMENT: Li & Lim PDPTW benchmark converted from SINTEF format
DIMENSION: 847
VEHICLES: 200
CAPACITY: 200
EDGE_WEIGHT_TYPE: EUC_2D
NODE_COORD_SECTION
1 200 200
2 385 56
3 201 297
4 57 353
5 201 386
6 359 23
7 210 268
8 219 148
9 306 390
10 32 251
11 130 70
12 103 172
13 319 217
14 99 241
15 368 102
16 307 310
17 158 366
18 286 9
19 267 161
20 304 141
21 143 261
22 183 303
23 218 284
24 318 335
25 53 330
26 233 208
27 113 179
28 109 170
29 276 16
30 128 93
31 221 379
32 185 386
33 14 210
34 180 375
35 164 69
36 53 354
37 275 8
38 142 260
39 183 294
40 373 253
41 15 100
42 51 288
43 131 130
44 184 343
45 56 351
46 208 384
47 204 87
48 61 333
49 313 194
50 271 154
51 314 399
52 14 100
53 273 160
54 359 38
55 173 381
56 153 368
57 270 151
58 29 355
59 310 395
60 312 200
61 107 247
62 126 91
63 229 229
64 196 293
65 82 247
66 42 384
67 83 357
68 280 282
69 270 106
70 369 106
71 393 272
72 93 62
73 275 15
74 372 104
75 134 98
76 339 41
77 303 61
78 97 10
79 211 274
80 159 207
81 111 184
82 155 206
83 95 47
84 18 100
85 21 96
86 126 126
87 102 169
88 35 293
89 240 246
90 255 239
91 179 383
92 147 263
93 367 104
94 277 154
95 179 336
96 157 205
97 231 243
98 92 50
99 375 247
100 152 240
101 187 341
102 234 214
103 364 27
104 52 297
105 103 168
106 23 98
107 153 107
108 14 201
109 386 57
110 244 109
111 393 307
112 96 235
113 49 353
114 28 356
115 85 155
116 248 243
117 94 13
118 134 279
119 158 64
120 346 179
121 20 127
122 46 378
123 337 47
124 250 241
125 200 89
126 289 11
127 393 301
128 182 379
129 301 57
130 111 170
131 249 239
132 294 311
133 352 162
134 363 270
135 106 173
136 72 257
137 311 334
138 305 336
139 22 125
140 293 310
141 40 54
142 234 212
143 91 27
144 351 153
145 304 301
146 291 301
147 92 162
148 135 167
149 300 132
150 93 23
151 236 210
152 41 56
153 114 250
154 161 233
155 344 283
156 346 385
157 129 278
158 238 101
159 127 87
160 185 299
161 37 56
162 55 357
163 272 154
164 158 283
165 298 137
166 266 116
167 306 329
168 302 203
169 115 257
170 329 241
171 362 28
172 53 347
173 345 178
174 244 106
175 149 234
176 84 359
177 243 244
178 122 281
179 68 263
180 84 363
181 68 254
182 32 357
183 314 390
184 393 312
185 82 365
186 276 157
187 179 134
188 106 177
189 140 264
190 172 383
191 347 45
192 305 198
193 100 175
194 168 178
195 177 379
196 280 290
197 165 63
198 308 393
199 243 106
200 210 141
201 366 251
202 131 131
203 129 134
204 369 19
205 153 280
206 91 70
207 328 239
208 131 127
209 230 241
210 20 204
211 116 181
212 371 244
213 182 300
214 49 291
215 76 206
216 37 286
217 349 275
218 21 104
219 17 96
220 126 284
221 154 288
222 129 85
223 199 290
224 198 295
225 237 109
226 385 55
227 101 239
228 54 348
229 250 236
230 65 298
231 57 291
232 230 225
233 200 83
234 328 243
235 188 133
236 88 150
237 113 183
238 209 85
239 174 375
240 281 16
241 87 155
242 85 67
243 125 95
244 235 212
245 153 281
246 347 385
247 156 111
248 302 60
249 75 368
250 207 381
251 38 49
252 110 254
253 102 252
254 220 288
255 295 19
256 344 176
257 188 338
258 167 174
259 318 219
260 281 291
261 96 69
262 314 396
263 97 242
264 27 251
265 166 170
266 157 283
267 236 204
268 177 300
269 75 206
270 151 111
271 74 253
272 350 182
273 360 46
274 369 107
275 109 186
276 286 308
277 222 284
278 93 149
279 152 237
280 152 109
281 357 160
282 395 310
283 179 338
284 243 104
285 40 53
286 70 256
287 396 59
288 103 171
289 79 154
290 370 104
291 110 188
292 73 213
293 85 44
294 361 39
295 344 49
296 48 326
297 344 280
298 54 285
299 233 214
300 197 293
301 21 201
302 78 246
303 31 353
304 52 295
305 277 285
306 393 306
307 268 114
308 219 377
309 99 16
310 51 354
311 353 276
312 217 286
313 359 178
314 78 251
315 62 258
316 237 247
317 310 196
318 24 96
319 128 68
320 383 273
321 362 272
322 245 106
323 39 285
324 327 242
325 127 279
326 162 69
327 237 108
328 129 288
329 306 303
330 122 183
331 348 179
332 127 286
333 382 266
334 222 383
335 209 150
336 308 296
337 161 182
338 340 388
339 253 243
340 181 134
341 342 384
342 301 58
343 90 53
344 131 132
345 60 328
346 281 155
347 369 100
348 358 23
349 53 353
350 26 247
351 234 243
352 76 251
353 172 178
354 74 201
355 174 387
356 161 63
357 317 335
358 140 260
359 52 292
360 290 311
361 89 154
362 130 279
363 273 12
364 147 283
365 135 134
366 49 352
367 195 91
368 105 250
369 159 367
370 304 297
371 197 292
372 300 144
373 158 239
374 69 245
375 195 294
376 356 274
377 133 137
378 91 150
379 46 292
380 203 88
381 55 291
382 299 58
383 158 364
384 86 47
385 72 210
386 132 279
387 128 94
388 39 56
389 39 54
390 203 388
391 92 26
392 321 217
393 111 165
394 232 232
395 155 202
396 201 387
397 303 59
398 131 283
399 131 95
400 73 250
401 150 236
402 278 7
403 33 247
404 234 203
405 22 96
406 180 387
407 287 307
408 129 98
409 127 90
410 39 48
411 316 336
412 128 95
413 370 98
414 90 26
415 204 381
416 363 24
417 277 163
418 315 341
419 222 283
420 109 167
421 124 69
422 41 297
423 302 136
424 108 186
425 321 209
426 92 155
427 108 250
428 100 243
429 113 184
430 211 147
431 41 52
432 25 118
433 94 31
434 87 365
435 300 62
436 34 385
437 83 248
438 186 304
439 317 331
440 348 176
441 211 154
442 298 138
443 182 378
444 100 6
445 279 12
446 308 396
447 275 287
448 363 267
449 104 171
450 391 271
451 320 216
452 389 271
453 349 272
454 28 246
455 92 46
456 24 93
457 307 59
458 293 15
459 300 299
460 272 161
461 24 121
462 152 263
463 156 367
464 48 361
465 280 283
466 31 357
467 275 12
468 264 112
469 58 346
470 21 204
471 295 307
472 72 253
473 111 179
474 336 387
475 58 294
476 84 360
477 278 159
478 98 28
479 346 155
480 295 16
481 337 388
482 182 338
483 308 389
484 392 307
485 34 289
486 342 385
487 43 386
488 227 231
489 302 392
490 221 281
491 60 293
492 177 137
493 157 281
494 90 54
495 232 234
496 189 306
497 229 237
498 126 70
499 230 290
500 99 7
501 171 179
502 346 163
503 313 334
504 382 54
505 329 236
506 335 47
507 17 125
508 305 306
509 356 41
510 89 51
511 47 328
512 117 187
513 391 54
514 299 141
515 336 42
516 109 252
517 324 216
518 40 380
519 86 154
520 225 288
521 294 136
522 154 284
523 361 269
524 181 339
525 257 239
526 119 179
527 346 48
528 238 250
529 95 64
530 389 307
531 22 205
532 89 48
533 217 289
534 280 288
535 389 306
536 97 248
537 55 324
538 56 289
539 187 338
540 366 39
541 339 384
542 40 56
543 46 380
544 351 177
545 393 297
546 351 176
547 249 242
548 63 262
549 346 53
550 297 135
551 12 117
552 279 4
553 291 308
554 157 102
555 15 116
556 364 43
557 242 113
558 82 360
559 133 68
560 274 14
561 34 242
562 331 251
563 344 391
564 301 66
565 309 397
566 213 271
567 397 313
568 348 280
569 150 284
570 172 180
571 132 159
572 376 254
573 242 105
574 383 53
575 276 116
576 322 242
577 134 63
578 158 206
579 237 213
580 52 334
581 101 10
582 52 331
583 17 209
584 102 67
585 321 339
586 167 180
587 29 250
588 254 240
589 371 253
590 203 384
591 350 271
592 114 178
593 186 306
594 137 64
595 393 305
596 215 143
597 256 231
598 267 112
599 33 293
600 94 70
601 166 67
602 164 66
603 183 332
604 73 203
605 232 230
606 345 158
607 360 23
608 142 262
609 353 164
610 129 67
611 308 204
612 82 65
613 210 144
614 341 394
615 26 250
616 148 112
617 177 138
618 313 340
619 240 210
620 75 208
621 293 306
622 372 256
623 324 217
624 282 282
625 374 104
626 376 251
627 156 207
628 183 375
629 364 267
630 129 293
631 220 296
632 75 367
633 196 295
634 97 6
635 93 51
636 95 243
637 206 81
638 357 39
639 358 266
640 16 120
641 374 253
642 99 67
643 99 28
644 289 306
645 210 271
646 21 125
647 359 30
648 327 241
649 361 44
650 211 266
651 29 59
652 132 170
653 310 143
654 139 161
655 97 29
656 35 291
657 227 240
658 175 299
659 227 229
660 303 58
661 203 387
662 53 326
663 96 14
664 66 254
665 214 378
666 41 382
667 96 237
668 388 267
669 263 110
670 79 209
671 168 62
672 76 207
673 157 282
674 345 382
675 308 196
676 130 286
677 176 132
678 313 335
679 164 62
680 338 391
681 390 52
682 355 39
683 309 399
684 363 30
685 162 61
686 129 132
687 179 305
688 207 391
689 305 304
690 22 210
691 114 254
692 208 274
693 349 157
694 364 25
695 391 269
696 244 114
697 95 63
698 23 97
699 32 352
700 86 357
701 51 326
702 220 283
703 87 153
704 299 52
705 129 124
706 93 237
707 142 168
708 204 385
709 301 139
710 197 300
711 44 54
712 70 264
713 311 395
714 229 209
715 84 252
716 323 243
717 251 241
718 103 167
719 308 301
720 367 255
721 131 67
722 386 60
723 151 264
724 186 336
725 359 49
726 154 282
727 150 108
728 28 353
729 93 48
730 156 206
731 11 115
732 93 47
733 138 168
734 280 287
735 268 160
736 20 91
737 134 62
738 147 264
739 307 196
740 49 351
741 160 366
742 154 206
743 156 63
744 168 177
745 220 381
746 68 261
747 389 54
748 96 8
749 126 161
750 231 219
751 114 252
752 89 29
753 355 156
754 236 243
755 127 94
756 176 342
757 62 301
758 41 378
759 34 355
760 183 301
761 277 19
762 211 389
763 115 185
764 133 94
765 98 13
766 306 306
767 85 358
768 93 59
769 282 283
770 25 256
771 76 250
772 212 146
773 202 85
774 178 133
775 204 292
776 39 384
777 321 212
778 239 254
779 206 296
780 116 252
781 33 56
782 67 258
783 347 395
784 310 200
785 163 63
786 348 279
787 106 174
788 95 8
789 129 287
790 19 127
791 286 17
792 158 365
793 223 372
794 75 203
795 207 87
796 19 206
797 49 289
798 335 50
799 181 132
800 18 208
801 89 152
802 172 180
803 99 16
804 100 175
805 142 260
806 113 179
807 177 379
808 110 254
809 277 154
810 272 154
811 305 198
812 298 138
813 267 112
814 210 271
815 153 107
816 129 98
817 79 209
818 235 212
819 62 258
820 213 271
821 346 163
822 345 178
823 126 161
824 277 285
825 34 289
826 200 83
827 96 69
828 204 381
829 281 16
830 329 236
831 362 28
832 53 347
833 281 291
834 357 39
835 91 27
836 339 384
837 346 48
838 32 357
839 306 390
840 303 61
841 22 205
842 237 108
843 160 366
844 33 56
845 86 357
846 272 161
847 282 282
PICKUP_AND_DELIVERY_SECTION
1 0 0 1676 0 0 0
2 10 473 544 90 0 722
3 -20 805 855 90 633 0
4 10 364 418 90 0 113
5 -20 0 1400 90 396 0
6 30 298 358 90 0 607
7 30 68 102 90 0 692
8 10 55 110 90 0 596
9 20 0 1369 0 0 839
10 20 804 857 90 0 395
11 -30 956 1015 90 721 0
12 10 0 1486 90 0 420
13 -30 0 1466 90 777 0
14 20 173 225 90 0 112
15 -20 0 1392 90 93 0
16 -30 0 1433 90 370 0
17 20 521 566 90 0 239
18 -20 551 606 90 126 0
19 -30 0 1509 90 709 0
20 -20 757 798 90 423 0
21 -10 605 669 90 608 0
22 -20 442 493 90 39 0
23 -10 905 965 90 312 0
24 40 708 767 90 0 439
25 -10 624 690 90 701 0
26 30 93 155 90 0 142
27 10 986 1037 0 0 806
28 20 151 220 90 0 291
29 10 199 241 90 0 467
30 10 0 1458 90 0 755
31 -30 0 1406 90 334 0
32 -20 602 689 90 91 0
33 10 623 677 90 0 796
34 -20 0 1410 90 355 0
35 30 0 1451 90 0 743
36 -10 1020 1079 90 366 0
37 10 625 696 90 0 552
38 20 683 773 0 0 805
39 20 95 169 90 0 22
40 10 618 666 90 0 589
41 10 356 426 90 0 318
42 10 236 291 90 0 381
43 40 336 403 90 0 377
44 30 478 535 90 0 756
45 10 0 1378 90 0 228
46 20 236 312 90 0 390
47 30 175 231 90 0 238
48 10 913 969 90 0 345
49 10 444 504 90 0 60
50 -20 0 1502 90 513 0
51 10 0 1357 90 0 59
52 -30 446 518 90 218 0
53 -10 813 860 90 346 0
54 10 478 520 90 0 556
55 10 0 1403 90 0 257
56 30 331 385 90 0 463
57 20 85 158 90 0 165
58 10 490 517 90 0 296
59 -10 0 1363 90 51 0
60 -10 533 608 90 49 0
61 -10 0 1482 90 400 0
62 30 0 1455 90 0 387
63 -20 667 724 90 605 0
64 20 333 396 90 0 775
65 20 280 345 90 0 314
66 10 770 834 90 0 122
67 -40 0 1391 90 776 0
68 -10 0 1472 90 447 0
69 -50 182 247 90 575 0
70 -20 0 1393 90 74 0
71 -10 447 508 90 452 0
72 -20 511 562 90 584 0
73 20 259 321 90 0 363
74 20 629 688 90 0 70
75 10 121 175 90 0 409
76 -20 542 608 90 798 0
77 30 966 1055 0 0 840
78 10 550 614 90 0 500
79 20 315 381 90 0 650
80 20 41 92 90 0 672
81 10 616 668 90 0 211
82 -30 376 441 90 742 0
83 10 900 952 90 0 729
84 20 265 331 90 0 736
85 20 635 707 90 0 456
86 20 624 674 90 0 203
87 20 898 960 90 0 718
88 20 349 399 90 0 216
89 20 122 188 90 0 209
90 20 0 1519 90 0 131
91 20 0 1402 90 0 32
92 -40 324 387 90 723 0
93 20 192 272 90 0 15
94 20 430 485 0 0 809
95 -10 0 1449 90 283 0
96 -40 557 625 90 730 0
97 -10 0 1533 90 183 0
98 -10 1081 1140 90 732 0
99 10 243 300 90 0 626
100 30 308 370 90 0 373
101 30 383 444 90 0 482
102 -10 660 710 90 299 0
103 20 766 834 90 0 540
104 -10 0 1410 90 304 0
105 -10 984 1058 90 763 0
106 -20 1201 1254 90 698 0
107 20 446 501 0 0 815
108 -20 0 1400 90 210 0
109 10 0 1352 90 0 287
110 20 259 308 90 0 199
111 -20 649 706 90 595 0
112 -20 834 879 90 14 0
113 -10 653 710 90 4 0
114 -20 570 619 90 303 0
115 20 651 714 90 0 147
116 20 64 132 90 0 547
117 -10 0 1372 90 765 0
118 30 102 158 90 0 362
119 -30 1030 1099 90 601 0
120 -20 0 1439 90 313 0
121 10 341 411 90 0 640
122 -10 0 1351 90 66 0
123 20 352 421 90 0 515
124 30 212 283 90 0 525
125 30 736 799 90 0 367
126 20 0 1378 90 0 18
127 10 272 348 90 0 282
128 20 413 494 90 0 190
129 -10 599 678 90 248 0
130 10 93 146 90 0 275
131 -20 776 834 90 90 0
132 -20 386 449 90 471 0
133 10 0 1430 90 0 144
134 -20 0 1409 90 562 0
135 -20 0 1489 90 269 0
136 -20 1043 1105 90 181 0
137 -10 1079 1141 90 411 0
138 20 0 1415 90 0 678
139 10 193 258 90 0 551
140 30 0 1442 90 0 276
141 10 285 331 90 0 388
142 -30 374 428 90 26 0
143 20 623 704 0 0 835
144 -10 0 1428 90 133 0
145 20 855 926 90 0 769
146 20 135 219 90 0 360
147 -20 1110 1185 90 115 0
148 -10 228 278 90 733 0
149 -30 459 513 90 550 0
150 -20 445 513 90 478 0
151 -10 0 1549 90 619 0
152 -10 1308 1359 90 542 0
153 -10 1000 1074 90 656 0
154 -20 499 564 90 401 0
155 -10 704 749 90 786 0
156 10 301 350 90 0 680
157 20 1010 1071 90 0 386
158 20 809 865 90 0 225
159 20 0 1452 90 0 412
160 10 171 210 90 0 213
161 -20 0 1369 90 711 0
162 -20 462 509 90 469 0
163 20 0 1501 0 0 810
164 10 238 311 90 0 522
165 -20 269 330 90 57 0
166 -10 650 717 90 669 0
167 -20 1172 1241 90 418 0
168 -30 0 1484 90 784 0
169 10 339 412 90 0 253
170 -20 300 363 90 714 0
171 10 0 1350 0 0 831
172 20 0 1379 0 0 832
173 10 0 1440 0 0 822
174 -10 433 501 90 696 0
175 10 61 107 90 0 279
176 -30 834 881 90 185 0
177 30 61 126 90 0 534
178 -10 0 1474 90 537 0
179 10 585 634 90 0 746
180 20 265 323 90 0 476
181 20 200 266 90 0 136
182 20 746 811 0 0 838
183 10 1122 1179 90 0 97
184 -20 0 1363 90 306 0
185 30 358 414 90 0 176
186 20 335 395 90 0 477
187 -20 404 467 90 677 0
188 20 440 489 90 0 288
189 -20 421 485 90 462 0
190 -20 0 1401 90 128 0
191 20 639 710 90 0 457
192 20 105 163 0 0 811
193 10 536 585 0 0 804
194 20 103 156 90 0 586
195 10 1082 1152 0 0 807
196 20 271 335 90 0 734
197 -20 0 1445 90 602 0
198 -20 378 433 90 489 0
199 -20 529 588 90 110 0
200 20 215 280 90 0 613
201 -20 988 1044 90 572 0
202 -10 244 312 90 344 0
203 -20 810 867 90 86 0
204 -20 570 651 90 348 0
205 -30 996 1045 90 569 0
206 -20 896 948 90 768 0
207 -20 0 1453 90 234 0
208 -10 438 486 90 365 0
209 -20 786 837 90 89 0
210 20 328 393 90 0 108
211 -10 1168 1224 90 81 0
212 20 176 244 90 0 641
213 -10 260 309 90 160 0
214 10 416 479 90 0 231
215 -20 749 807 90 385 0
216 -20 710 780 90 88 0
217 10 408 486 90 0 336
218 30 203 254 90 0 52
219 10 546 608 90 0 405
220 10 734 783 90 0 325
221 20 0 1487 90 0 434
222 -20 378 438 90 399 0
223 10 90 142 90 0 779
224 -10 598 681 90 375 0
225 -20 990 1060 90 158 0
226 20 386 449 90 0 681
227 10 106 166 90 0 428
228 -10 1206 1266 90 45 0
229 -10 869 928 90 339 0
230 -10 1355 1415 90 797 0
231 -10 979 1034 90 214 0
232 -30 752 828 90 497 0
233 10 0 1469 0 0 826
234 20 202 277 90 0 207
235 -20 688 746 90 774 0
236 10 274 333 90 0 241
237 -10 785 865 90 424 0
238 -30 363 415 90 47 0
239 -20 0 1410 90 17 0
240 20 1020 1058 0 0 829
241 -10 830 900 90 236 0
242 -10 790 862 90 697 0
243 -20 0 1457 90 643 0
244 20 0 1549 0 0 818
245 -10 896 962 90 364 0
246 20 0 1350 90 0 338
247 -10 632 704 90 727 0
248 10 226 300 90 0 129
249 -20 0 1377 90 758 0
250 20 181 232 90 0 688
251 -20 741 793 90 389 0
252 20 0 1482 0 0 808
253 -10 634 688 90 169 0
254 -20 624 689 90 520 0
255 30 204 260 90 0 295
256 10 145 207 90 0 440
257 -10 0 1448 90 55 0
258 30 0 1544 90 0 265
259 20 740 797 90 0 267
260 40 364 425 0 0 833
261 10 0 1419 0 0 827
262 -30 1024 1085 90 565 0
263 -20 552 598 90 636 0
264 -30 620 670 90 561 0
265 -30 377 438 90 258 0
266 -20 0 1493 90 673 0
267 -20 937 1001 90 259 0
268 -20 0 1484 90 760 0
269 20 0 1461 90 0 135
270 -20 0 1485 90 616 0
271 -10 0 1450 90 352 0
272 -30 599 645 90 546 0
273 20 943 990 90 0 504
274 -10 912 956 90 290 0
275 -10 0 1494 90 130 0
276 -30 942 1001 90 140 0
277 -20 237 296 90 490 0
278 20 118 175 90 0 519
279 -10 0 1526 90 175 0
280 30 0 1484 90 0 554
281 -20 407 462 90 609 0
282 -10 0 1363 90 127 0
283 10 845 923 90 0 95
284 -20 715 767 90 573 0
285 10 0 1369 90 0 410
286 -20 0 1445 90 548 0
287 -10 0 1345 90 109 0
288 -20 816 858 90 188 0
289 -20 0 1457 90 790 0
290 10 717 785 90 0 274
291 -20 338 392 90 28 0
292 10 127 177 90 0 583
293 -20 612 679 90 532 0
294 -20 567 616 90 509 0
295 -30 0 1378 90 255 0
296 -10 0 1389 90 58 0
297 20 786 853 90 0 394
298 20 168 223 90 0 475
299 10 458 530 90 0 102
300 30 0 1493 90 0 539
301 -30 421 486 90 470 0
302 -30 0 1456 90 437 0
303 20 284 351 90 0 114
304 10 605 668 90 0 104
305 10 0 1472 0 0 824
306 20 0 1366 90 0 184
307 -20 570 611 90 468 0
308 20 520 591 90 0 702
309 20 209 268 0 0 803
310 -10 925 990 90 464 0
311 10 329 377 90 0 568
312 10 812 875 90 0 23
313 20 489 555 90 0 120
314 -20 383 433 90 65 0
315 20 385 456 0 0 819
316 -10 417 464 90 778 0
317 20 353 408 90 0 611
318 -10 0 1382 90 41 0
319 -20 673 737 90 737 0
320 10 197 262 90 0 668
321 30 239 299 90 0 523
322 -10 0 1482 90 557 0
323 -10 806 869 90 599 0
324 -20 679 726 90 648 0
325 -10 920 977 90 220 0
326 -10 1124 1198 90 679 0
327 20 906 963 0 0 842
328 10 451 497 90 0 332
329 10 389 459 90 0 459
330 -10 0 1507 90 429 0
331 -10 682 749 90 544 0
332 -10 0 1474 90 328 0
333 30 721 800 90 0 530
334 30 336 401 90 0 31
335 -20 593 642 90 772 0
336 -10 0 1442 90 217 0
337 -20 479 542 90 353 0
338 -20 1051 1104 90 246 0
339 10 399 463 90 0 229
340 -30 501 554 90 492 0
341 -10 1228 1296 90 563 0
342 10 324 386 90 0 704
343 40 242 305 90 0 635
344 10 149 226 90 0 202
345 -10 1006 1065 90 48 0
346 10 519 585 90 0 53
347 30 357 398 90 0 413
348 20 237 304 90 0 204
349 -20 1117 1163 90 740 0
350 10 340 381 90 0 615
351 -20 0 1532 90 528 0
352 10 562 621 90 0 271
353 20 35 103 90 0 337
354 10 555 630 90 0 794
355 20 0 1398 90 0 34
356 -20 847 907 90 671 0
357 20 620 674 90 0 503
358 -20 790 851 90 738 0
359 20 0 1412 90 0 757
360 -20 566 638 90 146 0
361 10 930 985 90 0 393
362 -30 1100 1164 90 118 0
363 -20 441 508 90 73 0
364 10 808 859 90 0 245
365 10 92 149 90 0 208
366 10 750 795 90 0 36
367 -30 841 885 90 125 0
368 30 0 1479 90 0 427
369 40 226 299 90 0 383
370 30 142 203 90 0 16
371 20 151 214 90 0 710
372 -10 1015 1098 90 514 0
373 -30 405 465 90 100 0
374 30 0 1448 90 0 536
375 10 416 497 90 0 224
376 -30 0 1414 90 450 0
377 -40 903 964 90 43 0
378 10 173 249 90 0 426
379 30 179 223 90 0 422
380 30 0 1474 90 0 773
381 -10 790 855 90 42 0
382 -20 0 1413 90 435 0
383 -40 704 748 90 369 0
384 -10 528 577 90 510 0
385 20 197 245 90 0 215
386 -20 1197 1252 90 157 0
387 -30 0 1458 90 62 0
388 -10 1121 1182 90 141 0
389 20 372 426 90 0 251
390 -20 530 589 90 46 0
391 -20 0 1382 90 655 0
392 -20 460 527 90 517 0
393 -10 1278 1324 90 361 0
394 -20 0 1541 90 297 0
395 -20 0 1541 90 10 0
396 20 721 765 90 0 5
397 -10 789 855 90 660 0
398 20 167 229 90 0 676
399 20 187 244 90 0 222
400 10 0 1450 90 0 61
401 20 130 177 90 0 154
402 20 0 1378 90 0 761
403 -30 895 955 90 587 0
404 -30 1033 1091 90 425 0
405 -10 733 791 90 219 0
406 -30 0 1398 90 628 0
407 -30 851 910 90 553 0
408 20 0 1462 0 0 816
409 -10 0 1454 90 75 0
410 -10 0 1365 90 285 0
411 10 528 583 90 0 137
412 -20 1117 1172 90 159 0
413 -30 438 500 90 347 0
414 30 730 780 90 0 433
415 10 1077 1145 0 0 828
416 -20 0 1347 90 791 0
417 10 705 777 90 0 735
418 20 0 1405 90 0 167
419 20 146 205 90 0 533
420 -10 1177 1239 90 12 0
421 -30 770 829 90 610 0
422 -30 0 1400 90 379 0
423 20 551 609 90 0 20
424 10 430 485 90 0 237
425 30 121 186 90 0 404
426 -10 1014 1087 90 378 0
427 -30 900 982 90 368 0
428 -10 261 321 90 227 0
429 10 705 762 90 0 330
430 30 494 554 90 0 441
431 30 551 612 90 0 651
432 10 1009 1064 90 0 461
433 -30 917 971 90 414 0
434 -20 0 1387 90 221 0
435 20 0 1416 90 0 382
436 20 577 646 90 0 543
437 30 195 248 90 0 302
438 10 518 603 90 0 496
439 -40 806 858 90 24 0
440 -10 207 273 90 256 0
441 -30 676 749 90 430 0
442 20 185 232 0 0 812
443 -20 0 1408 90 724 0
444 20 0 1368 90 0 581
445 -20 0 1383 90 560 0
446 -20 467 530 90 499 0
447 10 175 241 90 0 68
448 10 521 570 90 0 597
449 -30 717 776 90 512 0
450 30 349 422 90 0 376
451 -30 562 608 90 623 0
452 10 268 319 90 0 71
453 20 0 1421 90 0 591
454 20 241 295 90 0 770
455 -20 731 755 90 494 0
456 -20 0 1381 90 85 0
457 -20 889 944 90 191 0
458 -20 0 1379 90 480 0
459 -10 952 1019 90 329 0
460 20 0 1505 0 0 846
461 -10 1096 1164 90 432 0
462 20 79 139 90 0 189
463 -30 428 474 90 56 0
464 10 552 616 90 0 310
465 20 827 886 90 0 495
466 -30 0 1356 90 699 0
467 -10 0 1384 90 29 0
468 20 384 426 90 0 307
469 20 203 263 90 0 162
470 30 236 302 90 0 301
471 20 290 358 90 0 132
472 20 138 188 90 0 712
473 10 889 950 90 0 592
474 10 954 1013 90 0 486
475 -20 1081 1118 90 298 0
476 -20 733 800 90 180 0
477 -20 610 683 90 186 0
478 20 259 321 90 0 150
479 -20 787 837 90 753 0
480 20 272 323 90 0 458
481 -20 0 1354 90 614 0
482 -30 568 636 90 101 0
483 -20 1217 1277 90 567 0
484 -20 551 621 90 545 0
485 30 619 682 0 0 825
486 -10 1140 1203 90 474 0
487 10 0 1343 90 0 632
488 10 103 161 90 0 657
489 20 0 1369 90 0 198
490 20 83 150 90 0 277
491 -10 1163 1221 90 538 0
492 30 129 185 90 0 340
493 10 0 1495 90 0 726
494 20 182 227 90 0 455
495 -20 0 1540 90 465 0
496 -10 623 685 90 438 0
497 30 300 349 90 0 232
498 -20 0 1437 90 559 0
499 20 0 1492 90 0 446
500 -10 0 1369 90 78 0
501 -10 667 735 90 744 0
502 30 150 205 0 0 821
503 -20 895 959 90 357 0
504 -20 0 1353 90 273 0
505 10 0 1453 0 0 830
506 30 265 325 90 0 564
507 -10 0 1389 90 646 0
508 -30 679 733 90 719 0
509 20 222 285 90 0 294
510 10 0 1401 90 0 384
511 50 534 588 90 0 582
512 30 145 207 90 0 449
513 20 843 915 90 0 50
514 10 930 998 90 0 372
515 -20 463 501 90 123 0
516 -20 0 1482 90 780 0
517 20 282 337 90 0 392
518 30 302 360 90 0 666
519 -20 736 811 90 278 0
520 20 324 399 90 0 254
521 10 113 163 90 0 747
522 -10 526 574 90 164 0
523 -30 617 660 90 321 0
524 20 657 731 90 0 687
525 -30 501 552 90 124 0
526 -20 0 1503 90 787 0
527 30 738 797 0 0 837
528 20 320 374 90 0 351
529 20 313 394 90 0 612
530 -30 0 1369 90 333 0
531 20 0 1408 0 0 841
532 20 0 1398 90 0 293
533 -20 725 775 90 419 0
534 -30 457 518 90 177 0
535 -10 1117 1176 90 695 0
536 -30 0 1473 90 374 0
537 10 190 254 90 0 178
538 10 886 944 90 0 491
539 -30 203 255 90 300 0
540 -20 0 1355 90 103 0
541 20 1303 1356 0 0 836
542 10 1215 1271 90 0 152
543 -20 871 926 90 436 0
544 10 393 455 90 0 331
545 20 216 280 90 0 484
546 30 0 1434 90 0 272
547 -20 0 1522 90 116 0
548 20 475 553 90 0 286
549 -40 923 985 90 694 0
550 30 356 426 90 0 149
551 -10 727 773 90 139 0
552 -10 728 783 90 37 0
553 30 663 728 90 0 407
554 -30 542 596 90 280 0
555 -20 906 968 90 731 0
556 -10 754 807 90 54 0
557 10 151 227 90 0 322
558 10 649 700 90 0 767
559 20 409 451 90 0 498
560 20 0 1386 90 0 445
561 30 171 224 90 0 264
562 20 140 205 90 0 134
563 10 486 541 90 0 341
564 -30 0 1419 90 506 0
565 30 656 712 90 0 262
566 10 0 1514 0 0 820
567 20 842 887 90 0 483
568 -10 0 1418 90 311 0
569 30 0 1489 90 0 205
570 30 770 816 0 0 802
571 -30 511 579 90 652 0
572 20 428 490 90 0 201
573 20 615 685 90 0 284
574 -20 0 1352 90 725 0
575 50 113 163 90 0 69
576 -20 859 918 90 716 0
577 -30 0 1434 90 594 0
578 20 99 167 90 0 627
579 -10 748 807 90 750 0
580 -20 815 869 90 662 0
581 -20 1114 1157 90 444 0
582 -50 712 785 90 511 0
583 -10 0 1403 90 292 0
584 20 165 231 90 0 72
585 -10 430 489 90 618 0
586 -20 0 1548 90 194 0
587 30 0 1408 90 0 403
588 -20 0 1519 90 717 0
589 -10 698 769 90 40 0
590 -10 997 1040 90 708 0
591 -20 228 286 90 453 0
592 -10 1068 1136 90 473 0
593 10 721 774 90 0 658
594 30 0 1437 90 0 577
595 20 368 441 90 0 111
596 -10 113 191 90 8 0
597 -10 971 1022 90 448 0
598 30 469 527 0 0 813
599 10 440 491 90 0 323
600 -10 982 1049 90 642 0
601 30 292 351 90 0 119
602 20 202 256 90 0 197
603 -10 0 1453 90 792 0
604 -30 476 525 90 620 0
605 20 569 636 90 0 63
606 -10 874 936 90 693 0
607 -30 379 460 90 6 0
608 10 524 567 90 0 21
609 20 306 371 90 0 281
610 30 582 645 90 0 421
611 -20 730 784 90 317 0
612 -20 701 763 90 529 0
613 -20 0 1530 90 200 0
614 20 0 1347 90 0 481
615 -10 0 1405 90 350 0
616 20 102 174 90 0 270
617 40 66 128 90 0 799
618 10 243 299 90 0 585
619 10 837 908 90 0 151
620 30 292 337 90 0 604
621 20 0 1445 90 0 644
622 20 796 858 90 0 720
623 30 369 432 90 0 451
624 10 0 1471 0 0 847
625 10 542 592 90 0 653
626 -10 332 400 90 99 0
627 -20 186 265 90 578 0
628 30 0 1411 90 0 406
629 20 427 481 90 0 639
630 -10 547 591 90 789 0
631 -20 0 1488 90 665 0
632 -10 0 1378 90 487 0
633 20 519 576 90 0 3
634 -30 822 893 90 788 0
635 -40 1170 1233 90 343 0
636 20 459 507 90 0 263
637 -20 0 1467 90 795 0
638 10 379 434 0 0 834
639 -20 700 765 90 629 0
640 -10 623 687 90 121 0
641 -20 0 1405 90 212 0
642 10 233 283 90 0 600
643 20 0 1387 90 0 243
644 -20 766 811 90 621 0
645 20 129 195 0 0 814
646 10 261 307 90 0 507
647 -10 1058 1100 90 684 0
648 20 578 645 90 0 324
649 -10 855 893 90 682 0
650 -20 496 579 90 79 0
651 -30 0 1365 90 431 0
652 30 316 380 90 0 571
653 -10 0 1463 90 625 0
654 -10 617 667 90 707 0
655 20 358 406 90 0 391
656 10 520 596 90 0 153
657 -10 213 249 90 488 0
658 -10 1013 1051 90 593 0
659 10 39 103 90 0 754
660 10 701 761 90 0 397
661 -30 0 1399 90 762 0
662 20 253 315 90 0 580
663 10 0 1373 90 0 748
664 20 0 1442 90 0 782
665 20 178 240 90 0 631
666 -30 390 457 90 518 0
667 -20 736 792 90 706 0
668 -10 639 690 90 320 0
669 10 281 345 90 0 166
670 10 937 987 0 0 817
671 20 388 444 90 0 356
672 -20 0 1462 90 80 0
673 20 151 214 90 0 266
674 20 232 289 90 0 783
675 -20 0 1478 90 739 0
676 -20 0 1476 90 398 0
677 20 229 275 90 0 187
678 -20 992 1043 90 138 0
679 10 580 622 90 0 326
680 -10 753 845 90 156 0
681 -20 748 825 90 226 0
682 10 272 357 90 0 649
683 10 0 1360 90 0 713
684 10 954 1015 90 0 647
685 -10 750 820 90 785 0
686 -10 719 773 90 705 0
687 -20 0 1479 90 524 0
688 -20 0 1395 90 250 0
689 -10 0 1439 90 766 0
690 -20 0 1408 90 800 0
691 -10 247 318 90 751 0
692 -30 225 285 90 7 0
693 10 0 1431 90 0 606
694 40 672 745 90 0 549
695 10 544 598 90 0 535
696 10 96 155 90 0 174
697 10 420 468 90 0 242
698 20 1105 1168 90 0 106
699 30 226 295 90 0 466
700 10 1107 1160 0 0 845
701 10 344 408 90 0 25
702 -20 1008 1047 90 308 0
703 -20 452 525 90 801 0
704 -10 517 570 90 342 0
705 10 526 585 90 0 686
706 20 637 706 90 0 667
707 10 66 133 90 0 654
708 10 900 954 90 0 590
709 30 843 898 90 0 19
710 -20 714 756 90 371 0
711 20 0 1373 90 0 161
712 -20 679 724 90 472 0
713 -10 842 892 90 683 0
714 20 30 98 90 0 170
715 10 127 193 90 0 771
716 20 761 833 90 0 576
717 20 0 1521 90 0 588
718 -20 1078 1146 90 87 0
719 30 303 360 90 0 508
720 -20 905 939 90 622 0
721 30 488 556 90 0 11
722 -10 1042 1110 90 2 0
723 40 152 190 90 0 92
724 20 136 200 90 0 443
725 20 1022 1096 90 0 574
726 -10 436 480 90 493 0
727 10 259 318 90 0 247
728 20 380 442 90 0 759
729 -10 982 1054 90 83 0
730 40 470 528 90 0 96
731 20 0 1379 90 0 555
732 10 802 866 90 0 98
733 10 135 185 90 0 148
734 -20 545 612 90 196 0
735 -10 995 1049 90 417 0
736 -20 824 891 90 84 0
737 20 211 276 90 0 319
738 20 241 288 90 0 358
739 20 170 225 90 0 675
740 20 0 1373 90 0 349
741 20 170 251 0 0 843
742 30 288 347 90 0 82
743 -30 942 1001 90 35 0
744 10 189 252 90 0 501
745 20 245 306 90 0 793
746 -10 766 824 90 179 0
747 -10 663 726 90 521 0
748 -10 0 1368 90 663 0
749 20 414 482 0 0 823
750 10 568 610 90 0 579
751 10 163 219 90 0 691
752 -10 0 1383 90 764 0
753 20 503 556 90 0 479
754 -10 498 572 90 659 0
755 -10 0 1458 90 30 0
756 -30 757 821 90 44 0
757 -20 1266 1315 90 359 0
758 20 238 306 90 0 249
759 -20 0 1359 90 728 0
760 20 352 399 90 0 268
761 -20 1103 1165 90 402 0
762 30 0 1397 90 0 661
763 10 240 299 90 0 105
764 10 0 1461 90 0 752
765 10 273 334 90 0 117
766 10 0 1437 90 0 689
767 -10 1020 1065 90 558 0
768 20 0 1409 90 0 206
769 -20 0 1470 90 145 0
770 -20 517 582 90 454 0
771 -10 0 1453 90 715 0
772 20 0 1531 90 0 335
773 -30 0 1471 90 380 0
774 20 309 379 90 0 235
775 -20 987 1051 90 64 0
776 40 488 543 90 0 67
777 30 178 250 90 0 13
778 10 221 285 90 0 316
779 -10 893 956 90 223 0
780 20 98 153 90 0 516
781 20 829 903 0 0 844
782 -20 858 919 90 664 0
783 -20 575 643 90 674 0
784 30 638 688 90 0 168
785 10 662 723 90 0 685
786 10 516 565 90 0 155
787 20 0 1489 90 0 526
788 30 649 701 90 0 634
789 10 0 1474 90 0 630
790 20 0 1391 90 0 289
791 20 656 698 90 0 416
792 10 605 664 90 0 603
793 -20 0 1413 90 745 0
794 -10 0 1461 90 354 0
795 20 265 327 90 0 637
796 -10 904 949 90 33 0
797 10 0 1411 90 0 230
798 20 201 289 90 0 76
799 -40 599 641 90 617 0
800 20 805 864 90 0 690
801 20 0 1466 90 0 703
802 -30 770 816 90 570 0
803 -20 209 268 90 309 0
804 -10 536 585 90 193 0
805 -20 683 773 90 38 0
806 -10 986 1037 90 27 0
807 -10 1082 1152 90 195 0
808 -20 0 1482 90 252 0
809 -20 430 485 90 94 0
810 -20 0 1501 90 163 0
811 -20 105 163 90 192 0
812 -20 185 232 90 442 0
813 -30 469 527 90 598 0
814 -20 129 195 90 645 0
815 -20 446 501 90 107 0
816 -20 0 1462 90 408 0
817 -10 937 987 90 670 0
818 -20 0 1549 90 244 0
819 -20 385 456 90 315 0
820 -10 0 1514 90 566 0
821 -30 150 205 90 502 0
822 -10 0 1440 90 173 0
823 -20 414 482 90 749 0
824 -10 0 1472 90 305 0
825 -30 619 682 90 485 0
826 -10 0 1469 90 233 0
827 -10 0 1419 90 261 0
828 -10 1077 1145 90 415 0
829 -20 1020 1058 90 240 0
830 -10 0 1453 90 505 0
831 -10 0 1350 90 171 0
832 -20 0 1379 90 172 0
833 -40 364 425 90 260 0
834 -10 379 434 90 638 0
835 -20 623 704 90 143 0
836 -20 1303 1356 90 541 0
837 -30 738 797 90 527 0
838 -20 746 811 90 182 0
839 -20 0 1369 90 9 0
840 -30 966 1055 90 77 0
841 -20 0 1408 90 531 0
842 -20 906 963 90 327 0
843 -20 170 251 90 741 0
844 -20 829 903 90 781 0
845 -10 1107 1160 90 700 0
846 -20 0 1505 90 460 0
847 -10 0 1471 90 624 0
DEPOT_SECTION
1
-1
EOF
