NAME: lc1_8_1
TYPE: PDPTW
COMMENT: Li & Lim PDPTW benchmark converted from SINTEF format
DIMENSION: 841
VEHICLES: 200
CAPACITY: 200
EDGE_WEIGHT_TYPE: EUC_2D
NODE_COORD_SECTION
1 200 200
2 385 56
3 201 297
4 57 353
5 201 386
6 359 23
7 210 268
8 219 148
9 306 390
10 32 251
11 130 70
12 103 172
13 319 217
14 99 241
15 368 102
16 307 310
17 158 366
18 286 9
19 267 161
20 304 141
21 143 261
22 183 303
23 218 284
24 318 335
25 53 330
26 233 208
27 113 179
28 109 170
29 276 16
30 128 93
31 221 379
32 185 386
33 14 210
34 180 375
35 164 69
36 53 354
37 275 8
38 142 260
39 183 294
40 373 253
41 15 100
42 51 288
43 131 130
44 184 343
45 56 351
46 208 384
47 204 87
48 61 333
49 313 194
50 271 154
51 314 399
52 14 100
53 273 160
54 359 38
55 173 381
56 153 368
57 270 151
58 29 355
59 310 395
60 312 200
61 107 247
62 126 91
63 229 229
64 196 293
65 82 247
66 42 384
67 83 357
68 280 282
69 270 106
70 369 106
71 393 272
72 93 62
73 275 15
74 372 104
75 134 98
76 339 41
77 303 61
78 97 10
79 211 274
80 159 207
81 111 184
82 155 206
83 95 47
84 18 100
85 21 96
86 126 126
87 102 169
88 35 293
89 240 246
90 255 239
91 179 383
92 147 263
93 367 104
94 277 154
95 179 336
96 157 205
97 231 243
98 92 50
99 375 247
100 152 240
101 187 341
102 234 214
103 364 27
104 52 297
105 103 168
106 23 98
107 153 107
108 14 201
109 386 57
110 244 109
111 393 307
112 96 235
113 49 353
114 28 356
115 85 155
116 248 243
117 94 13
118 134 279
119 158 64
120 346 179
121 20 127
122 46 378
123 337 47
124 250 241
125 200 89
126 289 11
127 393 301
128 182 379
129 301 57
130 111 170
131 249 239
132 294 311
133 352 162
134 363 270
135 106 173
136 72 257
137 311 334
138 305 336
139 22 125
140 293 310
141 40 54
142 234 212
143 91 27
144 351 153
145 304 301
146 291 301
147 92 162
148 135 167
149 300 132
150 93 23
151 236 210
152 41 56
153 114 250
154 161 233
155 344 283
156 346 385
157 129 278
158 238 101
159 127 87
160 185 299
161 37 56
162 55 357
163 272 154
164 158 283
165 298 137
166 266 116
167 306 329
168 302 203
169 115 257
170 329 241
171 362 28
172 53 347
173 345 178
174 244 106
175 149 234
176 84 359
177 243 244
178 122 281
179 68 263
180 84 363
181 68 254
182 32 357
183 314 390
184 393 312
185 82 365
186 276 157
187 179 134
188 106 177
189 140 264
190 172 383
191 347 45
192 305 198
193 100 175
194 168 178
195 177 379
196 280 290
197 165 63
198 308 393
199 243 106
200 210 141
201 366 251
202 131 131
203 129 134
204 369 19
205 153 280
206 91 70
207 328 239
208 131 127
209 230 241
210 20 204
211 116 181
212 371 244
213 182 300
214 49 291
215 76 206
216 37 286
217 349 275
218 21 104
219 17 96
220 126 284
221 154 288
222 129 85
223 199 290
224 198 295
225 237 109
226 385 55
227 101 239
228 54 348
229 250 236
230 65 298
231 57 291
232 230 225
233 200 83
234 328 243
235 188 133
236 88 150
237 113 183
238 209 85
239 174 375
240 281 16
241 87 155
242 85 67
243 125 95
244 235 212
245 153 281
246 347 385
247 156 111
248 302 60
249 75 368
250 207 381
251 38 49
252 110 254
253 102 252
254 220 288
255 295 19
256 344 176
257 188 338
258 167 174
259 318 219
260 281 291
261 96 69
262 314 396
263 97 242
264 27 251
265 166 170
266 157 283
267 236 204
268 177 300
269 75 206
270 151 111
271 74 253
272 350 182
273 360 46
274 369 107
275 109 186
276 286 308
277 222 284
278 93 149
279 152 237
280 152 109
281 357 160
282 395 310
283 179 338
284 243 104
285 40 53
286 70 256
287 396 59
288 103 171
289 79 154
290 370 104
291 110 188
292 73 213
293 85 44
294 361 39
295 344 49
296 48 326
297 344 280
298 54 285
299 233 214
300 197 293
301 21 201
302 78 246
303 31 353
304 52 295
305 277 285
306 393 306
307 268 114
308 219 377
309 99 16
310 51 354
311 353 276
312 217 286
313 359 178
314 78 251
315 62 258
316 237 247
317 310 196
318 24 96
319 128 68
320 383 273
321 362 272
322 245 106
323 39 285
324 327 242
325 127 279
326 162 69
327 237 108
328 129 288
329 306 303
330 122 183
331 348 179
332 127 286
333 382 266
334 222 383
335 209 150
336 308 296
337 161 182
338 340 388
339 253 243
340 181 134
341 342 384
342 301 58
343 90 53
344 131 132
345 60 328
346 281 155
347 369 100
348 358 23
349 53 353
350 26 247
351 234 243
352 76 251
353 172 178
354 74 201
355 174 387
356 161 63
357 317 335
358 140 260
359 52 292
360 290 311
361 89 154
362 130 279
363 273 12
364 147 283
365 135 134
366 49 352
367 195 91
368 105 250
369 159 367
370 304 297
371 197 292
372 300 144
373 158 239
374 69 245
375 195 294
376 356 274
377 133 137
378 91 150
379 46 292
380 203 88
381 55 291
382 299 58
383 158 364
384 86 47
385 72 210
386 132 279
387 128 94
388 39 56
389 39 54
390 203 388
391 92 26
392 321 217
393 111 165
394 232 232
395 155 202
396 201 387
397 303 59
398 131 283
399 131 95
400 73 250
401 150 236
402 278 7
403 33 247
404 234 203
405 22 96
406 180 387
407 287 307
408 129 98
409 127 90
410 39 48
411 316 336
412 128 95
413 370 98
414 90 26
415 204 381
416 363 24
417 277 163
418 315 341
419 222 283
420 109 167
421 124 69
422 41 297
423 302 136
424 108 186
425 321 209
426 92 155
427 108 250
428 100 243
429 113 184
430 211 147
431 41 52
432 25 118
433 94 31
434 87 365
435 300 62
436 34 385
437 83 248
438 186 304
439 317 331
440 348 176
441 211 154
442 298 138
443 182 378
444 100 6
445 279 12
446 308 396
447 275 287
448 363 267
449 104 171
450 391 271
451 320 216
452 389 271
453 349 272
454 28 246
455 92 46
456 24 93
457 307 59
458 293 15
459 300 299
460 272 161
461 24 121
462 152 263
463 156 367
464 48 361
465 280 283
466 31 357
467 275 12
468 264 112
469 58 346
470 21 204
471 295 307
472 72 253
473 111 179
474 336 387
475 58 294
476 84 360
477 278 159
478 98 28
479 346 155
480 295 16
481 337 388
482 182 338
483 308 389
484 392 307
485 34 289
486 342 385
487 43 386
488 227 231
489 302 392
490 221 281
491 60 293
492 177 137
493 157 281
494 90 54
495 232 234
496 189 306
497 229 237
498 126 70
499 230 290
500 99 7
501 171 179
502 346 163
503 313 334
504 382 54
505 329 236
506 335 47
507 17 125
508 305 306
509 356 41
510 89 51
511 47 328
512 117 187
513 391 54
514 299 141
515 336 42
516 109 252
517 324 216
518 40 380
519 86 154
520 225 288
521 294 136
522 154 284
523 361 269
524 181 339
525 257 239
526 119 179
527 346 48
528 238 250
529 95 64
530 389 307
531 22 205
532 89 48
533 217 289
534 280 288
535 389 306
536 97 248
537 55 324
538 56 289
539 187 338
540 366 39
541 339 384
542 40 56
543 46 380
544 351 177
545 393 297
546 351 176
547 249 242
548 63 262
549 346 53
550 297 135
551 12 117
552 279 4
553 291 308
554 157 102
555 15 116
556 364 43
557 242 113
558 82 360
559 133 68
560 274 14
561 34 242
562 331 251
563 344 391
564 301 66
565 309 397
566 213 271
567 397 313
568 348 280
569 150 284
570 172 180
571 132 159
572 376 254
573 242 105
574 383 53
575 276 116
576 322 242
577 134 63
578 158 206
579 237 213
580 52 334
581 101 10
582 52 331
583 17 209
584 102 67
585 321 339
586 167 180
587 29 250
588 254 240
589 371 253
590 203 384
591 350 271
592 114 178
593 186 306
594 137 64
595 393 305
596 215 143
597 256 231
598 267 112
599 33 293
600 94 70
601 166 67
602 164 66
603 183 332
604 73 203
605 232 230
606 345 158
607 360 23
608 142 262
609 353 164
610 129 67
611 308 204
612 82 65
613 210 144
614 341 394
615 26 250
616 148 112
617 177 138
618 313 340
619 240 210
620 75 208
621 293 306
622 372 256
623 324 217
624 282 282
625 374 104
626 376 251
627 156 207
628 183 375
629 364 267
630 129 293
631 220 296
632 75 367
633 196 295
634 97 6
635 93 51
636 95 243
637 206 81
638 357 39
639 358 266
640 16 120
641 374 253
642 99 67
643 99 28
644 289 306
645 210 271
646 21 125
647 359 30
648 327 241
649 361 44
650 211 266
651 29 59
652 132 170
653 310 143
654 139 161
655 97 29
656 35 291
657 227 240
658 175 299
659 227 229
660 303 58
661 203 387
662 53 326
663 96 14
664 66 254
665 214 378
666 41 382
667 96 237
668 388 267
669 263 110
670 79 209
671 168 62
672 76 207
673 157 282
674 345 382
675 308 196
676 130 286
677 176 132
678 313 335
679 164 62
680 338 391
681 390 52
682 355 39
683 309 399
684 363 30
685 162 61
686 129 132
687 179 305
688 207 391
689 305 304
690 22 210
691 114 254
692 208 274
693 349 157
694 364 25
695 391 269
696 244 114
697 95 63
698 23 97
699 32 352
700 86 357
701 51 326
702 220 283
703 87 153
704 299 52
705 129 124
706 93 237
707 142 168
708 204 385
709 301 139
710 197 300
711 44 54
712 70 264
713 311 395
714 229 209
715 84 252
716 323 243
717 251 241
718 103 167
719 308 301
720 367 255
721 131 67
722 386 60
723 151 264
724 186 336
725 359 49
726 154 282
727 150 108
728 28 353
729 93 48
730 156 206
731 11 115
732 93 47
733 138 168
734 280 287
735 268 160
736 20 91
737 134 62
738 147 264
739 307 196
740 49 351
741 160 366
742 154 206
743 156 63
744 168 177
745 220 381
746 68 261
747 389 54
748 96 8
749 126 161
750 231 219
751 114 252
752 89 29
753 355 156
754 236 243
755 127 94
756 176 342
757 62 301
758 41 378
759 34 355
760 183 301
761 277 19
762 211 389
763 115 185
764 133 94
765 98 13
766 306 306
767 85 358
768 93 59
769 282 283
770 25 256
771 76 250
772 212 146
773 202 85
774 178 133
775 204 292
776 39 384
777 321 212
778 239 254
779 206 296
780 116 252
781 33 56
782 67 258
783 347 395
784 310 200
785 163 63
786 348 279
787 106 174
788 95 8
789 129 287
790 19 127
791 286 17
792 158 365
793 223 372
794 75 203
795 207 87
796 19 206
797 49 289
798 335 50
799 181 132
800 18 208
801 89 152
802 342 385
803 397 313
804 58 346
805 100 6
806 346 48
807 279 12
808 301 66
809 85 358
810 89 29
811 35 291
812 204 385
813 372 256
814 26 250
815 85 67
816 238 101
817 353 276
818 361 269
819 346 163
820 344 176
821 70 256
822 176 342
823 328 243
824 128 94
825 299 141
826 202 85
827 266 116
828 97 242
829 312 200
830 151 111
831 29 59
832 111 170
833 199 290
834 157 281
835 230 290
836 281 155
837 152 263
838 126 161
839 231 243
840 232 232
841 161 182
PICKUP_AND_DELIVERY_SECTION
1 0 0 1676 0 0 0
2 -40 473 544 90 504 0
3 -10 805 855 90 710 0
4 10 364 418 90 0 36
5 -20 806 862 90 396 0
6 30 298 358 90 0 204
7 30 68 102 90 0 79
8 10 55 110 90 0 441
9 20 279 344 90 0 683
10 20 804 857 90 0 403
11 -10 956 1015 90 319 0
12 10 631 679 90 0 288
13 -20 648 704 90 451 0
14 20 173 225 90 0 667
15 -20 250 319 90 93 0
16 -30 587 635 90 719 0
17 -10 521 566 90 463 0
18 -20 551 606 90 480 0
19 -20 1079 1146 90 274 0
20 10 757 798 90 0 372
21 30 605 669 90 0 38
22 -10 442 493 90 213 0
23 20 905 965 90 0 702
24 40 708 767 90 0 678
25 30 624 690 90 0 345
26 30 93 155 90 0 299
27 -10 986 1037 90 473 0
28 20 151 220 90 0 449
29 10 199 241 90 0 73
30 -10 925 1000 90 764 0
31 30 430 494 90 0 775
32 10 602 689 90 0 55
33 10 623 677 90 0 800
34 10 176 227 90 0 628
35 30 135 188 90 0 602
36 -10 1020 1079 90 4 0
37 -20 625 696 90 467 0
38 -30 683 773 90 21 0
39 20 95 169 90 0 160
40 -20 618 666 90 626 0
41 10 356 426 90 0 85
42 10 236 291 90 0 475
43 40 336 403 90 0 208
44 -30 478 535 90 101 0
45 10 273 325 90 0 162
46 -20 236 312 90 250 0
47 -30 175 231 90 380 0
48 -30 913 969 90 580 0
49 -20 444 504 90 192 0
50 -20 145 213 90 57 0
51 -10 930 993 90 713 0
52 30 446 518 90 0 219
53 -10 813 860 90 417 0
54 10 478 520 90 0 556
55 -10 993 1053 90 32 0
56 -40 331 385 90 369 0
57 20 85 158 90 0 50
58 -20 490 517 90 303 0
59 10 747 804 90 0 262
60 30 533 608 0 0 829
61 20 818 879 90 0 427
62 -20 663 708 90 159 0
63 -10 667 724 90 488 0
64 -30 333 396 90 300 0
65 20 280 345 90 0 400
66 10 770 834 90 0 122
67 -40 923 978 90 476 0
68 -20 918 978 90 465 0
69 30 182 247 90 0 598
70 -30 810 875 90 347 0
71 10 447 508 90 0 668
72 -20 511 562 90 529 0
73 -10 259 321 90 29 0
74 20 629 688 90 0 290
75 10 121 175 90 0 222
76 -20 542 608 90 798 0
77 -20 966 1055 90 397 0
78 -30 550 614 90 117 0
79 -30 315 381 90 7 0
80 20 41 92 90 0 730
81 -10 616 668 90 275 0
82 -30 376 441 90 742 0
83 -40 900 952 90 343 0
84 20 265 331 90 0 736
85 -10 635 707 90 41 0
86 -10 624 674 90 202 0
87 -10 898 960 90 135 0
88 20 349 399 90 0 153
89 20 122 188 90 0 754
90 -20 591 646 90 116 0
91 -20 524 572 90 128 0
92 -20 324 387 90 738 0
93 20 192 272 90 0 15
94 20 430 485 90 0 735
95 -10 952 1001 90 257 0
96 20 557 625 90 0 395
97 10 685 755 0 0 839
98 -10 1081 1140 90 732 0
99 10 243 300 90 0 641
100 -20 308 370 90 401 0
101 30 383 444 90 0 44
102 -10 660 710 90 142 0
103 20 766 834 90 0 647
104 20 503 585 90 0 381
105 -10 984 1058 90 193 0
106 -30 1201 1254 90 218 0
107 -10 446 501 90 727 0
108 10 530 571 90 0 583
109 10 560 639 90 0 722
110 20 259 308 90 0 573
111 -10 649 706 90 127 0
112 -10 834 879 90 227 0
113 10 653 710 90 0 172
114 30 570 619 90 0 182
115 -20 651 714 90 278 0
116 20 64 132 90 0 90
117 30 457 519 90 0 78
118 30 102 158 90 0 157
119 -10 1030 1099 90 356 0
120 -10 777 839 90 544 0
121 -10 341 411 90 646 0
122 -10 956 1025 90 66 0
123 20 352 421 90 0 515
124 30 212 283 90 0 525
125 -20 736 799 90 637 0
126 -30 459 511 90 255 0
127 10 272 348 90 0 111
128 20 413 494 90 0 91
129 -10 599 678 90 248 0
130 10 93 146 0 0 832
131 -10 776 834 90 588 0
132 10 386 449 90 0 140
133 10 212 281 90 0 753
134 10 333 390 90 0 629
135 10 247 314 90 0 87
136 -20 1043 1105 90 181 0
137 10 1079 1141 90 0 167
138 20 171 246 90 0 357
139 10 193 258 90 0 790
140 -10 482 536 90 132 0
141 10 285 331 90 0 410
142 10 374 428 90 0 102
143 -20 623 704 90 655 0
144 -20 598 651 90 281 0
145 -30 855 926 90 370 0
146 20 135 219 90 0 471
147 -10 1110 1185 90 289 0
148 -10 228 278 90 733 0
149 -20 459 513 90 442 0
150 10 445 513 90 0 391
151 30 181 255 90 0 244
152 -10 1308 1359 90 388 0
153 -20 1000 1074 90 88 0
154 -20 499 564 90 373 0
155 20 704 749 90 0 297
156 10 301 350 90 0 541
157 -30 1010 1071 90 118 0
158 20 809 865 0 0 816
159 20 473 528 90 0 62
160 -20 171 210 90 39 0
161 -20 1023 1096 90 711 0
162 -10 462 509 90 45 0
163 20 234 305 90 0 477
164 10 238 311 90 0 726
165 10 269 330 90 0 709
166 10 650 717 0 0 827
167 -10 1172 1241 90 137 0
168 -20 821 885 90 739 0
169 10 339 412 90 0 368
170 20 300 363 90 0 207
171 10 864 920 90 0 684
172 -10 1294 1360 90 113 0
173 -10 872 926 90 440 0
174 40 433 501 90 0 284
175 10 61 107 90 0 279
176 20 834 881 90 0 700
177 30 61 126 90 0 316
178 -20 824 882 90 398 0
179 -20 585 634 90 548 0
180 20 265 323 90 0 558
181 20 200 266 90 0 136
182 -30 746 811 90 114 0
183 10 1122 1179 90 0 483
184 -20 928 989 90 545 0
185 -20 358 414 90 434 0
186 20 335 395 90 0 460
187 30 404 467 90 0 235
188 -20 440 489 90 787 0
189 20 421 485 90 0 358
190 -20 902 960 90 355 0
191 -30 639 710 90 506 0
192 20 105 163 90 0 49
193 10 536 585 90 0 105
194 20 103 156 90 0 258
195 10 1082 1152 90 0 239
196 20 271 335 90 0 769
197 10 478 542 90 0 685
198 -20 378 433 90 489 0
199 -20 529 588 90 322 0
200 20 215 280 90 0 335
201 -20 988 1044 90 572 0
202 10 244 312 90 0 86
203 30 810 867 90 0 377
204 -30 570 651 90 6 0
205 -30 996 1045 90 569 0
206 20 896 948 90 0 261
207 -20 489 550 90 170 0
208 -40 438 486 90 43 0
209 -20 786 837 90 351 0
210 20 328 393 90 0 796
211 20 1168 1224 90 0 526
212 20 176 244 90 0 589
213 10 260 309 90 0 22
214 -20 416 479 90 298 0
215 10 749 807 90 0 670
216 -30 710 780 90 485 0
217 10 408 486 90 0 786
218 30 203 254 90 0 106
219 -30 546 608 90 52 0
220 -10 734 783 90 676 0
221 20 614 674 90 0 364
222 -10 378 438 90 75 0
223 10 90 142 0 0 833
224 -20 598 681 90 371 0
225 -10 990 1060 90 458 0
226 20 386 449 90 0 681
227 10 106 166 90 0 112
228 -10 1206 1266 90 366 0
229 -20 869 928 90 547 0
230 -30 1355 1415 90 759 0
231 20 979 1034 90 0 491
232 -10 752 828 90 495 0
233 10 552 609 90 0 367
234 20 202 277 0 0 823
235 -30 688 746 90 187 0
236 10 274 333 90 0 519
237 -10 785 865 90 763 0
238 -20 363 415 90 795 0
239 -10 1168 1257 90 195 0
240 20 1020 1058 90 0 761
241 -20 830 900 90 703 0
242 10 790 862 0 0 815
243 -20 752 806 90 409 0
244 -30 279 341 90 151 0
245 -20 896 962 90 266 0
246 20 389 444 90 0 563
247 -20 632 704 90 616 0
248 10 226 300 90 0 129
249 10 453 516 90 0 632
250 20 181 232 90 0 46
251 20 741 793 90 0 781
252 20 441 502 90 0 516
253 -10 634 688 90 751 0
254 -20 624 689 90 490 0
255 30 204 260 90 0 126
256 10 145 207 0 0 820
257 10 295 345 90 0 95
258 -20 285 343 90 194 0
259 20 740 797 90 0 404
260 40 364 425 90 0 624
261 -20 1075 1141 90 206 0
262 -10 1024 1085 90 59 0
263 20 552 598 0 0 828
264 -20 620 670 90 454 0
265 -20 377 438 90 353 0
266 20 324 406 90 0 245
267 -20 937 1001 90 392 0
268 -20 911 968 90 760 0
269 -20 373 439 90 385 0
270 20 166 224 0 0 830
271 -10 649 719 90 314 0
272 20 599 645 90 0 331
273 -10 943 990 90 638 0
274 20 912 956 90 0 19
275 10 518 580 90 0 81
276 -10 942 1001 90 407 0
277 10 237 296 90 0 312
278 20 118 175 90 0 115
279 -10 221 271 90 175 0
280 30 346 415 90 0 554
281 20 407 462 90 0 144
282 10 737 806 90 0 535
283 -20 845 923 90 482 0
284 -40 715 767 90 174 0
285 -20 460 521 90 389 0
286 10 952 1012 0 0 821
287 -30 941 1011 90 747 0
288 -10 816 858 90 12 0
289 10 550 623 90 0 147
290 -20 717 785 90 74 0
291 -20 338 392 90 330 0
292 10 127 177 90 0 620
293 -20 612 679 90 494 0
294 30 567 616 90 0 725
295 20 827 892 90 0 549
296 20 436 501 90 0 582
297 -20 786 853 90 155 0
298 20 168 223 90 0 214
299 -30 458 530 90 26 0
300 30 249 298 90 0 64
301 20 421 486 90 0 690
302 -30 948 998 90 374 0
303 20 284 351 90 0 58
304 10 605 668 90 0 538
305 10 114 181 90 0 734
306 -20 464 526 90 595 0
307 -20 570 611 90 468 0
308 -20 520 591 90 745 0
309 20 209 268 90 0 788
310 -20 925 990 90 740 0
311 10 329 377 0 0 817
312 -10 812 875 90 277 0
313 -30 489 555 90 546 0
314 10 383 433 90 0 271
315 -20 385 456 90 664 0
316 -30 417 464 90 177 0
317 20 353 408 90 0 784
318 -10 1017 1073 90 456 0
319 10 673 737 90 0 11
320 10 197 262 90 0 695
321 30 239 299 90 0 639
322 20 351 402 90 0 199
323 -10 806 869 90 599 0
324 -10 679 726 90 505 0
325 10 920 977 90 0 362
326 -10 1124 1198 90 785 0
327 -20 906 963 90 791 0
328 -10 451 497 90 789 0
329 10 389 459 90 0 766
330 20 79 131 90 0 291
331 -20 682 749 90 272 0
332 -20 635 697 90 630 0
333 30 721 800 90 0 720
334 30 336 401 90 0 779
335 -20 593 642 90 200 0
336 30 205 268 90 0 689
337 20 479 542 0 0 841
338 10 1051 1104 90 0 341
339 -20 399 463 90 717 0
340 10 501 554 90 0 799
341 -10 1228 1296 90 338 0
342 10 324 386 90 0 382
343 40 242 305 90 0 83
344 -10 149 226 90 365 0
345 -30 1006 1065 90 25 0
346 10 519 585 0 0 836
347 30 357 398 90 0 70
348 20 237 304 90 0 607
349 -10 1117 1163 90 464 0
350 10 340 381 90 0 770
351 20 599 654 90 0 209
352 -10 562 621 90 715 0
353 20 35 103 90 0 265
354 -20 555 630 90 604 0
355 20 808 864 90 0 190
356 10 847 907 90 0 119
357 -20 620 674 90 138 0
358 -20 790 851 90 189 0
359 -10 698 761 90 797 0
360 30 566 638 90 0 644
361 -20 930 985 90 801 0
362 -10 1100 1164 90 325 0
363 -20 441 508 90 560 0
364 -20 808 859 90 221 0
365 10 92 149 90 0 344
366 10 750 795 90 0 228
367 -10 841 885 90 233 0
368 -10 720 789 90 169 0
369 40 226 299 90 0 56
370 30 142 203 90 0 145
371 20 151 214 90 0 224
372 -10 1015 1098 90 20 0
373 20 405 465 90 0 154
374 30 847 900 90 0 302
375 10 416 497 90 0 633
376 30 172 223 90 0 448
377 -30 903 964 90 203 0
378 10 173 249 90 0 426
379 30 179 223 90 0 422
380 30 112 174 90 0 47
381 -20 790 855 90 104 0
382 -10 418 477 90 342 0
383 -10 704 748 90 792 0
384 -10 528 577 90 510 0
385 20 197 245 90 0 269
386 -20 1197 1252 90 666 0
387 10 1029 1078 0 0 824
388 10 1121 1182 90 0 152
389 20 372 426 90 0 285
390 -30 530 589 90 762 0
391 -10 544 601 90 150 0
392 20 460 527 90 0 267
393 -20 1278 1324 90 461 0
394 20 479 541 0 0 840
395 -20 658 710 90 96 0
396 20 721 765 90 0 5
397 20 789 855 90 0 77
398 20 167 229 90 0 178
399 20 187 244 90 0 755
400 -20 752 804 90 65 0
401 20 130 177 90 0 100
402 -20 818 880 90 552 0
403 -20 895 955 90 10 0
404 -20 1033 1091 90 259 0
405 10 733 791 90 0 698
406 -10 712 768 90 443 0
407 10 851 910 90 0 276
408 -10 1218 1257 90 412 0
409 20 561 627 90 0 243
410 -10 647 705 90 141 0
411 -20 528 583 90 418 0
412 10 1117 1172 90 0 408
413 20 438 500 90 0 625
414 30 730 780 90 0 433
415 -10 1077 1145 90 688 0
416 20 489 536 90 0 694
417 10 705 777 90 0 53
418 20 335 391 90 0 411
419 20 146 205 90 0 533
420 -20 1177 1239 90 718 0
421 -20 770 829 90 737 0
422 -30 243 310 90 379 0
423 -30 551 609 90 550 0
424 10 430 485 90 0 592
425 30 121 186 90 0 777
426 -10 1014 1087 90 378 0
427 -20 900 982 90 61 0
428 20 261 321 90 0 636
429 -30 705 762 90 512 0
430 -10 494 554 90 613 0
431 30 551 612 90 0 542
432 -20 1009 1064 90 555 0
433 -30 917 971 90 414 0
434 20 199 258 90 0 185
435 20 170 236 90 0 704
436 -30 577 646 90 518 0
437 30 195 248 90 0 771
438 10 518 603 90 0 687
439 10 806 858 90 0 503
440 10 207 273 90 0 173
441 -10 676 749 90 8 0
442 20 185 232 90 0 149
443 10 334 391 90 0 406
444 20 1014 1069 0 0 805
445 20 912 977 0 0 807
446 10 467 530 90 0 565
447 10 175 241 90 0 534
448 -30 521 570 90 376 0
449 -20 717 776 90 28 0
450 -10 349 422 90 452 0
451 20 562 608 90 0 13
452 10 268 319 90 0 450
453 20 165 213 90 0 591
454 20 241 295 90 0 264
455 -20 731 755 90 532 0
456 10 913 990 90 0 318
457 -10 889 944 90 660 0
458 10 353 427 90 0 225
459 -20 952 1019 90 508 0
460 -20 899 956 90 186 0
461 20 1096 1164 90 0 393
462 20 79 139 0 0 837
463 10 428 474 90 0 17
464 10 552 616 90 0 349
465 20 827 886 90 0 68
466 -20 651 724 90 728 0
467 20 550 583 90 0 37
468 20 384 426 90 0 307
469 20 203 263 0 0 804
470 -20 236 302 90 531 0
471 -20 290 358 90 146 0
472 20 138 188 90 0 712
473 10 889 950 90 0 27
474 -20 954 1013 90 614 0
475 -10 1081 1118 90 42 0
476 40 733 800 90 0 67
477 -20 610 683 90 163 0
478 -20 259 321 90 643 0
479 -20 787 837 90 609 0
480 20 272 323 90 0 18
481 -40 872 912 90 680 0
482 20 568 636 90 0 283
483 -10 1217 1277 90 183 0
484 20 551 621 90 0 530
485 30 619 682 90 0 216
486 10 1140 1203 0 0 802
487 -20 680 740 90 758 0
488 10 103 161 90 0 63
489 20 217 287 90 0 198
490 20 83 150 90 0 254
491 -20 1163 1221 90 231 0
492 30 129 185 90 0 774
493 10 91 155 0 0 834
494 20 182 227 90 0 293
495 10 386 451 90 0 232
496 40 623 685 90 0 593
497 -10 300 349 90 657 0
498 -10 867 917 90 577 0
499 20 430 484 0 0 835
500 -10 913 987 90 765 0
501 -10 667 735 90 586 0
502 30 150 205 0 0 819
503 -10 895 959 90 439 0
504 40 233 294 90 0 2
505 10 394 458 90 0 324
506 30 265 325 90 0 191
507 20 535 585 90 0 731
508 20 679 733 90 0 459
509 20 222 285 90 0 682
510 10 343 389 90 0 384
511 -20 534 588 90 662 0
512 30 145 207 90 0 429
513 -10 843 915 90 574 0
514 10 930 998 0 0 825
515 -20 463 501 90 123 0
516 -20 534 595 90 252 0
517 20 282 337 90 0 623
518 30 302 360 90 0 436
519 -10 736 811 90 236 0
520 20 324 399 90 0 631
521 10 113 163 90 0 653
522 -20 526 574 90 673 0
523 30 617 660 0 0 818
524 20 657 731 90 0 603
525 -30 501 552 90 124 0
526 -20 1259 1321 90 211 0
527 30 738 797 0 0 806
528 -10 320 374 90 778 0
529 20 313 394 90 0 72
530 -20 1026 1085 90 484 0
531 20 178 232 90 0 470
532 20 434 484 90 0 455
533 -20 725 775 90 419 0
534 -10 457 518 90 447 0
535 -10 1117 1176 90 282 0
536 10 354 420 90 0 706
537 10 190 254 90 0 701
538 -10 886 944 90 304 0
539 -20 203 255 90 724 0
540 20 647 725 90 0 649
541 -10 1303 1356 90 156 0
542 -30 1215 1271 90 431 0
543 -40 871 926 90 776 0
544 10 393 455 90 0 120
545 20 216 280 90 0 184
546 30 312 353 90 0 313
547 20 120 192 90 0 229
548 20 475 553 90 0 179
549 -20 923 985 90 295 0
550 30 356 426 90 0 423
551 -30 727 773 90 640 0
552 20 728 783 90 0 402
553 -20 663 728 90 621 0
554 -30 542 596 90 280 0
555 20 906 968 90 0 432
556 -10 754 807 90 54 0
557 -10 151 227 90 696 0
558 -20 649 700 90 180 0
559 -30 409 451 90 594 0
560 20 349 414 90 0 363
561 30 171 224 90 0 587
562 20 140 205 90 0 576
563 -20 486 541 90 246 0
564 10 1083 1128 0 0 808
565 -10 656 712 90 446 0
566 10 413 470 90 0 650
567 20 842 887 0 0 803
568 10 611 653 90 0 597
569 30 701 779 90 0 205
570 -10 770 816 90 744 0
571 -30 511 579 90 652 0
572 20 428 490 90 0 201
573 -20 615 685 90 110 0
574 10 290 359 90 0 513
575 50 113 163 90 0 669
576 -20 859 918 90 562 0
577 10 304 365 90 0 498
578 20 99 167 90 0 627
579 20 748 807 90 0 619
580 30 815 869 90 0 48
581 -10 1114 1157 90 663 0
582 -20 712 785 90 296 0
583 -10 709 776 90 108 0
584 20 165 231 90 0 612
585 -10 430 489 90 618 0
586 10 584 630 90 0 501
587 -30 718 756 90 561 0
588 10 682 738 90 0 131
589 -20 698 769 90 212 0
590 -10 997 1040 90 661 0
591 -20 228 286 90 453 0
592 -10 1068 1136 90 424 0
593 -40 721 774 90 496 0
594 30 149 207 90 0 559
595 20 368 441 90 0 306
596 20 113 191 90 0 772
597 -10 971 1022 90 568 0
598 -30 469 527 90 69 0
599 10 440 491 90 0 323
600 -20 982 1049 90 768 0
601 30 292 351 90 0 679
602 -30 202 256 90 35 0
603 -20 1042 1103 90 524 0
604 20 476 525 90 0 354
605 -10 569 636 90 659 0
606 -10 874 936 90 693 0
607 -20 379 460 90 348 0
608 -40 524 567 90 723 0
609 20 306 371 90 0 479
610 -30 582 645 90 721 0
611 -10 730 784 90 675 0
612 -20 701 763 90 584 0
613 10 306 375 90 0 430
614 20 672 738 90 0 474
615 30 425 483 0 0 814
616 20 102 174 90 0 247
617 40 66 128 90 0 677
618 10 243 299 90 0 585
619 -20 837 908 90 579 0
620 -10 292 337 90 292 0
621 20 208 255 90 0 553
622 20 796 858 0 0 813
623 -20 369 432 90 517 0
624 -40 735 794 90 260 0
625 -20 542 592 90 413 0
626 20 332 400 90 0 40
627 -20 186 265 90 578 0
628 -10 236 302 90 34 0
629 -10 427 481 90 134 0
630 20 547 591 90 0 332
631 -20 527 590 90 520 0
632 -10 545 606 90 249 0
633 -10 519 576 90 375 0
634 -20 822 893 90 748 0
635 -10 1170 1233 90 729 0
636 -20 459 507 90 428 0
637 20 449 519 90 0 125
638 10 379 434 90 0 273
639 -30 700 765 90 321 0
640 30 623 687 90 0 551
641 -10 531 570 90 99 0
642 10 233 283 90 0 697
643 20 199 260 90 0 478
644 -30 766 811 90 360 0
645 20 129 195 90 0 692
646 10 261 307 90 0 121
647 -20 1058 1100 90 103 0
648 20 578 645 90 0 716
649 -20 855 893 90 540 0
650 -10 496 579 90 566 0
651 20 928 993 0 0 831
652 30 316 380 90 0 571
653 -10 651 710 90 521 0
654 -10 617 667 90 707 0
655 20 358 406 90 0 143
656 10 520 596 0 0 811
657 10 213 249 90 0 497
658 -20 1013 1051 90 741 0
659 10 39 103 90 0 605
660 10 701 761 90 0 457
661 10 621 681 90 0 590
662 20 253 315 90 0 511
663 10 368 423 90 0 581
664 20 294 356 90 0 315
665 20 178 240 90 0 793
666 20 390 457 90 0 386
667 -20 736 792 90 14 0
668 -10 639 690 90 71 0
669 -50 281 345 90 575 0
670 -10 937 987 90 215 0
671 20 388 444 90 0 743
672 -10 838 899 90 794 0
673 20 151 214 90 0 522
674 20 232 289 90 0 783
675 10 264 314 90 0 611
676 10 258 325 90 0 220
677 -40 229 275 90 617 0
678 -40 992 1043 90 24 0
679 -30 580 622 90 601 0
680 40 753 845 90 0 481
681 -20 748 825 90 226 0
682 -20 272 357 90 509 0
683 -20 570 614 90 9 0
684 -10 954 1015 90 171 0
685 -10 750 820 90 197 0
686 -10 719 773 90 705 0
687 -10 816 873 90 438 0
688 10 435 495 90 0 415
689 -30 776 820 90 336 0
690 -20 1000 1043 90 301 0
691 -20 247 318 90 780 0
692 -20 225 285 90 645 0
693 10 693 745 90 0 606
694 -20 672 745 90 416 0
695 -10 544 598 90 320 0
696 10 96 155 90 0 557
697 -10 420 468 90 642 0
698 -10 1105 1168 90 405 0
699 30 226 295 90 0 757
700 -20 1107 1160 90 176 0
701 -10 344 408 90 537 0
702 -20 1008 1047 90 23 0
703 20 452 525 90 0 241
704 -20 517 570 90 435 0
705 10 526 585 90 0 686
706 -10 637 706 90 536 0
707 10 66 133 90 0 654
708 10 900 954 0 0 812
709 -10 843 898 90 165 0
710 10 714 756 90 0 3
711 20 213 291 90 0 161
712 -20 679 724 90 472 0
713 10 842 892 90 0 51
714 20 30 98 90 0 750
715 10 127 193 90 0 352
716 -20 761 833 90 648 0
717 20 308 368 90 0 339
718 20 1078 1146 90 0 420
719 30 303 360 90 0 16
720 -30 905 939 90 333 0
721 30 488 556 90 0 610
722 -10 1042 1110 90 109 0
723 40 152 190 90 0 608
724 20 136 200 90 0 539
725 -30 1022 1096 90 294 0
726 -10 436 480 90 164 0
727 10 259 318 90 0 107
728 20 380 442 90 0 466
729 10 982 1054 90 0 635
730 -20 470 528 90 80 0
731 -20 810 875 90 507 0
732 10 802 866 90 0 98
733 10 135 185 90 0 148
734 -10 545 612 90 305 0
735 -20 995 1049 90 94 0
736 -20 824 891 90 84 0
737 20 211 276 90 0 421
738 20 241 288 90 0 92
739 20 170 225 90 0 168
740 20 837 891 90 0 310
741 20 170 251 90 0 658
742 30 288 347 90 0 82
743 -20 942 1001 90 671 0
744 10 189 252 90 0 570
745 20 245 306 90 0 308
746 20 766 824 90 0 782
747 30 663 726 90 0 287
748 20 739 793 90 0 634
749 20 414 482 0 0 838
750 -20 568 610 90 714 0
751 10 163 219 90 0 253
752 30 809 888 0 0 810
753 -10 503 556 90 133 0
754 -20 498 572 90 89 0
755 -20 846 897 90 399 0
756 10 757 821 0 0 822
757 -30 1266 1315 90 699 0
758 20 238 306 90 0 487
759 30 837 906 90 0 230
760 20 352 399 90 0 268
761 -20 1103 1165 90 240 0
762 30 343 397 90 0 390
763 10 240 299 90 0 237
764 10 283 333 90 0 30
765 10 273 334 90 0 500
766 -10 496 538 90 329 0
767 10 1020 1065 0 0 809
768 20 601 658 90 0 600
769 -20 639 707 90 196 0
770 -10 517 582 90 350 0
771 -30 470 532 90 437 0
772 -20 400 465 90 596 0
773 10 640 706 0 0 826
774 -30 309 379 90 492 0
775 -30 987 1051 90 31 0
776 40 488 543 90 0 543
777 -30 178 250 90 425 0
778 10 221 285 90 0 528
779 -30 893 956 90 334 0
780 20 98 153 90 0 691
781 -20 829 903 90 251 0
782 -20 858 919 90 746 0
783 -20 575 643 90 674 0
784 -20 638 688 90 317 0
785 10 662 723 90 0 326
786 -10 516 565 90 217 0
787 20 342 401 90 0 188
788 -20 649 701 90 309 0
789 10 350 415 90 0 328
790 -10 433 502 90 139 0
791 20 656 698 90 0 327
792 10 605 664 90 0 383
793 -20 621 682 90 665 0
794 10 652 717 90 0 672
795 20 265 327 90 0 238
796 -20 904 949 90 210 0
797 10 325 385 90 0 359
798 20 201 289 90 0 76
799 -10 599 641 90 340 0
800 -10 805 864 90 33 0
801 20 372 421 90 0 361
802 -10 1140 1203 90 486 0
803 -20 842 887 90 567 0
804 -20 203 263 90 469 0
805 -20 1014 1069 90 444 0
806 -30 738 797 90 527 0
807 -20 912 977 90 445 0
808 -10 1083 1128 90 564 0
809 -10 1020 1065 90 767 0
810 -30 809 888 90 752 0
811 -10 520 596 90 656 0
812 -10 900 954 90 708 0
813 -20 796 858 90 622 0
814 -30 425 483 90 615 0
815 -10 790 862 90 242 0
816 -20 809 865 90 158 0
817 -10 329 377 90 311 0
818 -30 617 660 90 523 0
819 -30 150 205 90 502 0
820 -10 145 207 90 256 0
821 -10 952 1012 90 286 0
822 -10 757 821 90 756 0
823 -20 202 277 90 234 0
824 -10 1029 1078 90 387 0
825 -10 930 998 90 514 0
826 -10 640 706 90 773 0
827 -10 650 717 90 166 0
828 -20 552 598 90 263 0
829 -30 533 608 90 60 0
830 -20 166 224 90 270 0
831 -20 928 993 90 651 0
832 -10 93 146 90 130 0
833 -10 90 142 90 223 0
834 -10 91 155 90 493 0
835 -20 430 484 90 499 0
836 -10 519 585 90 346 0
837 -20 79 139 90 462 0
838 -20 414 482 90 749 0
839 -10 685 755 90 97 0
840 -20 479 541 90 394 0
841 -20 479 542 90 337 0
DEPOT_SECTION
1
-1
EOF
