NAME: lc1_8_5
TYPE: PDPTW
COMMENT: Li & Lim PDPTW benchmark converted from SINTEF format
DIMENSION: 843
VEHICLES: 200
CAPACITY: 200
EDGE_WEIGHT_TYPE: EUC_2D
NODE_COORD_SECTION
1 200 200
2 385 56
3 201 297
4 57 353
5 201 386
6 359 23
7 210 268
8 219 148
9 306 390
10 32 251
11 130 70
12 103 172
13 319 217
14 99 241
15 368 102
16 307 310
17 158 366
18 286 9
19 267 161
20 304 141
21 143 261
22 183 303
23 218 284
24 318 335
25 53 330
26 233 208
27 113 179
28 109 170
29 276 16
30 128 93
31 221 379
32 185 386
33 14 210
34 180 375
35 164 69
36 53 354
37 275 8
38 142 260
39 183 294
40 373 253
41 15 100
42 51 288
43 131 130
44 184 343
45 56 351
46 208 384
47 204 87
48 61 333
49 313 194
50 271 154
51 314 399
52 14 100
53 273 160
54 359 38
55 173 381
56 153 368
57 270 151
58 29 355
59 310 395
60 312 200
61 107 247
62 126 91
63 229 229
64 196 293
65 82 247
66 42 384
67 83 357
68 280 282
69 270 106
70 369 106
71 393 272
72 93 62
73 275 15
74 372 104
75 134 98
76 339 41
77 303 61
78 97 10
79 211 274
80 159 207
81 111 184
82 155 206
83 95 47
84 18 100
85 21 96
86 126 126
87 102 169
88 35 293
89 240 246
90 255 239
91 179 383
92 147 263
93 367 104
94 277 154
95 179 336
96 157 205
97 231 243
98 92 50
99 375 247
100 152 240
101 187 341
102 234 214
103 364 27
104 52 297
105 103 168
106 23 98
107 153 107
108 14 201
109 386 57
110 244 109
111 393 307
112 96 235
113 49 353
114 28 356
115 85 155
116 248 243
117 94 13
118 134 279
119 158 64
120 346 179
121 20 127
122 46 378
123 337 47
124 250 241
125 200 89
126 289 11
127 393 301
128 182 379
129 301 57
130 111 170
131 249 239
132 294 311
133 352 162
134 363 270
135 106 173
136 72 257
137 311 334
138 305 336
139 22 125
140 293 310
141 40 54
142 234 212
143 91 27
144 351 153
145 304 301
146 291 301
147 92 162
148 135 167
149 300 132
150 93 23
151 236 210
152 41 56
153 114 250
154 161 233
155 344 283
156 346 385
157 129 278
158 238 101
159 127 87
160 185 299
161 37 56
162 55 357
163 272 154
164 158 283
165 298 137
166 266 116
167 306 329
168 302 203
169 115 257
170 329 241
171 362 28
172 53 347
173 345 178
174 244 106
175 149 234
176 84 359
177 243 244
178 122 281
179 68 263
180 84 363
181 68 254
182 32 357
183 314 390
184 393 312
185 82 365
186 276 157
187 179 134
188 106 177
189 140 264
190 172 383
191 347 45
192 305 198
193 100 175
194 168 178
195 177 379
196 280 290
197 165 63
198 308 393
199 243 106
200 210 141
201 366 251
202 131 131
203 129 134
204 369 19
205 153 280
206 91 70
207 328 239
208 131 127
209 230 241
210 20 204
211 116 181
212 371 244
213 182 300
214 49 291
215 76 206
216 37 286
217 349 275
218 21 104
219 17 96
220 126 284
221 154 288
222 129 85
223 199 290
224 198 295
225 237 109
226 385 55
227 101 239
228 54 348
229 250 236
230 65 298
231 57 291
232 230 225
233 200 83
234 328 243
235 188 133
236 88 150
237 113 183
238 209 85
239 174 375
240 281 16
241 87 155
242 85 67
243 125 95
244 235 212
245 153 281
246 347 385
247 156 111
248 302 60
249 75 368
250 207 381
251 38 49
252 110 254
253 102 252
254 220 288
255 295 19
256 344 176
257 188 338
258 167 174
259 318 219
260 281 291
261 96 69
262 314 396
263 97 242
264 27 251
265 166 170
266 157 283
267 236 204
268 177 300
269 75 206
270 151 111
271 74 253
272 350 182
273 360 46
274 369 107
275 109 186
276 286 308
277 222 284
278 93 149
279 152 237
280 152 109
281 357 160
282 395 310
283 179 338
284 243 104
285 40 53
286 70 256
287 396 59
288 103 171
289 79 154
290 370 104
291 110 188
292 73 213
293 85 44
294 361 39
295 344 49
296 48 326
297 344 280
298 54 285
299 233 214
300 197 293
301 21 201
302 78 246
303 31 353
304 52 295
305 277 285
306 393 306
307 268 114
308 219 377
309 99 16
310 51 354
311 353 276
312 217 286
313 359 178
314 78 251
315 62 258
316 237 247
317 310 196
318 24 96
319 128 68
320 383 273
321 362 272
322 245 106
323 39 285
324 327 242
325 127 279
326 162 69
327 237 108
328 129 288
329 306 303
330 122 183
331 348 179
332 127 286
333 382 266
334 222 383
335 209 150
336 308 296
337 161 182
338 340 388
339 253 243
340 181 134
341 342 384
342 301 58
343 90 53
344 131 132
345 60 328
346 281 155
347 369 100
348 358 23
349 53 353
350 26 247
351 234 243
352 76 251
353 172 178
354 74 201
355 174 387
356 161 63
357 317 335
358 140 260
359 52 292
360 290 311
361 89 154
362 130 279
363 273 12
364 147 283
365 135 134
366 49 352
367 195 91
368 105 250
369 159 367
370 304 297
371 197 292
372 300 144
373 158 239
374 69 245
375 195 294
376 356 274
377 133 137
378 91 150
379 46 292
380 203 88
381 55 291
382 299 58
383 158 364
384 86 47
385 72 210
386 132 279
387 128 94
388 39 56
389 39 54
390 203 388
391 92 26
392 321 217
393 111 165
394 232 232
395 155 202
396 201 387
397 303 59
398 131 283
399 131 95
400 73 250
401 150 236
402 278 7
403 33 247
404 234 203
405 22 96
406 180 387
407 287 307
408 129 98
409 127 90
410 39 48
411 316 336
412 128 95
413 370 98
414 90 26
415 204 381
416 363 24
417 277 163
418 315 341
419 222 283
420 109 167
421 124 69
422 41 297
423 302 136
424 108 186
425 321 209
426 92 155
427 108 250
428 100 243
429 113 184
430 211 147
431 41 52
432 25 118
433 94 31
434 87 365
435 300 62
436 34 385
437 83 248
438 186 304
439 317 331
440 348 176
441 211 154
442 298 138
443 182 378
444 100 6
445 279 12
446 308 396
447 275 287
448 363 267
449 104 171
450 391 271
451 320 216
452 389 271
453 349 272
454 28 246
455 92 46
456 24 93
457 307 59
458 293 15
459 300 299
460 272 161
461 24 121
462 152 263
463 156 367
464 48 361
465 280 283
466 31 357
467 275 12
468 264 112
469 58 346
470 21 204
471 295 307
472 72 253
473 111 179
474 336 387
475 58 294
476 84 360
477 278 159
478 98 28
479 346 155
480 295 16
481 337 388
482 182 338
483 308 389
484 392 307
485 34 289
486 342 385
487 43 386
488 227 231
489 302 392
490 221 281
491 60 293
492 177 137
493 157 281
494 90 54
495 232 234
496 189 306
497 229 237
498 126 70
499 230 290
500 99 7
501 171 179
502 346 163
503 313 334
504 382 54
505 329 236
506 335 47
507 17 125
508 305 306
509 356 41
510 89 51
511 47 328
512 117 187
513 391 54
514 299 141
515 336 42
516 109 252
517 324 216
518 40 380
519 86 154
520 225 288
521 294 136
522 154 284
523 361 269
524 181 339
525 257 239
526 119 179
527 346 48
528 238 250
529 95 64
530 389 307
531 22 205
532 89 48
533 217 289
534 280 288
535 389 306
536 97 248
537 55 324
538 56 289
539 187 338
540 366 39
541 339 384
542 40 56
543 46 380
544 351 177
545 393 297
546 351 176
547 249 242
548 63 262
549 346 53
550 297 135
551 12 117
552 279 4
553 291 308
554 157 102
555 15 116
556 364 43
557 242 113
558 82 360
559 133 68
560 274 14
561 34 242
562 331 251
563 344 391
564 301 66
565 309 397
566 213 271
567 397 313
568 348 280
569 150 284
570 172 180
571 132 159
572 376 254
573 242 105
574 383 53
575 276 116
576 322 242
577 134 63
578 158 206
579 237 213
580 52 334
581 101 10
582 52 331
583 17 209
584 102 67
585 321 339
586 167 180
587 29 250
588 254 240
589 371 253
590 203 384
591 350 271
592 114 178
593 186 306
594 137 64
595 393 305
596 215 143
597 256 231
598 267 112
599 33 293
600 94 70
601 166 67
602 164 66
603 183 332
604 73 203
605 232 230
606 345 158
607 360 23
608 142 262
609 353 164
610 129 67
611 308 204
612 82 65
613 210 144
614 341 394
615 26 250
616 148 112
617 177 138
618 313 340
619 240 210
620 75 208
621 293 306
622 372 256
623 324 217
624 282 282
625 374 104
626 376 251
627 156 207
628 183 375
629 364 267
630 129 293
631 220 296
632 75 367
633 196 295
634 97 6
635 93 51
636 95 243
637 206 81
638 357 39
639 358 266
640 16 120
641 374 253
642 99 67
643 99 28
644 289 306
645 210 271
646 21 125
647 359 30
648 327 241
649 361 44
650 211 266
651 29 59
652 132 170
653 310 143
654 139 161
655 97 29
656 35 291
657 227 240
658 175 299
659 227 229
660 303 58
661 203 387
662 53 326
663 96 14
664 66 254
665 214 378
666 41 382
667 96 237
668 388 267
669 263 110
670 79 209
671 168 62
672 76 207
673 157 282
674 345 382
675 308 196
676 130 286
677 176 132
678 313 335
679 164 62
680 338 391
681 390 52
682 355 39
683 309 399
684 363 30
685 162 61
686 129 132
687 179 305
688 207 391
689 305 304
690 22 210
691 114 254
692 208 274
693 349 157
694 364 25
695 391 269
696 244 114
697 95 63
698 23 97
699 32 352
700 86 357
701 51 326
702 220 283
703 87 153
704 299 52
705 129 124
706 93 237
707 142 168
708 204 385
709 301 139
710 197 300
711 44 54
712 70 264
713 311 395
714 229 209
715 84 252
716 323 243
717 251 241
718 103 167
719 308 301
720 367 255
721 131 67
722 386 60
723 151 264
724 186 336
725 359 49
726 154 282
727 150 108
728 28 353
729 93 48
730 156 206
731 11 115
732 93 47
733 138 168
734 280 287
735 268 160
736 20 91
737 134 62
738 147 264
739 307 196
740 49 351
741 160 366
742 154 206
743 156 63
744 168 177
745 220 381
746 68 261
747 389 54
748 96 8
749 126 161
750 231 219
751 114 252
752 89 29
753 355 156
754 236 243
755 127 94
756 176 342
757 62 301
758 41 378
759 34 355
760 183 301
761 277 19
762 211 389
763 115 185
764 133 94
765 98 13
766 306 306
767 85 358
768 93 59
769 282 283
770 25 256
771 76 250
772 212 146
773 202 85
774 178 133
775 204 292
776 39 384
777 321 212
778 239 254
779 206 296
780 116 252
781 33 56
782 67 258
783 347 395
784 310 200
785 163 63
786 348 279
787 106 174
788 95 8
789 129 287
790 19 127
791 286 17
792 158 365
793 223 372
794 75 203
795 207 87
796 19 206
797 49 289
798 335 50
799 181 132
800 18 208
801 89 152
802 233 214
803 389 307
804 39 54
805 49 352
806 95 8
807 346 48
808 278 7
809 238 101
810 321 212
811 91 27
812 248 243
813 300 299
814 344 391
815 34 242
816 99 67
817 301 57
818 256 231
819 201 387
820 357 160
821 348 179
822 68 254
823 125 95
824 83 357
825 299 141
826 250 236
827 195 91
828 267 112
829 29 355
830 96 237
831 308 196
832 156 111
833 177 300
834 102 169
835 201 297
836 154 282
837 220 296
838 278 159
839 147 263
840 127 279
841 35 291
842 230 241
843 227 229
PICKUP_AND_DELIVERY_SECTION
1 0 0 1676 0 0 0
2 -10 432 586 90 574 0
3 10 757 903 0 0 835
4 10 319 463 90 0 310
5 -20 773 895 90 46 0
6 30 283 373 90 0 607
7 30 68 193 90 0 692
8 10 55 168 90 0 613
9 20 265 359 90 0 565
10 -30 770 892 90 615 0
11 -10 930 1041 90 498 0
12 -20 612 698 90 787 0
13 10 614 739 90 0 259
14 20 136 263 90 0 636
15 -20 214 356 90 93 0
16 10 542 681 90 0 276
17 20 487 600 90 0 383
18 20 504 653 90 0 225
19 -20 1052 1174 90 423 0
20 -10 718 837 90 149 0
21 30 569 705 90 0 358
22 20 405 530 90 0 593
23 -20 882 989 90 254 0
24 -10 681 794 90 585 0
25 -20 599 716 90 662 0
26 30 68 181 90 0 244
27 -10 935 1088 90 291 0
28 20 153 219 90 0 188
29 10 199 307 90 0 761
30 -10 898 1027 90 764 0
31 30 399 525 90 0 308
32 -20 589 702 90 128 0
33 -30 567 733 90 470 0
34 10 176 308 90 0 443
35 30 135 265 90 0 197
36 -20 990 1109 90 740 0
37 -10 615 705 90 363 0
38 -20 663 794 90 189 0
39 20 95 211 90 0 213
40 -20 579 705 90 641 0
41 10 329 453 90 0 85
42 10 214 312 90 0 359
43 40 325 413 90 0 705
44 -10 463 551 90 257 0
45 10 235 363 90 0 162
46 20 222 326 90 0 5
47 30 150 256 90 0 795
48 10 887 995 90 0 362
49 10 407 542 90 0 60
50 10 122 235 90 0 346
51 -10 900 1024 90 59 0
52 30 411 554 90 0 318
53 10 785 887 90 0 735
54 10 435 563 90 0 273
55 -20 955 1090 90 91 0
56 30 290 426 90 0 792
57 20 85 178 90 0 163
58 10 443 564 0 0 829
59 10 715 836 90 0 51
60 -10 514 628 90 49 0
61 20 800 896 90 0 427
62 -20 611 759 90 159 0
63 -10 616 776 90 657 0
64 -30 301 428 90 300 0
65 20 262 363 90 0 302
66 -40 745 859 90 776 0
67 10 881 1019 0 0 824
68 -20 893 1003 90 621 0
69 30 160 269 90 0 468
70 -30 788 897 90 347 0
71 10 405 550 90 0 622
72 20 478 595 90 0 612
73 20 245 335 90 0 560
74 20 614 704 90 0 290
75 10 121 207 90 0 755
76 20 520 631 90 0 191
77 -30 963 1058 90 382 0
78 10 506 658 90 0 634
79 20 298 399 90 0 566
80 20 41 162 90 0 627
81 -10 577 707 90 275 0
82 -30 339 477 90 742 0
83 10 851 1002 90 0 635
84 -30 240 356 90 218 0
85 -10 612 731 90 41 0
86 -10 593 705 90 202 0
87 20 869 990 0 0 834
88 -10 312 435 90 422 0
89 20 95 215 90 0 351
90 -20 548 690 90 547 0
91 20 481 615 90 0 55
92 20 293 419 0 0 839
93 20 192 330 90 0 15
94 -20 383 532 90 186 0
95 -20 908 1045 90 741 0
96 20 546 636 90 0 395
97 -20 665 774 90 528 0
98 -10 1050 1171 90 729 0
99 10 221 322 90 0 626
100 -20 263 414 90 401 0
101 -20 337 490 90 724 0
102 -30 618 752 90 151 0
103 20 747 853 90 0 684
104 -10 478 610 90 797 0
105 -10 967 1074 90 288 0
106 -20 1156 1298 90 698 0
107 20 410 536 90 0 554
108 -20 477 624 90 531 0
109 -40 547 653 90 504 0
110 20 221 345 90 0 174
111 10 625 730 90 0 184
112 -20 789 924 90 706 0
113 -20 612 752 90 469 0
114 30 533 657 90 0 182
115 -10 616 749 90 236 0
116 20 64 220 0 0 812
117 -10 438 537 90 663 0
118 30 102 219 90 0 676
119 -10 1001 1128 90 356 0
120 -10 747 868 90 544 0
121 10 303 449 90 0 507
122 10 923 1058 90 0 386
123 -30 294 480 90 506 0
124 30 185 310 90 0 525
125 -20 706 830 90 637 0
126 20 428 542 90 0 327
127 10 252 368 90 0 535
128 20 385 521 90 0 32
129 10 558 719 0 0 817
130 10 93 188 90 0 193
131 -10 764 846 90 588 0
132 10 365 470 90 0 553
133 10 172 321 90 0 479
134 10 296 427 90 0 297
135 10 208 353 90 0 420
136 -20 998 1151 90 782 0
137 -20 1060 1159 90 357 0
138 20 171 304 90 0 678
139 10 193 344 90 0 432
140 30 452 567 90 0 644
141 -20 244 372 90 711 0
142 -20 349 454 90 714 0
143 20 618 710 0 0 811
144 -20 560 689 90 753 0
145 -10 820 962 90 568 0
146 20 135 275 90 0 360
147 -20 1064 1231 90 426 0
148 -10 218 288 90 707 0
149 10 422 550 90 0 20
150 10 410 548 90 0 414
151 30 155 282 90 0 102
152 -20 1301 1366 90 781 0
153 -20 978 1096 90 323 0
154 -10 486 578 90 279 0
155 -10 636 818 90 786 0
156 10 272 380 90 0 614
157 -10 974 1107 90 220 0
158 20 796 879 0 0 809
159 20 434 567 90 0 62
160 10 135 246 90 0 687
161 -10 1007 1113 90 410 0
162 -10 441 531 90 45 0
163 -20 217 323 90 57 0
164 -20 222 327 90 673 0
165 -10 266 332 90 521 0
166 -30 608 758 90 307 0
167 -10 1146 1268 90 503 0
168 -30 793 914 90 611 0
169 -10 300 452 90 751 0
170 -20 260 402 90 562 0
171 -10 833 952 90 204 0
172 -10 1230 1379 90 464 0
173 -10 821 977 90 256 0
174 -20 404 531 90 110 0
175 10 61 207 90 0 373
176 -20 809 906 90 434 0
177 30 61 148 90 0 778
178 -20 778 929 90 398 0
179 10 549 671 90 0 746
180 20 244 343 90 0 767
181 20 184 282 0 0 822
182 -30 718 839 90 114 0
183 -30 1094 1208 90 198 0
184 -10 870 1047 90 111 0
185 30 321 452 90 0 632
186 20 316 414 90 0 94
187 -20 352 519 90 677 0
188 -20 412 516 90 28 0
189 20 390 516 90 0 38
190 -10 873 989 90 406 0
191 -20 613 736 90 76 0
192 20 105 226 90 0 739
193 -10 491 629 90 130 0
194 20 78 182 90 0 265
195 10 1074 1160 90 0 239
196 20 241 366 90 0 624
197 -30 443 577 90 35 0
198 30 345 466 90 0 183
199 -20 494 623 90 322 0
200 20 197 298 90 0 335
201 -10 954 1078 90 695 0
202 10 216 341 90 0 86
203 -10 777 899 90 208 0
204 10 562 659 90 0 171
205 -10 950 1090 90 493 0
206 -10 865 980 90 242 0
207 10 458 582 90 0 404
208 10 419 505 90 0 203
209 10 744 879 0 0 842
210 20 299 422 90 0 796
211 20 1146 1247 90 0 526
212 20 176 302 90 0 572
213 -20 205 364 90 39 0
214 10 368 527 90 0 230
215 10 717 838 90 0 670
216 -10 692 798 90 599 0
217 -10 393 501 90 311 0
218 30 203 315 90 0 84
219 10 513 642 90 0 456
220 10 710 807 90 0 157
221 -20 585 704 90 522 0
222 -20 350 466 90 399 0
223 10 90 224 90 0 371
224 -10 580 699 90 375 0
225 -20 969 1082 90 18 0
226 20 365 470 90 0 747
227 10 106 228 90 0 536
228 -20 1163 1309 90 349 0
229 10 842 954 0 0 826
230 -10 1298 1420 90 214 0
231 20 968 1046 90 0 475
232 -20 739 841 90 394 0
233 10 534 627 90 0 773
234 20 187 291 90 0 324
235 -20 643 790 90 774 0
236 10 254 353 90 0 115
237 -30 767 882 90 512 0
238 -30 338 441 90 380 0
239 -10 1145 1279 90 195 0
240 -20 972 1105 90 445 0
241 -10 819 912 90 289 0
242 10 789 863 90 0 206
243 10 721 838 0 0 823
244 -30 252 368 90 26 0
245 -20 876 983 90 266 0
246 -20 364 470 90 674 0
247 20 604 733 0 0 832
248 -20 197 330 90 435 0
249 10 440 528 90 0 476
250 20 181 291 90 0 762
251 -30 716 819 90 431 0
252 -20 397 546 90 780 0
253 -10 604 718 90 691 0
254 20 586 728 90 0 23
255 30 204 330 90 0 791
256 10 145 230 90 0 173
257 10 252 388 90 0 44
258 30 257 371 90 0 337
259 -10 699 838 90 13 0
260 40 334 456 90 0 534
261 -10 1061 1154 90 697 0
262 10 984 1126 90 0 483
263 -20 505 645 90 428 0
264 -20 594 696 90 454 0
265 -20 364 452 90 194 0
266 20 289 441 90 0 245
267 -20 903 1035 90 648 0
268 30 870 1009 0 0 833
269 -30 362 451 90 620 0
270 -20 126 265 90 616 0
271 -30 628 741 90 437 0
272 -10 537 707 90 440 0
273 -10 909 1023 90 54 0
274 -10 857 1011 90 625 0
275 10 486 612 90 0 81
276 -10 888 1056 90 16 0
277 -20 184 350 90 419 0
278 20 118 258 90 0 703
279 10 174 317 90 0 154
280 -10 308 454 90 727 0
281 20 383 486 0 0 820
282 10 706 837 90 0 567
283 -10 823 946 90 756 0
284 -20 680 803 90 573 0
285 10 428 552 90 0 542
286 -30 931 1033 90 712 0
287 -20 901 1051 90 513 0
288 10 779 895 90 0 105
289 10 525 648 90 0 241
290 -20 693 808 90 74 0
291 10 280 450 90 0 27
292 10 127 250 90 0 672
293 20 585 706 90 0 455
294 -10 533 650 90 682 0
295 20 792 926 90 0 549
296 20 426 512 90 0 511
297 -10 763 877 90 134 0
298 20 168 285 90 0 304
299 10 432 556 0 0 802
300 30 221 327 90 0 64
301 20 396 512 90 0 690
302 -20 903 1044 90 65 0
303 20 243 393 90 0 466
304 -20 572 701 90 298 0
305 10 114 224 90 0 734
306 -20 442 548 90 595 0
307 30 535 646 90 0 166
308 -30 498 612 90 31 0
309 20 209 325 90 0 765
310 -10 909 1006 90 4 0
311 10 296 410 90 0 217
312 -20 791 896 90 520 0
313 -30 469 575 90 546 0
314 10 340 477 90 0 374
315 20 360 480 90 0 548
316 30 372 508 90 0 754
317 20 313 448 90 0 784
318 -30 992 1098 90 52 0
319 -30 638 772 90 610 0
320 10 197 320 90 0 452
321 -30 216 322 90 376 0
322 20 319 434 90 0 199
323 20 776 899 90 0 153
324 -20 639 766 90 234 0
325 10 885 1011 0 0 840
326 -10 1092 1229 90 679 0
327 -20 881 988 90 126 0
328 10 407 541 90 0 332
329 10 372 476 90 0 766
330 20 79 180 90 0 429
331 20 641 791 0 0 821
332 -10 626 705 90 328 0
333 -30 691 831 90 668 0
334 -20 310 426 90 665 0
335 -20 547 688 90 200 0
336 30 168 305 90 0 719
337 -30 434 588 90 258 0
338 -10 1024 1131 90 481 0
339 -20 364 498 90 717 0
340 -40 457 599 90 617 0
341 -40 1196 1328 90 680 0
342 10 294 417 90 0 564
343 40 211 337 90 0 532
344 -10 143 232 90 365 0
345 -30 978 1093 90 759 0
346 -10 478 625 90 50 0
347 30 327 427 90 0 70
348 20 237 384 90 0 694
349 20 1084 1197 90 0 228
350 10 308 414 90 0 587
351 -20 573 681 90 89 0
352 -10 556 628 90 715 0
353 20 35 190 90 0 744
354 10 528 656 90 0 794
355 -30 772 900 90 628 0
356 10 833 920 90 0 119
357 20 583 710 90 0 137
358 -30 756 885 90 21 0
359 -10 668 791 90 42 0
360 -20 539 666 90 146 0
361 -30 919 996 90 519 0
362 -10 1058 1206 90 48 0
363 10 405 543 90 0 37
364 -30 778 888 90 569 0
365 10 92 203 90 0 344
366 10 696 849 0 0 805
367 20 819 908 0 0 827
368 -30 683 826 90 516 0
369 40 203 322 90 0 463
370 30 142 252 90 0 689
371 -10 119 246 90 223 0
372 -20 985 1128 90 413 0
373 -10 360 510 90 175 0
374 -10 817 931 90 314 0
375 10 396 517 90 0 224
376 30 172 259 90 0 321
377 -30 866 1000 90 686 0
378 10 143 279 90 0 801
379 30 179 302 90 0 485
380 30 112 243 90 0 238
381 10 775 869 90 0 757
382 30 387 507 90 0 77
383 -20 669 782 90 17 0
384 10 489 616 90 0 732
385 20 166 275 90 0 604
386 -10 1176 1272 90 122 0
387 -20 997 1110 90 409 0
388 -20 1091 1212 90 651 0
389 20 328 470 0 0 804
390 -10 482 637 90 688 0
391 -20 492 652 90 478 0
392 -30 429 557 90 623 0
393 -10 1254 1347 90 646 0
394 20 436 584 90 0 232
395 -20 633 736 90 96 0
396 20 676 809 0 0 819
397 20 761 883 90 0 457
398 20 140 256 90 0 178
399 20 148 283 90 0 222
400 -20 726 829 90 771 0
401 20 84 223 90 0 100
402 20 791 907 0 0 808
403 -20 864 985 90 770 0
404 -10 1008 1115 90 207 0
405 10 708 817 90 0 736
406 10 683 798 90 0 190
407 -20 817 943 90 508 0
408 -10 1171 1305 90 412 0
409 20 511 676 90 0 387
410 10 612 740 90 0 161
411 -20 500 611 90 418 0
412 10 1086 1204 90 0 408
413 20 403 536 90 0 372
414 -10 710 800 90 150 0
415 -10 1061 1161 90 661 0
416 20 440 585 90 0 647
417 10 675 808 90 0 460
418 20 300 426 90 0 411
419 20 111 241 90 0 277
420 -10 1166 1250 90 135 0
421 -30 757 842 90 594 0
422 10 217 336 90 0 88
423 20 508 653 90 0 19
424 10 385 530 90 0 592
425 30 121 246 90 0 619
426 20 1001 1100 90 0 147
427 -20 881 1001 90 61 0
428 20 218 364 90 0 263
429 -20 662 805 90 330 0
430 -20 458 591 90 596 0
431 30 513 649 90 0 251
432 -10 981 1093 90 139 0
433 -30 874 1013 90 752 0
434 20 199 315 90 0 176
435 20 170 339 90 0 248
436 -20 551 671 90 666 0
437 30 176 266 90 0 271
438 -20 501 620 90 760 0
439 -10 774 890 90 618 0
440 10 180 299 90 0 272
441 -20 656 769 90 772 0
442 20 136 281 90 0 709
443 -10 321 403 90 34 0
444 -20 968 1115 90 500 0
445 20 871 1018 90 0 240
446 -20 420 577 90 489 0
447 10 141 275 90 0 769
448 -20 466 625 90 629 0
449 20 677 816 90 0 718
450 30 324 447 90 0 720
451 -20 510 660 90 517 0
452 -10 220 366 90 320 0
453 20 165 290 90 0 591
454 20 203 333 90 0 264
455 -20 682 804 90 293 0
456 -10 877 1026 90 219 0
457 -20 878 955 90 397 0
458 -20 350 430 90 480 0
459 30 946 1025 0 0 813
460 -10 879 975 90 417 0
461 -20 1059 1202 90 551 0
462 20 79 221 90 0 723
463 -40 403 500 90 369 0
464 10 507 661 90 0 172
465 -20 787 927 90 471 0
466 -20 627 748 90 303 0
467 20 503 630 90 0 552
468 -30 362 449 90 69 0
469 20 203 319 90 0 113
470 30 207 331 90 0 33
471 20 270 378 90 0 465
472 20 138 281 90 0 664
473 -10 869 969 90 763 0
474 10 929 1037 90 0 541
475 -20 1053 1147 90 231 0
476 -10 712 821 90 249 0
477 10 579 715 0 0 838
478 20 227 354 90 0 391
479 -10 755 870 90 133 0
480 20 228 367 90 0 458
481 10 833 951 90 0 338
482 -20 538 666 90 539 0
483 -10 1177 1316 90 262 0
484 -20 520 652 90 545 0
485 -30 590 712 90 379 0
486 -10 1102 1240 90 783 0
487 10 648 773 90 0 543
488 10 73 191 90 0 605
489 20 217 353 90 0 446
490 20 83 198 90 0 702
491 -10 1122 1263 90 538 0
492 30 97 217 90 0 799
493 10 91 229 90 0 205
494 20 182 258 90 0 510
495 -30 361 475 90 497 0
496 40 600 708 90 0 658
497 30 276 372 90 0 495
498 10 845 938 90 0 11
499 20 393 522 90 0 533
500 20 883 1017 90 0 444
501 -30 633 770 90 654 0
502 30 150 277 90 0 609
503 10 841 1012 90 0 167
504 40 233 360 90 0 109
505 10 373 479 90 0 576
506 30 242 348 90 0 123
507 -10 513 608 90 121 0
508 20 632 780 90 0 407
509 20 222 328 90 0 638
510 -20 308 424 90 494 0
511 -20 491 630 90 296 0
512 30 115 238 90 0 237
513 20 803 954 90 0 287
514 10 912 1015 0 0 825
515 -20 407 557 90 798 0
516 30 503 626 90 0 368
517 20 236 383 90 0 451
518 -20 259 403 90 758 0
519 30 693 854 90 0 361
520 20 290 434 90 0 312
521 10 113 229 90 0 165
522 20 501 600 90 0 221
523 30 582 694 90 0 639
524 20 635 752 90 0 603
525 -30 469 585 90 124 0
526 -20 1225 1355 90 211 0
527 30 687 848 0 0 807
528 20 280 414 90 0 97
529 -20 278 429 90 584 0
530 10 993 1117 0 0 803
531 20 178 275 90 0 108
532 -40 392 527 90 343 0
533 -20 710 790 90 499 0
534 -40 415 560 90 260 0
535 -10 1080 1213 90 127 0
536 -10 343 432 90 227 0
537 10 190 341 90 0 580
538 10 867 962 90 0 491
539 20 170 288 90 0 482
540 20 637 735 90 0 725
541 -10 1237 1356 90 474 0
542 -10 1190 1296 90 285 0
543 -10 820 977 90 487 0
544 10 362 486 90 0 120
545 20 216 332 90 0 484
546 30 285 381 90 0 313
547 20 121 191 90 0 90
548 -20 456 572 90 315 0
549 -20 893 1015 90 295 0
550 30 326 456 90 0 653
551 20 693 808 90 0 461
552 -20 664 847 90 467 0
553 -10 616 774 90 132 0
554 -20 499 640 90 107 0
555 -30 886 988 90 640 0
556 10 719 843 90 0 649
557 -10 131 247 90 696 0
558 10 635 715 90 0 700
559 20 378 482 90 0 721
560 -20 310 453 90 73 0
561 30 171 289 0 0 815
562 20 140 262 90 0 170
563 10 465 563 0 0 814
564 -10 1044 1168 90 342 0
565 -20 622 746 90 9 0
566 -20 402 481 90 79 0
567 -10 805 924 90 282 0
568 10 563 701 90 0 145
569 30 684 795 90 0 364
570 -10 732 853 90 586 0
571 -30 481 608 90 652 0
572 -20 377 541 90 212 0
573 20 582 717 90 0 284
574 10 255 394 90 0 2
575 50 113 238 90 0 669
576 -10 832 945 90 505 0
577 -20 275 394 90 737 0
578 20 70 196 90 0 730
579 -10 741 814 90 750 0
580 -10 801 883 90 537 0
581 -20 1070 1201 90 748 0
582 -10 680 817 90 701 0
583 20 689 796 90 0 800
584 20 165 253 90 0 529
585 10 390 528 90 0 24
586 10 571 644 90 0 570
587 -10 682 793 90 350 0
588 10 654 766 90 0 131
589 30 663 804 90 0 716
590 -10 946 1090 90 708 0
591 -20 165 353 90 453 0
592 -10 1059 1146 90 424 0
593 -20 697 797 90 22 0
594 30 149 264 90 0 421
595 20 341 468 90 0 306
596 20 91 213 90 0 430
597 20 940 1052 0 0 818
598 30 420 577 0 0 828
599 10 392 540 90 0 216
600 -20 951 1080 90 768 0
601 30 255 388 90 0 685
602 20 181 276 90 0 671
603 -20 1009 1135 90 524 0
604 -20 452 548 90 385 0
605 -10 554 651 90 488 0
606 -10 848 963 90 693 0
607 -30 358 480 90 6 0
608 -20 477 614 90 738 0
609 -30 301 376 90 502 0
610 30 563 664 90 0 319
611 30 690 824 90 0 168
612 -20 666 797 90 72 0
613 -10 269 412 90 8 0
614 -10 654 756 90 156 0
615 30 390 517 90 0 10
616 20 102 229 90 0 270
617 40 66 184 90 0 340
618 10 221 320 90 0 439
619 -30 795 949 90 425 0
620 30 257 371 90 0 269
621 20 145 318 90 0 68
622 -10 744 911 90 71 0
623 30 345 456 90 0 392
624 -20 719 810 90 196 0
625 10 512 621 90 0 274
626 -10 301 431 90 99 0
627 -20 163 287 90 80 0
628 30 228 311 90 0 355
629 20 404 504 90 0 448
630 -10 509 629 90 789 0
631 20 512 605 0 0 837
632 -30 522 628 90 185 0
633 20 513 582 90 0 710
634 -10 797 919 90 78 0
635 -10 1144 1260 90 83 0
636 -20 422 543 90 14 0
637 20 438 531 90 0 125
638 -20 350 463 90 509 0
639 -30 694 771 90 523 0
640 30 600 710 90 0 555
641 20 491 610 90 0 40
642 10 204 312 0 0 816
643 20 199 298 90 0 655
644 -30 735 842 90 140 0
645 20 108 216 90 0 650
646 10 226 342 90 0 393
647 -20 995 1163 90 416 0
648 20 546 677 90 0 267
649 -10 820 928 90 556 0
650 -20 465 610 90 645 0
651 20 911 1010 90 0 388
652 30 271 424 90 0 571
653 -30 598 763 90 550 0
654 30 596 689 90 0 501
655 -20 318 446 90 643 0
656 10 494 622 0 0 841
657 10 162 300 90 0 63
658 -40 967 1096 90 496 0
659 10 39 139 0 0 843
660 -30 685 777 90 704 0
661 10 598 704 90 0 415
662 20 232 335 90 0 25
663 10 328 462 90 0 117
664 -20 264 386 90 472 0
665 20 178 287 90 0 334
666 20 366 480 90 0 436
667 10 701 828 0 0 830
668 30 604 725 90 0 333
669 -50 253 373 90 575 0
670 -10 911 1014 90 215 0
671 -20 364 468 90 602 0
672 -10 808 930 90 292 0
673 20 116 250 90 0 164
674 20 232 337 90 0 246
675 10 229 348 0 0 831
676 -30 243 339 90 118 0
677 20 200 304 90 0 187
678 -20 959 1076 90 138 0
679 10 532 671 90 0 326
680 40 739 858 90 0 341
681 10 742 830 90 0 722
682 10 264 365 90 0 294
683 10 532 652 90 0 713
684 -20 911 1058 90 103 0
685 -30 727 843 90 601 0
686 30 670 823 90 0 377
687 -10 781 908 90 160 0
688 10 399 530 90 0 390
689 -30 747 849 90 370 0
690 -20 962 1081 90 301 0
691 10 227 339 90 0 253
692 -30 192 319 90 7 0
693 10 666 771 90 0 606
694 -20 656 761 90 348 0
695 10 497 645 90 0 201
696 10 96 248 90 0 557
697 10 394 494 90 0 261
698 20 1068 1204 90 0 106
699 30 226 321 90 0 728
700 -10 1072 1196 90 558 0
701 10 307 444 90 0 582
702 -20 954 1102 90 490 0
703 -20 424 553 90 278 0
704 30 481 605 90 0 660
705 -40 502 610 90 43 0
706 20 607 735 90 0 112
707 10 66 207 90 0 148
708 10 879 974 90 0 590
709 -20 822 920 90 442 0
710 -20 661 808 90 633 0
711 20 213 362 90 0 141
712 30 649 755 90 0 286
713 -10 812 921 90 683 0
714 20 30 166 90 0 142
715 10 127 261 90 0 352
716 -30 718 875 90 589 0
717 20 268 408 90 0 339
718 -20 1046 1178 90 449 0
719 -30 274 388 90 336 0
720 -30 872 972 90 450 0
721 -20 477 566 90 559 0
722 -10 1019 1132 90 681 0
723 -20 115 226 90 462 0
724 20 136 282 90 0 101
725 -20 1005 1114 90 540 0
726 10 405 512 0 0 836
727 10 221 357 90 0 280
728 -30 345 477 90 699 0
729 10 940 1097 90 0 98
730 -20 434 565 90 578 0
731 -20 775 911 90 790 0
732 -10 788 880 90 384 0
733 10 103 218 90 0 749
734 -10 526 631 90 305 0
735 -10 976 1067 90 53 0
736 -10 809 906 90 405 0
737 20 169 318 90 0 577
738 20 217 313 90 0 608
739 -20 127 269 90 192 0
740 20 796 932 90 0 36
741 20 170 315 90 0 95
742 30 257 378 90 0 82
743 -10 932 1011 90 785 0
744 -20 169 272 90 353 0
745 20 220 330 90 0 793
746 -10 728 863 90 179 0
747 -20 631 757 90 226 0
748 20 706 825 90 0 581
749 -10 375 521 90 733 0
750 10 528 649 90 0 579
751 10 125 256 90 0 169
752 30 792 905 90 0 433
753 20 474 585 90 0 144
754 -30 471 598 90 316 0
755 -10 791 952 90 75 0
756 10 716 863 90 0 283
757 -10 1212 1369 90 381 0
758 20 238 401 90 0 518
759 30 807 936 90 0 345
760 20 310 440 90 0 438
761 -10 1057 1211 90 29 0
762 -20 304 436 90 250 0
763 10 204 334 90 0 473
764 10 249 366 90 0 30
765 -20 237 369 90 309 0
766 -10 472 562 90 329 0
767 -20 976 1109 90 180 0
768 20 571 688 90 0 600
769 -10 608 739 90 447 0
770 20 475 625 90 0 403
771 20 424 578 90 0 400
772 20 384 481 90 0 441
773 -10 595 751 90 233 0
774 20 293 396 90 0 235
775 -30 953 1086 90 779 0
776 40 453 578 90 0 66
777 30 149 279 0 0 810
778 -30 187 319 90 177 0
779 30 869 980 90 0 775
780 20 98 180 90 0 252
781 20 801 930 90 0 152
782 20 842 935 90 0 136
783 10 553 665 90 0 486
784 -20 602 724 90 317 0
785 10 617 767 90 0 743
786 10 478 603 90 0 155
787 20 295 448 90 0 12
788 30 615 734 0 0 806
789 10 319 447 90 0 630
790 20 402 532 90 0 731
791 -30 618 736 90 255 0
792 -30 579 690 90 56 0
793 -20 592 710 90 745 0
794 -10 627 742 90 354 0
795 -30 231 361 90 47 0
796 -20 863 989 90 210 0
797 10 278 432 90 0 104
798 20 201 299 90 0 515
799 -30 542 698 90 492 0
800 -20 761 908 90 583 0
801 -10 344 449 90 378 0
802 -10 432 556 90 299 0
803 -10 993 1117 90 530 0
804 -20 328 470 90 389 0
805 -10 696 849 90 366 0
806 -30 615 734 90 788 0
807 -30 687 848 90 527 0
808 -20 791 907 90 402 0
809 -20 796 879 90 158 0
810 -30 149 279 90 777 0
811 -20 618 710 90 143 0
812 -20 64 220 90 116 0
813 -30 946 1025 90 459 0
814 -10 465 563 90 563 0
815 -30 171 289 90 561 0
816 -10 204 312 90 642 0
817 -10 558 719 90 129 0
818 -20 940 1052 90 597 0
819 -20 676 809 90 396 0
820 -20 383 486 90 281 0
821 -20 641 791 90 331 0
822 -20 184 282 90 181 0
823 -10 721 838 90 243 0
824 -10 881 1019 90 67 0
825 -10 912 1015 90 514 0
826 -10 842 954 90 229 0
827 -20 819 908 90 367 0
828 -30 420 577 90 598 0
829 -10 443 564 90 58 0
830 -10 701 828 90 667 0
831 -10 229 348 90 675 0
832 -20 604 733 90 247 0
833 -30 870 1009 90 268 0
834 -20 869 990 90 87 0
835 -10 757 903 90 3 0
836 -10 405 512 90 726 0
837 -20 512 605 90 631 0
838 -10 579 715 90 477 0
839 -20 293 419 90 92 0
840 -10 885 1011 90 325 0
841 -10 494 622 90 656 0
842 -10 744 879 90 209 0
843 -10 39 139 90 659 0
DEPOT_SECTION
1
-1
EOF
