NAME: lc1_8_9
TYPE: PDPTW
COMMENT: Li & Lim PDPTW benchmark converted from SINTEF format
DIMENSION: 837
VEHICLES: 200
CAPACITY: 200
EDGE_WEIGHT_TYPE: EUC_2D
NODE_COORD_SECTION
1 200 200
2 385 56
3 201 297
4 57 353
5 201 386
6 359 23
7 210 268
8 219 148
9 306 390
10 32 251
11 130 70
12 103 172
13 319 217
14 99 241
15 368 102
16 307 310
17 158 366
18 286 9
19 267 161
20 304 141
21 143 261
22 183 303
23 218 284
24 318 335
25 53 330
26 233 208
27 113 179
28 109 170
29 276 16
30 128 93
31 221 379
32 185 386
33 14 210
34 180 375
35 164 69
36 53 354
37 275 8
38 142 260
39 183 294
40 373 253
41 15 100
42 51 288
43 131 130
44 184 343
45 56 351
46 208 384
47 204 87
48 61 333
49 313 194
50 271 154
51 314 399
52 14 100
53 273 160
54 359 38
55 173 381
56 153 368
57 270 151
58 29 355
59 310 395
60 312 200
61 107 247
62 126 91
63 229 229
64 196 293
65 82 247
66 42 384
67 83 357
68 280 282
69 270 106
70 369 106
71 393 272
72 93 62
73 275 15
74 372 104
75 134 98
76 339 41
77 303 61
78 97 10
79 211 274
80 159 207
81 111 184
82 155 206
83 95 47
84 18 100
85 21 96
86 126 126
87 102 169
88 35 293
89 240 246
90 255 239
91 179 383
92 147 263
93 367 104
94 277 154
95 179 336
96 157 205
97 231 243
98 92 50
99 375 247
100 152 240
101 187 341
102 234 214
103 364 27
104 52 297
105 103 168
106 23 98
107 153 107
108 14 201
109 386 57
110 244 109
111 393 307
112 96 235
113 49 353
114 28 356
115 85 155
116 248 243
117 94 13
118 134 279
119 158 64
120 346 179
121 20 127
122 46 378
123 337 47
124 250 241
125 200 89
126 289 11
127 393 301
128 182 379
129 301 57
130 111 170
131 249 239
132 294 311
133 352 162
134 363 270
135 106 173
136 72 257
137 311 334
138 305 336
139 22 125
140 293 310
141 40 54
142 234 212
143 91 27
144 351 153
145 304 301
146 291 301
147 92 162
148 135 167
149 300 132
150 93 23
151 236 210
152 41 56
153 114 250
154 161 233
155 344 283
156 346 385
157 129 278
158 238 101
159 127 87
160 185 299
161 37 56
162 55 357
163 272 154
164 158 283
165 298 137
166 266 116
167 306 329
168 302 203
169 115 257
170 329 241
171 362 28
172 53 347
173 345 178
174 244 106
175 149 234
176 84 359
177 243 244
178 122 281
179 68 263
180 84 363
181 68 254
182 32 357
183 314 390
184 393 312
185 82 365
186 276 157
187 179 134
188 106 177
189 140 264
190 172 383
191 347 45
192 305 198
193 100 175
194 168 178
195 177 379
196 280 290
197 165 63
198 308 393
199 243 106
200 210 141
201 366 251
202 131 131
203 129 134
204 369 19
205 153 280
206 91 70
207 328 239
208 131 127
209 230 241
210 20 204
211 116 181
212 371 244
213 182 300
214 49 291
215 76 206
216 37 286
217 349 275
218 21 104
219 17 96
220 126 284
221 154 288
222 129 85
223 199 290
224 198 295
225 237 109
226 385 55
227 101 239
228 54 348
229 250 236
230 65 298
231 57 291
232 230 225
233 200 83
234 328 243
235 188 133
236 88 150
237 113 183
238 209 85
239 174 375
240 281 16
241 87 155
242 85 67
243 125 95
244 235 212
245 153 281
246 347 385
247 156 111
248 302 60
249 75 368
250 207 381
251 38 49
252 110 254
253 102 252
254 220 288
255 295 19
256 344 176
257 188 338
258 167 174
259 318 219
260 281 291
261 96 69
262 314 396
263 97 242
264 27 251
265 166 170
266 157 283
267 236 204
268 177 300
269 75 206
270 151 111
271 74 253
272 350 182
273 360 46
274 369 107
275 109 186
276 286 308
277 222 284
278 93 149
279 152 237
280 152 109
281 357 160
282 395 310
283 179 338
284 243 104
285 40 53
286 70 256
287 396 59
288 103 171
289 79 154
290 370 104
291 110 188
292 73 213
293 85 44
294 361 39
295 344 49
296 48 326
297 344 280
298 54 285
299 233 214
300 197 293
301 21 201
302 78 246
303 31 353
304 52 295
305 277 285
306 393 306
307 268 114
308 219 377
309 99 16
310 51 354
311 353 276
312 217 286
313 359 178
314 78 251
315 62 258
316 237 247
317 310 196
318 24 96
319 128 68
320 383 273
321 362 272
322 245 106
323 39 285
324 327 242
325 127 279
326 162 69
327 237 108
328 129 288
329 306 303
330 122 183
331 348 179
332 127 286
333 382 266
334 222 383
335 209 150
336 308 296
337 161 182
338 340 388
339 253 243
340 181 134
341 342 384
342 301 58
343 90 53
344 131 132
345 60 328
346 281 155
347 369 100
348 358 23
349 53 353
350 26 247
351 234 243
352 76 251
353 172 178
354 74 201
355 174 387
356 161 63
357 317 335
358 140 260
359 52 292
360 290 311
361 89 154
362 130 279
363 273 12
364 147 283
365 135 134
366 49 352
367 195 91
368 105 250
369 159 367
370 304 297
371 197 292
372 300 144
373 158 239
374 69 245
375 195 294
376 356 274
377 133 137
378 91 150
379 46 292
380 203 88
381 55 291
382 299 58
383 158 364
384 86 47
385 72 210
386 132 279
387 128 94
388 39 56
389 39 54
390 203 388
391 92 26
392 321 217
393 111 165
394 232 232
395 155 202
396 201 387
397 303 59
398 131 283
399 131 95
400 73 250
401 150 236
402 278 7
403 33 247
404 234 203
405 22 96
406 180 387
407 287 307
408 129 98
409 127 90
410 39 48
411 316 336
412 128 95
413 370 98
414 90 26
415 204 381
416 363 24
417 277 163
418 315 341
419 222 283
420 109 167
421 124 69
422 41 297
423 302 136
424 108 186
425 321 209
426 92 155
427 108 250
428 100 243
429 113 184
430 211 147
431 41 52
432 25 118
433 94 31
434 87 365
435 300 62
436 34 385
437 83 248
438 186 304
439 317 331
440 348 176
441 211 154
442 298 138
443 182 378
444 100 6
445 279 12
446 308 396
447 275 287
448 363 267
449 104 171
450 391 271
451 320 216
452 389 271
453 349 272
454 28 246
455 92 46
456 24 93
457 307 59
458 293 15
459 300 299
460 272 161
461 24 121
462 152 263
463 156 367
464 48 361
465 280 283
466 31 357
467 275 12
468 264 112
469 58 346
470 21 204
471 295 307
472 72 253
473 111 179
474 336 387
475 58 294
476 84 360
477 278 159
478 98 28
479 346 155
480 295 16
481 337 388
482 182 338
483 308 389
484 392 307
485 34 289
486 342 385
487 43 386
488 227 231
489 302 392
490 221 281
491 60 293
492 177 137
493 157 281
494 90 54
495 232 234
496 189 306
497 229 237
498 126 70
499 230 290
500 99 7
501 171 179
502 346 163
503 313 334
504 382 54
505 329 236
506 335 47
507 17 125
508 305 306
509 356 41
510 89 51
511 47 328
512 117 187
513 391 54
514 299 141
515 336 42
516 109 252
517 324 216
518 40 380
519 86 154
520 225 288
521 294 136
522 154 284
523 361 269
524 181 339
525 257 239
526 119 179
527 346 48
528 238 250
529 95 64
530 389 307
531 22 205
532 89 48
533 217 289
534 280 288
535 389 306
536 97 248
537 55 324
538 56 289
539 187 338
540 366 39
541 339 384
542 40 56
543 46 380
544 351 177
545 393 297
546 351 176
547 249 242
548 63 262
549 346 53
550 297 135
551 12 117
552 279 4
553 291 308
554 157 102
555 15 116
556 364 43
557 242 113
558 82 360
559 133 68
560 274 14
561 34 242
562 331 251
563 344 391
564 301 66
565 309 397
566 213 271
567 397 313
568 348 280
569 150 284
570 172 180
571 132 159
572 376 254
573 242 105
574 383 53
575 276 116
576 322 242
577 134 63
578 158 206
579 237 213
580 52 334
581 101 10
582 52 331
583 17 209
584 102 67
585 321 339
586 167 180
587 29 250
588 254 240
589 371 253
590 203 384
591 350 271
592 114 178
593 186 306
594 137 64
595 393 305
596 215 143
597 256 231
598 267 112
599 33 293
600 94 70
601 166 67
602 164 66
603 183 332
604 73 203
605 232 230
606 345 158
607 360 23
608 142 262
609 353 164
610 129 67
611 308 204
612 82 65
613 210 144
614 341 394
615 26 250
616 148 112
617 177 138
618 313 340
619 240 210
620 75 208
621 293 306
622 372 256
623 324 217
624 282 282
625 374 104
626 376 251
627 156 207
628 183 375
629 364 267
630 129 293
631 220 296
632 75 367
633 196 295
634 97 6
635 93 51
636 95 243
637 206 81
638 357 39
639 358 266
640 16 120
641 374 253
642 99 67
643 99 28
644 289 306
645 210 271
646 21 125
647 359 30
648 327 241
649 361 44
650 211 266
651 29 59
652 132 170
653 310 143
654 139 161
655 97 29
656 35 291
657 227 240
658 175 299
659 227 229
660 303 58
661 203 387
662 53 326
663 96 14
664 66 254
665 214 378
666 41 382
667 96 237
668 388 267
669 263 110
670 79 209
671 168 62
672 76 207
673 157 282
674 345 382
675 308 196
676 130 286
677 176 132
678 313 335
679 164 62
680 338 391
681 390 52
682 355 39
683 309 399
684 363 30
685 162 61
686 129 132
687 179 305
688 207 391
689 305 304
690 22 210
691 114 254
692 208 274
693 349 157
694 364 25
695 391 269
696 244 114
697 95 63
698 23 97
699 32 352
700 86 357
701 51 326
702 220 283
703 87 153
704 299 52
705 129 124
706 93 237
707 142 168
708 204 385
709 301 139
710 197 300
711 44 54
712 70 264
713 311 395
714 229 209
715 84 252
716 323 243
717 251 241
718 103 167
719 308 301
720 367 255
721 131 67
722 386 60
723 151 264
724 186 336
725 359 49
726 154 282
727 150 108
728 28 353
729 93 48
730 156 206
731 11 115
732 93 47
733 138 168
734 280 287
735 268 160
736 20 91
737 134 62
738 147 264
739 307 196
740 49 351
741 160 366
742 154 206
743 156 63
744 168 177
745 220 381
746 68 261
747 389 54
748 96 8
749 126 161
750 231 219
751 114 252
752 89 29
753 355 156
754 236 243
755 127 94
756 176 342
757 62 301
758 41 378
759 34 355
760 183 301
761 277 19
762 211 389
763 115 185
764 133 94
765 98 13
766 306 306
767 85 358
768 93 59
769 282 283
770 25 256
771 76 250
772 212 146
773 202 85
774 178 133
775 204 292
776 39 384
777 321 212
778 239 254
779 206 296
780 116 252
781 33 56
782 67 258
783 347 395
784 310 200
785 163 63
786 348 279
787 106 174
788 95 8
789 129 287
790 19 127
791 286 17
792 158 365
793 223 372
794 75 203
795 207 87
796 19 206
797 49 289
798 335 50
799 181 132
800 18 208
801 89 152
802 41 382
803 395 310
804 286 308
805 93 51
806 167 180
807 24 93
808 348 176
809 256 231
810 63 262
811 101 10
812 272 154
813 320 216
814 52 331
815 22 210
816 92 155
817 185 299
818 359 38
819 313 194
820 78 246
821 270 106
822 281 291
823 280 288
824 322 242
825 140 264
826 28 353
827 221 379
828 234 214
829 122 281
830 349 275
831 76 207
832 89 51
833 243 104
834 164 62
835 179 134
836 54 348
837 391 271
PICKUP_AND_DELIVERY_SECTION
1 0 0 1676 0 0 0
2 -10 329 689 90 574 0
3 -10 650 1010 90 710 0
4 10 211 571 90 0 45
5 20 654 1014 90 0 415
6 -20 237 597 90 348 0
7 30 68 428 90 0 650
8 10 55 415 90 0 166
9 20 217 577 90 0 483
10 -10 651 1011 90 264 0
11 -30 806 1166 90 721 0
12 10 475 835 90 0 718
13 10 496 856 90 0 579
14 20 109 469 90 0 771
15 20 194 554 90 0 625
16 -20 431 791 90 146 0
17 20 364 724 90 0 792
18 20 399 759 90 0 791
19 -10 933 1293 90 514 0
20 -10 597 957 90 149 0
21 -20 457 817 90 373 0
22 -10 287 647 90 213 0
23 -10 755 1115 90 312 0
24 40 558 918 90 0 407
25 -10 477 837 90 422 0
26 -20 33 393 90 714 0
27 10 831 1191 90 0 211
28 20 95 455 90 0 188
29 10 199 559 90 0 73
30 -30 783 1143 90 62 0
31 30 282 642 0 0 827
32 -10 465 825 90 34 0
33 10 470 830 90 0 583
34 10 176 536 90 0 32
35 30 135 495 90 0 671
36 -10 869 1229 90 66 0
37 10 480 840 90 0 402
38 20 548 908 90 0 358
39 20 95 455 90 0 224
40 10 462 822 90 0 622
41 -20 211 571 90 84 0
42 10 173 533 90 0 345
43 40 189 549 90 0 705
44 30 327 687 90 0 658
45 -10 208 568 90 4 0
46 20 184 544 90 0 688
47 30 113 473 90 0 233
48 -30 761 1121 90 580 0
49 10 294 654 0 0 819
50 10 84 444 90 0 186
51 -10 782 1142 90 59 0
52 -30 302 662 90 218 0
53 -10 656 1016 90 417 0
54 10 319 679 0 0 818
55 -20 843 1203 90 91 0
56 30 178 538 90 0 434
57 20 85 445 90 0 509
58 -30 323 683 90 699 0
59 10 596 956 90 0 51
60 -10 391 751 90 675 0
61 -20 668 1028 90 780 0
62 30 505 865 90 0 30
63 -20 516 876 90 605 0
64 -20 185 545 90 760 0
65 20 133 493 90 0 400
66 10 622 982 90 0 36
67 10 770 1130 90 0 700
68 -10 768 1128 90 734 0
69 30 117 477 0 0 821
70 10 663 1023 90 0 372
71 10 298 658 90 0 720
72 -10 356 716 90 764 0
73 -10 199 559 90 29 0
74 20 479 839 90 0 290
75 10 121 481 90 0 387
76 20 395 755 90 0 191
77 -10 831 1191 90 660 0
78 10 402 762 90 0 634
79 20 168 528 90 0 754
80 20 41 401 90 0 608
81 10 462 822 90 0 473
82 10 228 588 90 0 96
83 -10 746 1106 90 697 0
84 20 207 567 90 0 41
85 -10 491 851 90 707 0
86 -30 469 829 90 654 0
87 20 749 1109 90 0 105
88 -20 194 554 90 472 0
89 20 60 420 90 0 229
90 20 439 799 90 0 131
91 20 368 728 90 0 55
92 20 176 536 90 0 691
93 20 192 552 90 0 413
94 20 278 638 90 0 346
95 10 796 1156 90 0 603
96 -10 411 771 90 82 0
97 10 540 900 90 0 209
98 -10 931 1291 90 729 0
99 -20 181 541 90 212 0
100 30 159 519 90 0 252
101 30 233 593 90 0 741
102 10 505 865 0 0 828
103 20 620 980 90 0 684
104 -20 364 724 90 298 0
105 -20 841 1201 90 87 0
106 -10 1022 1382 90 318 0
107 20 293 653 90 0 554
108 -20 371 731 90 531 0
109 10 420 780 90 0 747
110 20 103 463 90 0 322
111 -20 497 857 90 306 0
112 -10 676 1036 90 667 0
113 -20 502 862 90 662 0
114 30 415 775 90 0 466
115 -10 502 862 90 733 0
116 20 64 424 90 0 648
117 -20 308 668 90 309 0
118 30 102 462 90 0 398
119 -10 884 1244 90 197 0
120 20 628 988 90 0 267
121 -10 196 556 90 236 0
122 -10 810 1170 90 487 0
123 20 207 567 90 0 694
124 30 67 427 90 0 717
125 -10 588 948 90 773 0
126 -50 305 665 90 575 0
127 10 217 577 90 0 595
128 20 273 633 90 0 406
129 -30 459 819 90 382 0
130 10 93 453 90 0 135
131 -20 625 985 90 90 0
132 10 238 598 90 0 411
133 -30 156 516 90 502 0
134 -30 181 541 90 321 0
135 -10 100 460 90 130 0
136 -20 894 1254 90 664 0
137 -10 930 1290 90 503 0
138 20 171 531 90 0 198
139 10 193 553 90 0 507
140 -20 329 689 90 196 0
141 10 216 576 90 0 251
142 10 221 581 90 0 441
143 20 484 844 90 0 752
144 -20 444 804 90 739 0
145 -10 711 1071 90 311 0
146 20 135 495 90 0 16
147 -10 968 1328 90 285 0
148 10 73 433 90 0 801
149 10 306 666 90 0 20
150 -20 299 659 90 478 0
151 30 38 398 90 0 335
152 -40 1012 1372 90 617 0
153 -20 857 1217 90 782 0
154 -20 352 712 90 578 0
155 -20 547 907 90 562 0
156 10 235 595 90 0 481
157 -10 861 1221 90 328 0
158 -10 657 1017 90 696 0
159 20 321 681 90 0 412
160 10 100 460 0 0 817
161 -40 880 1240 90 343 0
162 -10 306 666 90 701 0
163 20 90 450 0 0 812
164 10 94 454 90 0 221
165 -20 119 479 90 442 0
166 -10 503 863 90 8 0
167 -10 1027 1387 90 447 0
168 -20 673 1033 90 192 0
169 10 196 556 90 0 253
170 20 151 511 90 0 484
171 -20 712 1072 90 416 0
172 -20 1019 1379 90 740 0
173 -20 719 1079 90 331 0
174 40 287 647 90 0 573
175 10 61 421 90 0 286
176 20 678 1038 90 0 767
177 -10 61 421 90 778 0
178 20 673 1033 0 0 829
179 -20 430 790 90 181 0
180 20 200 560 90 0 249
181 20 142 502 90 0 179
182 20 599 959 90 0 759
183 -10 971 1331 90 474 0
184 -20 779 1139 90 567 0
185 30 206 566 90 0 632
186 -10 185 545 90 50 0
187 30 256 616 0 0 835
188 -20 284 644 90 28 0
189 20 273 633 0 0 825
190 20 751 1111 90 0 239
191 -20 494 854 90 76 0
192 20 105 465 90 0 168
193 10 380 740 90 0 449
194 20 38 398 90 0 237
195 -30 937 1297 90 628 0
196 20 123 483 90 0 140
197 10 330 690 90 0 119
198 -20 225 585 90 138 0
199 10 378 738 90 0 327
200 20 67 427 90 0 795
201 -20 836 1196 90 572 0
202 -10 98 458 90 344 0
203 -10 658 1018 90 571 0
204 -20 430 790 90 607 0
205 -10 840 1200 90 245 0
206 -10 742 1102 90 365 0
207 -10 340 700 90 657 0
208 10 282 642 90 0 600
209 -10 632 992 90 97 0
210 -10 180 540 90 292 0
211 -10 1016 1376 90 27 0
212 20 176 536 90 0 99
213 10 104 464 90 0 22
214 10 267 627 90 0 296
215 -10 598 958 90 291 0
216 -30 565 925 90 379 0
217 10 267 627 0 0 830
218 30 203 563 90 0 52
219 10 397 757 90 0 405
220 -20 578 938 90 630 0
221 -10 464 824 90 164 0
222 -20 228 588 90 616 0
223 10 90 450 90 0 396
224 -20 460 820 90 39 0
225 -10 845 1205 90 557 0
226 -40 238 598 90 504 0
227 10 106 466 90 0 428
228 20 1019 1379 0 0 836
229 -20 718 1078 90 89 0
230 -10 1060 1420 90 538 0
231 20 827 1187 90 0 491
232 -10 610 970 90 339 0
233 -30 401 761 90 47 0
234 20 135 495 90 0 545
235 -30 537 897 90 799 0
236 10 124 484 90 0 121
237 -20 645 1005 90 194 0
238 10 209 569 90 0 367
239 -20 1032 1392 90 190 0
240 -20 859 1219 90 552 0
241 -20 685 1045 90 278 0
242 10 646 1006 90 0 261
243 10 599 959 90 0 612
244 20 130 490 90 0 299
245 10 749 1109 90 0 205
246 20 237 597 90 0 680
247 -30 488 848 90 265 0
248 -20 173 533 90 435 0
249 -20 304 664 90 180 0
250 20 181 541 90 0 661
251 -10 587 947 90 141 0
252 -30 292 652 90 100 0
253 -10 481 841 90 169 0
254 -30 477 837 90 692 0
255 30 204 564 90 0 480
256 10 145 505 90 0 313
257 10 140 500 90 0 283
258 -20 134 494 90 353 0
259 -20 588 948 90 392 0
260 40 215 575 0 0 822
261 -10 928 1288 90 242 0
262 -10 875 1235 90 713 0
263 -10 395 755 90 536 0
264 10 465 825 90 0 10
265 30 228 588 90 0 247
266 20 185 545 90 0 726
267 -20 789 1149 90 120 0
268 -20 760 1120 90 524 0
269 -30 226 586 90 512 0
270 20 101 461 90 0 280
271 10 504 864 90 0 374
272 20 442 802 90 0 404
273 20 786 1146 90 0 725
274 -30 754 1114 90 347 0
275 -10 369 729 90 763 0
276 10 792 1152 0 0 804
277 10 87 447 90 0 465
278 20 118 478 90 0 241
279 -20 66 426 90 401 0
280 -20 201 561 90 270 0
281 20 255 615 90 0 753
282 10 591 951 0 0 803
283 -10 704 1064 90 257 0
284 20 561 921 0 0 833
285 10 310 670 90 0 147
286 -10 802 1162 90 175 0
287 -20 796 1156 90 513 0
288 -20 657 1017 90 787 0
289 -10 406 766 90 378 0
290 -20 571 931 90 74 0
291 10 185 545 90 0 215
292 10 127 487 90 0 210
293 -20 465 825 90 494 0
294 30 411 771 90 0 649
295 20 679 1039 90 0 527
296 -10 289 649 90 214 0
297 -20 640 1000 90 453 0
298 20 168 528 90 0 104
299 -20 314 674 90 244 0
300 -20 94 454 90 371 0
301 -30 274 634 90 470 0
302 20 793 1153 0 0 820
303 20 227 587 90 0 518
304 10 456 816 90 0 757
305 10 114 474 90 0 689
306 20 315 675 90 0 111
307 -20 410 770 90 468 0
308 20 375 735 90 0 496
309 20 209 569 90 0 117
310 20 777 1137 90 0 349
311 10 173 533 90 0 145
312 10 663 1023 90 0 23
313 -10 342 702 90 256 0
314 10 228 588 90 0 315
315 -10 240 600 90 314 0
316 30 260 620 90 0 351
317 -20 201 561 90 547 0
318 10 865 1225 90 0 106
319 10 525 885 90 0 421
320 10 197 557 90 0 668
321 30 177 537 90 0 134
322 -20 196 556 90 110 0
323 -10 657 1017 90 599 0
324 40 523 883 90 0 716
325 -10 768 1128 90 332 0
326 -20 981 1341 90 677 0
327 -10 754 1114 90 199 0
328 10 294 654 90 0 157
329 -30 244 604 90 719 0
330 -10 79 439 90 744 0
331 20 536 896 90 0 173
332 10 486 846 90 0 325
333 -10 581 941 90 452 0
334 -20 188 548 90 665 0
335 -30 438 798 90 151 0
336 -30 144 504 90 370 0
337 20 331 691 90 0 570
338 -10 898 1258 90 783 0
339 10 251 611 90 0 232
340 -20 348 708 90 774 0
341 10 994 1354 90 0 541
342 -10 175 535 90 669 0
343 40 183 543 90 0 161
344 10 96 456 90 0 202
345 -10 856 1216 90 42 0
346 -20 372 732 90 94 0
347 30 197 557 90 0 274
348 20 237 597 90 0 6
349 -20 960 1320 90 310 0
350 -20 181 541 90 627 0
351 -30 447 807 90 316 0
352 -30 412 772 90 437 0
353 20 35 395 90 0 258
354 10 412 772 90 0 670
355 -10 656 1016 90 443 0
356 -10 697 1057 90 785 0
357 20 467 827 90 0 486
358 -20 640 1000 90 38 0
359 -10 549 909 90 715 0
360 -20 422 782 90 499 0
361 -20 777 1137 90 703 0
362 10 952 1312 90 0 386
363 -10 294 654 90 458 0
364 -20 653 1013 90 522 0
365 10 92 452 90 0 206
366 -10 593 953 90 537 0
367 -10 683 1043 90 238 0
368 -30 575 935 90 516 0
369 40 171 531 90 0 756
370 30 142 502 90 0 336
371 20 92 452 90 0 300
372 -10 877 1237 90 70 0
373 20 255 615 90 0 21
374 -10 694 1054 90 271 0
375 10 276 636 90 0 633
376 30 172 532 90 0 629
377 -30 753 1113 90 686 0
378 10 119 479 90 0 289
379 30 179 539 90 0 216
380 30 112 472 90 0 637
381 10 642 1002 90 0 475
382 30 267 627 90 0 129
383 -10 546 906 90 463 0
384 10 372 732 90 0 542
385 20 128 488 90 0 604
386 -10 1044 1404 90 362 0
387 -10 874 1234 90 75 0
388 -20 972 1332 90 532 0
389 20 219 579 90 0 651
390 30 380 740 90 0 590
391 20 392 752 90 0 433
392 20 313 673 90 0 259
393 -30 1121 1481 90 519 0
394 -10 330 690 90 659 0
395 20 504 864 90 0 501
396 -10 563 923 90 223 0
397 20 642 1002 90 0 457
398 -30 107 467 90 118 0
399 20 125 485 90 0 408
400 -20 598 958 90 65 0
401 20 61 421 90 0 279
402 -10 669 1029 90 37 0
403 -20 745 1105 90 770 0
404 -20 882 1242 90 272 0
405 -10 582 942 90 219 0
406 -20 560 920 90 128 0
407 -40 700 1060 90 24 0
408 -20 1058 1418 90 399 0
409 20 414 774 90 0 755
410 -20 496 856 90 711 0
411 -10 375 735 90 132 0
412 -20 965 1325 90 159 0
413 -20 289 649 90 93 0
414 -20 575 935 90 584 0
415 -20 931 1291 90 5 0
416 20 332 692 90 0 171
417 10 561 921 90 0 53
418 20 183 543 90 0 614
419 -20 85 445 90 490 0
420 -10 1028 1388 90 642 0
421 -10 619 979 90 319 0
422 10 186 546 90 0 25
423 -30 400 760 90 550 0
424 10 278 638 90 0 429
425 30 121 481 90 0 517
426 20 871 1231 0 0 816
427 -10 761 1121 90 656 0
428 -10 111 471 90 227 0
429 -10 554 914 90 424 0
430 -20 344 704 90 772 0
431 30 401 761 90 0 781
432 -10 857 1217 90 646 0
433 -20 764 1124 90 391 0
434 -30 199 559 90 56 0
435 20 170 530 90 0 248
436 20 431 791 90 0 543
437 30 126 486 90 0 352
438 10 381 741 90 0 593
439 10 652 1012 90 0 678
440 10 149 509 0 0 808
441 -10 532 892 90 142 0
442 20 115 475 90 0 165
443 10 182 542 90 0 355
444 -10 861 1221 90 765 0
445 -20 764 1124 90 467 0
446 -20 318 678 90 489 0
447 10 114 474 90 0 167
448 10 365 725 90 0 523
449 -10 566 926 90 193 0
450 30 205 565 0 0 837
451 20 405 765 0 0 813
452 10 201 561 90 0 333
453 20 165 525 90 0 297
454 20 178 538 90 0 615
455 -20 563 923 90 529 0
456 10 772 1132 0 0 807
457 -20 736 1096 90 397 0
458 10 210 570 90 0 363
459 -10 805 1165 90 591 0
460 -10 747 1107 90 477 0
461 -20 950 1310 90 551 0
462 20 79 439 90 0 493
463 10 271 631 90 0 383
464 -20 404 764 90 469 0
465 -10 677 1037 90 277 0
466 -30 508 868 90 114 0
467 20 386 746 90 0 445
468 20 225 585 90 0 307
469 20 203 563 90 0 464
470 30 179 539 90 0 301
471 20 144 504 90 0 618
472 20 138 498 90 0 88
473 -10 739 1099 90 81 0
474 10 803 1163 90 0 183
475 -10 920 1280 90 381 0
476 -10 587 947 90 558 0
477 10 467 827 90 0 460
478 20 199 559 90 0 150
479 -10 632 992 90 693 0
480 -30 207 567 90 255 0
481 -10 712 1072 90 156 0
482 -20 422 782 90 724 0
483 -20 1009 1369 90 9 0
484 -20 406 766 90 170 0
485 -10 471 831 90 797 0
486 -20 991 1351 90 357 0
487 10 530 890 90 0 122
488 10 41 401 90 0 750
489 20 217 577 90 0 446
490 20 83 443 90 0 419
491 -20 1012 1372 90 231 0
492 30 67 427 90 0 727
493 -20 91 451 90 462 0
494 20 182 542 90 0 293
495 -30 238 598 90 497 0
496 -20 474 834 90 308 0
497 30 144 504 90 0 495
498 -10 712 1072 90 577 0
499 20 277 637 90 0 360
500 -30 770 1130 90 788 0
501 -20 521 881 90 395 0
502 30 150 510 90 0 133
503 10 747 1107 90 0 137
504 40 233 593 90 0 226
505 -10 246 606 90 525 0
506 30 204 564 90 0 549
507 -10 380 740 90 139 0
508 -10 526 886 90 766 0
509 -20 222 582 90 57 0
510 10 186 546 0 0 832
511 -10 381 741 90 751 0
512 30 84 444 90 0 269
513 20 699 1059 90 0 287
514 10 784 1144 90 0 19
515 -20 302 662 90 798 0
516 30 384 744 90 0 368
517 -30 129 489 90 425 0
518 -20 240 600 90 303 0
519 30 594 954 90 0 393
520 -20 182 542 90 631 0
521 10 113 473 90 0 681
522 20 370 730 90 0 364
523 -10 458 818 90 448 0
524 20 514 874 90 0 268
525 10 347 707 90 0 505
526 -10 1110 1470 90 592 0
527 -20 587 947 90 295 0
528 20 167 527 90 0 588
529 20 173 533 90 0 455
530 10 875 1235 90 0 535
531 20 178 538 90 0 108
532 20 279 639 90 0 388
533 20 570 930 90 0 702
534 10 308 668 0 0 823
535 -10 966 1326 90 530 0
536 10 207 567 90 0 263
537 10 190 550 90 0 366
538 10 735 1095 90 0 230
539 20 138 498 90 0 687
540 20 506 866 90 0 722
541 -10 996 1356 90 341 0
542 -10 1011 1371 90 384 0
543 -20 718 1078 90 436 0
544 -30 244 604 90 546 0
545 -20 216 576 90 234 0
546 30 153 513 90 0 544
547 20 64 424 90 0 317
548 20 334 694 0 0 810
549 -30 774 1134 90 506 0
550 30 211 571 90 0 423
551 20 570 930 90 0 461
552 20 576 936 90 0 240
553 -20 515 875 90 621 0
554 -20 389 749 90 107 0
555 -20 757 1117 90 731 0
556 -10 601 961 90 682 0
557 10 96 456 90 0 225
558 10 495 855 90 0 476
559 -30 250 610 90 594 0
560 20 202 562 90 0 761
561 30 171 531 90 0 587
562 20 140 500 90 0 155
563 -20 334 694 90 674 0
564 -30 926 1286 90 704 0
565 -10 504 864 90 683 0
566 -20 262 622 90 645 0
567 20 685 1045 90 0 184
568 -10 452 812 90 786 0
569 -20 560 920 90 673 0
570 -20 613 973 90 337 0
571 10 365 725 90 0 203
572 20 279 639 90 0 201
573 -40 470 830 90 174 0
574 10 234 594 90 0 2
575 50 113 473 90 0 126
576 10 708 1068 0 0 824
577 10 154 514 90 0 498
578 20 42 402 90 0 154
579 -10 598 958 90 13 0
580 30 662 1022 90 0 48
581 20 956 1316 0 0 811
582 10 569 929 0 0 814
583 -10 563 923 90 33 0
584 20 165 525 90 0 414
585 10 279 639 90 0 644
586 10 427 787 0 0 806
587 -30 557 917 90 561 0
588 -20 530 890 90 528 0
589 -20 554 914 90 641 0
590 -30 838 1198 90 390 0
591 10 165 525 90 0 459
592 10 922 1282 90 0 526
593 -10 567 927 90 438 0
594 30 149 509 90 0 559
595 -10 224 584 90 127 0
596 20 58 418 90 0 613
597 20 816 1176 0 0 809
598 30 318 678 90 0 735
599 10 286 646 90 0 323
600 -10 835 1195 90 208 0
601 30 141 501 90 0 743
602 20 138 498 90 0 685
603 -10 892 1252 90 95 0
604 -20 320 680 90 385 0
605 20 422 782 90 0 63
606 -20 725 1085 90 609 0
607 20 239 599 90 0 204
608 -20 366 726 90 80 0
609 20 159 519 90 0 606
610 -20 434 794 90 737 0
611 -30 577 937 90 784 0
612 -10 552 912 90 243 0
613 -20 160 520 90 596 0
614 -20 525 885 90 418 0
615 -20 274 634 90 454 0
616 20 102 462 90 0 222
617 40 66 426 90 0 152
618 -20 179 539 90 471 0
619 -30 692 1052 90 639 0
620 30 134 494 90 0 794
621 20 141 501 90 0 553
622 -10 647 1007 90 40 0
623 -30 220 580 90 777 0
624 -10 584 944 90 769 0
625 -20 387 747 90 15 0
626 20 186 546 90 0 695
627 20 45 405 90 0 350
628 30 175 535 90 0 195
629 -30 274 634 90 376 0
630 20 389 749 90 0 220
631 20 379 739 90 0 520
632 -30 395 755 90 185 0
633 -10 368 728 90 375 0
634 -10 678 1038 90 78 0
635 20 1022 1382 0 0 805
636 -40 303 663 90 723 0
637 -30 304 664 90 380 0
638 10 227 587 90 0 647
639 30 552 912 90 0 619
640 -20 475 835 90 790 0
641 20 371 731 90 0 589
642 10 167 527 90 0 420
643 -20 199 559 90 655 0
644 -10 608 968 90 585 0
645 20 71 431 90 0 566
646 10 194 554 90 0 432
647 -10 899 1259 90 638 0
648 -20 432 792 90 116 0
649 -30 694 1054 90 294 0
650 -30 357 717 90 7 0
651 -20 781 1141 90 389 0
652 30 168 528 90 0 749
653 20 501 861 90 0 709
654 30 462 822 90 0 86
655 20 202 562 90 0 643
656 10 378 738 90 0 427
657 10 51 411 90 0 207
658 -30 852 1212 90 44 0
659 10 39 399 90 0 394
660 10 551 911 90 0 77
661 -20 471 831 90 250 0
662 20 193 553 90 0 113
663 10 215 575 90 0 748
664 20 145 505 90 0 136
665 20 178 538 90 0 334
666 20 243 603 0 0 802
667 10 584 944 90 0 112
668 -10 485 845 90 320 0
669 10 133 493 90 0 342
670 -10 782 1142 90 354 0
671 -30 236 596 90 35 0
672 10 689 1049 0 0 831
673 20 92 452 90 0 569
674 20 232 592 90 0 563
675 10 109 469 90 0 60
676 10 111 471 90 0 789
677 20 72 432 90 0 326
678 -10 838 1198 90 439 0
679 10 421 781 0 0 834
680 -20 619 979 90 246 0
681 -10 606 966 90 521 0
682 10 223 583 90 0 556
683 10 412 772 90 0 565
684 -20 805 1165 90 103 0
685 -20 605 965 90 602 0
686 30 566 926 90 0 377
687 -20 664 1024 90 539 0
688 -20 285 645 90 46 0
689 -10 618 978 90 305 0
690 20 841 1201 0 0 815
691 -20 103 463 90 92 0
692 30 75 435 90 0 254
693 10 539 899 90 0 479
694 -20 528 888 90 123 0
695 -20 391 751 90 626 0
696 10 96 456 90 0 158
697 10 264 624 90 0 83
698 -10 956 1316 90 736 0
699 30 226 586 90 0 58
700 -10 954 1314 90 67 0
701 10 196 556 90 0 162
702 -20 848 1208 90 533 0
703 20 308 668 90 0 361
704 30 363 723 90 0 564
705 -40 376 736 90 43 0
706 -20 491 851 90 738 0
707 10 66 426 90 0 85
708 -30 747 1107 90 762 0
709 -20 691 1051 90 653 0
710 10 555 915 90 0 3
711 20 213 573 90 0 410
712 30 522 882 90 0 746
713 10 687 1047 90 0 262
714 20 30 390 90 0 26
715 10 127 487 90 0 359
716 -40 617 977 90 324 0
717 -30 158 518 90 124 0
718 -10 932 1292 90 12 0
719 30 151 511 90 0 329
720 -10 742 1102 90 71 0
721 30 342 702 90 0 11
722 -20 896 1256 90 540 0
723 40 80 440 90 0 636
724 20 136 496 90 0 482
725 -20 879 1239 90 273 0
726 -20 278 638 90 266 0
727 -30 109 469 90 492 0
728 20 231 591 0 0 826
729 10 838 1198 90 0 98
730 -30 319 679 90 742 0
731 20 663 1023 90 0 555
732 -20 654 1014 90 768 0
733 10 69 429 90 0 115
734 10 399 759 90 0 68
735 -30 842 1202 90 598 0
736 10 678 1038 90 0 698
737 20 152 512 90 0 610
738 20 85 445 90 0 706
739 20 107 467 90 0 144
740 20 684 1044 90 0 172
741 -30 170 530 90 101 0
742 30 137 497 90 0 730
743 -30 792 1152 90 601 0
744 10 41 401 90 0 330
745 20 182 542 90 0 793
746 -30 615 975 90 712 0
747 -10 514 874 90 109 0
748 -10 586 946 90 663 0
749 -30 268 628 90 652 0
750 -10 409 769 90 488 0
751 10 100 460 90 0 511
752 -20 668 1028 90 143 0
753 -20 349 709 90 281 0
754 -20 355 715 90 79 0
755 -20 691 1051 90 409 0
756 -40 609 969 90 369 0
757 -10 1055 1415 90 304 0
758 20 238 598 90 0 776
759 -20 692 1052 90 182 0
760 20 195 555 90 0 64
761 -20 954 1314 90 560 0
762 30 190 550 90 0 708
763 10 89 449 90 0 275
764 10 128 488 90 0 72
765 10 213 573 90 0 444
766 10 337 697 90 0 508
767 -20 862 1222 90 176 0
768 20 449 809 90 0 732
769 10 493 853 90 0 624
770 20 370 730 90 0 403
771 -20 321 681 90 14 0
772 20 253 613 90 0 430
773 10 493 853 90 0 125
774 20 164 524 90 0 340
775 -30 839 1199 90 779 0
776 -20 336 696 90 758 0
777 30 121 481 90 0 623
778 10 73 433 90 0 177
779 30 745 1105 90 0 775
780 20 98 458 90 0 61
781 -30 686 1046 90 431 0
782 20 709 1069 90 0 153
783 10 429 789 90 0 338
784 30 483 843 90 0 611
785 10 512 872 90 0 356
786 10 361 721 90 0 568
787 20 191 551 90 0 288
788 30 495 855 90 0 500
789 -10 203 563 90 676 0
790 20 287 647 90 0 640
791 -20 497 857 90 18 0
792 -20 455 815 90 17 0
793 -20 471 831 90 745 0
794 -30 505 865 90 620 0
795 -20 116 476 90 200 0
796 -20 746 1106 90 800 0
797 10 175 535 90 0 485
798 20 201 561 90 0 515
799 30 440 800 90 0 235
800 20 654 1014 90 0 796
801 -10 216 576 90 148 0
802 -20 243 603 90 666 0
803 -10 591 951 90 282 0
804 -10 792 1152 90 276 0
805 -20 1022 1382 90 635 0
806 -10 427 787 90 586 0
807 -10 772 1132 90 456 0
808 -10 149 509 90 440 0
809 -20 816 1176 90 597 0
810 -20 334 694 90 548 0
811 -20 956 1316 90 581 0
812 -20 90 450 90 163 0
813 -20 405 765 90 451 0
814 -10 569 929 90 582 0
815 -20 841 1201 90 690 0
816 -20 871 1231 90 426 0
817 -10 100 460 90 160 0
818 -10 319 679 90 54 0
819 -10 294 654 90 49 0
820 -20 793 1153 90 302 0
821 -30 117 477 90 69 0
822 -40 215 575 90 260 0
823 -10 308 668 90 534 0
824 -10 708 1068 90 576 0
825 -20 273 633 90 189 0
826 -20 231 591 90 728 0
827 -30 282 642 90 31 0
828 -10 505 865 90 102 0
829 -20 673 1033 90 178 0
830 -10 267 627 90 217 0
831 -10 689 1049 90 672 0
832 -10 186 546 90 510 0
833 -20 561 921 90 284 0
834 -10 421 781 90 679 0
835 -30 256 616 90 187 0
836 -20 1019 1379 90 228 0
837 -30 205 565 90 450 0
DEPOT_SECTION
1
-1
EOF
