NAME: lc1_8_3
TYPE: PDPTW
COMMENT: Li & Lim PDPTW benchmark converted from SINTEF format
DIMENSION: 835
VEHICLES: 200
CAPACITY: 200
EDGE_WEIGHT_TYPE: EUC_2D
NODE_COORD_SECTION
1 200 200
2 385 56
3 201 297
4 57 353
5 201 386
6 359 23
7 210 268
8 219 148
9 306 390
10 32 251
11 130 70
12 103 172
13 319 217
14 99 241
15 368 102
16 307 310
17 158 366
18 286 9
19 267 161
20 304 141
21 143 261
22 183 303
23 218 284
24 318 335
25 53 330
26 233 208
27 113 179
28 109 170
29 276 16
30 128 93
31 221 379
32 185 386
33 14 210
34 180 375
35 164 69
36 53 354
37 275 8
38 142 260
39 183 294
40 373 253
41 15 100
42 51 288
43 131 130
44 184 343
45 56 351
46 208 384
47 204 87
48 61 333
49 313 194
50 271 154
51 314 399
52 14 100
53 273 160
54 359 38
55 173 381
56 153 368
57 270 151
58 29 355
59 310 395
60 312 200
61 107 247
62 126 91
63 229 229
64 196 293
65 82 247
66 42 384
67 83 357
68 280 282
69 270 106
70 369 106
71 393 272
72 93 62
73 275 15
74 372 104
75 134 98
76 339 41
77 303 61
78 97 10
79 211 274
80 159 207
81 111 184
82 155 206
83 95 47
84 18 100
85 21 96
86 126 126
87 102 169
88 35 293
89 240 246
90 255 239
91 179 383
92 147 263
93 367 104
94 277 154
95 179 336
96 157 205
97 231 243
98 92 50
99 375 247
100 152 240
101 187 341
102 234 214
103 364 27
104 52 297
105 103 168
106 23 98
107 153 107
108 14 201
109 386 57
110 244 109
111 393 307
112 96 235
113 49 353
114 28 356
115 85 155
116 248 243
117 94 13
118 134 279
119 158 64
120 346 179
121 20 127
122 46 378
123 337 47
124 250 241
125 200 89
126 289 11
127 393 301
128 182 379
129 301 57
130 111 170
131 249 239
132 294 311
133 352 162
134 363 270
135 106 173
136 72 257
137 311 334
138 305 336
139 22 125
140 293 310
141 40 54
142 234 212
143 91 27
144 351 153
145 304 301
146 291 301
147 92 162
148 135 167
149 300 132
150 93 23
151 236 210
152 41 56
153 114 250
154 161 233
155 344 283
156 346 385
157 129 278
158 238 101
159 127 87
160 185 299
161 37 56
162 55 357
163 272 154
164 158 283
165 298 137
166 266 116
167 306 329
168 302 203
169 115 257
170 329 241
171 362 28
172 53 347
173 345 178
174 244 106
175 149 234
176 84 359
177 243 244
178 122 281
179 68 263
180 84 363
181 68 254
182 32 357
183 314 390
184 393 312
185 82 365
186 276 157
187 179 134
188 106 177
189 140 264
190 172 383
191 347 45
192 305 198
193 100 175
194 168 178
195 177 379
196 280 290
197 165 63
198 308 393
199 243 106
200 210 141
201 366 251
202 131 131
203 129 134
204 369 19
205 153 280
206 91 70
207 328 239
208 131 127
209 230 241
210 20 204
211 116 181
212 371 244
213 182 300
214 49 291
215 76 206
216 37 286
217 349 275
218 21 104
219 17 96
220 126 284
221 154 288
222 129 85
223 199 290
224 198 295
225 237 109
226 385 55
227 101 239
228 54 348
229 250 236
230 65 298
231 57 291
232 230 225
233 200 83
234 328 243
235 188 133
236 88 150
237 113 183
238 209 85
239 174 375
240 281 16
241 87 155
242 85 67
243 125 95
244 235 212
245 153 281
246 347 385
247 156 111
248 302 60
249 75 368
250 207 381
251 38 49
252 110 254
253 102 252
254 220 288
255 295 19
256 344 176
257 188 338
258 167 174
259 318 219
260 281 291
261 96 69
262 314 396
263 97 242
264 27 251
265 166 170
266 157 283
267 236 204
268 177 300
269 75 206
270 151 111
271 74 253
272 350 182
273 360 46
274 369 107
275 109 186
276 286 308
277 222 284
278 93 149
279 152 237
280 152 109
281 357 160
282 395 310
283 179 338
284 243 104
285 40 53
286 70 256
287 396 59
288 103 171
289 79 154
290 370 104
291 110 188
292 73 213
293 85 44
294 361 39
295 344 49
296 48 326
297 344 280
298 54 285
299 233 214
300 197 293
301 21 201
302 78 246
303 31 353
304 52 295
305 277 285
306 393 306
307 268 114
308 219 377
309 99 16
310 51 354
311 353 276
312 217 286
313 359 178
314 78 251
315 62 258
316 237 247
317 310 196
318 24 96
319 128 68
320 383 273
321 362 272
322 245 106
323 39 285
324 327 242
325 127 279
326 162 69
327 237 108
328 129 288
329 306 303
330 122 183
331 348 179
332 127 286
333 382 266
334 222 383
335 209 150
336 308 296
337 161 182
338 340 388
339 253 243
340 181 134
341 342 384
342 301 58
343 90 53
344 131 132
345 60 328
346 281 155
347 369 100
348 358 23
349 53 353
350 26 247
351 234 243
352 76 251
353 172 178
354 74 201
355 174 387
356 161 63
357 317 335
358 140 260
359 52 292
360 290 311
361 89 154
362 130 279
363 273 12
364 147 283
365 135 134
366 49 352
367 195 91
368 105 250
369 159 367
370 304 297
371 197 292
372 300 144
373 158 239
374 69 245
375 195 294
376 356 274
377 133 137
378 91 150
379 46 292
380 203 88
381 55 291
382 299 58
383 158 364
384 86 47
385 72 210
386 132 279
387 128 94
388 39 56
389 39 54
390 203 388
391 92 26
392 321 217
393 111 165
394 232 232
395 155 202
396 201 387
397 303 59
398 131 283
399 131 95
400 73 250
401 150 236
402 278 7
403 33 247
404 234 203
405 22 96
406 180 387
407 287 307
408 129 98
409 127 90
410 39 48
411 316 336
412 128 95
413 370 98
414 90 26
415 204 381
416 363 24
417 277 163
418 315 341
419 222 283
420 109 167
421 124 69
422 41 297
423 302 136
424 108 186
425 321 209
426 92 155
427 108 250
428 100 243
429 113 184
430 211 147
431 41 52
432 25 118
433 94 31
434 87 365
435 300 62
436 34 385
437 83 248
438 186 304
439 317 331
440 348 176
441 211 154
442 298 138
443 182 378
444 100 6
445 279 12
446 308 396
447 275 287
448 363 267
449 104 171
450 391 271
451 320 216
452 389 271
453 349 272
454 28 246
455 92 46
456 24 93
457 307 59
458 293 15
459 300 299
460 272 161
461 24 121
462 152 263
463 156 367
464 48 361
465 280 283
466 31 357
467 275 12
468 264 112
469 58 346
470 21 204
471 295 307
472 72 253
473 111 179
474 336 387
475 58 294
476 84 360
477 278 159
478 98 28
479 346 155
480 295 16
481 337 388
482 182 338
483 308 389
484 392 307
485 34 289
486 342 385
487 43 386
488 227 231
489 302 392
490 221 281
491 60 293
492 177 137
493 157 281
494 90 54
495 232 234
496 189 306
497 229 237
498 126 70
499 230 290
500 99 7
501 171 179
502 346 163
503 313 334
504 382 54
505 329 236
506 335 47
507 17 125
508 305 306
509 356 41
510 89 51
511 47 328
512 117 187
513 391 54
514 299 141
515 336 42
516 109 252
517 324 216
518 40 380
519 86 154
520 225 288
521 294 136
522 154 284
523 361 269
524 181 339
525 257 239
526 119 179
527 346 48
528 238 250
529 95 64
530 389 307
531 22 205
532 89 48
533 217 289
534 280 288
535 389 306
536 97 248
537 55 324
538 56 289
539 187 338
540 366 39
541 339 384
542 40 56
543 46 380
544 351 177
545 393 297
546 351 176
547 249 242
548 63 262
549 346 53
550 297 135
551 12 117
552 279 4
553 291 308
554 157 102
555 15 116
556 364 43
557 242 113
558 82 360
559 133 68
560 274 14
561 34 242
562 331 251
563 344 391
564 301 66
565 309 397
566 213 271
567 397 313
568 348 280
569 150 284
570 172 180
571 132 159
572 376 254
573 242 105
574 383 53
575 276 116
576 322 242
577 134 63
578 158 206
579 237 213
580 52 334
581 101 10
582 52 331
583 17 209
584 102 67
585 321 339
586 167 180
587 29 250
588 254 240
589 371 253
590 203 384
591 350 271
592 114 178
593 186 306
594 137 64
595 393 305
596 215 143
597 256 231
598 267 112
599 33 293
600 94 70
601 166 67
602 164 66
603 183 332
604 73 203
605 232 230
606 345 158
607 360 23
608 142 262
609 353 164
610 129 67
611 308 204
612 82 65
613 210 144
614 341 394
615 26 250
616 148 112
617 177 138
618 313 340
619 240 210
620 75 208
621 293 306
622 372 256
623 324 217
624 282 282
625 374 104
626 376 251
627 156 207
628 183 375
629 364 267
630 129 293
631 220 296
632 75 367
633 196 295
634 97 6
635 93 51
636 95 243
637 206 81
638 357 39
639 358 266
640 16 120
641 374 253
642 99 67
643 99 28
644 289 306
645 210 271
646 21 125
647 359 30
648 327 241
649 361 44
650 211 266
651 29 59
652 132 170
653 310 143
654 139 161
655 97 29
656 35 291
657 227 240
658 175 299
659 227 229
660 303 58
661 203 387
662 53 326
663 96 14
664 66 254
665 214 378
666 41 382
667 96 237
668 388 267
669 263 110
670 79 209
671 168 62
672 76 207
673 157 282
674 345 382
675 308 196
676 130 286
677 176 132
678 313 335
679 164 62
680 338 391
681 390 52
682 355 39
683 309 399
684 363 30
685 162 61
686 129 132
687 179 305
688 207 391
689 305 304
690 22 210
691 114 254
692 208 274
693 349 157
694 364 25
695 391 269
696 244 114
697 95 63
698 23 97
699 32 352
700 86 357
701 51 326
702 220 283
703 87 153
704 299 52
705 129 124
706 93 237
707 142 168
708 204 385
709 301 139
710 197 300
711 44 54
712 70 264
713 311 395
714 229 209
715 84 252
716 323 243
717 251 241
718 103 167
719 308 301
720 367 255
721 131 67
722 386 60
723 151 264
724 186 336
725 359 49
726 154 282
727 150 108
728 28 353
729 93 48
730 156 206
731 11 115
732 93 47
733 138 168
734 280 287
735 268 160
736 20 91
737 134 62
738 147 264
739 307 196
740 49 351
741 160 366
742 154 206
743 156 63
744 168 177
745 220 381
746 68 261
747 389 54
748 96 8
749 126 161
750 231 219
751 114 252
752 89 29
753 355 156
754 236 243
755 127 94
756 176 342
757 62 301
758 41 378
759 34 355
760 183 301
761 277 19
762 211 389
763 115 185
764 133 94
765 98 13
766 306 306
767 85 358
768 93 59
769 282 283
770 25 256
771 76 250
772 212 146
773 202 85
774 178 133
775 204 292
776 39 384
777 321 212
778 239 254
779 206 296
780 116 252
781 33 56
782 67 258
783 347 395
784 310 200
785 163 63
786 348 279
787 106 174
788 95 8
789 129 287
790 19 127
791 286 17
792 158 365
793 223 372
794 75 203
795 207 87
796 19 206
797 49 289
798 335 50
799 181 132
800 18 208
801 89 152
802 341 394
803 53 354
804 359 38
805 207 87
806 389 307
807 100 6
808 275 12
809 373 253
810 84 363
811 270 151
812 33 293
813 266 116
814 22 210
815 33 247
816 238 250
817 351 176
818 179 336
819 131 127
820 217 286
821 324 216
822 187 338
823 372 104
824 314 390
825 129 278
826 99 241
827 237 108
828 273 160
829 113 179
830 147 283
831 152 237
832 157 205
833 256 231
834 234 214
835 172 180
PICKUP_AND_DELIVERY_SECTION
1 0 0 1676 0 0 0
2 10 473 544 90 0 747
3 -10 805 855 90 223 0
4 10 0 1377 90 0 464
5 -30 0 1400 90 390 0
6 30 298 358 90 0 204
7 30 0 1518 90 0 657
8 10 55 110 90 0 307
9 20 0 1369 90 0 565
10 -30 804 857 90 587 0
11 -30 956 1015 90 594 0
12 10 0 1486 90 0 105
13 -20 0 1466 90 648 0
14 20 173 225 0 0 826
15 20 0 1392 90 0 70
16 -10 0 1433 90 683 0
17 -10 0 1415 90 463 0
18 -30 551 606 90 255 0
19 -10 0 1509 90 477 0
20 10 0 1467 90 0 442
21 30 605 669 90 0 358
22 20 442 493 90 0 205
23 -10 0 1501 90 775 0
24 -10 0 1407 90 411 0
25 30 624 690 90 0 345
26 -10 0 1553 90 488 0
27 10 986 1037 0 0 829
28 20 151 220 90 0 330
29 10 199 241 90 0 174
30 10 0 1458 90 0 222
31 -20 0 1406 90 745 0
32 -10 602 689 90 55 0
33 -20 623 677 90 531 0
34 -10 0 1410 90 195 0
35 30 0 1451 90 0 601
36 10 1020 1079 0 0 803
37 -20 625 696 90 560 0
38 -20 0 1503 90 189 0
39 20 95 169 90 0 221
40 10 0 1406 0 0 809
41 10 356 426 90 0 219
42 10 236 291 90 0 304
43 40 0 1488 90 0 473
44 -20 478 535 90 665 0
45 10 0 1378 90 0 469
46 20 0 1402 90 0 762
47 30 0 1473 90 0 125
48 10 913 969 90 0 422
49 -20 0 1473 90 313 0
50 -10 0 1502 90 457 0
51 -30 0 1357 90 198 0
52 -30 0 1375 90 218 0
53 10 0 1503 0 0 828
54 10 478 520 0 0 804
55 10 0 1403 90 0 32
56 30 331 385 90 0 756
57 20 0 1501 0 0 811
58 10 490 517 90 0 114
59 -10 0 1363 90 446 0
60 30 0 1474 90 0 784
61 -30 0 1482 90 368 0
62 -20 0 1455 90 409 0
63 -20 667 724 90 394 0
64 20 333 396 90 0 633
65 -20 0 1459 90 771 0
66 10 0 1344 90 0 758
67 -20 0 1391 90 176 0
68 -20 0 1472 90 471 0
69 30 182 247 90 0 669
70 -20 0 1393 90 15 0
71 -10 0 1381 90 320 0
72 20 511 562 90 0 261
73 20 259 321 90 0 363
74 20 0 1390 0 0 823
75 10 0 1465 90 0 554
76 -20 542 608 90 798 0
77 -10 966 1055 90 660 0
78 -20 550 614 90 309 0
79 20 315 381 90 0 209
80 20 41 92 90 0 82
81 10 0 1496 90 0 429
82 -20 376 441 90 80 0
83 -10 900 952 90 384 0
84 20 0 1379 90 0 698
85 20 0 1379 90 0 318
86 20 624 674 90 0 203
87 -10 0 1484 90 288 0
88 -10 0 1397 90 537 0
89 20 0 1526 90 0 351
90 -10 0 1519 90 339 0
91 20 0 1402 90 0 128
92 20 324 387 90 0 266
93 20 0 1394 90 0 693
94 20 430 485 90 0 460
95 10 0 1449 0 0 818
96 20 557 625 0 0 832
97 10 0 1533 90 0 497
98 -10 1081 1140 90 729 0
99 10 243 300 90 0 523
100 30 308 370 90 0 232
101 -10 0 1445 90 283 0
102 10 660 710 0 0 834
103 -20 766 834 90 348 0
104 20 0 1410 90 0 491
105 -10 984 1058 90 12 0
106 -20 1201 1254 90 731 0
107 -10 446 501 90 727 0
108 -30 0 1400 90 470 0
109 10 0 1352 90 0 681
110 -10 259 308 90 557 0
111 -20 0 1366 90 306 0
112 -10 834 879 90 667 0
113 -30 0 1372 90 580 0
114 -10 0 1354 90 58 0
115 -20 651 714 90 801 0
116 20 64 132 90 0 229
117 -10 0 1372 90 663 0
118 30 0 1484 90 0 398
119 -10 0 1444 90 743 0
120 -10 0 1439 90 440 0
121 -10 341 411 90 139 0
122 -10 0 1351 90 543 0
123 -30 352 421 90 506 0
124 30 212 283 90 0 588
125 -30 0 1475 90 47 0
126 20 0 1378 90 0 445
127 10 272 348 90 0 595
128 -20 0 1407 90 91 0
129 10 0 1411 90 0 397
130 10 93 146 90 0 237
131 20 0 1524 90 0 754
132 -30 386 449 90 370 0
133 -10 0 1430 90 248 0
134 -20 0 1409 90 720 0
135 -20 0 1489 90 787 0
136 -20 0 1446 90 548 0
137 10 0 1412 90 0 138
138 -10 0 1415 90 137 0
139 10 193 258 90 0 121
140 -30 0 1442 90 336 0
141 10 285 331 90 0 285
142 10 374 428 90 0 151
143 -20 623 704 90 293 0
144 -20 0 1428 90 791 0
145 -10 855 926 90 644 0
146 20 135 219 90 0 168
147 -20 1110 1185 90 426 0
148 10 0 1514 90 0 393
149 -10 459 513 90 521 0
150 10 445 513 90 0 414
151 -10 0 1549 90 142 0
152 -10 1308 1359 90 456 0
153 20 1000 1074 90 0 252
154 -20 0 1535 90 401 0
155 20 0 1420 90 0 778
156 -20 0 1351 90 674 0
157 20 1010 1071 0 0 825
158 20 809 865 90 0 596
159 20 0 1452 90 0 408
160 10 171 210 90 0 245
161 -10 0 1369 90 388 0
162 -10 462 509 90 175 0
163 -30 0 1501 90 550 0
164 10 0 1493 90 0 673
165 10 269 330 90 0 709
166 10 650 717 0 0 813
167 -10 1172 1241 90 503 0
168 -20 0 1484 90 146 0
169 -20 339 412 90 780 0
170 20 300 363 90 0 207
171 -20 0 1350 90 607 0
172 20 0 1379 90 0 228
173 -20 0 1440 90 479 0
174 -10 0 1483 90 29 0
175 10 61 107 90 0 162
176 20 834 881 90 0 67
177 30 61 126 90 0 196
178 -10 0 1474 90 328 0
179 -20 585 634 90 315 0
180 20 265 323 0 0 810
181 20 200 266 90 0 712
182 -20 0 1357 90 466 0
183 10 0 1365 0 0 824
184 -20 0 1363 90 545 0
185 30 358 414 90 0 476
186 -20 0 1499 90 295 0
187 -20 404 467 90 677 0
188 -10 440 489 90 733 0
189 20 421 485 90 0 38
190 -30 0 1401 90 239 0
191 -20 0 1373 90 725 0
192 20 0 1481 90 0 739
193 10 536 585 90 0 420
194 20 0 1548 90 0 586
195 10 1082 1152 90 0 34
196 -30 271 335 90 177 0
197 10 0 1445 90 0 785
198 30 378 433 90 0 51
199 10 529 588 90 0 573
200 20 215 280 90 0 613
201 -20 988 1044 90 622 0
202 10 244 312 90 0 592
203 -20 810 867 90 86 0
204 -30 570 651 90 6 0
205 -20 996 1045 90 22 0
206 20 0 1417 90 0 764
207 -20 0 1453 90 170 0
208 10 0 1486 0 0 819
209 -20 786 837 90 79 0
210 20 328 393 90 0 583
211 20 1168 1224 90 0 526
212 -10 0 1410 90 452 0
213 10 260 309 90 0 373
214 -20 416 479 90 298 0
215 -20 749 807 90 385 0
216 40 0 1402 90 0 656
217 -30 0 1420 90 321 0
218 30 203 254 90 0 52
219 -10 0 1376 90 41 0
220 10 734 783 90 0 325
221 -20 0 1487 90 39 0
222 -10 0 1451 90 30 0
223 10 90 142 90 0 3
224 -10 598 681 90 375 0
225 -10 990 1060 90 696 0
226 20 0 1351 90 0 513
227 10 106 166 90 0 516
228 -20 1206 1266 90 172 0
229 -20 0 1525 90 116 0
230 -10 1355 1415 90 381 0
231 -10 979 1034 90 797 0
232 -30 752 828 90 100 0
233 10 0 1469 90 0 380
234 20 0 1451 90 0 716
235 -30 688 746 90 492 0
236 -20 274 333 90 278 0
237 -10 785 865 90 130 0
238 -10 0 1471 90 773 0
239 30 0 1410 90 0 190
240 -20 1020 1058 90 552 0
241 -10 0 1465 90 378 0
242 -10 790 862 90 642 0
243 -10 0 1457 90 365 0
244 -20 0 1549 90 579 0
245 -10 896 962 90 160 0
246 20 0 1350 90 0 783
247 -20 632 704 90 270 0
248 10 226 300 90 0 133
249 10 0 1377 90 0 558
250 20 181 232 90 0 661
251 -10 741 793 90 736 0
252 -20 0 1482 90 153 0
253 -20 0 1476 90 746 0
254 -20 0 1496 90 308 0
255 30 204 260 90 0 18
256 -20 0 1441 90 753 0
257 10 0 1448 90 0 760
258 -20 0 1544 90 377 0
259 -10 0 1467 90 576 0
260 40 0 1465 90 0 465
261 -20 0 1419 90 72 0
262 10 1024 1085 90 0 483
263 20 552 598 90 0 706
264 -20 620 670 90 454 0
265 -20 0 1541 90 584 0
266 -20 0 1493 90 92 0
267 -10 0 1550 90 299 0
268 -10 0 1484 90 687 0
269 20 0 1461 90 0 395
270 20 0 1485 90 0 247
271 -20 0 1450 90 323 0
272 -20 599 645 90 281 0
273 -10 943 990 90 682 0
274 -10 912 956 90 625 0
275 10 0 1494 90 0 291
276 -30 0 1448 90 553 0
277 -20 0 1500 90 419 0
278 20 118 175 90 0 236
279 10 0 1526 0 0 831
280 -20 0 1484 90 616 0
281 20 407 462 90 0 272
282 10 0 1363 90 0 535
283 10 845 923 90 0 101
284 -20 0 1481 90 402 0
285 -10 0 1369 90 141 0
286 -30 0 1445 90 379 0
287 -10 0 1345 90 574 0
288 10 816 858 90 0 87
289 -10 0 1457 90 361 0
290 -20 717 785 90 413 0
291 -10 338 392 90 275 0
292 10 127 177 90 0 670
293 20 0 1393 90 0 143
294 -20 567 616 90 509 0
295 20 0 1378 90 0 186
296 20 0 1389 90 0 582
297 -10 786 853 90 448 0
298 20 0 1418 90 0 214
299 10 458 530 90 0 267
300 -10 0 1493 90 593 0
301 20 421 486 90 0 800
302 20 0 1456 90 0 636
303 20 284 351 90 0 759
304 -10 605 668 90 42 0
305 -10 0 1472 90 407 0
306 20 0 1366 90 0 111
307 -10 570 611 90 8 0
308 20 0 1408 90 0 254
309 20 0 1377 90 0 78
310 -20 0 1372 90 349 0
311 10 329 377 90 0 639
312 10 812 875 0 0 820
313 20 489 555 90 0 49
314 -10 383 433 90 715 0
315 20 385 456 90 0 179
316 30 417 464 90 0 547
317 20 0 1476 90 0 735
318 -20 0 1382 90 85 0
319 -30 673 737 90 610 0
320 10 197 262 90 0 71
321 30 0 1409 90 0 217
322 -20 0 1482 90 761 0
323 20 806 869 90 0 271
324 40 679 726 90 0 505
325 -10 0 1479 90 220 0
326 -10 1124 1198 90 679 0
327 20 906 963 0 0 827
328 10 451 497 90 0 178
329 -10 0 1439 90 786 0
330 -20 0 1507 90 28 0
331 -10 0 1437 90 544 0
332 -10 0 1474 90 789 0
333 -30 721 800 90 450 0
334 30 336 401 90 0 702
335 -30 593 642 90 430 0
336 30 0 1442 90 0 140
337 -20 479 542 90 353 0
338 -40 1051 1104 90 680 0
339 10 399 463 90 0 90
340 -20 501 554 90 774 0
341 10 0 1354 90 0 541
342 -50 324 386 90 575 0
343 40 242 305 90 0 510
344 10 149 226 90 0 571
345 -30 1006 1065 90 25 0
346 10 519 585 90 0 417
347 30 357 398 90 0 502
348 20 237 304 90 0 103
349 20 0 1374 90 0 310
350 -30 0 1406 90 561 0
351 -20 0 1532 90 89 0
352 10 562 621 90 0 374
353 20 35 103 90 0 337
354 -30 555 630 90 620 0
355 20 0 1398 90 0 406
356 -10 847 907 90 685 0
357 20 0 1408 90 0 585
358 -30 790 851 90 21 0
359 20 0 1412 90 0 757
360 30 566 638 90 0 734
361 10 0 1466 90 0 289
362 10 1100 1164 90 0 386
363 -20 441 508 90 73 0
364 10 808 859 0 0 830
365 10 92 149 90 0 243
366 10 0 1372 90 0 740
367 -20 841 885 90 637 0
368 30 0 1479 90 0 61
369 -20 226 299 90 741 0
370 30 142 203 90 0 132
371 -20 0 1494 90 520 0
372 -20 1015 1098 90 714 0
373 -10 0 1529 90 213 0
374 -10 0 1448 90 352 0
375 10 416 497 90 0 224
376 30 0 1414 90 0 629
377 20 903 964 90 0 258
378 10 173 249 90 0 241
379 30 179 223 90 0 286
380 -10 0 1474 90 233 0
381 10 790 855 90 0 230
382 30 0 1413 90 0 435
383 -10 704 748 90 792 0
384 10 0 1396 90 0 83
385 20 0 1458 90 0 215
386 -10 0 1482 90 362 0
387 -20 0 1458 90 399 0
388 10 0 1370 90 0 161
389 -10 0 1369 90 410 0
390 30 0 1398 90 0 5
391 -30 0 1382 90 752 0
392 -30 460 527 90 623 0
393 -10 1278 1324 90 148 0
394 20 0 1541 90 0 63
395 -20 0 1541 90 269 0
396 -10 721 765 90 688 0
397 -10 789 855 90 129 0
398 -30 0 1479 90 118 0
399 20 187 244 90 0 387
400 -20 0 1450 90 770 0
401 20 0 1525 90 0 154
402 20 0 1378 90 0 284
403 10 895 955 0 0 815
404 -10 1033 1091 90 619 0
405 10 733 791 90 0 542
406 -20 0 1398 90 355 0
407 10 851 910 90 0 305
408 -20 0 1462 90 159 0
409 20 0 1454 90 0 62
410 10 0 1365 90 0 389
411 10 0 1408 90 0 24
412 -10 1117 1172 90 755 0
413 20 0 1388 90 0 290
414 -10 730 780 90 150 0
415 -10 1077 1145 90 708 0
416 20 0 1347 90 0 694
417 -10 705 777 90 346 0
418 20 0 1405 90 0 678
419 20 0 1501 90 0 277
420 -10 0 1490 90 193 0
421 -30 770 829 90 721 0
422 -10 0 1400 90 48 0
423 20 551 609 90 0 514
424 10 430 485 90 0 763
425 30 121 186 90 0 777
426 20 1014 1087 90 0 147
427 10 900 982 90 0 691
428 -30 0 1478 90 437 0
429 -10 0 1498 90 81 0
430 30 494 554 90 0 335
431 30 551 612 90 0 781
432 10 1009 1064 90 0 461
433 10 917 971 90 0 655
434 20 0 1387 90 0 632
435 -30 0 1416 90 382 0
436 -40 0 1338 90 776 0
437 30 195 248 90 0 428
438 -20 0 1482 90 631 0
439 10 806 858 90 0 618
440 10 0 1437 90 0 120
441 10 0 1539 90 0 772
442 -10 0 1471 90 20 0
443 10 0 1408 90 0 628
444 20 0 1368 0 0 807
445 -20 0 1383 90 126 0
446 10 467 530 90 0 59
447 10 175 241 90 0 495
448 10 521 570 90 0 297
449 20 717 776 90 0 718
450 30 0 1383 90 0 333
451 20 562 608 90 0 675
452 10 268 319 90 0 212
453 20 0 1421 90 0 568
454 20 241 295 90 0 264
455 20 731 755 90 0 732
456 10 0 1381 90 0 152
457 10 889 944 90 0 50
458 -20 0 1379 90 480 0
459 -30 952 1019 90 719 0
460 -20 0 1505 90 94 0
461 -10 0 1394 90 432 0
462 20 79 139 90 0 723
463 10 428 474 90 0 17
464 -10 0 1365 90 4 0
465 -40 827 886 90 260 0
466 20 0 1356 90 0 182
467 20 0 1384 0 0 808
468 20 384 426 90 0 598
469 -10 0 1383 90 45 0
470 30 236 302 90 0 108
471 20 290 358 90 0 68
472 20 138 188 90 0 664
473 -40 0 1495 90 43 0
474 10 954 1013 90 0 486
475 -10 0 1416 90 538 0
476 -30 733 800 90 185 0
477 10 610 683 90 0 19
478 20 0 1387 90 0 643
479 20 787 837 90 0 173
480 20 272 323 90 0 458
481 -10 0 1354 90 563 0
482 20 568 636 90 0 524
483 -10 1217 1277 90 262 0
484 20 0 1367 90 0 567
485 30 619 682 90 0 782
486 -10 0 1353 90 474 0
487 -30 0 1343 90 699 0
488 10 103 161 90 0 26
489 20 0 1369 90 0 713
490 20 83 150 90 0 645
491 -20 1163 1221 90 104 0
492 30 129 185 90 0 235
493 -20 0 1495 90 522 0
494 20 0 1404 90 0 532
495 -10 0 1540 90 447 0
496 -20 623 685 90 499 0
497 -10 0 1539 90 97 0
498 -20 0 1437 90 559 0
499 20 0 1492 90 0 496
500 -30 0 1369 90 788 0
501 -10 667 735 90 744 0
502 -30 0 1436 90 347 0
503 10 0 1411 90 0 167
504 40 0 1353 90 0 722
505 -40 0 1453 90 324 0
506 30 0 1382 90 0 123
507 20 0 1389 90 0 640
508 -20 0 1437 90 562 0
509 20 222 285 90 0 294
510 -40 0 1401 90 343 0
511 -20 534 588 90 662 0
512 30 145 207 90 0 605
513 -20 843 915 90 226 0
514 -20 0 1471 90 423 0
515 10 463 501 90 0 653
516 -10 0 1482 90 227 0
517 20 0 1461 0 0 821
518 30 302 360 90 0 666
519 30 736 811 90 0 703
520 20 324 399 90 0 371
521 10 0 1473 90 0 149
522 20 526 574 90 0 493
523 -10 0 1411 90 99 0
524 -20 0 1446 90 482 0
525 -20 501 552 90 717 0
526 -20 0 1503 90 211 0
527 30 738 797 90 0 549
528 20 0 1524 0 0 816
529 20 0 1415 90 0 600
530 10 0 1369 0 0 806
531 20 0 1408 90 0 33
532 -20 0 1398 90 494 0
533 -30 725 775 90 793 0
534 10 457 518 90 0 769
535 -10 1117 1176 90 282 0
536 -30 0 1473 90 615 0
537 10 190 254 90 0 88
538 10 0 1417 90 0 475
539 20 203 255 0 0 822
540 -10 0 1355 90 638 0
541 -10 0 1356 90 341 0
542 -10 1215 1271 90 405 0
543 10 871 926 90 0 122
544 10 0 1434 90 0 331
545 20 216 280 90 0 184
546 30 0 1434 0 0 817
547 -30 0 1522 90 316 0
548 20 0 1436 90 0 136
549 -30 923 985 90 527 0
550 30 356 426 90 0 163
551 20 727 773 90 0 555
552 20 728 783 90 0 240
553 30 663 728 90 0 276
554 -10 0 1479 90 75 0
555 -20 906 968 90 551 0
556 10 754 807 90 0 649
557 10 151 227 90 0 110
558 -10 649 700 90 249 0
559 20 409 451 90 0 498
560 20 0 1386 90 0 37
561 30 0 1415 90 0 350
562 20 140 205 90 0 508
563 10 486 541 90 0 481
564 10 0 1419 90 0 704
565 -20 656 712 90 9 0
566 -30 0 1514 90 779 0
567 -20 842 887 90 484 0
568 -20 0 1418 90 453 0
569 -20 0 1489 90 658 0
570 30 0 1552 0 0 835
571 -10 0 1507 90 344 0
572 -30 0 1402 90 668 0
573 -10 615 685 90 199 0
574 10 0 1352 90 0 287
575 50 113 163 90 0 342
576 10 859 918 90 0 259
577 -20 0 1434 90 737 0
578 20 99 167 90 0 730
579 20 0 1547 90 0 244
580 30 0 1387 90 0 113
581 -10 1114 1157 90 765 0
582 -20 712 785 90 296 0
583 -20 0 1403 90 210 0
584 20 165 231 90 0 265
585 -20 430 489 90 357 0
586 -20 0 1548 90 194 0
587 30 0 1408 90 0 10
588 -30 0 1519 90 124 0
589 -20 698 769 90 626 0
590 10 997 1040 90 0 710
591 10 228 286 90 0 689
592 -10 0 1498 90 202 0
593 10 721 774 90 0 300
594 30 0 1437 90 0 11
595 -10 368 441 90 127 0
596 -20 0 1528 90 158 0
597 20 971 1022 0 0 833
598 -20 469 527 90 468 0
599 10 0 1395 0 0 812
600 -20 982 1049 90 529 0
601 -30 0 1449 90 35 0
602 20 202 256 90 0 671
603 -20 0 1453 90 724 0
604 20 476 525 90 0 794
605 -30 569 636 90 512 0
606 -20 874 936 90 609 0
607 20 379 460 90 0 171
608 -10 524 567 90 751 0
609 20 306 371 90 0 606
610 30 582 645 90 0 319
611 -10 0 1478 90 624 0
612 -10 701 763 90 697 0
613 -20 0 1530 90 200 0
614 20 0 1347 0 0 802
615 30 0 1405 90 0 536
616 20 102 174 90 0 280
617 40 0 1520 90 0 799
618 -10 0 1407 90 439 0
619 10 837 908 90 0 404
620 30 292 337 90 0 354
621 -10 0 1445 90 766 0
622 20 796 858 90 0 201
623 30 369 432 90 0 392
624 10 0 1471 90 0 611
625 10 542 592 90 0 274
626 20 332 400 90 0 589
627 20 186 265 90 0 742
628 -10 0 1411 90 443 0
629 -30 427 481 90 376 0
630 -10 547 591 90 676 0
631 20 0 1488 90 0 438
632 -20 0 1378 90 434 0
633 -20 519 576 90 64 0
634 -20 822 893 90 748 0
635 20 1170 1233 90 0 768
636 -20 0 1473 90 302 0
637 20 0 1467 90 0 367
638 10 0 1362 90 0 540
639 -10 700 765 90 311 0
640 -20 623 687 90 507 0
641 -10 0 1405 90 695 0
642 10 0 1419 90 0 242
643 -20 0 1387 90 478 0
644 10 766 811 90 0 145
645 -20 129 195 90 490 0
646 10 261 307 90 0 790
647 -10 1058 1100 90 684 0
648 20 578 645 90 0 13
649 -10 0 1362 90 556 0
650 -30 496 579 90 692 0
651 -20 0 1365 90 711 0
652 -10 316 380 90 707 0
653 -10 0 1463 90 515 0
654 -20 0 1514 90 749 0
655 -10 0 1387 90 433 0
656 -40 0 1398 90 216 0
657 -30 0 1538 90 7 0
658 20 0 1484 90 0 569
659 10 39 103 90 0 750
660 10 701 761 90 0 77
661 -20 0 1399 90 250 0
662 20 253 315 90 0 511
663 10 0 1373 90 0 117
664 -20 0 1442 90 472 0
665 20 178 240 90 0 44
666 -30 0 1345 90 518 0
667 10 736 792 90 0 112
668 30 639 690 90 0 572
669 -30 281 345 90 69 0
670 -10 937 987 90 292 0
671 -20 388 444 90 602 0
672 -20 0 1462 90 796 0
673 -10 0 1494 90 164 0
674 20 232 289 90 0 156
675 -20 0 1478 90 451 0
676 10 0 1476 90 0 630
677 20 229 275 90 0 187
678 -20 992 1043 90 418 0
679 10 580 622 90 0 326
680 40 0 1351 90 0 338
681 -10 0 1346 90 109 0
682 10 0 1363 90 0 273
683 10 0 1360 90 0 16
684 10 954 1015 90 0 647
685 10 750 820 90 0 356
686 -10 719 773 90 705 0
687 10 0 1479 90 0 268
688 10 0 1395 90 0 396
689 -10 0 1439 90 591 0
690 20 0 1408 0 0 814
691 -10 0 1485 90 427 0
692 30 225 285 90 0 650
693 -20 0 1431 90 93 0
694 -20 0 1347 90 416 0
695 10 544 598 90 0 641
696 10 96 155 90 0 225
697 10 420 468 90 0 612
698 -20 1105 1168 90 84 0
699 30 226 295 90 0 487
700 -10 1107 1160 90 767 0
701 10 0 1391 90 0 728
702 -30 1008 1047 90 334 0
703 -30 0 1464 90 519 0
704 -10 517 570 90 564 0
705 10 0 1482 90 0 686
706 -20 637 706 90 263 0
707 10 66 133 90 0 652
708 10 0 1401 90 0 415
709 -10 0 1469 90 165 0
710 -10 0 1486 90 590 0
711 20 0 1373 90 0 651
712 -20 679 724 90 181 0
713 -20 0 1362 90 489 0
714 20 30 98 90 0 372
715 10 127 193 90 0 314
716 -20 761 833 90 234 0
717 20 0 1521 90 0 525
718 -20 1078 1146 90 449 0
719 30 303 360 90 0 459
720 20 905 939 90 0 134
721 30 0 1437 90 0 421
722 -40 1042 1110 90 504 0
723 -20 152 190 90 462 0
724 20 0 1450 90 0 603
725 20 1022 1096 90 0 191
726 -20 436 480 90 738 0
727 10 259 318 90 0 107
728 -10 0 1356 90 701 0
729 10 0 1401 90 0 98
730 -20 0 1542 90 578 0
731 20 0 1379 90 0 106
732 -20 802 866 90 455 0
733 10 135 185 90 0 188
734 -30 0 1468 90 360 0
735 -20 995 1049 90 317 0
736 10 0 1376 90 0 251
737 20 211 276 90 0 577
738 20 241 288 90 0 726
739 -20 170 225 90 192 0
740 -10 0 1373 90 366 0
741 20 170 251 90 0 369
742 -20 288 347 90 627 0
743 10 942 1001 90 0 119
744 10 189 252 90 0 501
745 20 245 306 90 0 31
746 20 766 824 90 0 253
747 -10 663 726 90 2 0
748 20 0 1368 90 0 634
749 20 414 482 90 0 654
750 -10 568 610 90 659 0
751 10 163 219 90 0 608
752 30 0 1383 90 0 391
753 20 0 1425 90 0 256
754 -20 0 1530 90 131 0
755 10 0 1458 90 0 412
756 -30 0 1442 90 56 0
757 -20 1266 1315 90 359 0
758 -10 0 1348 90 66 0
759 -20 0 1359 90 303 0
760 -10 0 1484 90 257 0
761 20 0 1390 90 0 322
762 -20 0 1397 90 46 0
763 -10 0 1500 90 424 0
764 -20 0 1461 90 206 0
765 10 273 334 90 0 581
766 10 0 1437 90 0 621
767 10 1020 1065 90 0 700
768 -20 0 1409 90 635 0
769 -10 0 1470 90 534 0
770 20 0 1403 90 0 400
771 20 0 1453 90 0 65
772 -10 0 1531 90 441 0
773 10 0 1471 90 0 238
774 20 0 1516 90 0 340
775 10 987 1051 90 0 23
776 40 0 1342 90 0 436
777 -30 178 250 90 425 0
778 -20 0 1520 90 155 0
779 30 893 956 90 0 566
780 20 98 153 90 0 169
781 -30 0 1366 90 431 0
782 -30 0 1441 90 485 0
783 -20 575 643 90 246 0
784 -30 0 1476 90 60 0
785 -10 0 1445 90 197 0
786 10 516 565 90 0 329
787 20 0 1489 90 0 135
788 30 0 1368 90 0 500
789 10 0 1474 90 0 332
790 -10 0 1391 90 646 0
791 20 656 698 90 0 144
792 10 605 664 90 0 383
793 30 0 1413 90 0 533
794 -20 0 1461 90 604 0
795 20 265 327 0 0 805
796 20 0 1405 90 0 672
797 10 0 1411 90 0 231
798 20 0 1385 90 0 76
799 -40 599 641 90 617 0
800 -20 805 864 90 301 0
801 20 0 1466 90 0 115
802 -20 0 1347 90 614 0
803 -10 1020 1079 90 36 0
804 -10 478 520 90 54 0
805 -20 265 327 90 795 0
806 -10 0 1369 90 530 0
807 -20 0 1368 90 444 0
808 -20 0 1384 90 467 0
809 -10 0 1406 90 40 0
810 -20 265 323 90 180 0
811 -20 0 1501 90 57 0
812 -10 0 1395 90 599 0
813 -10 650 717 90 166 0
814 -20 0 1408 90 690 0
815 -10 895 955 90 403 0
816 -20 0 1524 90 528 0
817 -30 0 1434 90 546 0
818 -10 0 1449 90 95 0
819 -10 0 1486 90 208 0
820 -10 812 875 90 312 0
821 -20 0 1461 90 517 0
822 -20 203 255 90 539 0
823 -20 0 1390 90 74 0
824 -10 0 1365 90 183 0
825 -20 1010 1071 90 157 0
826 -20 173 225 90 14 0
827 -20 906 963 90 327 0
828 -10 0 1503 90 53 0
829 -10 986 1037 90 27 0
830 -10 808 859 90 364 0
831 -10 0 1526 90 279 0
832 -20 557 625 90 96 0
833 -20 971 1022 90 597 0
834 -10 660 710 90 102 0
835 -30 0 1552 90 570 0
DEPOT_SECTION
1
-1
EOF
