NAME: lc1_8_4
TYPE: PDPTW
COMMENT: Li & Lim PDPTW benchmark converted from SINTEF format
DIMENSION: 833
VEHICLES: 200
CAPACITY: 200
EDGE_WEIGHT_TYPE: EUC_2D
NODE_COORD_SECTION
1 200 200
2 385 56
3 201 297
4 57 353
5 201 386
6 359 23
7 210 268
8 219 148
9 306 390
10 32 251
11 130 70
12 103 172
13 319 217
14 99 241
15 368 102
16 307 310
17 158 366
18 286 9
19 267 161
20 304 141
21 143 261
22 183 303
23 218 284
24 318 335
25 53 330
26 233 208
27 113 179
28 109 170
29 276 16
30 128 93
31 221 379
32 185 386
33 14 210
34 180 375
35 164 69
36 53 354
37 275 8
38 142 260
39 183 294
40 373 253
41 15 100
42 51 288
43 131 130
44 184 343
45 56 351
46 208 384
47 204 87
48 61 333
49 313 194
50 271 154
51 314 399
52 14 100
53 273 160
54 359 38
55 173 381
56 153 368
57 270 151
58 29 355
59 310 395
60 312 200
61 107 247
62 126 91
63 229 229
64 196 293
65 82 247
66 42 384
67 83 357
68 280 282
69 270 106
70 369 106
71 393 272
72 93 62
73 275 15
74 372 104
75 134 98
76 339 41
77 303 61
78 97 10
79 211 274
80 159 207
81 111 184
82 155 206
83 95 47
84 18 100
85 21 96
86 126 126
87 102 169
88 35 293
89 240 246
90 255 239
91 179 383
92 147 263
93 367 104
94 277 154
95 179 336
96 157 205
97 231 243
98 92 50
99 375 247
100 152 240
101 187 341
102 234 214
103 364 27
104 52 297
105 103 168
106 23 98
107 153 107
108 14 201
109 386 57
110 244 109
111 393 307
112 96 235
113 49 353
114 28 356
115 85 155
116 248 243
117 94 13
118 134 279
119 158 64
120 346 179
121 20 127
122 46 378
123 337 47
124 250 241
125 200 89
126 289 11
127 393 301
128 182 379
129 301 57
130 111 170
131 249 239
132 294 311
133 352 162
134 363 270
135 106 173
136 72 257
137 311 334
138 305 336
139 22 125
140 293 310
141 40 54
142 234 212
143 91 27
144 351 153
145 304 301
146 291 301
147 92 162
148 135 167
149 300 132
150 93 23
151 236 210
152 41 56
153 114 250
154 161 233
155 344 283
156 346 385
157 129 278
158 238 101
159 127 87
160 185 299
161 37 56
162 55 357
163 272 154
164 158 283
165 298 137
166 266 116
167 306 329
168 302 203
169 115 257
170 329 241
171 362 28
172 53 347
173 345 178
174 244 106
175 149 234
176 84 359
177 243 244
178 122 281
179 68 263
180 84 363
181 68 254
182 32 357
183 314 390
184 393 312
185 82 365
186 276 157
187 179 134
188 106 177
189 140 264
190 172 383
191 347 45
192 305 198
193 100 175
194 168 178
195 177 379
196 280 290
197 165 63
198 308 393
199 243 106
200 210 141
201 366 251
202 131 131
203 129 134
204 369 19
205 153 280
206 91 70
207 328 239
208 131 127
209 230 241
210 20 204
211 116 181
212 371 244
213 182 300
214 49 291
215 76 206
216 37 286
217 349 275
218 21 104
219 17 96
220 126 284
221 154 288
222 129 85
223 199 290
224 198 295
225 237 109
226 385 55
227 101 239
228 54 348
229 250 236
230 65 298
231 57 291
232 230 225
233 200 83
234 328 243
235 188 133
236 88 150
237 113 183
238 209 85
239 174 375
240 281 16
241 87 155
242 85 67
243 125 95
244 235 212
245 153 281
246 347 385
247 156 111
248 302 60
249 75 368
250 207 381
251 38 49
252 110 254
253 102 252
254 220 288
255 295 19
256 344 176
257 188 338
258 167 174
259 318 219
260 281 291
261 96 69
262 314 396
263 97 242
264 27 251
265 166 170
266 157 283
267 236 204
268 177 300
269 75 206
270 151 111
271 74 253
272 350 182
273 360 46
274 369 107
275 109 186
276 286 308
277 222 284
278 93 149
279 152 237
280 152 109
281 357 160
282 395 310
283 179 338
284 243 104
285 40 53
286 70 256
287 396 59
288 103 171
289 79 154
290 370 104
291 110 188
292 73 213
293 85 44
294 361 39
295 344 49
296 48 326
297 344 280
298 54 285
299 233 214
300 197 293
301 21 201
302 78 246
303 31 353
304 52 295
305 277 285
306 393 306
307 268 114
308 219 377
309 99 16
310 51 354
311 353 276
312 217 286
313 359 178
314 78 251
315 62 258
316 237 247
317 310 196
318 24 96
319 128 68
320 383 273
321 362 272
322 245 106
323 39 285
324 327 242
325 127 279
326 162 69
327 237 108
328 129 288
329 306 303
330 122 183
331 348 179
332 127 286
333 382 266
334 222 383
335 209 150
336 308 296
337 161 182
338 340 388
339 253 243
340 181 134
341 342 384
342 301 58
343 90 53
344 131 132
345 60 328
346 281 155
347 369 100
348 358 23
349 53 353
350 26 247
351 234 243
352 76 251
353 172 178
354 74 201
355 174 387
356 161 63
357 317 335
358 140 260
359 52 292
360 290 311
361 89 154
362 130 279
363 273 12
364 147 283
365 135 134
366 49 352
367 195 91
368 105 250
369 159 367
370 304 297
371 197 292
372 300 144
373 158 239
374 69 245
375 195 294
376 356 274
377 133 137
378 91 150
379 46 292
380 203 88
381 55 291
382 299 58
383 158 364
384 86 47
385 72 210
386 132 279
387 128 94
388 39 56
389 39 54
390 203 388
391 92 26
392 321 217
393 111 165
394 232 232
395 155 202
396 201 387
397 303 59
398 131 283
399 131 95
400 73 250
401 150 236
402 278 7
403 33 247
404 234 203
405 22 96
406 180 387
407 287 307
408 129 98
409 127 90
410 39 48
411 316 336
412 128 95
413 370 98
414 90 26
415 204 381
416 363 24
417 277 163
418 315 341
419 222 283
420 109 167
421 124 69
422 41 297
423 302 136
424 108 186
425 321 209
426 92 155
427 108 250
428 100 243
429 113 184
430 211 147
431 41 52
432 25 118
433 94 31
434 87 365
435 300 62
436 34 385
437 83 248
438 186 304
439 317 331
440 348 176
441 211 154
442 298 138
443 182 378
444 100 6
445 279 12
446 308 396
447 275 287
448 363 267
449 104 171
450 391 271
451 320 216
452 389 271
453 349 272
454 28 246
455 92 46
456 24 93
457 307 59
458 293 15
459 300 299
460 272 161
461 24 121
462 152 263
463 156 367
464 48 361
465 280 283
466 31 357
467 275 12
468 264 112
469 58 346
470 21 204
471 295 307
472 72 253
473 111 179
474 336 387
475 58 294
476 84 360
477 278 159
478 98 28
479 346 155
480 295 16
481 337 388
482 182 338
483 308 389
484 392 307
485 34 289
486 342 385
487 43 386
488 227 231
489 302 392
490 221 281
491 60 293
492 177 137
493 157 281
494 90 54
495 232 234
496 189 306
497 229 237
498 126 70
499 230 290
500 99 7
501 171 179
502 346 163
503 313 334
504 382 54
505 329 236
506 335 47
507 17 125
508 305 306
509 356 41
510 89 51
511 47 328
512 117 187
513 391 54
514 299 141
515 336 42
516 109 252
517 324 216
518 40 380
519 86 154
520 225 288
521 294 136
522 154 284
523 361 269
524 181 339
525 257 239
526 119 179
527 346 48
528 238 250
529 95 64
530 389 307
531 22 205
532 89 48
533 217 289
534 280 288
535 389 306
536 97 248
537 55 324
538 56 289
539 187 338
540 366 39
541 339 384
542 40 56
543 46 380
544 351 177
545 393 297
546 351 176
547 249 242
548 63 262
549 346 53
550 297 135
551 12 117
552 279 4
553 291 308
554 157 102
555 15 116
556 364 43
557 242 113
558 82 360
559 133 68
560 274 14
561 34 242
562 331 251
563 344 391
564 301 66
565 309 397
566 213 271
567 397 313
568 348 280
569 150 284
570 172 180
571 132 159
572 376 254
573 242 105
574 383 53
575 276 116
576 322 242
577 134 63
578 158 206
579 237 213
580 52 334
581 101 10
582 52 331
583 17 209
584 102 67
585 321 339
586 167 180
587 29 250
588 254 240
589 371 253
590 203 384
591 350 271
592 114 178
593 186 306
594 137 64
595 393 305
596 215 143
597 256 231
598 267 112
599 33 293
600 94 70
601 166 67
602 164 66
603 183 332
604 73 203
605 232 230
606 345 158
607 360 23
608 142 262
609 353 164
610 129 67
611 308 204
612 82 65
613 210 144
614 341 394
615 26 250
616 148 112
617 177 138
618 313 340
619 240 210
620 75 208
621 293 306
622 372 256
623 324 217
624 282 282
625 374 104
626 376 251
627 156 207
628 183 375
629 364 267
630 129 293
631 220 296
632 75 367
633 196 295
634 97 6
635 93 51
636 95 243
637 206 81
638 357 39
639 358 266
640 16 120
641 374 253
642 99 67
643 99 28
644 289 306
645 210 271
646 21 125
647 359 30
648 327 241
649 361 44
650 211 266
651 29 59
652 132 170
653 310 143
654 139 161
655 97 29
656 35 291
657 227 240
658 175 299
659 227 229
660 303 58
661 203 387
662 53 326
663 96 14
664 66 254
665 214 378
666 41 382
667 96 237
668 388 267
669 263 110
670 79 209
671 168 62
672 76 207
673 157 282
674 345 382
675 308 196
676 130 286
677 176 132
678 313 335
679 164 62
680 338 391
681 390 52
682 355 39
683 309 399
684 363 30
685 162 61
686 129 132
687 179 305
688 207 391
689 305 304
690 22 210
691 114 254
692 208 274
693 349 157
694 364 25
695 391 269
696 244 114
697 95 63
698 23 97
699 32 352
700 86 357
701 51 326
702 220 283
703 87 153
704 299 52
705 129 124
706 93 237
707 142 168
708 204 385
709 301 139
710 197 300
711 44 54
712 70 264
713 311 395
714 229 209
715 84 252
716 323 243
717 251 241
718 103 167
719 308 301
720 367 255
721 131 67
722 386 60
723 151 264
724 186 336
725 359 49
726 154 282
727 150 108
728 28 353
729 93 48
730 156 206
731 11 115
732 93 47
733 138 168
734 280 287
735 268 160
736 20 91
737 134 62
738 147 264
739 307 196
740 49 351
741 160 366
742 154 206
743 156 63
744 168 177
745 220 381
746 68 261
747 389 54
748 96 8
749 126 161
750 231 219
751 114 252
752 89 29
753 355 156
754 236 243
755 127 94
756 176 342
757 62 301
758 41 378
759 34 355
760 183 301
761 277 19
762 211 389
763 115 185
764 133 94
765 98 13
766 306 306
767 85 358
768 93 59
769 282 283
770 25 256
771 76 250
772 212 146
773 202 85
774 178 133
775 204 292
776 39 384
777 321 212
778 239 254
779 206 296
780 116 252
781 33 56
782 67 258
783 347 395
784 310 200
785 163 63
786 348 279
787 106 174
788 95 8
789 129 287
790 19 127
791 286 17
792 158 365
793 223 372
794 75 203
795 207 87
796 19 206
797 49 289
798 335 50
799 181 132
800 18 208
801 89 152
802 32 251
803 23 98
804 353 276
805 154 206
806 366 251
807 41 52
808 266 116
809 133 68
810 308 389
811 134 279
812 19 206
813 125 95
814 302 203
815 220 283
816 152 109
817 277 154
818 101 239
819 370 104
820 287 307
821 233 214
822 200 89
823 197 300
824 142 260
825 389 306
826 363 267
827 211 266
828 355 156
829 175 299
830 41 297
831 91 70
832 340 388
833 237 108
PICKUP_AND_DELIVERY_SECTION
1 0 0 1676 0 0 0
2 10 473 544 90 0 109
3 10 805 855 90 0 39
4 -30 0 1377 90 759 0
5 20 0 1400 90 0 590
6 30 298 358 90 0 607
7 -20 0 1518 90 645 0
8 10 55 110 90 0 785
9 20 0 1369 90 0 51
10 20 0 1411 0 0 802
11 30 956 1015 90 0 616
12 -20 0 1486 90 749 0
13 -20 0 1466 90 451 0
14 -30 0 1477 90 368 0
15 20 0 1392 90 0 625
16 -20 0 1433 90 138 0
17 20 0 1415 90 0 95
18 20 0 1377 90 0 240
19 -10 0 1509 90 514 0
20 -30 0 1467 90 709 0
21 -20 605 669 90 738 0
22 -20 0 1482 90 224 0
23 -10 0 1501 90 277 0
24 -10 0 1407 90 585 0
25 30 624 690 90 0 511
26 -20 0 1553 90 468 0
27 -10 986 1037 90 473 0
28 20 151 220 90 0 787
29 10 199 241 90 0 73
30 10 0 1458 90 0 408
31 30 0 1406 90 0 308
32 -10 602 689 90 55 0
33 10 0 1400 90 0 583
34 -20 0 1410 90 355 0
35 -30 0 1451 90 554 0
36 -10 0 1374 90 113 0
37 -20 0 1380 90 445 0
38 20 0 1503 0 0 824
39 -10 0 1491 90 3 0
40 -20 0 1406 90 572 0
41 10 0 1376 90 0 52
42 10 236 291 90 0 310
43 -10 0 1488 90 743 0
44 -10 0 1443 90 375 0
45 10 0 1378 90 0 543
46 20 0 1402 90 0 661
47 -10 0 1473 90 233 0
48 10 0 1394 90 0 776
49 -10 0 1473 90 544 0
50 10 0 1502 90 0 659
51 -20 0 1357 90 9 0
52 -10 0 1375 90 41 0
53 10 0 1503 90 0 281
54 -20 0 1360 90 540 0
55 10 0 1403 90 0 32
56 30 331 385 90 0 756
57 20 0 1501 90 0 735
58 -30 0 1356 90 699 0
59 -20 0 1363 90 489 0
60 -30 0 1474 90 784 0
61 20 0 1482 90 0 427
62 30 0 1455 90 0 412
63 -10 0 1545 90 102 0
64 20 0 1493 90 0 760
65 -10 0 1459 90 400 0
66 -10 0 1344 90 162 0
67 10 0 1391 90 0 767
68 -20 0 1472 90 196 0
69 30 182 247 90 0 307
70 10 0 1393 90 0 274
71 10 0 1381 90 0 695
72 -10 0 1412 90 242 0
73 -10 259 321 90 29 0
74 -20 0 1390 90 93 0
75 10 0 1465 90 0 409
76 20 0 1375 90 0 669
77 -10 0 1413 90 660 0
78 -30 0 1370 90 117 0
79 20 0 1512 90 0 566
80 20 41 92 90 0 258
81 -10 0 1496 90 215 0
82 10 0 1541 90 0 706
83 10 900 952 90 0 510
84 20 0 1379 90 0 456
85 -10 0 1379 90 318 0
86 20 624 674 90 0 686
87 20 0 1484 90 0 105
88 20 0 1397 90 0 485
89 20 0 1526 90 0 97
90 -30 0 1519 90 124 0
91 -10 0 1402 90 406 0
92 -20 0 1504 90 462 0
93 20 0 1394 90 0 74
94 20 430 485 0 0 817
95 -20 0 1449 90 17 0
96 -20 0 1543 90 578 0
97 -20 0 1533 90 89 0
98 -20 0 1402 90 768 0
99 -20 243 300 90 212 0
100 -30 0 1524 90 154 0
101 -10 0 1445 90 593 0
102 10 0 1550 90 0 63
103 -10 0 1348 90 204 0
104 20 0 1410 90 0 345
105 -20 984 1058 90 87 0
106 10 1201 1254 0 0 803
107 -10 446 501 90 727 0
108 10 0 1400 90 0 800
109 -10 0 1352 90 2 0
110 20 0 1485 90 0 235
111 10 0 1366 90 0 282
112 30 834 879 90 0 401
113 10 0 1372 90 0 36
114 30 0 1354 90 0 182
115 20 0 1463 90 0 703
116 20 0 1522 90 0 717
117 30 0 1372 90 0 78
118 30 0 1484 0 0 811
119 -20 0 1444 90 367 0
120 -20 0 1439 90 331 0
121 -10 341 411 90 139 0
122 -10 0 1351 90 487 0
123 20 0 1381 90 0 295
124 30 212 283 90 0 90
125 30 0 1475 0 0 822
126 20 0 1378 90 0 596
127 10 272 348 90 0 595
128 20 0 1407 90 0 628
129 10 0 1411 90 0 704
130 10 0 1493 90 0 449
131 -10 0 1524 90 525 0
132 -20 386 449 90 471 0
133 -20 0 1430 90 609 0
134 10 0 1409 90 0 639
135 10 0 1489 90 0 592
136 -20 0 1446 90 472 0
137 -10 0 1412 90 183 0
138 20 0 1415 90 0 16
139 10 193 258 90 0 121
140 30 0 1442 90 0 447
141 10 0 1370 90 0 389
142 -20 374 428 90 714 0
143 -20 623 704 90 655 0
144 -30 0 1428 90 347 0
145 -20 0 1442 90 508 0
146 20 0 1451 90 0 621
147 20 0 1472 90 0 393
148 -10 0 1514 90 733 0
149 -10 459 513 90 521 0
150 10 445 513 90 0 581
151 -20 0 1549 90 163 0
152 -20 0 1372 90 711 0
153 -20 1000 1074 90 428 0
154 30 0 1535 90 0 100
155 20 0 1420 90 0 229
156 10 0 1351 90 0 541
157 -20 0 1481 90 398 0
158 -20 0 1480 90 761 0
159 -10 0 1452 90 764 0
160 -20 0 1486 90 631 0
161 -10 0 1369 90 285 0
162 10 462 509 90 0 66
163 20 0 1501 90 0 151
164 10 0 1493 90 0 726
165 -10 0 1470 90 638 0
166 10 650 717 0 0 808
167 20 0 1420 90 0 503
168 30 0 1484 0 0 814
169 -10 0 1484 90 797 0
170 20 300 363 90 0 324
171 10 0 1350 90 0 684
172 20 0 1379 90 0 366
173 -20 0 1440 90 313 0
174 40 0 1483 90 0 573
175 -30 0 1525 90 512 0
176 -10 0 1390 90 249 0
177 30 61 126 90 0 339
178 20 0 1474 90 0 298
179 -20 0 1440 90 664 0
180 20 265 323 90 0 700
181 20 0 1444 90 0 746
182 -30 0 1357 90 114 0
183 10 0 1365 90 0 137
184 30 0 1363 90 0 530
185 30 0 1384 90 0 558
186 -20 0 1499 90 423 0
187 -30 0 1517 90 799 0
188 -10 440 489 90 526 0
189 20 421 485 90 0 358
190 20 0 1401 90 0 443
191 -10 0 1373 90 515 0
192 -20 0 1481 90 272 0
193 10 0 1483 90 0 278
194 -10 0 1548 90 365 0
195 -30 0 1406 90 239 0
196 20 271 335 90 0 68
197 10 0 1445 90 0 705
198 30 378 433 90 0 713
199 10 529 588 90 0 225
200 20 215 280 90 0 238
201 20 0 1413 0 0 806
202 10 0 1489 90 0 377
203 -20 0 1490 90 353 0
204 10 0 1339 90 0 103
205 20 0 1494 90 0 220
206 20 0 1417 0 0 831
207 10 0 1453 90 0 505
208 -10 0 1486 90 356 0
209 10 0 1536 90 0 497
210 -30 328 393 90 470 0
211 -30 1168 1224 90 237 0
212 20 0 1410 90 0 99
213 -10 0 1485 90 383 0
214 -20 0 1410 90 323 0
215 10 749 807 90 0 81
216 -10 0 1402 90 656 0
217 10 0 1420 90 0 591
218 30 203 254 90 0 405
219 10 0 1376 90 0 736
220 -20 734 783 90 205 0
221 -30 0 1487 90 569 0
222 -20 0 1451 90 399 0
223 10 90 142 90 0 633
224 20 598 681 90 0 22
225 -10 990 1060 90 199 0
226 -40 0 1351 90 504 0
227 10 106 166 0 0 818
228 -20 1206 1266 90 349 0
229 -20 0 1525 90 155 0
230 -10 1355 1415 90 701 0
231 -20 979 1034 90 475 0
232 -10 0 1547 90 477 0
233 10 0 1469 90 0 47
234 -10 0 1451 90 576 0
235 -20 0 1518 90 110 0
236 -20 0 1464 90 698 0
237 30 785 865 90 0 211
238 -20 0 1471 90 200 0
239 30 0 1410 90 0 195
240 -20 1020 1058 90 18 0
241 -10 0 1465 90 361 0
242 10 0 1411 90 0 72
243 10 0 1457 0 0 813
244 -20 0 1549 90 579 0
245 10 0 1493 90 0 386
246 -20 0 1350 90 674 0
247 20 632 704 90 0 326
248 -20 0 1413 90 397 0
249 10 0 1377 90 0 176
250 20 181 232 90 0 396
251 -10 741 793 90 410 0
252 20 0 1482 90 0 691
253 -20 0 1476 90 782 0
254 20 0 1496 90 0 779
255 30 204 260 90 0 458
256 10 0 1441 90 0 546
257 -20 0 1448 90 539 0
258 -20 0 1544 90 80 0
259 -20 0 1467 90 392 0
260 40 0 1465 90 0 534
261 10 0 1419 90 0 635
262 -30 0 1360 90 565 0
263 -20 552 598 90 780 0
264 10 0 1406 90 0 403
265 -20 0 1541 90 337 0
266 20 0 1493 90 0 268
267 -30 0 1550 90 425 0
268 -20 0 1484 90 266 0
269 -10 0 1461 90 354 0
270 20 0 1485 90 0 601
271 -20 0 1450 90 771 0
272 20 599 645 90 0 192
273 -10 943 990 90 556 0
274 -10 0 1394 90 70 0
275 -20 0 1494 90 627 0
276 -30 0 1448 90 360 0
277 10 0 1500 90 0 23
278 -10 0 1468 90 193 0
279 10 0 1526 90 0 359
280 30 0 1484 0 0 816
281 -10 0 1424 90 53 0
282 -10 0 1363 90 111 0
283 -30 845 923 90 793 0
284 -20 0 1481 90 402 0
285 10 0 1369 90 0 161
286 -30 0 1445 90 712 0
287 20 0 1345 90 0 722
288 -10 816 858 90 707 0
289 -20 0 1457 90 461 0
290 10 717 785 0 0 819
291 -10 0 1496 90 424 0
292 10 0 1459 90 0 670
293 20 0 1393 90 0 532
294 30 0 1359 90 0 682
295 -20 0 1378 90 123 0
296 -30 0 1389 90 580 0
297 -30 786 853 90 523 0
298 -20 0 1418 90 178 0
299 10 0 1551 0 0 821
300 -20 0 1493 90 371 0
301 -20 421 486 90 531 0
302 -30 0 1456 90 437 0
303 20 284 351 90 0 728
304 10 605 668 90 0 381
305 -10 0 1472 90 778 0
306 -20 0 1366 90 545 0
307 -30 570 611 90 69 0
308 -30 0 1408 90 31 0
309 -10 0 1377 90 498 0
310 -10 0 1372 90 42 0
311 10 0 1416 0 0 804
312 -20 0 1499 90 419 0
313 20 489 555 90 0 173
314 10 383 433 90 0 374
315 -20 0 1437 90 491 0
316 -20 0 1527 90 465 0
317 -10 0 1476 90 440 0
318 10 0 1382 90 0 85
319 -30 673 737 90 594 0
320 10 0 1389 90 0 668
321 30 0 1409 90 0 629
322 -20 0 1482 90 467 0
323 20 0 1404 90 0 214
324 -20 679 726 90 170 0
325 -40 0 1479 90 476 0
326 -20 1124 1198 90 247 0
327 20 0 1487 0 0 833
328 -10 0 1473 90 789 0
329 10 0 1439 90 0 689
330 20 0 1507 90 0 395
331 20 0 1437 90 0 120
332 -20 0 1474 90 630 0
333 30 721 800 90 0 641
334 -20 336 401 90 745 0
335 -10 593 642 90 340 0
336 -30 0 1442 90 370 0
337 20 479 542 90 0 265
338 10 1051 1104 0 0 832
339 -30 399 463 90 177 0
340 10 501 554 90 0 335
341 -20 0 1354 90 614 0
342 -30 324 386 90 382 0
343 40 242 305 90 0 494
344 10 0 1490 90 0 654
345 -20 0 1397 90 104 0
346 -30 0 1494 90 550 0
347 30 357 398 90 0 144
348 20 0 1349 90 0 416
349 20 0 1374 90 0 228
350 -20 0 1406 90 454 0
351 -20 0 1532 90 754 0
352 -20 562 621 90 636 0
353 20 35 103 90 0 203
354 10 555 630 90 0 269
355 20 0 1398 90 0 34
356 10 0 1444 90 0 208
357 -10 0 1408 90 618 0
358 -20 790 851 90 189 0
359 -10 0 1412 90 279 0
360 30 0 1444 90 0 276
361 10 0 1466 90 0 241
362 -10 0 1481 90 676 0
363 -20 0 1385 90 552 0
364 -20 808 859 90 522 0
365 10 0 1494 90 0 194
366 -20 0 1372 90 172 0
367 20 0 1477 90 0 119
368 30 0 1479 90 0 14
369 40 226 299 90 0 687
370 30 142 203 90 0 336
371 20 0 1494 90 0 300
372 10 0 1472 90 0 606
373 20 0 1529 90 0 692
374 -10 0 1448 90 314 0
375 10 0 1492 90 0 44
376 30 0 1414 90 0 453
377 -10 903 964 90 202 0
378 -20 0 1467 90 801 0
379 30 179 223 90 0 599
380 -10 0 1474 90 773 0
381 -10 0 1415 90 304 0
382 30 0 1413 90 0 342
383 10 704 748 90 0 213
384 -20 0 1396 90 455 0
385 -10 0 1458 90 672 0
386 -10 0 1482 90 245 0
387 -10 0 1458 90 755 0
388 10 0 1370 90 0 542
389 -10 0 1369 90 141 0
390 -30 0 1398 90 762 0
391 20 0 1382 90 0 765
392 20 460 527 90 0 259
393 -20 0 1491 90 147 0
394 20 0 1541 90 0 495
395 -20 0 1541 90 330 0
396 -20 721 765 90 250 0
397 20 0 1412 90 0 248
398 20 0 1479 90 0 157
399 20 187 244 90 0 222
400 10 0 1450 90 0 65
401 -30 0 1525 90 112 0
402 20 0 1378 90 0 284
403 -10 0 1413 90 264 0
404 -30 0 1552 90 777 0
405 -30 0 1380 90 218 0
406 10 0 1398 90 0 91
407 10 851 910 0 0 820
408 -10 0 1462 90 30 0
409 -10 0 1454 90 75 0
410 10 0 1365 90 0 251
411 -20 0 1408 90 418 0
412 -30 1117 1172 90 62 0
413 20 0 1388 90 0 693
414 30 0 1381 90 0 500
415 10 0 1405 90 0 775
416 -20 0 1347 90 348 0
417 10 705 777 90 0 750
418 20 0 1405 90 0 411
419 20 0 1501 90 0 312
420 10 0 1490 90 0 652
421 -20 770 829 90 737 0
422 10 0 1400 0 0 830
423 20 551 609 90 0 186
424 10 0 1493 90 0 291
425 30 121 186 90 0 267
426 20 0 1469 90 0 519
427 -20 900 982 90 61 0
428 20 0 1478 90 0 153
429 -30 0 1498 90 620 0
430 30 0 1532 90 0 772
431 30 551 612 0 0 807
432 -20 1009 1064 90 731 0
433 10 0 1387 90 0 752
434 20 0 1387 90 0 632
435 20 0 1416 90 0 564
436 -30 0 1338 90 518 0
437 30 195 248 90 0 302
438 -20 0 1482 90 665 0
439 10 806 858 90 0 678
440 10 0 1437 90 0 317
441 10 0 1539 90 0 795
442 -20 0 1471 90 649 0
443 -20 0 1408 90 190 0
444 -30 0 1368 90 788 0
445 20 0 1383 90 0 37
446 10 467 530 90 0 683
447 -30 0 1472 90 140 0
448 10 521 570 0 0 826
449 -10 717 776 90 130 0
450 -10 0 1383 90 452 0
451 20 0 1465 90 0 13
452 10 268 319 90 0 450
453 -30 0 1421 90 376 0
454 20 241 295 90 0 350
455 20 0 1398 90 0 384
456 -20 0 1381 90 84 0
457 -10 889 944 90 696 0
458 -30 0 1379 90 255 0
459 -10 0 1446 90 766 0
460 20 0 1505 90 0 653
461 20 0 1394 90 0 289
462 20 79 139 90 0 92
463 10 428 474 90 0 792
464 -20 0 1365 90 466 0
465 20 827 886 90 0 316
466 20 0 1356 90 0 464
467 20 0 1384 90 0 322
468 20 0 1478 90 0 26
469 -20 0 1383 90 740 0
470 30 236 302 90 0 210
471 20 290 358 90 0 132
472 20 138 188 90 0 136
473 10 0 1495 90 0 27
474 -10 954 1013 90 481 0
475 20 0 1416 90 0 231
476 40 0 1389 90 0 325
477 10 610 683 90 0 232
478 20 0 1387 90 0 577
479 20 787 837 90 0 502
480 20 0 1379 90 0 791
481 10 0 1354 90 0 474
482 -40 0 1447 90 496 0
483 20 0 1369 0 0 810
484 20 0 1367 90 0 567
485 -20 619 682 90 88 0
486 -10 0 1353 90 563 0
487 10 0 1343 90 0 122
488 -10 0 1545 90 769 0
489 20 0 1369 90 0 59
490 20 0 1503 90 0 499
491 20 0 1418 90 0 315
492 30 129 185 90 0 677
493 10 0 1495 90 0 673
494 -40 0 1404 90 343 0
495 -20 0 1540 90 394 0
496 40 623 685 90 0 482
497 -10 0 1539 90 209 0
498 10 0 1437 90 0 309
499 -20 0 1492 90 490 0
500 -30 0 1369 90 414 0
501 -10 0 1551 90 744 0
502 -20 0 1436 90 479 0
503 -20 0 1411 90 167 0
504 40 0 1353 90 0 226
505 -10 0 1453 90 207 0
506 30 0 1382 90 0 549
507 20 0 1389 90 0 640
508 20 0 1437 90 0 145
509 20 0 1364 90 0 725
510 -10 0 1401 90 83 0
511 -30 0 1387 90 25 0
512 30 0 1502 90 0 175
513 -10 843 915 90 681 0
514 10 0 1471 90 0 19
515 10 463 501 90 0 191
516 -10 0 1482 90 751 0
517 20 0 1461 90 0 623
518 30 0 1346 90 0 436
519 -20 0 1464 90 426 0
520 20 324 399 90 0 533
521 10 0 1473 90 0 149
522 20 0 1491 90 0 364
523 30 0 1411 90 0 297
524 -20 0 1446 90 741 0
525 10 0 1517 90 0 131
526 10 0 1503 90 0 188
527 -20 0 1376 90 798 0
528 -10 0 1524 90 734 0
529 -10 0 1415 90 642 0
530 -30 0 1369 90 184 0
531 20 0 1408 90 0 301
532 -20 0 1398 90 293 0
533 -20 725 775 90 520 0
534 -40 0 1468 90 260 0
535 30 1117 1176 0 0 825
536 -10 0 1473 90 715 0
537 10 0 1396 90 0 757
538 10 0 1417 90 0 548
539 20 0 1448 90 0 257
540 20 0 1355 90 0 54
541 -10 0 1356 90 156 0
542 -10 1215 1271 90 388 0
543 -10 0 1350 90 45 0
544 10 0 1434 90 0 49
545 20 0 1370 90 0 306
546 -10 0 1434 90 256 0
547 20 0 1522 90 0 588
548 -10 0 1436 90 538 0
549 -30 923 985 90 506 0
550 30 356 426 90 0 346
551 20 727 773 90 0 555
552 20 728 783 90 0 363
553 30 663 728 90 0 644
554 30 0 1479 90 0 35
555 -20 0 1383 90 551 0
556 10 0 1359 90 0 273
557 -20 0 1490 90 560 0
558 -30 0 1388 90 185 0
559 20 409 451 0 0 809
560 20 0 1386 90 0 557
561 30 0 1415 90 0 615
562 -20 0 1446 90 716 0
563 10 0 1347 90 0 486
564 -20 0 1419 90 435 0
565 30 0 1361 90 0 262
566 -20 0 1514 90 79 0
567 -20 842 887 90 484 0
568 -10 0 1418 90 786 0
569 30 0 1489 90 0 221
570 -10 0 1552 90 586 0
571 10 0 1507 90 0 718
572 20 0 1402 90 0 40
573 -40 615 685 90 174 0
574 10 0 1352 90 0 747
575 50 113 163 90 0 598
576 10 0 1457 90 0 234
577 -20 0 1434 90 478 0
578 20 99 167 90 0 96
579 20 0 1547 90 0 244
580 30 0 1387 90 0 296
581 -10 1114 1157 90 150 0
582 -20 0 1389 90 662 0
583 -10 0 1403 90 33 0
584 20 165 231 90 0 697
585 10 0 1402 90 0 24
586 10 0 1548 90 0 570
587 -20 0 1408 90 770 0
588 -20 0 1519 90 547 0
589 30 698 769 90 0 720
590 -20 997 1040 90 5 0
591 -10 0 1421 90 217 0
592 -10 0 1498 90 135 0
593 10 721 774 90 0 101
594 30 0 1437 90 0 319
595 -10 368 441 90 127 0
596 -20 0 1528 90 126 0
597 -20 0 1522 90 648 0
598 -50 0 1476 90 575 0
599 -30 0 1395 90 379 0
600 30 0 1419 90 0 612
601 -20 0 1449 90 270 0
602 -20 0 1448 90 671 0
603 -20 0 1453 90 724 0
604 20 476 525 90 0 763
605 20 569 636 90 0 657
606 -10 874 936 90 372 0
607 -30 379 460 90 6 0
608 -40 0 1502 90 723 0
609 20 0 1429 90 0 133
610 -30 0 1436 90 721 0
611 -20 0 1478 90 739 0
612 -30 701 763 90 600 0
613 10 0 1530 90 0 637
614 20 0 1347 90 0 341
615 -30 0 1405 90 561 0
616 -30 0 1484 90 11 0
617 40 0 1520 90 0 774
618 10 0 1407 90 0 357
619 -10 837 908 90 675 0
620 30 0 1461 90 0 429
621 -20 0 1445 90 146 0
622 -20 0 1406 90 626 0
623 -20 0 1461 90 517 0
624 -30 0 1471 90 719 0
625 -20 0 1388 90 15 0
626 20 0 1403 90 0 622
627 20 0 1542 90 0 275
628 -20 0 1411 90 128 0
629 -30 427 481 90 321 0
630 20 0 1469 90 0 332
631 20 0 1488 90 0 160
632 -20 0 1378 90 434 0
633 -10 0 1491 90 223 0
634 -20 822 893 90 748 0
635 -10 1170 1233 90 261 0
636 20 0 1473 90 0 352
637 -10 0 1467 90 613 0
638 10 0 1362 90 0 165
639 -10 700 765 90 134 0
640 -20 623 687 90 507 0
641 -30 0 1405 90 333 0
642 10 0 1419 90 0 529
643 20 0 1387 90 0 663
644 -30 766 811 90 553 0
645 20 0 1515 90 0 7
646 10 0 1392 90 0 790
647 -40 0 1354 90 694 0
648 20 0 1453 90 0 597
649 20 0 1362 90 0 442
650 10 0 1520 0 0 827
651 -20 0 1365 90 781 0
652 -10 0 1512 90 420 0
653 -20 0 1463 90 460 0
654 -10 0 1514 90 344 0
655 20 0 1387 90 0 143
656 10 0 1398 90 0 216
657 -20 0 1538 90 605 0
658 20 0 1484 0 0 829
659 -10 0 1547 90 50 0
660 10 701 761 90 0 77
661 -20 0 1399 90 46 0
662 20 253 315 90 0 582
663 -20 0 1373 90 643 0
664 20 0 1442 90 0 179
665 20 0 1408 90 0 438
666 -20 0 1345 90 758 0
667 -40 0 1476 90 730 0
668 -10 639 690 90 320 0
669 -20 0 1477 90 76 0
670 -10 0 1465 90 292 0
671 20 0 1445 90 0 602
672 10 0 1462 90 0 385
673 -10 0 1494 90 493 0
674 20 232 289 90 0 246
675 10 0 1478 90 0 619
676 10 0 1476 90 0 362
677 -30 0 1514 90 492 0
678 -10 0 1410 90 439 0
679 10 0 1444 90 0 685
680 -10 0 1351 90 783 0
681 10 0 1346 90 0 513
682 -30 0 1363 90 294 0
683 -10 0 1360 90 446 0
684 -10 954 1015 90 171 0
685 -10 750 820 90 679 0
686 -20 719 773 90 86 0
687 -40 0 1479 90 369 0
688 10 0 1395 90 0 708
689 -10 0 1439 90 329 0
690 20 0 1408 90 0 794
691 -20 0 1485 90 252 0
692 -20 0 1512 90 373 0
693 -20 0 1431 90 413 0
694 40 0 1347 90 0 647
695 -10 544 598 90 71 0
696 10 96 155 90 0 457
697 -20 420 468 90 584 0
698 20 1105 1168 90 0 236
699 30 0 1360 90 0 58
700 -20 0 1392 90 180 0
701 10 0 1391 90 0 230
702 10 0 1501 0 0 815
703 -20 0 1464 90 115 0
704 -10 0 1408 90 129 0
705 -10 0 1482 90 197 0
706 -10 0 1473 90 82 0
707 10 0 1520 90 0 288
708 -10 0 1401 90 688 0
709 30 0 1469 90 0 20
710 10 0 1486 0 0 823
711 20 0 1373 90 0 152
712 30 679 724 90 0 286
713 -30 0 1362 90 198 0
714 20 0 1556 90 0 142
715 10 0 1459 90 0 536
716 20 761 833 90 0 562
717 -20 0 1521 90 116 0
718 -10 0 1484 90 571 0
719 30 303 360 90 0 624
720 -30 0 1411 90 589 0
721 30 0 1437 90 0 610
722 -20 1042 1110 90 287 0
723 40 152 190 90 0 608
724 20 0 1450 90 0 603
725 -20 0 1367 90 509 0
726 -10 436 480 90 164 0
727 10 259 318 90 0 107
728 -20 0 1356 90 303 0
729 10 0 1401 90 0 732
730 40 0 1542 90 0 667
731 20 0 1379 90 0 432
732 -10 0 1400 90 729 0
733 10 135 185 90 0 148
734 10 0 1468 90 0 528
735 -20 0 1508 90 57 0
736 -10 0 1376 90 219 0
737 20 211 276 90 0 421
738 20 241 288 90 0 21
739 20 170 225 90 0 611
740 20 0 1373 90 0 469
741 20 0 1416 90 0 524
742 30 288 347 0 0 805
743 10 942 1001 90 0 43
744 10 0 1547 90 0 501
745 20 0 1404 90 0 334
746 -20 766 824 90 181 0
747 -10 0 1348 90 574 0
748 20 0 1368 90 0 634
749 20 414 482 90 0 12
750 -10 0 1550 90 417 0
751 10 163 219 90 0 516
752 -10 0 1383 90 433 0
753 20 0 1425 0 0 828
754 20 0 1530 90 0 351
755 10 0 1458 90 0 387
756 -30 0 1442 90 56 0
757 -10 1266 1315 90 537 0
758 20 0 1348 90 0 666
759 30 0 1359 90 0 4
760 -20 0 1484 90 64 0
761 20 0 1390 90 0 158
762 30 0 1397 90 0 390
763 -20 0 1500 90 604 0
764 10 0 1461 90 0 159
765 -20 0 1373 90 391 0
766 10 0 1437 90 0 459
767 -10 1020 1065 90 67 0
768 20 0 1409 90 0 98
769 10 0 1470 90 0 488
770 20 0 1403 90 0 587
771 20 0 1453 90 0 271
772 -30 0 1531 90 430 0
773 10 0 1471 90 0 380
774 -40 0 1516 90 617 0
775 -10 0 1494 90 415 0
776 -10 0 1342 90 48 0
777 30 178 250 90 0 404
778 10 0 1520 90 0 305
779 -20 893 956 90 254 0
780 20 98 153 90 0 263
781 20 0 1366 90 0 651
782 20 0 1441 90 0 253
783 10 575 643 90 0 680
784 30 0 1476 90 0 60
785 -10 0 1445 90 8 0
786 10 0 1419 90 0 568
787 -20 0 1489 90 28 0
788 30 0 1368 90 0 444
789 10 0 1474 90 0 328
790 -10 0 1391 90 646 0
791 -20 656 698 90 480 0
792 -10 605 664 90 463 0
793 30 0 1413 90 0 283
794 -20 0 1461 90 690 0
795 -10 0 1473 90 441 0
796 20 0 1405 0 0 812
797 10 0 1411 90 0 169
798 20 0 1385 90 0 527
799 30 0 1516 90 0 187
800 -10 0 1404 90 108 0
801 20 0 1466 90 0 378
802 -20 0 1411 90 10 0
803 -10 1201 1254 90 106 0
804 -10 0 1416 90 311 0
805 -30 288 347 90 742 0
806 -20 0 1413 90 201 0
807 -30 551 612 90 431 0
808 -10 650 717 90 166 0
809 -20 409 451 90 559 0
810 -20 0 1369 90 483 0
811 -30 0 1484 90 118 0
812 -20 0 1405 90 796 0
813 -10 0 1457 90 243 0
814 -30 0 1484 90 168 0
815 -10 0 1501 90 702 0
816 -30 0 1484 90 280 0
817 -20 430 485 90 94 0
818 -10 106 166 90 227 0
819 -10 717 785 90 290 0
820 -10 851 910 90 407 0
821 -10 0 1551 90 299 0
822 -30 0 1475 90 125 0
823 -10 0 1486 90 710 0
824 -20 0 1503 90 38 0
825 -30 1117 1176 90 535 0
826 -10 521 570 90 448 0
827 -10 0 1520 90 650 0
828 -20 0 1425 90 753 0
829 -20 0 1484 90 658 0
830 -10 0 1400 90 422 0
831 -20 0 1417 90 206 0
832 -10 1051 1104 90 338 0
833 -20 0 1487 90 327 0
DEPOT_SECTION
1
-1
EOF
