NAME: lc1_8_10
TYPE: PDPTW
COMMENT: Li & Lim PDPTW benchmark converted from SINTEF format
DIMENSION: 839
VEHICLES: 200
CAPACITY: 200
EDGE_WEIGHT_TYPE: EUC_2D
NODE_COORD_SECTION
1 200 200
2 385 56
3 201 297
4 57 353
5 201 386
6 359 23
7 210 268
8 219 148
9 306 390
10 32 251
11 130 70
12 103 172
13 319 217
14 99 241
15 368 102
16 307 310
17 158 366
18 286 9
19 267 161
20 304 141
21 143 261
22 183 303
23 218 284
24 318 335
25 53 330
26 233 208
27 113 179
28 109 170
29 276 16
30 128 93
31 221 379
32 185 386
33 14 210
34 180 375
35 164 69
36 53 354
37 275 8
38 142 260
39 183 294
40 373 253
41 15 100
42 51 288
43 131 130
44 184 343
45 56 351
46 208 384
47 204 87
48 61 333
49 313 194
50 271 154
51 314 399
52 14 100
53 273 160
54 359 38
55 173 381
56 153 368
57 270 151
58 29 355
59 310 395
60 312 200
61 107 247
62 126 91
63 229 229
64 196 293
65 82 247
66 42 384
67 83 357
68 280 282
69 270 106
70 369 106
71 393 272
72 93 62
73 275 15
74 372 104
75 134 98
76 339 41
77 303 61
78 97 10
79 211 274
80 159 207
81 111 184
82 155 206
83 95 47
84 18 100
85 21 96
86 126 126
87 102 169
88 35 293
89 240 246
90 255 239
91 179 383
92 147 263
93 367 104
94 277 154
95 179 336
96 157 205
97 231 243
98 92 50
99 375 247
100 152 240
101 187 341
102 234 214
103 364 27
104 52 297
105 103 168
106 23 98
107 153 107
108 14 201
109 386 57
110 244 109
111 393 307
112 96 235
113 49 353
114 28 356
115 85 155
116 248 243
117 94 13
118 134 279
119 158 64
120 346 179
121 20 127
122 46 378
123 337 47
124 250 241
125 200 89
126 289 11
127 393 301
128 182 379
129 301 57
130 111 170
131 249 239
132 294 311
133 352 162
134 363 270
135 106 173
136 72 257
137 311 334
138 305 336
139 22 125
140 293 310
141 40 54
142 234 212
143 91 27
144 351 153
145 304 301
146 291 301
147 92 162
148 135 167
149 300 132
150 93 23
151 236 210
152 41 56
153 114 250
154 161 233
155 344 283
156 346 385
157 129 278
158 238 101
159 127 87
160 185 299
161 37 56
162 55 357
163 272 154
164 158 283
165 298 137
166 266 116
167 306 329
168 302 203
169 115 257
170 329 241
171 362 28
172 53 347
173 345 178
174 244 106
175 149 234
176 84 359
177 243 244
178 122 281
179 68 263
180 84 363
181 68 254
182 32 357
183 314 390
184 393 312
185 82 365
186 276 157
187 179 134
188 106 177
189 140 264
190 172 383
191 347 45
192 305 198
193 100 175
194 168 178
195 177 379
196 280 290
197 165 63
198 308 393
199 243 106
200 210 141
201 366 251
202 131 131
203 129 134
204 369 19
205 153 280
206 91 70
207 328 239
208 131 127
209 230 241
210 20 204
211 116 181
212 371 244
213 182 300
214 49 291
215 76 206
216 37 286
217 349 275
218 21 104
219 17 96
220 126 284
221 154 288
222 129 85
223 199 290
224 198 295
225 237 109
226 385 55
227 101 239
228 54 348
229 250 236
230 65 298
231 57 291
232 230 225
233 200 83
234 328 243
235 188 133
236 88 150
237 113 183
238 209 85
239 174 375
240 281 16
241 87 155
242 85 67
243 125 95
244 235 212
245 153 281
246 347 385
247 156 111
248 302 60
249 75 368
250 207 381
251 38 49
252 110 254
253 102 252
254 220 288
255 295 19
256 344 176
257 188 338
258 167 174
259 318 219
260 281 291
261 96 69
262 314 396
263 97 242
264 27 251
265 166 170
266 157 283
267 236 204
268 177 300
269 75 206
270 151 111
271 74 253
272 350 182
273 360 46
274 369 107
275 109 186
276 286 308
277 222 284
278 93 149
279 152 237
280 152 109
281 357 160
282 395 310
283 179 338
284 243 104
285 40 53
286 70 256
287 396 59
288 103 171
289 79 154
290 370 104
291 110 188
292 73 213
293 85 44
294 361 39
295 344 49
296 48 326
297 344 280
298 54 285
299 233 214
300 197 293
301 21 201
302 78 246
303 31 353
304 52 295
305 277 285
306 393 306
307 268 114
308 219 377
309 99 16
310 51 354
311 353 276
312 217 286
313 359 178
314 78 251
315 62 258
316 237 247
317 310 196
318 24 96
319 128 68
320 383 273
321 362 272
322 245 106
323 39 285
324 327 242
325 127 279
326 162 69
327 237 108
328 129 288
329 306 303
330 122 183
331 348 179
332 127 286
333 382 266
334 222 383
335 209 150
336 308 296
337 161 182
338 340 388
339 253 243
340 181 134
341 342 384
342 301 58
343 90 53
344 131 132
345 60 328
346 281 155
347 369 100
348 358 23
349 53 353
350 26 247
351 234 243
352 76 251
353 172 178
354 74 201
355 174 387
356 161 63
357 317 335
358 140 260
359 52 292
360 290 311
361 89 154
362 130 279
363 273 12
364 147 283
365 135 134
366 49 352
367 195 91
368 105 250
369 159 367
370 304 297
371 197 292
372 300 144
373 158 239
374 69 245
375 195 294
376 356 274
377 133 137
378 91 150
379 46 292
380 203 88
381 55 291
382 299 58
383 158 364
384 86 47
385 72 210
386 132 279
387 128 94
388 39 56
389 39 54
390 203 388
391 92 26
392 321 217
393 111 165
394 232 232
395 155 202
396 201 387
397 303 59
398 131 283
399 131 95
400 73 250
401 150 236
402 278 7
403 33 247
404 234 203
405 22 96
406 180 387
407 287 307
408 129 98
409 127 90
410 39 48
411 316 336
412 128 95
413 370 98
414 90 26
415 204 381
416 363 24
417 277 163
418 315 341
419 222 283
420 109 167
421 124 69
422 41 297
423 302 136
424 108 186
425 321 209
426 92 155
427 108 250
428 100 243
429 113 184
430 211 147
431 41 52
432 25 118
433 94 31
434 87 365
435 300 62
436 34 385
437 83 248
438 186 304
439 317 331
440 348 176
441 211 154
442 298 138
443 182 378
444 100 6
445 279 12
446 308 396
447 275 287
448 363 267
449 104 171
450 391 271
451 320 216
452 389 271
453 349 272
454 28 246
455 92 46
456 24 93
457 307 59
458 293 15
459 300 299
460 272 161
461 24 121
462 152 263
463 156 367
464 48 361
465 280 283
466 31 357
467 275 12
468 264 112
469 58 346
470 21 204
471 295 307
472 72 253
473 111 179
474 336 387
475 58 294
476 84 360
477 278 159
478 98 28
479 346 155
480 295 16
481 337 388
482 182 338
483 308 389
484 392 307
485 34 289
486 342 385
487 43 386
488 227 231
489 302 392
490 221 281
491 60 293
492 177 137
493 157 281
494 90 54
495 232 234
496 189 306
497 229 237
498 126 70
499 230 290
500 99 7
501 171 179
502 346 163
503 313 334
504 382 54
505 329 236
506 335 47
507 17 125
508 305 306
509 356 41
510 89 51
511 47 328
512 117 187
513 391 54
514 299 141
515 336 42
516 109 252
517 324 216
518 40 380
519 86 154
520 225 288
521 294 136
522 154 284
523 361 269
524 181 339
525 257 239
526 119 179
527 346 48
528 238 250
529 95 64
530 389 307
531 22 205
532 89 48
533 217 289
534 280 288
535 389 306
536 97 248
537 55 324
538 56 289
539 187 338
540 366 39
541 339 384
542 40 56
543 46 380
544 351 177
545 393 297
546 351 176
547 249 242
548 63 262
549 346 53
550 297 135
551 12 117
552 279 4
553 291 308
554 157 102
555 15 116
556 364 43
557 242 113
558 82 360
559 133 68
560 274 14
561 34 242
562 331 251
563 344 391
564 301 66
565 309 397
566 213 271
567 397 313
568 348 280
569 150 284
570 172 180
571 132 159
572 376 254
573 242 105
574 383 53
575 276 116
576 322 242
577 134 63
578 158 206
579 237 213
580 52 334
581 101 10
582 52 331
583 17 209
584 102 67
585 321 339
586 167 180
587 29 250
588 254 240
589 371 253
590 203 384
591 350 271
592 114 178
593 186 306
594 137 64
595 393 305
596 215 143
597 256 231
598 267 112
599 33 293
600 94 70
601 166 67
602 164 66
603 183 332
604 73 203
605 232 230
606 345 158
607 360 23
608 142 262
609 353 164
610 129 67
611 308 204
612 82 65
613 210 144
614 341 394
615 26 250
616 148 112
617 177 138
618 313 340
619 240 210
620 75 208
621 293 306
622 372 256
623 324 217
624 282 282
625 374 104
626 376 251
627 156 207
628 183 375
629 364 267
630 129 293
631 220 296
632 75 367
633 196 295
634 97 6
635 93 51
636 95 243
637 206 81
638 357 39
639 358 266
640 16 120
641 374 253
642 99 67
643 99 28
644 289 306
645 210 271
646 21 125
647 359 30
648 327 241
649 361 44
650 211 266
651 29 59
652 132 170
653 310 143
654 139 161
655 97 29
656 35 291
657 227 240
658 175 299
659 227 229
660 303 58
661 203 387
662 53 326
663 96 14
664 66 254
665 214 378
666 41 382
667 96 237
668 388 267
669 263 110
670 79 209
671 168 62
672 76 207
673 157 282
674 345 382
675 308 196
676 130 286
677 176 132
678 313 335
679 164 62
680 338 391
681 390 52
682 355 39
683 309 399
684 363 30
685 162 61
686 129 132
687 179 305
688 207 391
689 305 304
690 22 210
691 114 254
692 208 274
693 349 157
694 364 25
695 391 269
696 244 114
697 95 63
698 23 97
699 32 352
700 86 357
701 51 326
702 220 283
703 87 153
704 299 52
705 129 124
706 93 237
707 142 168
708 204 385
709 301 139
710 197 300
711 44 54
712 70 264
713 311 395
714 229 209
715 84 252
716 323 243
717 251 241
718 103 167
719 308 301
720 367 255
721 131 67
722 386 60
723 151 264
724 186 336
725 359 49
726 154 282
727 150 108
728 28 353
729 93 48
730 156 206
731 11 115
732 93 47
733 138 168
734 280 287
735 268 160
736 20 91
737 134 62
738 147 264
739 307 196
740 49 351
741 160 366
742 154 206
743 156 63
744 168 177
745 220 381
746 68 261
747 389 54
748 96 8
749 126 161
750 231 219
751 114 252
752 89 29
753 355 156
754 236 243
755 127 94
756 176 342
757 62 301
758 41 378
759 34 355
760 183 301
761 277 19
762 211 389
763 115 185
764 133 94
765 98 13
766 306 306
767 85 358
768 93 59
769 282 283
770 25 256
771 76 250
772 212 146
773 202 85
774 178 133
775 204 292
776 39 384
777 321 212
778 239 254
779 206 296
780 116 252
781 33 56
782 67 258
783 347 395
784 310 200
785 163 63
786 348 279
787 106 174
788 95 8
789 129 287
790 19 127
791 286 17
792 158 365
793 223 372
794 75 203
795 207 87
796 19 206
797 49 289
798 335 50
799 181 132
800 18 208
801 89 152
802 129 134
803 243 104
804 31 357
805 58 346
806 257 239
807 309 399
808 84 363
809 54 348
810 97 29
811 85 67
812 21 125
813 92 50
814 310 200
815 60 293
816 152 237
817 277 19
818 149 234
819 99 16
820 127 279
821 236 243
822 280 288
823 327 242
824 238 101
825 150 108
826 113 179
827 237 213
828 362 28
829 277 163
830 96 235
831 152 109
832 177 300
833 206 296
834 275 15
835 221 281
836 33 56
837 342 385
838 187 341
839 21 96
PICKUP_AND_DELIVERY_SECTION
1 0 0 1676 0 0 0
2 -10 250 768 90 574 0
3 -10 629 1031 90 710 0
4 -50 209 640 90 511 0
5 20 597 1071 90 0 415
6 30 237 763 90 0 204
7 -30 68 486 90 692 0
8 10 55 471 90 0 557
9 20 217 727 90 0 156
10 -30 633 1028 90 587 0
11 -10 740 1232 90 743 0
12 10 408 901 90 0 705
13 -20 482 871 90 234 0
14 20 109 633 90 0 706
15 20 194 722 90 0 540
16 -10 310 912 90 305 0
17 20 280 807 90 0 383
18 20 329 828 90 0 552
19 -20 989 1237 90 653 0
20 10 561 993 90 0 735
21 30 349 925 90 0 38
22 20 182 753 90 0 482
23 -30 723 1147 90 140 0
24 40 519 956 90 0 411
25 30 457 858 90 0 582
26 30 33 405 90 0 596
27 10 748 1275 0 0 826
28 20 95 844 90 0 193
29 10 199 658 90 0 397
30 -20 774 1151 90 409 0
31 -20 254 670 90 745 0
32 -20 429 861 90 539 0
33 10 376 923 90 0 690
34 10 176 566 90 0 355
35 30 135 510 90 0 602
36 -10 825 1274 90 122 0
37 -20 457 864 90 467 0
38 -30 562 895 90 21 0
39 20 95 556 90 0 775
40 -20 350 934 90 641 0
41 10 210 725 90 0 318
42 10 173 759 90 0 797
43 40 111 628 90 0 616
44 -10 330 683 90 213 0
45 10 208 578 90 0 758
46 20 184 792 90 0 396
47 -30 113 781 90 380 0
48 -20 719 1162 90 172 0
49 -10 255 693 90 346 0
50 10 84 582 90 0 144
51 10 657 1266 90 0 183
52 30 251 713 90 0 106
53 -20 491 1182 90 479 0
54 10 283 715 90 0 607
55 -20 868 1177 90 91 0
56 -20 174 580 90 724 0
57 20 85 604 90 0 477
58 10 338 668 90 0 345
59 10 566 986 90 0 713
60 30 398 743 90 0 168
61 20 641 1056 90 0 427
62 30 418 953 90 0 243
63 -20 494 897 90 351 0
64 -10 178 552 90 223 0
65 20 127 593 90 0 548
66 10 530 1075 90 0 362
67 -30 730 1171 90 518 0
68 -20 758 1137 90 465 0
69 -50 117 614 90 575 0
70 -10 527 1158 90 290 0
71 -10 251 705 90 695 0
72 20 312 760 90 0 768
73 20 199 661 0 0 834
74 -20 438 880 90 753 0
75 -20 121 489 90 270 0
76 -20 437 714 90 123 0
77 -10 731 1290 90 458 0
78 10 298 866 90 0 634
79 20 74 717 90 0 154
80 20 41 561 90 0 744
81 -10 459 824 90 424 0
82 10 180 637 90 0 96
83 -10 666 1187 90 577 0
84 -30 207 657 90 218 0
85 20 332 1010 0 0 839
86 -20 426 872 90 787 0
87 -20 680 1178 90 749 0
88 20 189 702 90 0 422
89 -10 60 494 90 657 0
90 -30 332 906 90 124 0
91 20 363 734 90 0 55
92 20 82 716 90 0 738
93 20 192 576 90 0 725
94 20 126 789 90 0 502
95 -20 739 1213 90 524 0
96 -10 321 861 90 82 0
97 -30 427 1013 90 497 0
98 10 866 1356 0 0 813
99 10 181 670 90 0 523
100 30 189 488 90 0 730
101 30 259 567 0 0 838
102 -30 441 929 90 598 0
103 20 559 1041 90 0 684
104 -10 297 791 90 214 0
105 -10 902 1140 90 354 0
106 -30 802 1382 90 52 0
107 -10 147 799 90 344 0
108 -30 330 771 90 561 0
109 10 392 807 90 0 747
110 -10 101 741 90 696 0
111 -10 435 919 90 134 0
112 30 650 1063 0 0 830
113 10 483 880 90 0 366
114 -20 375 815 90 728 0
115 -30 369 996 90 519 0
116 20 64 577 90 0 339
117 30 307 669 90 0 748
118 30 102 602 90 0 328
119 -10 847 1282 90 679 0
120 -10 626 990 90 544 0
121 10 194 650 90 0 555
122 10 763 1218 90 0 36
123 20 205 633 90 0 76
124 30 64 546 90 0 90
125 -20 587 948 90 353 0
126 20 302 668 90 0 240
127 10 217 733 90 0 484
128 -10 179 743 90 443 0
129 10 395 882 90 0 704
130 10 93 819 90 0 135
131 20 645 966 90 0 229
132 10 166 669 90 0 702
133 10 156 470 90 0 693
134 10 177 608 90 0 111
135 -10 97 640 90 130 0
136 -10 891 1258 90 286 0
137 10 834 1386 90 0 678
138 20 171 532 90 0 618
139 10 193 744 90 0 736
140 30 272 747 90 0 23
141 -20 216 571 90 711 0
142 10 127 676 90 0 441
143 -10 426 902 90 150 0
144 -10 395 853 90 50 0
145 -20 636 1145 90 508 0
146 -20 135 601 90 196 0
147 -20 955 1341 90 426 0
148 10 72 557 90 0 592
149 -30 204 767 90 550 0
150 10 217 742 90 0 143
151 30 37 664 90 0 244
152 -20 838 1372 90 389 0
153 -10 816 1259 90 667 0
154 -20 317 747 90 79 0
155 20 467 987 90 0 297
156 -20 235 787 90 9 0
157 -10 845 1237 90 789 0
158 20 625 1050 0 0 824
159 20 231 771 90 0 755
160 -10 100 740 90 375 0
161 10 845 1275 90 0 542
162 -20 236 736 90 662 0
163 20 85 587 90 0 186
164 10 93 515 90 0 266
165 10 116 679 90 0 423
166 -20 466 901 90 468 0
167 -10 953 1420 90 446 0
168 -30 606 1101 90 60 0
169 -20 126 626 90 189 0
170 20 143 520 90 0 451
171 10 698 1087 0 0 828
172 20 971 1379 90 0 48
173 -20 570 1228 90 272 0
174 -20 239 696 90 322 0
175 10 61 505 0 0 818
176 20 591 1124 90 0 700
177 30 61 537 90 0 588
178 20 656 1051 90 0 245
179 10 338 881 90 0 712
180 20 200 754 0 0 808
181 20 142 585 90 0 746
182 -30 599 959 90 699 0
183 -10 993 1308 90 51 0
184 30 730 1188 90 0 530
185 30 216 557 90 0 476
186 -20 99 630 90 163 0
187 -30 198 674 90 492 0
188 20 239 690 90 0 237
189 20 208 698 90 0 169
190 20 653 1208 90 0 195
191 -20 470 879 90 798 0
192 20 105 590 90 0 317
193 -20 373 747 90 28 0
194 -20 38 457 90 578 0
195 -20 754 1406 90 190 0
196 20 120 738 90 0 146
197 10 324 695 90 0 685
198 -20 221 814 90 489 0
199 10 366 750 90 0 573
200 -20 59 738 90 714 0
201 -10 762 1270 90 591 0
202 10 97 649 90 0 208
203 30 606 1070 0 0 802
204 -30 329 892 90 6 0
205 -10 826 1215 90 608 0
206 -30 693 1151 90 612 0
207 10 269 771 90 0 392
208 -10 237 688 90 202 0
209 -30 544 1079 90 316 0
210 -30 180 643 90 470 0
211 -20 969 1424 90 627 0
212 20 176 643 90 0 572
213 10 101 603 90 0 44
214 10 299 595 90 0 104
215 -10 561 995 90 672 0
216 40 605 884 90 0 485
217 10 251 643 90 0 786
218 30 203 632 90 0 84
219 10 394 760 90 0 698
220 -10 458 1059 90 332 0
221 -10 280 1009 90 726 0
222 20 162 653 90 0 455
223 10 90 428 90 0 64
224 20 465 814 90 0 633
225 -20 815 1235 90 327 0
226 -40 235 728 90 504 0
227 10 106 474 90 0 400
228 20 965 1379 0 0 809
229 -20 721 1076 90 131 0
230 -20 1010 1420 90 359 0
231 -10 800 1213 90 381 0
232 -10 548 1031 90 495 0
233 -20 310 852 90 637 0
234 20 135 613 90 0 13
235 -30 503 930 90 799 0
236 -20 131 477 90 278 0
237 -20 622 1028 90 188 0
238 -20 153 626 90 795 0
239 -10 1018 1406 90 792 0
240 -20 811 1267 90 126 0
241 10 664 1066 90 0 361
242 10 632 1020 0 0 811
243 -30 614 945 90 62 0
244 -30 71 549 90 151 0
245 -20 671 1187 90 178 0
246 20 236 829 90 0 783
247 -30 333 1004 90 554 0
248 -20 173 676 90 435 0
249 10 250 719 90 0 632
250 20 181 588 90 0 708
251 -10 549 986 90 410 0
252 -10 215 729 90 691 0
253 10 458 865 90 0 263
254 -20 357 957 90 520 0
255 30 204 755 90 0 515
256 10 145 651 90 0 440
257 10 138 555 90 0 390
258 30 42 621 90 0 570
259 20 468 1069 90 0 611
260 40 121 698 90 0 621
261 -30 796 1419 90 600 0
262 -10 866 1243 90 778 0
263 -10 388 762 90 253 0
264 10 339 951 90 0 374
265 30 233 582 90 0 586
266 -10 184 547 90 164 0
267 10 730 1209 90 0 404
268 30 718 1162 0 0 832
269 20 154 658 90 0 620
270 20 101 624 90 0 75
271 -10 390 979 90 352 0
272 20 388 856 90 0 173
273 -20 749 1183 90 649 0
274 -30 714 1153 90 546 0
275 -10 246 852 90 763 0
276 -10 661 1283 90 766 0
277 -10 86 665 90 566 0
278 20 118 578 90 0 236
279 10 60 603 0 0 816
280 30 159 603 0 0 831
281 20 162 779 90 0 372
282 10 506 1037 90 0 567
283 -10 727 1042 90 756 0
284 20 543 940 0 0 803
285 10 286 694 90 0 431
286 10 680 1285 90 0 136
287 20 700 1251 90 0 722
288 -30 590 1085 90 652 0
289 -20 251 921 90 703 0
290 10 538 964 90 0 70
291 10 153 577 90 0 526
292 10 127 679 90 0 604
293 -20 464 827 90 532 0
294 30 370 813 90 0 527
295 20 634 1085 90 0 549
296 -10 272 665 90 537 0
297 -20 521 1118 90 155 0
298 20 168 683 90 0 599
299 -20 159 828 90 394 0
300 30 93 655 90 0 438
301 20 215 692 90 0 796
302 -20 771 1176 90 428 0
303 -10 227 695 90 701 0
304 10 358 914 90 0 757
305 10 114 661 90 0 16
306 20 225 765 90 0 535
307 -10 359 821 90 669 0
308 -20 288 822 90 665 0
309 20 209 664 0 0 819
310 20 739 1175 90 0 740
311 -20 170 695 90 562 0
312 -20 531 1155 90 631 0
313 20 343 702 90 0 331
314 10 136 681 90 0 472
315 20 164 677 90 0 538
316 30 245 635 90 0 209
317 -20 172 590 90 192 0
318 -10 897 1193 90 41 0
319 -30 402 1008 90 721 0
320 -20 197 740 90 453 0
321 30 177 581 90 0 450
322 20 221 531 90 0 174
323 -20 617 1058 90 771 0
324 40 571 834 0 0 823
325 10 800 1096 0 0 820
326 -20 840 1450 90 643 0
327 20 746 1122 90 0 225
328 -30 241 707 90 118 0
329 -30 200 649 90 336 0
330 20 79 562 90 0 432
331 -20 495 937 90 313 0
332 10 461 871 90 0 220
333 30 570 952 90 0 622
334 30 184 599 90 0 793
335 -20 385 850 90 772 0
336 30 144 609 90 0 329
337 20 319 702 90 0 501
338 10 804 1352 90 0 481
339 -20 144 719 90 116 0
340 -20 288 767 90 677 0
341 -10 891 1354 90 503 0
342 -30 174 607 90 382 0
343 40 183 584 90 0 732
344 10 96 542 90 0 107
345 -10 876 1196 90 58 0
346 10 305 799 90 0 49
347 30 196 771 90 0 647
348 -10 237 870 90 638 0
349 -10 854 1374 90 493 0
350 10 184 537 90 0 770
351 20 406 848 90 0 63
352 10 301 882 90 0 271
353 20 35 575 90 0 125
354 10 305 879 90 0 105
355 -10 563 1109 90 34 0
356 -10 629 1124 90 785 0
357 -10 383 911 90 585 0
358 -10 567 1073 90 751 0
359 20 420 1039 90 0 230
360 -20 466 739 90 528 0
361 -10 735 1179 90 241 0
362 -10 921 1344 90 66 0
363 -20 247 702 90 560 0
364 -20 541 1125 90 462 0
365 10 92 765 90 0 391
366 -10 575 971 90 113 0
367 -10 659 1068 90 773 0
368 -10 519 991 90 536 0
369 -20 171 526 90 741 0
370 30 142 701 90 0 719
371 -10 92 614 90 650 0
372 -20 806 1307 90 281 0
373 20 296 573 90 0 742
374 -10 592 1156 90 264 0
375 10 204 708 90 0 160
376 30 172 667 90 0 648
377 -30 777 1089 90 686 0
378 10 119 623 90 0 801
379 30 179 769 90 0 475
380 30 112 724 90 0 47
381 10 575 1070 90 0 231
382 30 239 656 90 0 342
383 -20 508 943 90 17 0
384 10 322 783 90 0 635
385 20 128 680 90 0 794
386 -10 1025 1424 90 767 0
387 10 861 1247 90 0 412
388 -20 913 1370 90 651 0
389 20 217 770 90 0 152
390 -10 237 882 90 257 0
391 -10 293 851 90 365 0
392 -10 252 735 90 207 0
393 -10 1068 1491 90 420 0
394 20 405 616 90 0 299
395 -20 414 955 90 401 0
396 -20 478 1007 90 46 0
397 -10 575 1070 90 29 0
398 20 107 513 90 0 676
399 20 125 548 90 0 408
400 -10 459 1096 90 227 0
401 20 61 631 90 0 395
402 20 627 1071 90 0 445
403 -20 654 1196 90 531 0
404 -10 860 1264 90 267 0
405 10 512 1013 90 0 456
406 -30 514 966 90 628 0
407 -10 642 1118 90 689 0
408 -20 1015 1460 90 399 0
409 20 300 888 90 0 30
410 10 370 981 90 0 251
411 -40 314 796 90 24 0
412 -10 843 1447 90 387 0
413 20 198 814 90 0 556
414 30 490 1020 90 0 752
415 -20 883 1340 90 5 0
416 20 285 739 90 0 694
417 10 509 974 0 0 829
418 20 181 618 90 0 439
419 20 85 569 90 0 533
420 10 905 1490 90 0 393
421 -20 551 1047 90 559 0
422 -20 186 749 90 88 0
423 -10 354 807 90 165 0
424 10 285 631 90 0 81
425 30 121 550 90 0 545
426 20 863 1239 90 0 147
427 -20 740 1142 90 61 0
428 20 108 559 90 0 302
429 -30 472 996 90 512 0
430 -10 249 799 90 613 0
431 -10 328 834 90 285 0
432 -20 815 1259 90 330 0
433 10 723 1164 90 0 729
434 20 199 754 90 0 558
435 20 170 670 90 0 248
436 -20 313 909 90 666 0
437 -20 126 561 90 636 0
438 -30 366 755 90 300 0
439 -20 645 1018 90 418 0
440 -10 149 711 90 256 0
441 -10 430 995 90 142 0
442 20 115 658 90 0 514
443 10 178 704 90 0 128
444 -30 787 1295 90 788 0
445 -20 748 1141 90 402 0
446 10 257 740 90 0 167
447 10 114 601 90 0 459
448 -10 214 877 90 505 0
449 -10 577 915 90 571 0
450 -30 203 761 90 321 0
451 -20 321 849 90 170 0
452 -10 201 668 90 659 0
453 20 165 625 90 0 320
454 20 178 749 90 0 615
455 -20 526 959 90 222 0
456 -10 702 1201 90 405 0
457 10 674 1158 90 0 564
458 10 207 631 90 0 77
459 -10 837 1134 90 447 0
460 -20 587 1268 90 606 0
461 -20 884 1376 90 507 0
462 20 79 467 90 0 364
463 10 296 607 90 0 603
464 10 314 853 90 0 776
465 20 702 1011 90 0 68
466 20 409 967 0 0 804
467 20 382 750 90 0 37
468 20 228 582 90 0 166
469 20 203 525 0 0 805
470 30 179 723 90 0 210
471 20 143 604 90 0 769
472 -10 138 574 90 314 0
473 -30 677 1161 90 654 0
474 10 660 1307 90 0 541
475 -30 903 1297 90 379 0
476 -30 464 1069 90 185 0
477 -20 360 933 90 57 0
478 -10 199 537 90 510 0
479 20 603 1022 90 0 53
480 20 207 654 90 0 506
481 -10 646 1138 90 338 0
482 -20 400 804 90 22 0
483 -30 1032 1369 90 565 0
484 -10 348 825 90 127 0
485 -40 395 906 90 216 0
486 10 925 1353 0 0 837
487 -30 459 962 90 580 0
488 10 41 460 90 0 750
489 20 217 742 90 0 198
490 20 83 516 0 0 835
491 20 938 1418 0 0 815
492 30 67 602 90 0 187
493 10 91 429 90 0 349
494 -10 182 593 90 764 0
495 10 169 667 90 0 232
496 -20 497 811 90 760 0
497 30 155 493 90 0 97
498 -30 626 1157 90 610 0
499 -20 243 672 90 645 0
500 -10 730 1170 90 663 0
501 -20 357 1046 90 337 0
502 -20 150 766 90 94 0
503 10 742 1112 90 0 341
504 40 233 740 90 0 226
505 10 157 696 90 0 448
506 -20 204 835 90 480 0
507 20 272 848 90 0 461
508 20 486 925 90 0 145
509 -10 222 676 90 682 0
510 10 185 762 90 0 478
511 50 307 815 90 0 4
512 30 84 425 90 0 429
513 -10 717 1040 90 681 0
514 -20 791 1136 90 442 0
515 -30 208 831 90 255 0
516 -20 442 686 90 780 0
517 20 125 730 90 0 623
518 30 240 658 90 0 67
519 30 506 1041 90 0 115
520 20 135 588 90 0 254
521 10 113 512 90 0 709
522 20 302 799 90 0 569
523 -10 398 878 90 99 0
524 20 458 929 90 0 95
525 10 297 756 0 0 806
526 -10 1002 1503 90 291 0
527 -30 512 1022 90 294 0
528 20 73 621 90 0 360
529 20 171 653 90 0 697
530 -30 823 1288 90 184 0
531 20 178 576 90 0 403
532 20 302 616 90 0 293
533 -20 453 1048 90 419 0
534 10 240 736 0 0 822
535 -20 880 1370 90 306 0
536 10 156 618 90 0 368
537 10 190 616 90 0 296
538 -20 619 1210 90 315 0
539 20 138 612 90 0 32
540 -20 472 901 90 15 0
541 -10 872 1356 90 474 0
542 -10 745 1371 90 161 0
543 -30 656 1140 90 759 0
544 10 185 663 90 0 120
545 -30 216 725 90 425 0
546 30 152 592 90 0 274
547 20 64 499 90 0 717
548 -20 357 672 90 65 0
549 -20 741 1166 90 295 0
550 30 145 638 90 0 149
551 -30 486 1014 90 640 0
552 -20 579 933 90 18 0
553 30 485 906 90 0 644
554 30 308 830 90 0 247
555 -10 717 1156 90 121 0
556 -20 544 1018 90 413 0
557 -10 96 617 90 8 0
558 -20 481 869 90 434 0
559 20 148 807 90 0 421
560 20 200 743 90 0 363
561 30 171 557 90 0 108
562 20 140 623 90 0 311
563 -20 239 803 90 674 0
564 -10 851 1360 90 457 0
565 30 444 924 90 0 483
566 10 252 632 90 0 277
567 -10 654 1075 90 282 0
568 10 453 811 90 0 576
569 -20 486 993 90 522 0
570 -30 498 1088 90 258 0
571 10 355 734 90 0 449
572 -20 194 723 90 212 0
573 -10 419 880 90 199 0
574 10 234 661 90 0 2
575 50 113 520 90 0 69
576 -10 615 1161 90 568 0
577 10 152 643 90 0 83
578 20 42 584 90 0 194
579 20 573 983 0 0 827
580 30 613 1071 90 0 487
581 -10 901 1371 90 765 0
582 -30 464 1033 90 25 0
583 20 459 1027 90 0 800
584 20 165 616 90 0 642
585 10 184 778 90 0 357
586 -30 321 894 90 265 0
587 30 459 1015 90 0 10
588 -30 560 861 90 177 0
589 -30 500 968 90 668 0
590 -30 750 1287 90 762 0
591 10 165 547 90 0 201
592 -10 810 1395 90 148 0
593 10 455 1040 90 0 687
594 30 149 498 90 0 737
595 -20 219 713 90 629 0
596 -30 58 614 90 26 0
597 -20 716 1277 90 716 0
598 30 243 753 90 0 102
599 -20 191 772 90 298 0
600 30 791 1240 90 0 261
601 30 137 574 90 0 671
602 -30 138 641 90 35 0
603 -10 878 1267 90 463 0
604 -10 275 725 90 292 0
605 20 393 811 90 0 619
606 20 735 1076 90 0 460
607 -10 238 647 90 54 0
608 10 270 821 90 0 205
609 20 195 483 90 0 625
610 30 353 874 90 0 498
611 -20 494 1020 90 259 0
612 30 537 927 90 0 206
613 10 170 510 90 0 430
614 20 441 969 90 0 680
615 -20 235 672 90 454 0
616 -40 102 607 90 43 0
617 40 66 487 90 0 774
618 -20 179 674 90 138 0
619 -20 732 1013 90 605 0
620 -20 125 761 90 269 0
621 -40 141 417 90 260 0
622 -30 555 1099 90 333 0
623 -20 125 683 90 517 0
624 -10 570 959 90 734 0
625 -20 318 816 90 609 0
626 20 183 592 90 0 639
627 20 52 399 90 0 211
628 30 175 540 90 0 406
629 20 204 705 90 0 595
630 20 304 833 90 0 658
631 20 248 870 90 0 312
632 -10 401 750 90 249 0
633 -20 208 888 90 224 0
634 -10 593 1122 90 78 0
635 -10 1005 1398 90 384 0
636 20 170 795 90 0 437
637 20 302 667 90 0 233
638 10 224 875 90 0 348
639 -20 480 985 90 626 0
640 30 447 864 90 0 551
641 20 289 813 90 0 40
642 -20 167 746 90 584 0
643 20 199 725 90 0 326
644 -30 554 1023 90 553 0
645 20 71 590 90 0 499
646 10 194 764 0 0 812
647 -30 847 1310 90 347 0
648 -30 321 902 90 376 0
649 20 675 1073 90 0 273
650 10 248 826 90 0 371
651 20 763 1159 90 0 388
652 30 82 614 90 0 288
653 20 463 898 90 0 19
654 30 458 827 90 0 473
655 20 199 823 0 0 810
656 10 232 885 90 0 782
657 10 48 447 90 0 89
658 -20 732 1331 90 630 0
659 10 39 462 90 0 452
660 10 492 970 90 0 791
661 -10 421 881 90 688 0
662 20 193 626 90 0 162
663 10 225 566 90 0 500
664 -10 144 517 90 715 0
665 20 178 706 90 0 308
666 20 241 849 90 0 436
667 10 465 1063 90 0 153
668 30 463 867 90 0 589
669 10 154 473 90 0 307
670 10 766 1159 90 0 718
671 -30 142 690 90 601 0
672 10 553 1184 90 0 215
673 -40 92 533 90 723 0
674 20 232 704 90 0 563
675 -20 108 585 90 739 0
676 -20 110 634 90 398 0
677 20 72 439 90 0 340
678 -10 763 1272 90 137 0
679 10 354 849 90 0 119
680 -20 562 1036 90 614 0
681 10 530 1043 90 0 513
682 10 223 588 90 0 509
683 10 275 909 0 0 807
684 -20 782 1188 90 103 0
685 -10 529 1040 90 197 0
686 30 554 939 90 0 377
687 -10 623 1066 90 593 0
688 10 299 631 90 0 661
689 10 574 1021 90 0 407
690 -10 801 1242 90 33 0
691 10 101 476 90 0 252
692 30 82 429 90 0 7
693 -10 520 918 90 133 0
694 -20 461 956 90 416 0
695 10 262 881 90 0 71
696 10 96 627 90 0 110
697 -20 172 732 90 529 0
698 -10 924 1348 90 219 0
699 30 226 766 90 0 182
700 -20 865 1392 90 176 0
701 10 195 726 90 0 303
702 -10 807 1249 90 132 0
703 20 224 752 90 0 289
704 -10 306 780 90 129 0
705 -10 232 880 90 12 0
706 -20 516 826 90 14 0
707 10 66 688 90 0 733
708 -20 698 1156 90 250 0
709 -10 579 1162 90 521 0
710 10 490 979 90 0 3
711 20 213 633 90 0 141
712 -10 487 916 90 179 0
713 -10 568 1165 90 59 0
714 20 30 490 90 0 200
715 10 127 596 90 0 664
716 20 497 1097 90 0 597
717 -20 120 556 90 547 0
718 -10 923 1300 90 670 0
719 -30 147 790 90 370 0
720 -30 708 1137 90 777 0
721 30 297 747 90 0 319
722 -20 914 1237 90 287 0
723 40 80 511 90 0 673
724 20 136 584 90 0 56
725 -20 849 1269 90 93 0
726 10 99 818 90 0 221
727 10 104 698 0 0 825
728 20 230 717 90 0 114
729 -10 768 1269 90 433 0
730 -30 269 729 90 100 0
731 -20 645 1040 90 790 0
732 -40 593 1075 90 343 0
733 -10 69 551 90 707 0
734 10 313 844 90 0 624
735 -10 736 1308 90 20 0
736 -10 608 1108 90 139 0
737 -30 152 671 90 594 0
738 -20 93 436 90 92 0
739 20 107 574 90 0 675
740 -20 573 1154 90 310 0
741 20 170 755 90 0 369
742 -20 125 509 90 373 0
743 10 668 1276 90 0 11
744 -20 39 548 90 80 0
745 20 182 567 90 0 31
746 -20 581 1010 90 181 0
747 -10 422 966 90 109 0
748 -30 528 1003 90 117 0
749 20 211 685 90 0 87
750 -10 412 765 90 488 0
751 10 100 487 90 0 358
752 -30 598 1099 90 414 0
753 20 257 801 90 0 74
754 20 338 731 0 0 821
755 -20 707 1036 90 159 0
756 10 549 1030 90 0 283
757 -10 981 1415 90 304 0
758 -10 238 804 90 45 0
759 30 639 1104 90 0 543
760 20 102 656 90 0 496
761 20 830 1390 0 0 817
762 30 189 656 90 0 590
763 10 86 524 90 0 275
764 10 178 437 90 0 494
765 10 213 752 90 0 581
766 10 277 758 90 0 276
767 10 753 1332 90 0 386
768 -20 398 861 90 72 0
769 -20 445 902 90 471 0
770 -10 390 709 90 350 0
771 20 242 759 90 0 323
772 20 176 690 90 0 335
773 10 417 929 90 0 367
774 -40 84 605 90 617 0
775 -20 750 1288 90 39 0
776 -10 244 803 90 464 0
777 30 121 561 90 0 720
778 10 66 449 90 0 262
779 30 700 1149 0 0 833
780 20 98 585 90 0 516
781 20 670 1061 0 0 836
782 -10 694 1083 90 656 0
783 -20 411 807 90 246 0
784 30 336 989 0 0 814
785 10 462 923 90 0 356
786 -10 279 802 90 217 0
787 20 140 602 90 0 86
788 30 359 990 90 0 444
789 10 168 597 90 0 157
790 20 318 616 90 0 731
791 -10 417 937 90 660 0
792 10 403 866 90 0 239
793 -30 500 802 90 334 0
794 -20 524 846 90 385 0
795 20 113 609 90 0 238
796 -20 693 1159 90 301 0
797 -10 175 677 90 42 0
798 20 201 771 90 0 191
799 30 385 855 90 0 235
800 -20 658 1010 90 583 0
801 -10 120 726 90 378 0
802 -30 606 1070 90 203 0
803 -20 543 940 90 284 0
804 -20 409 967 90 466 0
805 -20 203 525 90 469 0
806 -10 297 756 90 525 0
807 -10 275 909 90 683 0
808 -20 200 754 90 180 0
809 -20 965 1379 90 228 0
810 -20 199 823 90 655 0
811 -10 632 1020 90 242 0
812 -10 194 764 90 646 0
813 -10 866 1356 90 98 0
814 -30 336 989 90 784 0
815 -20 938 1418 90 491 0
816 -10 60 603 90 279 0
817 -20 830 1390 90 761 0
818 -10 61 505 90 175 0
819 -20 209 664 90 309 0
820 -10 800 1096 90 325 0
821 -20 338 731 90 754 0
822 -10 240 736 90 534 0
823 -40 571 834 90 324 0
824 -20 625 1050 90 158 0
825 -10 104 698 90 727 0
826 -10 748 1275 90 27 0
827 -20 573 983 90 579 0
828 -10 698 1087 90 171 0
829 -10 509 974 90 417 0
830 -30 650 1063 90 112 0
831 -30 159 603 90 280 0
832 -30 718 1162 90 268 0
833 -30 700 1149 90 779 0
834 -20 199 661 90 73 0
835 -20 83 516 90 490 0
836 -20 670 1061 90 781 0
837 -10 925 1353 90 486 0
838 -30 259 567 90 101 0
839 -20 332 1010 90 85 0
DEPOT_SECTION
1
-1
EOF
