NAME: lc2_8_5
TYPE: PDPTW
COMMENT: Li & Lim PDPTW benchmark converted from SINTEF format
DIMENSION: 811
VEHICLES: 200
CAPACITY: 700
EDGE_WEIGHT_TYPE: EUC_2D
NODE_COORD_SECTION
1 200 200
2 271 343
3 85 208
4 82 179
5 132 172
6 278 109
7 117 170
8 96 113
9 165 85
10 371 171
11 141 105
12 150 77
13 75 208
14 287 233
15 113 92
16 271 375
17 201 206
18 352 291
19 368 125
20 216 84
21 183 37
22 235 115
23 273 345
24 150 178
25 190 186
26 280 24
27 282 95
28 261 268
29 212 93
30 228 162
31 379 136
32 72 221
33 73 195
34 351 272
35 57 183
36 106 50
37 264 253
38 70 184
39 255 15
40 270 355
41 380 135
42 110 84
43 355 192
44 77 209
45 93 65
46 183 156
47 182 78
48 237 373
49 134 251
50 136 240
51 267 125
52 197 184
53 167 156
54 268 124
55 127 62
56 127 180
57 127 350
58 146 373
59 67 109
60 121 232
61 134 195
62 96 104
63 112 65
64 351 267
65 34 58
66 312 217
67 143 180
68 63 184
69 282 248
70 152 363
71 234 361
72 282 198
73 377 124
74 252 365
75 90 121
76 253 205
77 137 364
78 93 145
79 79 139
80 343 161
81 74 126
82 212 81
83 371 143
84 279 111
85 146 343
86 265 377
87 214 88
88 191 175
89 283 124
90 368 103
91 59 115
92 249 121
93 246 247
94 110 89
95 151 352
96 290 205
97 254 106
98 93 55
99 78 97
100 273 7
101 263 118
102 150 381
103 73 205
104 275 209
105 204 146
106 248 377
107 262 199
108 276 252
109 331 197
110 215 174
111 334 177
112 272 78
113 133 196
114 66 228
115 351 264
116 132 360
117 146 208
118 294 26
119 271 122
120 218 109
121 388 145
122 33 78
123 154 355
124 275 16
125 200 18
126 374 121
127 332 284
128 190 138
129 257 102
130 337 282
131 283 362
132 195 46
133 73 129
134 366 195
135 162 96
136 252 253
137 51 95
138 292 20
139 76 210
140 252 205
141 272 200
142 380 153
143 111 185
144 233 86
145 85 189
146 267 251
147 172 101
148 87 204
149 173 88
150 301 218
151 68 70
152 270 358
153 268 224
154 177 135
155 130 245
156 237 93
157 96 122
158 285 23
159 356 172
160 274 346
161 200 26
162 266 368
163 290 255
164 333 264
165 194 160
166 299 31
167 261 391
168 224 63
169 130 364
170 361 156
171 83 125
172 170 86
173 289 392
174 75 153
175 110 101
176 236 91
177 214 20
178 76 118
179 206 38
180 190 141
181 108 87
182 187 129
183 256 386
184 202 33
185 371 113
186 131 186
187 241 251
188 286 5
189 364 284
190 250 97
191 272 193
192 104 252
193 370 95
194 97 139
195 263 80
196 224 131
197 354 273
198 353 102
199 230 387
200 70 114
201 149 393
202 117 252
203 163 135
204 176 121
205 217 8
206 242 283
207 253 159
208 86 126
209 269 83
210 361 125
211 172 89
212 158 379
213 356 177
214 89 87
215 245 136
216 341 269
217 16 56
218 278 40
219 252 154
220 264 95
221 99 132
222 134 261
223 90 138
224 130 88
225 265 248
226 291 215
227 250 134
228 275 9
229 145 93
230 350 105
231 256 370
232 255 100
233 108 95
234 278 7
235 302 104
236 140 118
237 74 193
238 123 189
239 227 392
240 55 81
241 41 246
242 246 119
243 144 343
244 163 81
245 125 369
246 53 215
247 252 259
248 185 175
249 78 127
250 212 185
251 134 360
252 265 262
253 64 235
254 79 178
255 178 48
256 274 204
257 274 230
258 282 213
259 343 296
260 75 78
261 197 24
262 50 248
263 288 184
264 158 101
265 282 104
266 170 97
267 108 185
268 152 78
269 59 80
270 127 372
271 348 283
272 250 8
273 288 357
274 215 107
275 164 156
276 179 88
277 77 134
278 154 342
279 200 12
280 361 295
281 341 287
282 152 181
283 146 361
284 112 129
285 91 133
286 339 181
287 100 71
288 244 277
289 55 60
290 148 345
291 254 373
292 198 90
293 59 190
294 215 116
295 50 219
296 110 121
297 275 29
298 274 2
299 45 210
300 122 130
301 51 246
302 92 131
303 143 76
304 281 10
305 74 85
306 78 188
307 338 161
308 210 185
309 186 73
310 55 54
311 46 239
312 204 21
313 249 353
314 263 110
315 339 281
316 249 354
317 90 178
318 151 141
319 156 353
320 53 198
321 151 69
322 252 227
323 288 23
324 299 108
325 279 98
326 276 350
327 187 186
328 211 110
329 210 35
330 389 128
331 263 259
332 241 394
333 76 230
334 206 29
335 280 200
336 140 90
337 300 203
338 136 117
339 298 22
340 343 264
341 69 179
342 275 184
343 384 111
344 77 212
345 209 37
346 287 211
347 76 219
348 218 172
349 267 360
350 271 21
351 179 30
352 228 196
353 204 183
354 190 36
355 272 223
356 268 97
357 266 90
358 291 364
359 168 123
360 125 176
361 214 56
362 350 157
363 346 294
364 126 103
365 123 250
366 275 191
367 267 393
368 276 93
369 69 90
370 223 13
371 255 384
372 248 114
373 78 207
374 243 103
375 73 130
376 199 190
377 140 265
378 147 367
379 130 186
380 174 92
381 256 396
382 76 139
383 207 55
384 260 156
385 64 220
386 80 181
387 43 66
388 234 172
389 152 81
390 73 71
391 124 160
392 165 93
393 273 342
394 83 212
395 296 77
396 154 95
397 194 187
398 264 384
399 141 350
400 137 124
401 138 356
402 381 113
403 289 105
404 46 227
405 191 209
406 72 60
407 67 68
408 188 212
409 231 143
410 332 148
411 162 110
412 141 192
413 244 70
414 74 218
415 136 250
416 54 218
417 174 153
418 390 134
419 201 13
420 278 14
421 260 249
422 180 21
423 118 148
424 160 361
425 131 240
426 364 95
427 147 84
428 140 98
429 233 101
430 171 143
431 40 204
432 125 225
433 260 161
434 238 91
435 146 381
436 386 107
437 103 135
438 248 120
439 282 242
440 358 175
441 76 83
442 219 114
443 276 127
444 365 178
445 124 250
446 185 177
447 137 77
448 169 52
449 111 261
450 278 15
451 286 259
452 173 278
453 266 395
454 266 351
455 132 353
456 328 158
457 277 103
458 75 136
459 193 38
460 358 188
461 130 263
462 342 168
463 258 134
464 183 56
465 79 128
466 146 164
467 202 171
468 68 87
469 61 183
470 264 375
471 309 215
472 44 95
473 64 83
474 187 92
475 239 137
476 40 73
477 196 164
478 238 264
479 64 193
480 369 135
481 72 118
482 267 4
483 122 142
484 305 379
485 166 133
486 117 92
487 275 269
488 153 180
489 100 115
490 246 390
491 150 370
492 164 138
493 296 209
494 178 81
495 162 69
496 380 129
497 166 124
498 349 179
499 50 204
500 66 121
501 130 235
502 231 263
503 84 192
504 365 288
505 137 272
506 156 271
507 99 84
508 64 219
509 68 199
510 280 142
511 228 32
512 363 276
513 114 102
514 365 158
515 132 274
516 246 246
517 48 95
518 207 179
519 152 136
520 137 288
521 238 399
522 299 234
523 123 252
524 99 114
525 78 230
526 223 189
527 253 259
528 147 115
529 211 34
530 92 88
531 254 137
532 189 112
533 106 83
534 228 180
535 266 10
536 135 176
537 69 70
538 208 91
539 277 376
540 54 222
541 275 95
542 259 90
543 70 142
544 256 235
545 389 122
546 40 83
547 272 31
548 210 93
549 144 261
550 144 183
551 70 63
552 289 203
553 255 117
554 155 349
555 351 238
556 289 211
557 173 125
558 363 270
559 88 143
560 270 380
561 275 143
562 330 173
563 74 124
564 132 267
565 78 184
566 107 84
567 143 187
568 228 97
569 269 241
570 132 251
571 280 240
572 59 226
573 236 249
574 196 35
575 94 84
576 142 363
577 254 250
578 66 202
579 105 98
580 102 125
581 283 187
582 272 32
583 129 361
584 86 122
585 258 359
586 75 49
587 122 261
588 300 200
589 281 86
590 240 366
591 207 91
592 141 263
593 146 196
594 41 79
595 244 358
596 215 188
597 265 94
598 208 104
599 175 89
600 147 374
601 199 35
602 226 385
603 202 42
604 219 84
605 331 268
606 38 87
607 93 80
608 141 202
609 240 97
610 240 389
611 280 126
612 268 149
613 258 387
614 388 278
615 167 68
616 195 184
617 329 289
618 182 171
619 265 202
620 273 257
621 43 54
622 273 393
623 149 192
624 62 193
625 282 7
626 222 89
627 270 386
628 348 161
629 90 111
630 384 183
631 126 187
632 96 196
633 397 140
634 156 144
635 83 186
636 261 363
637 231 385
638 183 134
639 267 358
640 153 73
641 286 17
642 392 106
643 97 91
644 71 115
645 226 102
646 166 151
647 116 90
648 118 261
649 90 66
650 249 252
651 396 135
652 140 69
653 200 203
654 284 5
655 155 159
656 206 185
657 138 170
658 241 360
659 86 140
660 379 124
661 242 116
662 262 213
663 343 169
664 160 138
665 93 132
666 122 253
667 172 164
668 398 104
669 125 362
670 343 279
671 241 366
672 85 105
673 73 183
674 159 129
675 208 187
676 60 201
677 149 244
678 294 230
679 236 266
680 317 165
681 38 172
682 98 86
683 254 135
684 56 196
685 237 366
686 161 101
687 268 244
688 70 207
689 329 156
690 273 187
691 225 197
692 349 276
693 83 122
694 200 21
695 290 6
696 39 117
697 72 155
698 79 135
699 121 56
700 94 175
701 36 90
702 61 222
703 140 187
704 119 276
705 60 239
706 259 117
707 92 84
708 380 127
709 130 273
710 293 92
711 251 132
712 114 103
713 77 196
714 166 31
715 246 330
716 20 97
717 145 153
718 149 345
719 248 133
720 281 230
721 194 141
722 379 127
723 54 68
724 56 227
725 261 107
726 86 59
727 68 204
728 382 132
729 123 175
730 69 218
731 251 368
732 268 375
733 358 142
734 228 68
735 140 183
736 171 147
737 87 71
738 362 159
739 145 253
740 109 82
741 351 281
742 245 149
743 285 11
744 216 35
745 280 121
746 102 133
747 127 264
748 96 251
749 243 86
750 280 249
751 262 363
752 261 223
753 128 161
754 339 261
755 257 97
756 273 12
757 57 210
758 299 39
759 377 132
760 340 166
761 268 95
762 145 374
763 239 389
764 68 53
765 197 18
766 73 97
767 107 138
768 141 164
769 53 98
770 86 133
771 69 126
772 288 1
773 177 108
774 80 111
775 352 284
776 249 384
777 81 132
778 185 162
779 136 181
780 286 108
781 105 135
782 280 238
783 356 166
784 297 365
785 376 271
786 292 87
787 319 274
788 213 11
789 243 130
790 53 239
791 298 362
792 92 80
793 70 213
794 153 393
795 103 116
796 76 212
797 202 216
798 78 200
799 265 344
800 286 193
801 139 250
802 379 124
803 242 116
804 265 377
805 154 355
806 211 34
807 361 156
808 77 209
809 268 244
810 174 92
811 273 342
PICKUP_AND_DELIVERY_SECTION
1 0 0 3811 0 0 0
2 10 3167 3487 90 0 478
3 20 141 461 90 0 508
4 30 3259 3579 90 0 317
5 -10 1932 2252 90 753 0
6 -20 431 751 90 745 0
7 20 1634 1954 90 0 488
8 20 673 993 90 0 599
9 -20 1588 1908 90 135 0
10 10 501 821 90 0 444
11 -10 1872 2192 90 492 0
12 30 1786 2106 90 0 494
13 -10 2921 3241 90 416 0
14 -20 2037 2357 90 93 0
15 -30 355 675 90 486 0
16 30 1168 1488 90 0 784
17 20 6 326 90 0 590
18 -10 1722 2042 90 281 0
19 10 1209 1529 90 0 545
20 10 2042 2362 90 0 292
21 20 2946 3266 90 0 354
22 20 414 734 90 0 477
23 -10 3074 3394 90 715 0
24 -20 2801 3121 90 735 0
25 40 629 949 90 0 248
26 20 2333 2653 90 0 138
27 -20 2014 2334 90 101 0
28 10 2731 3051 90 0 573
29 -20 1752 2072 90 383 0
30 -40 1708 2028 90 475 0
31 -30 1602 1922 90 668 0
32 20 2443 2763 90 0 414
33 20 621 941 90 0 306
34 -20 2624 2944 90 197 0
35 20 2124 2444 90 0 341
36 20 1331 1651 90 0 643
37 20 1157 1477 90 0 257
38 20 130 450 90 0 757
39 20 418 738 90 0 482
40 -10 2790 3110 90 152 0
41 -20 1693 2013 90 759 0
42 -20 636 956 90 181 0
43 10 155 475 90 0 680
44 20 3108 3428 0 0 808
45 40 1839 2159 90 0 287
46 -30 3072 3392 90 276 0
47 -30 2674 2994 90 447 0
48 -20 410 730 90 658 0
49 10 2721 3041 90 0 592
50 10 2343 2663 90 0 415
51 20 1210 1530 90 0 207
52 30 441 761 90 0 616
53 -20 2674 2994 90 275 0
54 -10 1302 1622 90 176 0
55 10 1126 1446 90 0 707
56 30 948 1268 90 0 779
57 -30 948 1268 90 243 0
58 20 2129 2449 90 0 491
59 -30 1559 1879 90 774 0
60 10 2046 2366 90 0 222
61 -10 569 889 90 408 0
62 20 868 1188 90 0 640
63 -10 1021 1341 90 94 0
64 20 2719 3039 90 0 115
65 20 2120 2440 90 0 551
66 -10 2401 2721 90 258 0
67 -10 2403 2723 90 113 0
68 -10 2310 2630 90 479 0
69 -20 2326 2646 90 146 0
70 -20 2506 2826 90 435 0
71 -10 2764 3084 90 291 0
72 10 1148 1468 90 0 141
73 10 2083 2403 90 0 142
74 30 173 493 90 0 162
75 10 720 1040 90 0 481
76 10 53 373 90 0 800
77 -10 568 888 90 401 0
78 -20 3010 3330 90 766 0
79 30 2814 3134 90 0 659
80 10 2366 2686 90 0 307
81 -10 1945 2265 90 200 0
82 30 2234 2554 90 0 442
83 -20 3048 3368 90 708 0
84 10 339 659 90 0 368
85 10 152 472 90 0 583
86 30 2270 2590 0 0 804
87 -30 2136 2456 90 604 0
88 -10 824 1144 90 397 0
89 -20 1497 1817 90 242 0
90 20 217 537 90 0 651
91 30 1114 1434 90 0 500
92 -20 1009 1329 90 374 0
93 20 489 809 90 0 14
94 10 449 769 90 0 63
95 -30 2985 3305 90 424 0
96 -20 958 1278 90 690 0
97 -40 721 1041 90 156 0
98 -20 1435 1755 90 647 0
99 30 159 479 90 0 723
100 20 911 1231 90 0 756
101 20 103 423 90 0 27
102 -20 1939 2259 90 270 0
103 10 243 563 90 0 431
104 10 1529 1849 90 0 337
105 30 54 374 90 0 548
106 -20 2563 2883 90 405 0
107 30 84 404 90 0 630
108 -30 1540 1860 90 421 0
109 20 131 451 90 0 213
110 -20 1510 1830 90 165 0
111 10 1281 1601 90 0 663
112 20 1115 1435 90 0 357
113 10 660 980 90 0 67
114 -20 1302 1622 90 237 0
115 -20 2812 3132 90 64 0
116 20 755 1075 90 0 201
117 20 54 374 90 0 623
118 -20 2906 3226 90 124 0
119 20 1395 1715 90 0 683
120 10 1275 1595 90 0 598
121 -30 2843 3163 90 728 0
122 -10 1697 2017 90 468 0
123 10 2703 3023 0 0 805
124 20 2137 2457 90 0 118
125 30 1065 1385 90 0 179
126 30 1112 1432 90 0 496
127 -10 1330 1650 90 315 0
128 -10 182 502 90 180 0
129 -20 2969 3289 90 265 0
130 10 1235 1555 90 0 558
131 10 2497 2817 90 0 160
132 10 154 474 90 0 744
133 -20 2130 2450 90 771 0
134 20 281 601 90 0 159
135 20 738 1058 90 0 9
136 -10 678 998 90 650 0
137 -40 993 1313 90 240 0
138 -20 2714 3034 90 26 0
139 30 1000 1320 90 0 254
140 20 52 372 90 0 256
141 -10 1339 1659 90 72 0
142 -10 2944 3264 90 73 0
143 10 1241 1561 90 0 729
144 20 695 1015 90 0 219
145 -20 2883 3203 90 565 0
146 20 1346 1666 90 0 69
147 -20 1023 1343 90 638 0
148 20 113 433 90 0 688
149 20 1308 1628 90 0 615
150 30 2502 2822 90 0 355
151 -20 3005 3325 90 289 0
152 10 2697 3017 90 0 40
153 -30 3106 3426 90 522 0
154 10 785 1105 90 0 352
155 -20 2533 2853 90 704 0
156 40 883 1203 90 0 97
157 -20 2470 2790 90 559 0
158 20 2428 2748 90 0 323
159 -20 893 1213 90 134 0
160 -10 2982 3302 90 131 0
161 10 784 1104 90 0 714
162 -30 1070 1390 90 74 0
163 -10 2426 2746 90 247 0
164 20 178 498 90 0 754
165 20 1213 1533 90 0 110
166 -20 3003 3323 90 228 0
167 30 1570 1890 90 0 502
168 10 490 810 90 0 645
169 10 1142 1462 90 0 319
170 40 2147 2467 0 0 807
171 20 1405 1725 90 0 208
172 -20 1493 1813 90 489 0
173 30 1871 2191 90 0 326
174 -10 2710 3030 90 458 0
175 -20 3203 3523 90 672 0
176 10 791 1111 90 0 54
177 20 2236 2556 90 0 419
178 -20 825 1145 90 584 0
179 -30 1542 1862 90 125 0
180 10 89 409 90 0 128
181 20 542 862 90 0 42
182 -20 377 697 90 789 0
183 20 1473 1793 90 0 613
184 30 687 1007 90 0 448
185 30 1013 1333 90 0 633
186 -30 760 1080 90 412 0
187 10 301 621 90 0 252
188 10 1285 1605 90 0 772
189 -20 2014 2334 90 340 0
190 10 2781 3101 90 0 232
191 -20 280 600 90 619 0
192 10 1456 1776 90 0 666
193 -20 412 732 90 426 0
194 20 1990 2310 90 0 423
195 40 1016 1336 90 0 209
196 30 73 393 90 0 438
197 20 2531 2851 90 0 34
198 20 181 501 90 0 642
199 20 703 1023 90 0 763
200 10 1013 1333 90 0 81
201 -20 1642 1962 90 116 0
202 30 1935 2255 90 0 549
203 30 1269 1589 90 0 400
204 20 590 910 90 0 353
205 -10 2042 2362 90 334 0
206 -20 2936 3256 90 239 0
207 -20 2208 2528 90 51 0
208 -20 1498 1818 90 171 0
209 -40 919 1239 90 195 0
210 -10 1306 1626 90 343 0
211 -30 1399 1719 90 392 0
212 -20 1841 2161 90 576 0
213 -20 988 1308 90 109 0
214 -10 2412 2732 90 566 0
215 10 211 531 90 0 596
216 10 465 785 90 0 363
217 30 2012 2332 90 0 621
218 20 178 498 90 0 743
219 -20 2304 2624 90 144 0
220 30 2304 2624 90 0 542
221 -10 2370 2690 90 698 0
222 -10 2915 3235 90 60 0
223 30 1893 2213 90 0 296
224 -20 132 452 90 428 0
225 10 1252 1572 90 0 571
226 20 1818 2138 90 0 752
227 -10 2786 3106 90 531 0
228 20 1949 2269 90 0 166
229 10 149 469 90 0 726
230 10 177 497 90 0 722
231 40 2462 2782 90 0 288
232 -10 2876 3196 90 190 0
233 -10 3013 3333 90 406 0
234 -20 1006 1326 90 297 0
235 20 1530 1850 90 0 324
236 10 101 421 90 0 244
237 20 126 446 90 0 114
238 -30 1139 1459 90 379 0
239 20 799 1119 90 0 206
240 40 794 1114 90 0 137
241 -40 1851 2171 90 246 0
242 20 93 413 90 0 89
243 30 153 473 90 0 57
244 -10 1682 2002 90 236 0
245 -20 1335 1655 90 669 0
246 40 880 1200 90 0 241
247 10 774 1094 90 0 163
248 -40 1012 1332 90 25 0
249 20 1310 1630 90 0 781
250 -10 2399 2719 90 430 0
251 10 663 983 90 0 290
252 -10 968 1288 90 187 0
253 20 2240 2560 90 0 796
254 -30 3165 3485 90 139 0
255 -10 3245 3565 90 351 0
256 -20 1434 1754 90 140 0
257 -20 1934 2254 90 37 0
258 10 1627 1947 90 0 66
259 20 1531 1851 90 0 555
260 20 295 615 90 0 563
261 -20 878 1198 90 427 0
262 -20 1951 2271 90 702 0
263 10 756 1076 90 0 552
264 20 550 870 90 0 674
265 20 1915 2235 90 0 129
266 20 929 1249 90 0 634
267 40 1334 1654 90 0 360
268 10 346 666 90 0 519
269 30 588 908 90 0 769
270 20 1428 1748 90 0 102
271 30 948 1268 90 0 504
272 20 517 837 90 0 535
273 -10 2400 2720 90 595 0
274 30 1368 1688 90 0 626
275 20 2581 2901 90 0 53
276 30 2866 3186 90 0 46
277 -30 2322 2642 90 696 0
278 -40 3252 3572 90 718 0
279 20 2432 2752 90 0 459
280 -10 1822 2142 90 617 0
281 10 1046 1366 90 0 18
282 -30 2894 3214 90 536 0
283 20 379 699 90 0 455
284 -10 2764 3084 90 770 0
285 10 149 469 90 0 300
286 20 1185 1505 90 0 514
287 -40 1938 2258 90 45 0
288 -40 2840 3160 90 231 0
289 20 2418 2738 90 0 151
290 -10 3082 3402 90 251 0
291 10 1366 1686 90 0 71
292 -10 2340 2660 90 20 0
293 -10 1894 2214 90 798 0
294 -10 2738 3058 90 328 0
295 20 1174 1494 90 0 404
296 -30 2666 2986 90 223 0
297 20 186 506 90 0 234
298 -30 816 1136 90 582 0
299 -30 780 1100 90 385 0
300 -10 2864 3184 90 285 0
301 -20 2043 2363 90 790 0
302 20 242 562 90 0 580
303 -20 1883 2203 90 629 0
304 -30 1666 1986 90 654 0
305 30 198 518 90 0 390
306 -20 2692 3012 90 33 0
307 -10 2461 2781 90 80 0
308 -10 2491 2811 90 348 0
309 20 2578 2898 90 0 474
310 -10 2322 2642 90 594 0
311 -10 1753 2073 90 572 0
312 10 1160 1480 90 0 345
313 10 481 801 90 0 732
314 -10 3159 3479 90 758 0
315 10 1142 1462 90 0 127
316 -20 390 710 90 731 0
317 -30 3289 3609 90 4 0
318 -30 2281 2601 90 411 0
319 -10 2795 3115 90 169 0
320 10 1609 1929 90 0 386
321 -30 2179 2499 90 652 0
322 20 58 378 90 0 544
323 -20 2521 2841 90 158 0
324 -20 1625 1945 90 235 0
325 -10 2108 2428 90 706 0
326 -30 2888 3208 90 173 0
327 20 722 1042 90 0 618
328 10 2544 2864 90 0 294
329 -20 1447 1767 90 694 0
330 -20 1795 2115 90 436 0
331 10 1061 1381 90 0 750
332 10 998 1318 90 0 622
333 -10 2343 2663 90 705 0
334 10 1258 1578 90 0 205
335 10 1241 1561 90 0 720
336 30 125 445 90 0 792
337 -10 2203 2523 90 104 0
338 10 104 424 90 0 495
339 -10 2810 3130 90 450 0
340 20 370 690 90 0 189
341 -20 2408 2728 90 35 0
342 20 561 881 90 0 581
343 10 820 1140 90 0 210
344 10 1092 1412 90 0 676
345 -10 1635 1955 90 312 0
346 -20 1722 2042 90 366 0
347 20 2537 2857 90 0 730
348 10 1604 1924 90 0 308
349 -20 2603 2923 90 398 0
350 -20 2233 2553 90 420 0
351 10 2735 3055 90 0 255
352 -10 2016 2336 90 154 0
353 -20 2868 3188 90 204 0
354 -20 3043 3363 90 21 0
355 -30 3011 3331 90 150 0
356 10 2209 2529 90 0 725
357 -20 2489 2809 90 112 0
358 -20 2110 2430 90 799 0
359 10 1656 1976 90 0 417
360 -40 1444 1764 90 267 0
361 20 293 613 90 0 413
362 -20 1857 2177 90 760 0
363 -10 1625 1945 90 216 0
364 -10 3279 3599 90 701 0
365 -10 1566 1886 90 449 0
366 20 373 693 90 0 346
367 30 1759 2079 90 0 679
368 -10 718 1038 90 84 0
369 30 171 491 90 0 517
370 10 1944 2264 90 0 765
371 10 1381 1701 90 0 685
372 20 821 1141 90 0 384
373 -20 906 1226 90 578 0
374 20 620 940 90 0 92
375 20 2039 2359 90 0 697
376 -10 2967 3287 90 734 0
377 -10 3012 3332 90 425 0
378 -10 2410 2730 90 600 0
379 30 851 1171 90 0 238
380 20 1122 1442 0 0 810
381 -30 1666 1986 90 671 0
382 -10 1694 2014 90 693 0
383 20 196 516 90 0 29
384 -20 2016 2336 90 372 0
385 30 381 701 90 0 299
386 -10 3072 3392 90 320 0
387 30 1893 2213 90 0 537
388 20 1810 2130 90 0 691
389 20 253 573 90 0 497
390 -30 3101 3421 90 305 0
391 -20 1736 2056 90 567 0
392 30 832 1152 90 0 211
393 30 3242 3562 0 0 811
394 -20 3205 3525 90 608 0
395 -20 1229 1549 90 457 0
396 20 453 773 90 0 485
397 10 347 667 90 0 88
398 20 2077 2397 90 0 349
399 20 182 502 90 0 554
400 -30 2077 2397 90 203 0
401 10 279 599 90 0 77
402 10 913 1233 90 0 418
403 10 1725 2045 90 0 780
404 -20 1075 1395 90 295 0
405 20 235 555 90 0 106
406 10 1637 1957 90 0 233
407 10 2822 3142 90 0 737
408 10 141 461 90 0 61
409 30 64 384 90 0 532
410 -30 2565 2885 90 733 0
411 30 1760 2080 90 0 318
412 30 471 791 90 0 186
413 -20 379 699 90 361 0
414 -20 2630 2950 90 32 0
415 -10 2813 3133 90 50 0
416 10 973 1293 90 0 13
417 -10 2868 3188 90 359 0
418 -10 2551 2871 90 402 0
419 -20 2341 2661 90 177 0
420 20 1853 2173 90 0 350
421 30 102 422 90 0 108
422 -20 2636 2956 90 788 0
423 -20 3064 3384 90 194 0
424 30 2604 2924 90 0 95
425 10 2438 2758 90 0 377
426 20 316 636 90 0 193
427 20 127 447 90 0 261
428 20 118 438 90 0 224
429 20 982 1302 90 0 568
430 10 885 1205 90 0 250
431 -10 682 1002 90 103 0
432 -20 2144 2464 90 748 0
433 -20 2111 2431 90 510 0
434 20 176 496 90 0 609
435 20 1539 1859 90 0 70
436 20 522 842 90 0 330
437 20 116 436 90 0 665
438 -30 917 1237 90 196 0
439 -20 2230 2550 90 620 0
440 -20 697 1017 90 460 0
441 -20 987 1307 90 513 0
442 -30 2643 2963 90 82 0
443 30 142 462 90 0 541
444 -10 600 920 90 10 0
445 -30 1657 1977 90 564 0
446 30 920 1240 90 0 776
447 30 1979 2299 90 0 47
448 -30 3250 3570 90 184 0
449 10 1250 1570 90 0 365
450 10 1762 2082 90 0 339
451 30 2522 2842 90 0 487
452 20 715 1035 90 0 523
453 10 1667 1987 90 0 560
454 20 686 1006 90 0 484
455 -20 852 1172 90 283 0
456 -20 2756 3076 90 689 0
457 20 527 847 90 0 395
458 10 2415 2735 90 0 174
459 -20 3137 3457 90 279 0
460 20 181 501 90 0 440
461 -10 94 414 90 801 0
462 -20 1572 1892 90 783 0
463 20 2597 2917 90 0 742
464 -10 145 465 90 721 0
465 20 2226 2546 90 0 700
466 -20 2696 3016 90 550 0
467 -10 1407 1727 90 557 0
468 10 397 717 90 0 122
469 -10 2218 2538 90 681 0
470 -20 2363 2683 90 627 0
471 -10 2308 2628 90 493 0
472 -40 1337 1657 90 644 0
473 30 492 812 90 0 476
474 -20 2965 3285 90 309 0
475 40 115 435 90 0 30
476 -30 1796 2116 90 473 0
477 -20 1308 1628 90 22 0
478 -10 3137 3457 90 2 0
479 10 171 491 90 0 68
480 -10 1409 1729 90 761 0
481 -10 919 1239 90 75 0
482 -20 719 1039 90 39 0
483 -10 2966 3286 90 767 0
484 -20 1999 2319 90 454 0
485 -20 1464 1784 90 396 0
486 30 169 489 90 0 15
487 -30 2627 2947 90 451 0
488 -20 2986 3306 90 7 0
489 20 488 808 90 0 172
490 -10 1280 1600 90 610 0
491 -20 2315 2635 90 58 0
492 10 1081 1401 90 0 11
493 10 2010 2330 90 0 471
494 -30 2769 3089 90 12 0
495 -10 2373 2693 90 338 0
496 -30 2360 2680 90 126 0
497 -20 1563 1883 90 389 0
498 20 1085 1405 90 0 628
499 20 582 902 90 0 540
500 -30 1661 1981 90 91 0
501 10 2245 2565 90 0 739
502 -30 3234 3554 90 167 0
503 -20 2790 3110 90 525 0
504 -30 1920 2240 90 271 0
505 -40 498 818 90 515 0
506 -10 607 927 90 747 0
507 10 2909 3229 90 0 717
508 -20 472 792 90 3 0
509 -10 524 844 90 727 0
510 20 1902 2222 90 0 433
511 -10 1835 2155 90 574 0
512 -30 2431 2751 90 614 0
513 20 197 517 90 0 441
514 -20 2053 2373 90 286 0
515 40 402 722 90 0 505
516 -20 398 718 90 577 0
517 -30 900 1220 90 369 0
518 -10 2773 3093 90 526 0
519 -10 2186 2506 90 268 0
520 10 842 1162 90 0 570
521 -20 902 1222 90 637 0
522 30 2703 3023 90 0 153
523 -20 1749 2069 90 452 0
524 -20 580 900 90 795 0
525 20 1200 1520 90 0 503
526 10 2207 2527 90 0 518
527 10 865 1185 90 0 569
528 -30 1973 2293 90 664 0
529 20 1355 1675 0 0 806
530 -20 2505 2825 90 575 0
531 10 2411 2731 90 0 227
532 -30 484 804 90 409 0
533 10 912 1232 90 0 699
534 -10 1910 2230 90 736 0
535 -20 623 943 90 272 0
536 30 2027 2347 90 0 282
537 -30 2914 3234 90 387 0
538 -30 1658 1978 90 591 0
539 -10 1881 2201 90 751 0
540 -20 1269 1589 90 499 0
541 -30 626 946 90 443 0
542 -30 2586 2906 90 220 0
543 -20 2513 2833 90 712 0
544 -20 66 386 90 322 0
545 -10 1891 2211 90 19 0
546 -10 1505 1825 90 716 0
547 10 305 625 90 0 625
548 -30 1473 1793 90 105 0
549 -30 3198 3518 90 202 0
550 20 2310 2630 90 0 466
551 -20 2726 3046 90 65 0
552 -10 1050 1370 90 263 0
553 10 1106 1426 90 0 561
554 -20 2890 3210 90 399 0
555 -20 2928 3248 90 259 0
556 30 1912 2232 90 0 588
557 10 685 1005 90 0 467
558 -10 2335 2655 90 130 0
559 20 1797 2117 90 0 157
560 -10 2175 2495 90 453 0
561 -10 1699 2019 90 553 0
562 20 1377 1697 90 0 738
563 -20 1853 2173 90 260 0
564 30 214 534 90 0 445
565 20 2598 2918 90 0 145
566 10 821 1141 90 0 214
567 20 283 603 90 0 391
568 -20 1079 1399 90 429 0
569 -10 1832 2152 90 527 0
570 -10 2629 2949 90 520 0
571 -10 2137 2457 90 225 0
572 10 1460 1780 90 0 311
573 -10 3339 3659 90 28 0
574 10 500 820 90 0 511
575 20 2225 2545 90 0 530
576 20 473 793 90 0 212
577 20 198 518 90 0 516
578 20 431 751 90 0 373
579 -40 3107 3427 90 764 0
580 -20 2567 2887 90 302 0
581 -20 660 980 90 342 0
582 30 214 534 90 0 298
583 -10 1049 1369 90 85 0
584 20 626 946 90 0 178
585 30 787 1107 90 0 791
586 -30 2621 2941 90 606 0
587 10 1059 1379 90 0 648
588 -30 2110 2430 90 556 0
589 10 816 1136 90 0 755
590 -20 194 514 90 17 0
591 30 1567 1887 90 0 538
592 -10 3104 3424 90 49 0
593 -10 90 410 90 653 0
594 10 1599 1919 90 0 310
595 10 293 613 90 0 273
596 -10 2305 2625 90 215 0
597 -10 2395 2715 90 710 0
598 -10 2448 2768 90 120 0
599 -20 1215 1535 90 8 0
600 10 2220 2540 90 0 378
601 -20 593 913 90 603 0
602 -20 516 836 90 797 0
603 20 401 721 90 0 601
604 30 1949 2269 90 0 87
605 30 147 467 90 0 692
606 30 1410 1730 90 0 586
607 -10 2040 2360 90 740 0
608 20 59 379 90 0 394
609 -20 523 843 90 434 0
610 10 1184 1504 90 0 490
611 20 1591 1911 90 0 612
612 -20 1798 2118 90 611 0
613 -20 1567 1887 90 183 0
614 30 2129 2449 90 0 512
615 -20 2468 2788 90 149 0
616 -30 533 853 90 52 0
617 10 1426 1746 90 0 280
618 -20 1107 1427 90 327 0
619 20 178 498 90 0 191
620 20 1445 1765 90 0 439
621 -30 2220 2540 90 217 0
622 -10 1774 2094 90 332 0
623 -20 185 505 90 117 0
624 -10 1800 2120 90 684 0
625 -10 1100 1420 90 547 0
626 -30 1853 2173 90 274 0
627 20 1981 2301 90 0 470
628 -20 1763 2083 90 498 0
629 20 769 1089 90 0 303
630 -30 393 713 90 107 0
631 -20 1045 1365 90 703 0
632 20 104 424 90 0 635
633 -30 2743 3063 90 185 0
634 -20 2377 2697 90 266 0
635 -20 2976 3296 90 632 0
636 -30 882 1202 90 639 0
637 20 611 931 90 0 521
638 20 280 600 90 0 147
639 30 171 491 90 0 636
640 -20 2273 2593 90 62 0
641 -10 2617 2937 90 695 0
642 -20 618 938 90 198 0
643 -20 2721 3041 90 36 0
644 40 1206 1526 90 0 472
645 -10 1174 1494 90 168 0
646 -10 2769 3089 90 686 0
647 20 261 581 90 0 98
648 -10 1153 1473 90 587 0
649 20 1746 2066 90 0 682
650 10 585 905 90 0 136
651 -20 2648 2968 90 90 0
652 30 2078 2398 90 0 321
653 10 3 323 90 0 593
654 30 1193 1513 90 0 304
655 30 2482 2802 90 0 667
656 -10 2677 2997 90 675 0
657 30 2505 2825 90 0 768
658 20 165 485 90 0 48
659 -30 2911 3231 90 79 0
660 10 1991 2311 0 0 802
661 10 3271 3591 0 0 803
662 -20 3303 3623 90 785 0
663 -10 1664 1984 90 111 0
664 30 1175 1495 90 0 528
665 -20 126 446 90 437 0
666 -10 1840 2160 90 192 0
667 -30 2969 3289 90 655 0
668 30 714 1034 90 0 31
669 20 1238 1558 90 0 245
670 -20 662 982 90 787 0
671 30 312 632 90 0 381
672 20 2613 2933 90 0 175
673 -20 2503 2823 90 713 0
674 -20 1366 1686 90 264 0
675 10 2584 2904 90 0 656
676 -10 1512 1832 90 344 0
677 -30 3334 3654 90 709 0
678 10 2606 2926 90 0 782
679 -30 3044 3364 90 367 0
680 -10 2859 3179 90 43 0
681 10 2012 2332 90 0 469
682 -20 2817 3137 90 649 0
683 -20 2503 2823 90 119 0
684 10 1703 2023 90 0 624
685 -10 2668 2988 90 371 0
686 10 643 963 90 0 646
687 10 1738 2058 0 0 809
688 -20 2826 3146 90 148 0
689 20 2664 2984 90 0 456
690 20 468 788 90 0 96
691 -20 2109 2429 90 388 0
692 -30 566 886 90 605 0
693 10 533 853 90 0 382
694 20 972 1292 90 0 329
695 10 1475 1795 90 0 641
696 30 1224 1544 90 0 277
697 -20 2616 2936 90 375 0
698 10 1599 1919 90 0 221
699 -10 1225 1545 90 533 0
700 -20 3293 3613 90 465 0
701 10 1317 1637 90 0 364
702 20 1366 1686 90 0 262
703 20 376 696 90 0 631
704 20 954 1274 90 0 155
705 10 2144 2464 90 0 333
706 10 101 421 90 0 325
707 -10 2317 2637 90 55 0
708 20 2268 2588 90 0 83
709 30 310 630 90 0 677
710 10 1425 1745 90 0 597
711 -20 2694 3014 90 749 0
712 20 288 608 90 0 543
713 20 715 1035 90 0 673
714 -10 2838 3158 90 161 0
715 10 137 457 90 0 23
716 10 1209 1529 90 0 546
717 -10 3181 3501 90 507 0
718 40 3173 3493 90 0 278
719 -10 2879 3199 90 786 0
720 -10 2910 3230 90 335 0
721 10 59 379 90 0 464
722 -10 2177 2497 90 230 0
723 -30 691 1011 90 99 0
724 -10 1553 1873 90 793 0
725 -10 3066 3386 90 356 0
726 -10 1533 1853 90 229 0
727 10 338 658 90 0 509
728 30 2453 2773 90 0 121
729 -10 1536 1856 90 143 0
730 -20 2725 3045 90 347 0
731 20 211 531 90 0 316
732 -10 1261 1581 90 313 0
733 30 2252 2572 90 0 410
734 10 587 907 90 0 376
735 20 2216 2536 90 0 24
736 10 979 1299 90 0 534
737 -10 3205 3525 90 407 0
738 -20 1960 2280 90 562 0
739 -10 3296 3616 90 501 0
740 10 728 1048 90 0 607
741 20 761 1081 90 0 775
742 -20 2985 3305 90 463 0
743 -20 1572 1892 90 218 0
744 -10 1732 2052 90 132 0
745 20 239 559 90 0 6
746 -20 2277 2597 90 777 0
747 10 118 438 90 0 506
748 20 1358 1678 90 0 432
749 20 273 593 90 0 711
750 -10 1635 1955 90 331 0
751 10 973 1293 90 0 539
752 -20 3203 3523 90 226 0
753 10 1830 2150 90 0 5
754 -20 275 595 90 164 0
755 -10 2684 3004 90 589 0
756 -20 2042 2362 90 100 0
757 -20 1412 1732 90 38 0
758 10 3101 3421 90 0 314
759 20 1508 1828 90 0 41
760 20 1479 1799 90 0 362
761 10 125 445 90 0 480
762 -20 2037 2357 90 794 0
763 -20 1093 1413 90 199 0
764 40 2523 2843 90 0 579
765 -10 2529 2849 90 370 0
766 20 1456 1776 90 0 78
767 10 2090 2410 90 0 483
768 -30 2601 2921 90 657 0
769 -30 1086 1406 90 269 0
770 10 338 658 90 0 284
771 20 1757 2077 90 0 133
772 -10 1379 1699 90 188 0
773 10 3074 3394 90 0 778
774 30 1106 1426 90 0 59
775 -20 854 1174 90 741 0
776 -30 1468 1788 90 446 0
777 20 433 753 90 0 746
778 -10 3169 3489 90 773 0
779 -30 2122 2442 90 56 0
780 -10 1819 2139 90 403 0
781 -20 2183 2503 90 249 0
782 -10 2812 3132 90 678 0
783 20 797 1117 90 0 462
784 -30 2206 2526 90 16 0
785 20 2232 2552 90 0 662
786 10 1330 1650 90 0 719
787 20 140 460 90 0 670
788 20 2137 2457 90 0 422
789 20 307 627 90 0 182
790 20 1656 1976 90 0 301
791 -30 2299 2619 90 585 0
792 -30 2131 2451 90 336 0
793 10 282 602 90 0 724
794 20 1736 2056 90 0 762
795 20 395 715 90 0 524
796 -20 3015 3335 90 253 0
797 20 36 356 90 0 602
798 10 809 1129 90 0 293
799 20 589 909 90 0 358
800 -10 855 1175 90 76 0
801 10 78 398 90 0 461
802 -10 1991 2311 90 660 0
803 -10 3271 3591 90 661 0
804 -30 2270 2590 90 86 0
805 -10 2703 3023 90 123 0
806 -20 1355 1675 90 529 0
807 -40 2147 2467 90 170 0
808 -20 3108 3428 90 44 0
809 -10 1738 2058 90 687 0
810 -20 1122 1442 90 380 0
811 -30 3242 3562 90 393 0
DEPOT_SECTION
1
-1
EOF
