NAME: lc2_8_10
TYPE: PDPTW
COMMENT: Li & Lim PDPTW benchmark converted from SINTEF format
DIMENSION: 813
VEHICLES: 200
CAPACITY: 700
EDGE_WEIGHT_TYPE: EUC_2D
NODE_COORD_SECTION
1 200 200
2 271 343
3 85 208
4 82 179
5 132 172
6 278 109
7 117 170
8 96 113
9 165 85
10 371 171
11 141 105
12 150 77
13 75 208
14 287 233
15 113 92
16 271 375
17 201 206
18 352 291
19 368 125
20 216 84
21 183 37
22 235 115
23 273 345
24 150 178
25 190 186
26 280 24
27 282 95
28 261 268
29 212 93
30 228 162
31 379 136
32 72 221
33 73 195
34 351 272
35 57 183
36 106 50
37 264 253
38 70 184
39 255 15
40 270 355
41 380 135
42 110 84
43 355 192
44 77 209
45 93 65
46 183 156
47 182 78
48 237 373
49 134 251
50 136 240
51 267 125
52 197 184
53 167 156
54 268 124
55 127 62
56 127 180
57 127 350
58 146 373
59 67 109
60 121 232
61 134 195
62 96 104
63 112 65
64 351 267
65 34 58
66 312 217
67 143 180
68 63 184
69 282 248
70 152 363
71 234 361
72 282 198
73 377 124
74 252 365
75 90 121
76 253 205
77 137 364
78 93 145
79 79 139
80 343 161
81 74 126
82 212 81
83 371 143
84 279 111
85 146 343
86 265 377
87 214 88
88 191 175
89 283 124
90 368 103
91 59 115
92 249 121
93 246 247
94 110 89
95 151 352
96 290 205
97 254 106
98 93 55
99 78 97
100 273 7
101 263 118
102 150 381
103 73 205
104 275 209
105 204 146
106 248 377
107 262 199
108 276 252
109 331 197
110 215 174
111 334 177
112 272 78
113 133 196
114 66 228
115 351 264
116 132 360
117 146 208
118 294 26
119 271 122
120 218 109
121 388 145
122 33 78
123 154 355
124 275 16
125 200 18
126 374 121
127 332 284
128 190 138
129 257 102
130 337 282
131 283 362
132 195 46
133 73 129
134 366 195
135 162 96
136 252 253
137 51 95
138 292 20
139 76 210
140 252 205
141 272 200
142 380 153
143 111 185
144 233 86
145 85 189
146 267 251
147 172 101
148 87 204
149 173 88
150 301 218
151 68 70
152 270 358
153 268 224
154 177 135
155 130 245
156 237 93
157 96 122
158 285 23
159 356 172
160 274 346
161 200 26
162 266 368
163 290 255
164 333 264
165 194 160
166 299 31
167 261 391
168 224 63
169 130 364
170 361 156
171 83 125
172 170 86
173 289 392
174 75 153
175 110 101
176 236 91
177 214 20
178 76 118
179 206 38
180 190 141
181 108 87
182 187 129
183 256 386
184 202 33
185 371 113
186 131 186
187 241 251
188 286 5
189 364 284
190 250 97
191 272 193
192 104 252
193 370 95
194 97 139
195 263 80
196 224 131
197 354 273
198 353 102
199 230 387
200 70 114
201 149 393
202 117 252
203 163 135
204 176 121
205 217 8
206 242 283
207 253 159
208 86 126
209 269 83
210 361 125
211 172 89
212 158 379
213 356 177
214 89 87
215 245 136
216 341 269
217 16 56
218 278 40
219 252 154
220 264 95
221 99 132
222 134 261
223 90 138
224 130 88
225 265 248
226 291 215
227 250 134
228 275 9
229 145 93
230 350 105
231 256 370
232 255 100
233 108 95
234 278 7
235 302 104
236 140 118
237 74 193
238 123 189
239 227 392
240 55 81
241 41 246
242 246 119
243 144 343
244 163 81
245 125 369
246 53 215
247 252 259
248 185 175
249 78 127
250 212 185
251 134 360
252 265 262
253 64 235
254 79 178
255 178 48
256 274 204
257 274 230
258 282 213
259 343 296
260 75 78
261 197 24
262 50 248
263 288 184
264 158 101
265 282 104
266 170 97
267 108 185
268 152 78
269 59 80
270 127 372
271 348 283
272 250 8
273 288 357
274 215 107
275 164 156
276 179 88
277 77 134
278 154 342
279 200 12
280 361 295
281 341 287
282 152 181
283 146 361
284 112 129
285 91 133
286 339 181
287 100 71
288 244 277
289 55 60
290 148 345
291 254 373
292 198 90
293 59 190
294 215 116
295 50 219
296 110 121
297 275 29
298 274 2
299 45 210
300 122 130
301 51 246
302 92 131
303 143 76
304 281 10
305 74 85
306 78 188
307 338 161
308 210 185
309 186 73
310 55 54
311 46 239
312 204 21
313 249 353
314 263 110
315 339 281
316 249 354
317 90 178
318 151 141
319 156 353
320 53 198
321 151 69
322 252 227
323 288 23
324 299 108
325 279 98
326 276 350
327 187 186
328 211 110
329 210 35
330 389 128
331 263 259
332 241 394
333 76 230
334 206 29
335 280 200
336 140 90
337 300 203
338 136 117
339 298 22
340 343 264
341 69 179
342 275 184
343 384 111
344 77 212
345 209 37
346 287 211
347 76 219
348 218 172
349 267 360
350 271 21
351 179 30
352 228 196
353 204 183
354 190 36
355 272 223
356 268 97
357 266 90
358 291 364
359 168 123
360 125 176
361 214 56
362 350 157
363 346 294
364 126 103
365 123 250
366 275 191
367 267 393
368 276 93
369 69 90
370 223 13
371 255 384
372 248 114
373 78 207
374 243 103
375 73 130
376 199 190
377 140 265
378 147 367
379 130 186
380 174 92
381 256 396
382 76 139
383 207 55
384 260 156
385 64 220
386 80 181
387 43 66
388 234 172
389 152 81
390 73 71
391 124 160
392 165 93
393 273 342
394 83 212
395 296 77
396 154 95
397 194 187
398 264 384
399 141 350
400 137 124
401 138 356
402 381 113
403 289 105
404 46 227
405 191 209
406 72 60
407 67 68
408 188 212
409 231 143
410 332 148
411 162 110
412 141 192
413 244 70
414 74 218
415 136 250
416 54 218
417 174 153
418 390 134
419 201 13
420 278 14
421 260 249
422 180 21
423 118 148
424 160 361
425 131 240
426 364 95
427 147 84
428 140 98
429 233 101
430 171 143
431 40 204
432 125 225
433 260 161
434 238 91
435 146 381
436 386 107
437 103 135
438 248 120
439 282 242
440 358 175
441 76 83
442 219 114
443 276 127
444 365 178
445 124 250
446 185 177
447 137 77
448 169 52
449 111 261
450 278 15
451 286 259
452 173 278
453 266 395
454 266 351
455 132 353
456 328 158
457 277 103
458 75 136
459 193 38
460 358 188
461 130 263
462 342 168
463 258 134
464 183 56
465 79 128
466 146 164
467 202 171
468 68 87
469 61 183
470 264 375
471 309 215
472 44 95
473 64 83
474 187 92
475 239 137
476 40 73
477 196 164
478 238 264
479 64 193
480 369 135
481 72 118
482 267 4
483 122 142
484 305 379
485 166 133
486 117 92
487 275 269
488 153 180
489 100 115
490 246 390
491 150 370
492 164 138
493 296 209
494 178 81
495 162 69
496 380 129
497 166 124
498 349 179
499 50 204
500 66 121
501 130 235
502 231 263
503 84 192
504 365 288
505 137 272
506 156 271
507 99 84
508 64 219
509 68 199
510 280 142
511 228 32
512 363 276
513 114 102
514 365 158
515 132 274
516 246 246
517 48 95
518 207 179
519 152 136
520 137 288
521 238 399
522 299 234
523 123 252
524 99 114
525 78 230
526 223 189
527 253 259
528 147 115
529 211 34
530 92 88
531 254 137
532 189 112
533 106 83
534 228 180
535 266 10
536 135 176
537 69 70
538 208 91
539 277 376
540 54 222
541 275 95
542 259 90
543 70 142
544 256 235
545 389 122
546 40 83
547 272 31
548 210 93
549 144 261
550 144 183
551 70 63
552 289 203
553 255 117
554 155 349
555 351 238
556 289 211
557 173 125
558 363 270
559 88 143
560 270 380
561 275 143
562 330 173
563 74 124
564 132 267
565 78 184
566 107 84
567 143 187
568 228 97
569 269 241
570 132 251
571 280 240
572 59 226
573 236 249
574 196 35
575 94 84
576 142 363
577 254 250
578 66 202
579 105 98
580 102 125
581 283 187
582 272 32
583 129 361
584 86 122
585 258 359
586 75 49
587 122 261
588 300 200
589 281 86
590 240 366
591 207 91
592 141 263
593 146 196
594 41 79
595 244 358
596 215 188
597 265 94
598 208 104
599 175 89
600 147 374
601 199 35
602 226 385
603 202 42
604 219 84
605 331 268
606 38 87
607 93 80
608 141 202
609 240 97
610 240 389
611 280 126
612 268 149
613 258 387
614 388 278
615 167 68
616 195 184
617 329 289
618 182 171
619 265 202
620 273 257
621 43 54
622 273 393
623 149 192
624 62 193
625 282 7
626 222 89
627 270 386
628 348 161
629 90 111
630 384 183
631 126 187
632 96 196
633 397 140
634 156 144
635 83 186
636 261 363
637 231 385
638 183 134
639 267 358
640 153 73
641 286 17
642 392 106
643 97 91
644 71 115
645 226 102
646 166 151
647 116 90
648 118 261
649 90 66
650 249 252
651 396 135
652 140 69
653 200 203
654 284 5
655 155 159
656 206 185
657 138 170
658 241 360
659 86 140
660 379 124
661 242 116
662 262 213
663 343 169
664 160 138
665 93 132
666 122 253
667 172 164
668 398 104
669 125 362
670 343 279
671 241 366
672 85 105
673 73 183
674 159 129
675 208 187
676 60 201
677 149 244
678 294 230
679 236 266
680 317 165
681 38 172
682 98 86
683 254 135
684 56 196
685 237 366
686 161 101
687 268 244
688 70 207
689 329 156
690 273 187
691 225 197
692 349 276
693 83 122
694 200 21
695 290 6
696 39 117
697 72 155
698 79 135
699 121 56
700 94 175
701 36 90
702 61 222
703 140 187
704 119 276
705 60 239
706 259 117
707 92 84
708 380 127
709 130 273
710 293 92
711 251 132
712 114 103
713 77 196
714 166 31
715 246 330
716 20 97
717 145 153
718 149 345
719 248 133
720 281 230
721 194 141
722 379 127
723 54 68
724 56 227
725 261 107
726 86 59
727 68 204
728 382 132
729 123 175
730 69 218
731 251 368
732 268 375
733 358 142
734 228 68
735 140 183
736 171 147
737 87 71
738 362 159
739 145 253
740 109 82
741 351 281
742 245 149
743 285 11
744 216 35
745 280 121
746 102 133
747 127 264
748 96 251
749 243 86
750 280 249
751 262 363
752 261 223
753 128 161
754 339 261
755 257 97
756 273 12
757 57 210
758 299 39
759 377 132
760 340 166
761 268 95
762 145 374
763 239 389
764 68 53
765 197 18
766 73 97
767 107 138
768 141 164
769 53 98
770 86 133
771 69 126
772 288 1
773 177 108
774 80 111
775 352 284
776 249 384
777 81 132
778 185 162
779 136 181
780 286 108
781 105 135
782 280 238
783 356 166
784 297 365
785 376 271
786 292 87
787 319 274
788 213 11
789 243 130
790 53 239
791 298 362
792 92 80
793 70 213
794 153 393
795 103 116
796 76 212
797 202 216
798 78 200
799 265 344
800 286 193
801 139 250
802 68 53
803 379 124
804 361 295
805 148 345
806 190 36
807 137 288
808 69 179
809 114 103
810 261 268
811 282 95
812 210 185
813 218 109
PICKUP_AND_DELIVERY_SECTION
1 0 0 3811 0 0 0
2 10 2682 3562 90 0 393
3 20 115 995 90 0 684
4 -20 2722 3602 90 525 0
5 -10 1652 2532 90 360 0
6 10 151 1031 90 0 368
7 20 1354 2234 90 0 536
8 -30 393 1273 90 524 0
9 -30 1308 2188 90 63 0
10 -20 221 1101 90 630 0
11 20 1592 2472 90 0 634
12 -10 1506 2386 90 686 0
13 30 2641 3521 90 0 394
14 10 1757 2637 90 0 69
15 30 138 1018 90 0 260
16 30 888 1768 90 0 288
17 20 6 886 90 0 797
18 10 1442 2322 90 0 115
19 10 929 1809 90 0 752
20 -20 1762 2642 90 266 0
21 -20 2666 3546 90 603 0
22 -30 134 1014 90 196 0
23 -10 2679 3559 90 160 0
24 -10 2521 3401 90 753 0
25 40 349 1229 90 0 400
26 -20 2053 2933 90 420 0
27 20 1734 2614 0 0 811
28 10 2451 3331 0 0 810
29 30 1472 2352 90 0 442
30 -10 1428 2308 90 141 0
31 20 1322 2202 90 0 330
32 20 2163 3043 90 0 688
33 20 341 1221 90 0 681
34 -10 2344 3224 90 544 0
35 -20 1844 2724 90 114 0
36 -20 1051 1931 90 181 0
37 -10 877 1757 90 527 0
38 20 130 1010 90 0 262
39 20 193 1073 90 0 234
40 30 2510 3390 90 0 502
41 20 1413 2293 90 0 418
42 -30 356 1236 90 392 0
43 10 155 1035 90 0 783
44 -30 2718 3598 90 730 0
45 40 1559 2439 90 0 792
46 -10 2792 3672 90 417 0
47 -30 2394 3274 90 615 0
48 -10 176 1056 90 595 0
49 10 2441 3321 90 0 677
50 10 2063 2943 90 0 415
51 20 930 1810 90 0 683
52 30 161 1041 90 0 719
53 -20 2394 3274 90 275 0
54 10 1022 1902 90 0 463
55 -10 846 1726 90 566 0
56 30 668 1548 90 0 67
57 10 668 1548 90 0 669
58 20 1849 2729 90 0 95
59 -10 1279 2159 90 693 0
60 -20 1766 2646 90 704 0
61 -20 289 1169 90 405 0
62 20 588 1468 90 0 81
63 30 741 1621 90 0 9
64 -20 2439 3319 90 558 0
65 20 1840 2720 90 0 551
66 -20 2121 3001 90 337 0
67 -30 2123 3003 90 56 0
68 -30 2030 2910 90 757 0
69 -10 2046 2926 90 14 0
70 -30 2226 3106 90 583 0
71 30 2484 3364 90 0 206
72 10 868 1748 90 0 335
73 -10 1803 2683 90 402 0
74 -10 173 1053 90 653 0
75 10 440 1320 90 0 458
76 10 53 933 90 0 690
77 -10 288 1168 90 85 0
78 -20 2721 3601 90 766 0
79 -30 2534 3414 90 774 0
80 10 2086 2966 90 0 356
81 -20 1665 2545 90 62 0
82 -30 1954 2834 90 538 0
83 -20 2661 3541 90 642 0
84 10 119 999 90 0 457
85 10 152 1032 90 0 77
86 -20 1990 2870 90 637 0
87 -20 1856 2736 90 380 0
88 30 544 1424 90 0 528
89 -20 1217 2097 90 242 0
90 20 193 1073 90 0 708
91 30 834 1714 90 0 697
92 20 729 1609 90 0 156
93 20 209 1089 90 0 225
94 10 169 1049 90 0 305
95 -20 2682 3562 90 58 0
96 -20 678 1558 90 366 0
97 10 441 1321 90 0 510
98 20 1155 2035 90 0 707
99 30 159 1039 90 0 546
100 20 631 1511 90 0 654
101 20 103 983 90 0 589
102 -20 1659 2539 90 576 0
103 10 127 1007 90 0 508
104 10 1249 2129 90 0 388
105 30 54 934 90 0 721
106 -20 2283 3163 90 199 0
107 30 62 942 90 0 342
108 30 1260 2140 90 0 750
109 -20 131 1011 90 619 0
110 -10 1230 2110 90 263 0
111 10 1001 1881 90 0 663
112 20 835 1715 90 0 265
113 10 380 1260 90 0 729
114 20 1022 1902 90 0 35
115 -10 2532 3412 90 18 0
116 20 475 1355 90 0 600
117 20 54 934 90 0 572
118 -20 2626 3506 90 304 0
119 20 1115 1995 90 0 227
120 10 995 1875 0 0 813
121 -20 2563 3443 90 759 0
122 20 1417 2297 90 0 233
123 -30 2423 3303 90 424 0
124 -10 1857 2737 90 547 0
125 30 785 1665 90 0 529
126 30 832 1712 90 0 545
127 -20 1050 1930 90 340 0
128 -20 62 942 90 616 0
129 -30 2689 3569 90 542 0
130 -40 955 1835 90 692 0
131 10 2217 3097 90 0 231
132 10 154 1034 90 0 261
133 10 1850 2730 90 0 382
134 -20 166 1046 90 460 0
135 20 458 1338 90 0 276
136 10 398 1278 90 0 782
137 -30 713 1593 90 269 0
138 -20 2434 3314 90 350 0
139 30 720 1600 90 0 503
140 20 52 932 90 0 581
141 10 1059 1939 90 0 30
142 -10 2655 3535 90 496 0
143 -20 961 1841 90 703 0
144 -20 415 1295 90 434 0
145 40 2603 3483 90 0 635
146 20 1066 1946 90 0 439
147 -30 743 1623 90 211 0
148 -20 113 993 90 632 0
149 20 1028 1908 90 0 591
150 -20 2222 3102 90 588 0
151 -30 2656 3536 90 369 0
152 -20 2417 3297 90 398 0
153 -30 2769 3649 90 733 0
154 10 505 1385 90 0 557
155 10 2253 3133 90 0 549
156 -20 603 1483 90 92 0
157 -40 2190 3070 90 277 0
158 -20 2148 3028 90 413 0
159 10 613 1493 90 0 410
160 10 2678 3558 90 0 23
161 10 504 1384 90 0 179
162 30 790 1670 90 0 381
163 20 2146 3026 90 0 451
164 20 147 1027 90 0 670
165 20 933 1813 90 0 664
166 -10 2646 3526 90 188 0
167 30 1290 2170 90 0 560
168 -10 210 1090 90 609 0
169 -20 862 1742 90 455 0
170 40 1867 2747 90 0 471
171 -20 1125 2005 90 629 0
172 -20 1213 2093 90 389 0
173 30 1591 2471 90 0 273
174 -10 2430 3310 90 200 0
175 -30 2708 3588 90 607 0
176 10 511 1391 90 0 353
177 20 1956 2836 90 0 419
178 10 545 1425 90 0 644
179 -10 1262 2142 90 161 0
180 10 59 939 90 0 645
181 20 262 1142 90 0 36
182 20 97 977 90 0 268
183 20 1193 2073 90 0 453
184 -20 407 1287 90 601 0
185 30 733 1613 90 0 343
186 10 480 1360 90 0 735
187 10 65 945 90 0 585
188 10 1005 1885 90 0 166
189 -10 1734 2614 90 617 0
190 10 2501 3381 90 0 232
191 30 72 952 90 0 348
192 -10 1176 2056 90 408 0
193 -20 199 1079 90 426 0
194 20 1710 2590 90 0 296
195 -20 736 1616 90 374 0
196 30 73 953 90 0 22
197 -30 2251 3131 90 271 0
198 -30 181 1061 90 443 0
199 20 423 1303 90 0 106
200 10 733 1613 90 0 174
201 40 1362 2242 90 0 762
202 -10 1655 2535 90 801 0
203 30 989 1869 90 0 411
204 20 310 1190 90 0 553
205 20 1762 2642 90 0 765
206 -30 2656 3536 90 71 0
207 40 1928 2808 90 0 219
208 -20 1218 2098 90 396 0
209 -30 639 1519 90 438 0
210 10 1026 1906 90 0 720
211 30 1119 1999 90 0 147
212 10 1561 2441 90 0 435
213 -20 708 1588 90 444 0
214 -20 2132 3012 90 287 0
215 10 78 958 90 0 780
216 10 185 1065 90 0 555
217 -10 1732 2612 90 517 0
218 20 178 1058 90 0 298
219 -40 2024 2904 90 207 0
220 -20 2024 2904 90 562 0
221 -20 2090 2970 90 746 0
222 -10 2635 3515 90 445 0
223 30 1613 2493 90 0 580
224 20 132 1012 90 0 447
225 -20 972 1852 90 93 0
226 -10 1538 2418 90 258 0
227 -20 2506 3386 90 119 0
228 -20 1669 2549 90 535 0
229 10 120 1000 90 0 336
230 10 177 1057 90 0 728
231 -10 2182 3062 90 131 0
232 -10 2596 3476 90 190 0
233 -20 2702 3582 90 122 0
234 -20 726 1606 90 39 0
235 -10 1250 2130 90 786 0
236 10 101 981 90 0 723
237 20 126 1006 90 0 469
238 30 859 1739 90 0 267
239 -10 519 1399 90 313 0
240 40 514 1394 90 0 537
241 30 1571 2451 90 0 705
242 20 93 973 90 0 89
243 30 153 1033 90 0 794
244 20 1402 2282 90 0 303
245 10 1055 1935 90 0 718
246 -20 600 1480 90 431 0
247 -20 494 1374 90 516 0
248 10 732 1612 90 0 467
249 20 1030 1910 90 0 300
250 10 2119 2999 90 0 675
251 10 383 1263 90 0 270
252 -10 688 1568 90 650 0
253 -20 1960 2840 90 578 0
254 20 2719 3599 90 0 317
255 -20 2688 3568 90 422 0
256 -10 1154 2034 90 552 0
257 -20 1654 2534 90 577 0
258 10 1347 2227 90 0 226
259 -10 1251 2131 90 281 0
260 -30 174 1054 90 15 0
261 -10 598 1478 90 132 0
262 -20 1671 2551 90 38 0
263 10 476 1356 90 0 110
264 20 270 1150 90 0 489
265 -20 1635 2515 90 112 0
266 20 649 1529 90 0 20
267 -30 1054 1934 90 238 0
268 -20 131 1011 90 182 0
269 30 308 1188 90 0 137
270 -10 1148 2028 90 251 0
271 30 668 1548 90 0 197
272 20 237 1117 90 0 744
273 -30 2120 3000 90 173 0
274 -20 1088 1968 90 532 0
275 20 2301 3181 90 0 53
276 -20 2586 3466 90 135 0
277 40 2042 2922 90 0 157
278 -20 2692 3572 90 554 0
279 -20 2152 3032 90 788 0
280 20 1542 2422 0 0 804
281 10 766 1646 90 0 259
282 10 2614 3494 90 0 488
283 20 169 1049 90 0 491
284 -30 2484 3364 90 563 0
285 10 127 1007 90 0 584
286 20 905 1785 90 0 661
287 20 1658 2538 90 0 214
288 -30 2560 3440 90 16 0
289 -10 2138 3018 90 716 0
290 20 2687 3567 0 0 805
291 10 1086 1966 90 0 776
292 30 2060 2940 90 0 294
293 -20 1614 2494 90 676 0
294 -30 2458 3338 90 292 0
295 20 894 1774 90 0 311
296 -20 2386 3266 90 194 0
297 20 186 1066 90 0 756
298 -20 536 1416 90 218 0
299 -10 500 1380 90 509 0
300 -20 2584 3464 90 249 0
301 -10 1763 2643 90 793 0
302 -20 128 1008 90 437 0
303 -20 1603 2483 90 244 0
304 20 1386 2266 90 0 118
305 -10 170 1050 90 94 0
306 -20 2412 3292 90 565 0
307 20 2181 3061 90 0 597
308 30 2211 3091 0 0 812
309 -20 2298 3178 90 495 0
310 -30 2042 2922 90 473 0
311 -20 1473 2353 90 295 0
312 -10 880 1760 90 574 0
313 10 201 1081 90 0 239
314 -20 2732 3612 90 725 0
315 -20 862 1742 90 787 0
316 20 161 1041 90 0 484
317 -20 2729 3609 90 254 0
318 30 2001 2881 90 0 667
319 -30 2515 3395 90 378 0
320 -20 1329 2209 90 713 0
321 10 1899 2779 90 0 474
322 20 58 938 90 0 754
323 -20 2241 3121 90 772 0
324 10 1345 2225 90 0 678
325 -20 1828 2708 90 462 0
326 20 2608 3488 90 0 679
327 20 442 1322 90 0 446
328 -40 2264 3144 90 626 0
329 20 1167 2047 90 0 351
330 -20 1515 2395 90 31 0
331 10 781 1661 90 0 620
332 -20 718 1598 90 658 0
333 -20 2063 2943 90 790 0
334 -20 978 1858 90 464 0
335 -10 961 1841 90 72 0
336 -10 125 1005 90 229 0
337 20 1923 2803 90 0 66
338 10 104 984 90 0 575
339 -20 2530 3410 90 749 0
340 20 156 1036 90 0 127
341 20 2128 3008 0 0 808
342 -30 281 1161 90 107 0
343 -30 540 1420 90 185 0
344 10 812 1692 90 0 624
345 -20 1355 2235 90 694 0
346 30 1442 2322 90 0 487
347 -30 2257 3137 90 385 0
348 -30 1324 2204 90 191 0
349 -20 2323 3203 90 627 0
350 20 1953 2833 90 0 138
351 -20 2455 3335 90 329 0
352 -30 1736 2616 90 800 0
353 -10 2588 3468 90 176 0
354 20 2677 3557 0 0 806
355 -10 2731 3611 90 710 0
356 -10 1929 2809 90 80 0
357 -20 2209 3089 90 760 0
358 -20 1830 2710 90 539 0
359 -10 1376 2256 90 492 0
360 10 1164 2044 90 0 5
361 -10 144 1024 90 734 0
362 -10 1577 2457 90 395 0
363 10 1345 2225 90 0 512
364 -20 2719 3599 90 672 0
365 -20 1286 2166 90 666 0
366 20 93 973 90 0 96
367 -20 1479 2359 90 490 0
368 -10 438 1318 90 6 0
369 30 171 1051 90 0 151
370 10 1664 2544 90 0 448
371 -20 1101 1981 90 521 0
372 -20 541 1421 90 789 0
373 10 626 1506 90 0 673
374 20 340 1220 90 0 195
375 20 1759 2639 90 0 768
376 -20 2687 3567 90 699 0
377 -10 2732 3612 90 570 0
378 30 2130 3010 90 0 319
379 -30 571 1451 90 623 0
380 20 842 1722 90 0 87
381 -30 1386 2266 90 162 0
382 -10 1414 2294 90 133 0
383 20 145 1025 90 0 599
384 -10 1736 2616 90 403 0
385 30 137 1017 90 0 347
386 10 2720 3600 90 0 700
387 30 1613 2493 90 0 737
388 -10 1530 2410 90 104 0
389 20 128 1008 90 0 172
390 -10 2660 3540 90 701 0
391 -20 1456 2336 90 567 0
392 30 552 1432 90 0 42
393 -10 2682 3562 90 2 0
394 -30 2724 3604 90 13 0
395 10 949 1829 90 0 362
396 20 173 1053 90 0 208
397 10 67 947 90 0 430
398 20 1797 2677 90 0 152
399 20 161 1041 90 0 401
400 -40 1797 2677 90 25 0
401 -20 167 1047 90 399 0
402 10 633 1513 90 0 73
403 10 1445 2325 90 0 384
404 -20 795 1675 90 499 0
405 20 12 892 90 0 61
406 10 1357 2237 90 0 726
407 -20 2542 3422 90 621 0
408 10 16 896 90 0 192
409 30 64 944 90 0 475
410 -10 2285 3165 90 159 0
411 -30 1480 2360 90 203 0
412 30 191 1071 90 0 657
413 20 137 1017 90 0 158
414 -20 2350 3230 90 724 0
415 -10 2533 3413 90 50 0
416 -20 693 1573 90 702 0
417 10 2588 3468 90 0 46
418 -20 2271 3151 90 41 0
419 -20 2061 2941 90 177 0
420 20 1573 2453 90 0 26
421 30 77 957 90 0 504
422 20 2356 3236 90 0 255
423 -10 2744 3624 90 500 0
424 30 2324 3204 90 0 123
425 10 2158 3038 90 0 501
426 20 194 1074 90 0 193
427 20 127 1007 90 0 740
428 -20 118 998 90 638 0
429 20 702 1582 90 0 531
430 -10 605 1485 90 397 0
431 20 402 1282 90 0 246
432 10 1864 2744 90 0 592
433 -10 1831 2711 90 612 0
434 20 115 995 90 0 144
435 -10 1259 2139 90 212 0
436 20 242 1122 90 0 680
437 20 116 996 90 0 302
438 30 637 1517 90 0 209
439 -20 1950 2830 90 146 0
440 30 417 1297 90 0 498
441 -30 707 1587 90 486 0
442 -30 2363 3243 90 29 0
443 30 105 985 90 0 198
444 20 320 1200 90 0 213
445 10 1377 2257 90 0 222
446 -20 640 1520 90 327 0
447 -20 1699 2579 90 224 0
448 -10 2690 3570 90 370 0
449 -50 970 1850 90 505 0
450 -30 1482 2362 90 625 0
451 -20 2242 3122 90 163 0
452 20 435 1315 90 0 587
453 -20 1387 2267 90 183 0
454 20 406 1286 90 0 751
455 20 572 1452 90 0 169
456 -30 2476 3356 90 651 0
457 -10 247 1127 90 84 0
458 -10 2135 3015 90 75 0
459 -10 2679 3559 90 511 0
460 20 158 1038 90 0 134
461 10 94 974 90 0 709
462 20 1292 2172 90 0 325
463 -10 2317 3197 90 54 0
464 20 145 1025 90 0 334
465 -20 1946 2826 90 513 0
466 -20 2416 3296 90 543 0
467 -10 1127 2007 90 248 0
468 10 173 1053 90 0 476
469 -20 1938 2818 90 237 0
470 -20 2083 2963 90 791 0
471 -40 2028 2908 90 170 0
472 30 1057 1937 90 0 586
473 30 212 1092 90 0 310
474 -10 2685 3565 90 321 0
475 -30 74 954 90 409 0
476 -10 1516 2396 90 468 0
477 10 1028 1908 90 0 519
478 -20 2767 3647 90 784 0
479 -10 136 1016 90 727 0
480 10 1129 2009 90 0 738
481 -10 639 1519 90 665 0
482 -30 439 1319 90 582 0
483 -20 2686 3566 90 559 0
484 -20 1719 2599 90 316 0
485 -10 1184 2064 90 618 0
486 30 136 1016 90 0 441
487 -30 2347 3227 90 346 0
488 -10 2706 3586 90 282 0
489 -20 208 1088 90 264 0
490 20 1000 1880 90 0 367
491 -20 2035 2915 90 283 0
492 10 801 1681 90 0 359
493 -10 1730 2610 90 687 0
494 -30 2489 3369 90 652 0
495 20 2093 2973 90 0 309
496 10 2080 2960 90 0 142
497 20 1283 2163 90 0 655
498 -30 805 1685 90 440 0
499 20 302 1182 90 0 404
500 10 1381 2261 90 0 423
501 -10 1965 2845 90 425 0
502 -30 2771 3651 90 40 0
503 -30 2510 3390 90 139 0
504 -30 1640 2520 90 421 0
505 50 218 1098 90 0 449
506 10 327 1207 90 0 648
507 -10 2629 3509 90 594 0
508 -10 192 1072 90 103 0
509 10 244 1124 90 0 299
510 -10 1622 2502 90 97 0
511 10 1555 2435 90 0 459
512 -10 2151 3031 90 363 0
513 20 130 1010 90 0 465
514 10 1773 2653 90 0 522
515 40 122 1002 90 0 523
516 20 118 998 90 0 247
517 10 620 1500 90 0 217
518 -30 2493 3373 90 604 0
519 -10 1906 2786 90 477 0
520 10 562 1442 0 0 807
521 20 622 1502 90 0 371
522 -10 2423 3303 90 514 0
523 -40 1469 2349 90 515 0
524 30 300 1180 90 0 8
525 20 920 1800 90 0 4
526 -10 1927 2807 90 534 0
527 10 585 1465 90 0 37
528 -30 1693 2573 90 88 0
529 -30 1075 1955 90 125 0
530 -20 2225 3105 90 649 0
531 -20 2131 3011 90 429 0
532 20 204 1084 90 0 274
533 10 632 1512 90 0 640
534 10 1630 2510 90 0 526
535 20 343 1223 90 0 228
536 -20 1747 2627 90 7 0
537 -40 2634 3514 90 240 0
538 30 1378 2258 90 0 82
539 20 1601 2481 90 0 358
540 20 989 1869 90 0 796
541 -10 346 1226 90 761 0
542 30 2306 3186 90 0 129
543 20 2233 3113 90 0 466
544 10 66 946 90 0 34
545 -30 1611 2491 90 126 0
546 -30 1225 2105 90 99 0
547 10 183 1063 90 0 124
548 20 1193 2073 90 0 598
549 -10 2759 3639 90 155 0
550 -30 2030 2910 90 631 0
551 -20 2446 3326 90 65 0
552 10 770 1650 90 0 256
553 -20 826 1706 90 204 0
554 20 2610 3490 90 0 278
555 -10 2648 3528 90 216 0
556 30 1632 2512 90 0 573
557 -10 405 1285 90 154 0
558 20 2055 2935 90 0 64
559 20 1517 2397 90 0 483
560 -30 1895 2775 90 167 0
561 -20 1419 2299 90 611 0
562 20 1097 1977 90 0 220
563 30 1573 2453 90 0 284
564 -10 95 975 90 747 0
565 20 2318 3198 90 0 306
566 10 541 1421 90 0 55
567 20 58 938 90 0 391
568 20 799 1679 90 0 711
569 10 1552 2432 90 0 571
570 10 2349 3229 90 0 377
571 -10 1857 2737 90 569 0
572 -20 1180 2060 90 117 0
573 -30 2781 3661 90 556 0
574 10 220 1100 90 0 312
575 -10 1945 2825 90 338 0
576 20 193 1073 90 0 102
577 20 73 953 90 0 257
578 20 151 1031 90 0 253
579 -20 2702 3582 90 643 0
580 -30 2287 3167 90 223 0
581 -20 380 1260 90 140 0
582 30 182 1062 90 0 482
583 30 769 1649 90 0 70
584 -10 346 1226 90 285 0
585 -10 507 1387 90 187 0
586 -30 2341 3221 90 472 0
587 -20 779 1659 90 452 0
588 20 1830 2710 90 0 150
589 -20 536 1416 90 101 0
590 20 170 1050 90 0 685
591 -20 1287 2167 90 149 0
592 -10 2755 3635 90 432 0
593 20 54 934 90 0 779
594 10 1319 2199 90 0 507
595 10 164 1044 90 0 48
596 -30 2025 2905 90 691 0
597 -20 2115 2995 90 307 0
598 -20 2168 3048 90 548 0
599 -20 935 1815 90 383 0
600 -20 1940 2820 90 116 0
601 20 313 1193 90 0 184
602 10 236 1116 90 0 732
603 20 158 1038 90 0 21
604 30 1669 2549 90 0 518
605 30 147 1027 90 0 741
606 -10 1130 2010 90 769 0
607 30 1760 2640 90 0 175
608 20 59 939 90 0 798
609 10 243 1123 90 0 168
610 -20 904 1784 90 799 0
611 20 1311 2191 90 0 561
612 10 1518 2398 90 0 433
613 -20 1287 2167 90 731 0
614 -20 1849 2729 90 775 0
615 30 2188 3068 90 0 47
616 20 253 1133 90 0 128
617 10 1146 2026 90 0 189
618 10 827 1707 90 0 485
619 20 65 945 90 0 109
620 -10 1165 2045 90 331 0
621 20 1940 2820 90 0 407
622 -30 1494 2374 90 636 0
623 30 51 931 90 0 379
624 -10 1520 2400 90 344 0
625 30 820 1700 90 0 450
626 40 1573 2453 90 0 328
627 20 1701 2581 90 0 349
628 30 1483 2363 90 0 755
629 20 489 1369 90 0 171
630 20 184 1064 90 0 10
631 30 765 1645 90 0 550
632 20 104 984 90 0 148
633 20 2463 3343 90 0 689
634 -20 2097 2977 90 11 0
635 -40 2696 3576 90 145 0
636 30 602 1482 90 0 622
637 20 331 1211 90 0 86
638 20 68 948 90 0 428
639 30 171 1051 90 0 763
640 -10 1993 2873 90 533 0
641 10 2337 3217 90 0 758
642 20 338 1218 90 0 83
643 20 2441 3321 90 0 579
644 -10 926 1806 90 178 0
645 -10 894 1774 90 180 0
646 20 2489 3369 90 0 778
647 20 138 1018 90 0 682
648 -10 873 1753 90 506 0
649 20 1466 2346 90 0 530
650 10 305 1185 90 0 252
651 30 2368 3248 90 0 456
652 30 1798 2678 90 0 494
653 10 3 883 90 0 74
654 -20 913 1793 90 100 0
655 -20 2202 3082 90 497 0
656 -30 2397 3277 90 742 0
657 -30 2225 3105 90 412 0
658 20 165 1045 90 0 332
659 -20 2631 3511 90 771 0
660 10 1711 2591 0 0 803
661 -20 2748 3628 90 286 0
662 -20 2778 3658 90 785 0
663 -10 1384 2264 90 111 0
664 -20 895 1775 90 165 0
665 10 126 1006 90 0 481
666 20 1560 2440 90 0 365
667 -30 2689 3569 90 318 0
668 30 434 1314 90 0 722
669 -10 958 1838 90 57 0
670 -20 382 1262 90 164 0
671 -10 170 1050 90 715 0
672 20 2333 3213 90 0 364
673 -10 2223 3103 90 373 0
674 -10 1086 1966 90 736 0
675 -10 2304 3184 90 250 0
676 20 1232 2112 90 0 293
677 -10 2774 3654 90 49 0
678 -10 2326 3206 90 324 0
679 -20 2764 3644 90 326 0
680 -20 2579 3459 90 436 0
681 -20 1732 2612 90 33 0
682 -20 2537 3417 90 647 0
683 -20 2223 3103 90 51 0
684 -20 1423 2303 90 3 0
685 -20 2388 3268 90 590 0
686 10 363 1243 90 0 12
687 10 1458 2338 90 0 493
688 -20 2546 3426 90 32 0
689 -20 2384 3264 90 633 0
690 -10 188 1068 90 76 0
691 30 1829 2709 90 0 596
692 40 286 1166 90 0 130
693 10 253 1133 90 0 59
694 20 692 1572 90 0 345
695 10 1195 2075 90 0 743
696 -20 944 1824 90 795 0
697 -30 2336 3216 90 91 0
698 10 1319 2199 90 0 717
699 20 945 1825 90 0 376
700 -10 2733 3613 90 386 0
701 10 1037 1917 90 0 390
702 20 1086 1966 90 0 416
703 20 96 976 90 0 143
704 20 674 1554 90 0 60
705 -30 1864 2744 90 241 0
706 10 101 981 90 0 745
707 -20 2037 2917 90 98 0
708 -20 1988 2868 90 90 0
709 -10 101 981 90 461 0
710 10 1145 2025 90 0 355
711 -20 2414 3294 90 568 0
712 20 129 1009 0 0 809
713 20 435 1315 90 0 320
714 20 2558 3438 90 0 773
715 10 137 1017 90 0 671
716 10 929 1809 90 0 289
717 -10 2769 3649 90 698 0
718 -10 2688 3568 90 245 0
719 -30 2599 3479 90 52 0
720 -10 2630 3510 90 210 0
721 -30 59 939 90 105 0
722 -30 1897 2777 90 668 0
723 -10 411 1291 90 236 0
724 20 1273 2153 90 0 414
725 20 2730 3610 90 0 314
726 -10 1253 2133 90 406 0
727 10 132 1012 90 0 479
728 -10 2173 3053 90 230 0
729 -10 1256 2136 90 113 0
730 30 2445 3325 90 0 44
731 20 175 1055 90 0 613
732 -10 981 1861 90 602 0
733 30 1972 2852 90 0 153
734 10 307 1187 90 0 361
735 -10 1936 2816 90 186 0
736 10 699 1579 90 0 674
737 -30 2670 3550 90 387 0
738 -10 1680 2560 90 480 0
739 -20 2765 3645 90 748 0
740 -20 448 1328 90 427 0
741 -30 481 1361 90 605 0
742 30 2705 3585 90 0 656
743 -10 1292 2172 90 695 0
744 -20 1452 2332 90 272 0
745 -10 112 992 90 706 0
746 20 1997 2877 90 0 221
747 10 97 977 90 0 564
748 20 1078 1958 90 0 739
749 20 121 1001 90 0 339
750 -30 1355 2235 90 108 0
751 -20 693 1573 90 454 0
752 -10 2776 3656 90 19 0
753 10 1550 2430 90 0 24
754 -20 151 1031 90 322 0
755 -30 2404 3284 90 628 0
756 -20 1762 2642 90 297 0
757 30 1132 2012 90 0 68
758 -10 2652 3532 90 641 0
759 20 1228 2108 90 0 121
760 20 1199 2079 90 0 357
761 10 125 1005 90 0 541
762 -40 1757 2637 90 201 0
763 -30 813 1693 90 639 0
764 40 2243 3123 0 0 802
765 -20 2249 3129 90 205 0
766 20 1176 2056 90 0 78
767 10 1810 2690 90 0 781
768 -20 2321 3201 90 375 0
769 10 806 1686 90 0 606
770 10 132 1012 90 0 777
771 20 1477 2357 90 0 659
772 20 1099 1979 90 0 323
773 -20 2747 3627 90 714 0
774 30 826 1706 90 0 79
775 20 574 1454 90 0 614
776 -10 1188 2068 90 291 0
777 -10 153 1033 90 770 0
778 -20 2801 3681 90 646 0
779 -20 1842 2722 90 593 0
780 -10 1539 2419 90 215 0
781 -10 1903 2783 90 767 0
782 -10 2532 3412 90 136 0
783 -10 517 1397 90 43 0
784 20 1926 2806 90 0 478
785 20 1952 2832 90 0 662
786 10 1050 1930 90 0 235
787 20 140 1020 90 0 315
788 20 1857 2737 90 0 279
789 20 82 962 90 0 372
790 20 1376 2256 90 0 333
791 20 2019 2899 90 0 470
792 -40 1851 2731 90 45 0
793 10 130 1010 90 0 301
794 -30 1456 2336 90 243 0
795 20 128 1008 90 0 696
796 -20 2717 3597 90 540 0
797 -20 16 896 90 17 0
798 -20 529 1409 90 608 0
799 20 309 1189 90 0 610
800 30 575 1455 90 0 352
801 10 78 958 90 0 202
802 -40 2243 3123 90 764 0
803 -10 1711 2591 90 660 0
804 -20 1542 2422 90 280 0
805 -20 2687 3567 90 290 0
806 -20 2677 3557 90 354 0
807 -10 562 1442 90 520 0
808 -20 2128 3008 90 341 0
809 -20 129 1009 90 712 0
810 -10 2451 3331 90 28 0
811 -20 1734 2614 90 27 0
812 -30 2211 3091 90 308 0
813 -10 995 1875 90 120 0
DEPOT_SECTION
1
-1
EOF
