NAME: lc2_8_9
TYPE: PDPTW
COMMENT: Li & Lim PDPTW benchmark converted from SINTEF format
DIMENSION: 809
VEHICLES: 200
CAPACITY: 700
EDGE_WEIGHT_TYPE: EUC_2D
NODE_COORD_SECTION
1 200 200
2 271 343
3 85 208
4 82 179
5 132 172
6 278 109
7 117 170
8 96 113
9 165 85
10 371 171
11 141 105
12 150 77
13 75 208
14 287 233
15 113 92
16 271 375
17 201 206
18 352 291
19 368 125
20 216 84
21 183 37
22 235 115
23 273 345
24 150 178
25 190 186
26 280 24
27 282 95
28 261 268
29 212 93
30 228 162
31 379 136
32 72 221
33 73 195
34 351 272
35 57 183
36 106 50
37 264 253
38 70 184
39 255 15
40 270 355
41 380 135
42 110 84
43 355 192
44 77 209
45 93 65
46 183 156
47 182 78
48 237 373
49 134 251
50 136 240
51 267 125
52 197 184
53 167 156
54 268 124
55 127 62
56 127 180
57 127 350
58 146 373
59 67 109
60 121 232
61 134 195
62 96 104
63 112 65
64 351 267
65 34 58
66 312 217
67 143 180
68 63 184
69 282 248
70 152 363
71 234 361
72 282 198
73 377 124
74 252 365
75 90 121
76 253 205
77 137 364
78 93 145
79 79 139
80 343 161
81 74 126
82 212 81
83 371 143
84 279 111
85 146 343
86 265 377
87 214 88
88 191 175
89 283 124
90 368 103
91 59 115
92 249 121
93 246 247
94 110 89
95 151 352
96 290 205
97 254 106
98 93 55
99 78 97
100 273 7
101 263 118
102 150 381
103 73 205
104 275 209
105 204 146
106 248 377
107 262 199
108 276 252
109 331 197
110 215 174
111 334 177
112 272 78
113 133 196
114 66 228
115 351 264
116 132 360
117 146 208
118 294 26
119 271 122
120 218 109
121 388 145
122 33 78
123 154 355
124 275 16
125 200 18
126 374 121
127 332 284
128 190 138
129 257 102
130 337 282
131 283 362
132 195 46
133 73 129
134 366 195
135 162 96
136 252 253
137 51 95
138 292 20
139 76 210
140 252 205
141 272 200
142 380 153
143 111 185
144 233 86
145 85 189
146 267 251
147 172 101
148 87 204
149 173 88
150 301 218
151 68 70
152 270 358
153 268 224
154 177 135
155 130 245
156 237 93
157 96 122
158 285 23
159 356 172
160 274 346
161 200 26
162 266 368
163 290 255
164 333 264
165 194 160
166 299 31
167 261 391
168 224 63
169 130 364
170 361 156
171 83 125
172 170 86
173 289 392
174 75 153
175 110 101
176 236 91
177 214 20
178 76 118
179 206 38
180 190 141
181 108 87
182 187 129
183 256 386
184 202 33
185 371 113
186 131 186
187 241 251
188 286 5
189 364 284
190 250 97
191 272 193
192 104 252
193 370 95
194 97 139
195 263 80
196 224 131
197 354 273
198 353 102
199 230 387
200 70 114
201 149 393
202 117 252
203 163 135
204 176 121
205 217 8
206 242 283
207 253 159
208 86 126
209 269 83
210 361 125
211 172 89
212 158 379
213 356 177
214 89 87
215 245 136
216 341 269
217 16 56
218 278 40
219 252 154
220 264 95
221 99 132
222 134 261
223 90 138
224 130 88
225 265 248
226 291 215
227 250 134
228 275 9
229 145 93
230 350 105
231 256 370
232 255 100
233 108 95
234 278 7
235 302 104
236 140 118
237 74 193
238 123 189
239 227 392
240 55 81
241 41 246
242 246 119
243 144 343
244 163 81
245 125 369
246 53 215
247 252 259
248 185 175
249 78 127
250 212 185
251 134 360
252 265 262
253 64 235
254 79 178
255 178 48
256 274 204
257 274 230
258 282 213
259 343 296
260 75 78
261 197 24
262 50 248
263 288 184
264 158 101
265 282 104
266 170 97
267 108 185
268 152 78
269 59 80
270 127 372
271 348 283
272 250 8
273 288 357
274 215 107
275 164 156
276 179 88
277 77 134
278 154 342
279 200 12
280 361 295
281 341 287
282 152 181
283 146 361
284 112 129
285 91 133
286 339 181
287 100 71
288 244 277
289 55 60
290 148 345
291 254 373
292 198 90
293 59 190
294 215 116
295 50 219
296 110 121
297 275 29
298 274 2
299 45 210
300 122 130
301 51 246
302 92 131
303 143 76
304 281 10
305 74 85
306 78 188
307 338 161
308 210 185
309 186 73
310 55 54
311 46 239
312 204 21
313 249 353
314 263 110
315 339 281
316 249 354
317 90 178
318 151 141
319 156 353
320 53 198
321 151 69
322 252 227
323 288 23
324 299 108
325 279 98
326 276 350
327 187 186
328 211 110
329 210 35
330 389 128
331 263 259
332 241 394
333 76 230
334 206 29
335 280 200
336 140 90
337 300 203
338 136 117
339 298 22
340 343 264
341 69 179
342 275 184
343 384 111
344 77 212
345 209 37
346 287 211
347 76 219
348 218 172
349 267 360
350 271 21
351 179 30
352 228 196
353 204 183
354 190 36
355 272 223
356 268 97
357 266 90
358 291 364
359 168 123
360 125 176
361 214 56
362 350 157
363 346 294
364 126 103
365 123 250
366 275 191
367 267 393
368 276 93
369 69 90
370 223 13
371 255 384
372 248 114
373 78 207
374 243 103
375 73 130
376 199 190
377 140 265
378 147 367
379 130 186
380 174 92
381 256 396
382 76 139
383 207 55
384 260 156
385 64 220
386 80 181
387 43 66
388 234 172
389 152 81
390 73 71
391 124 160
392 165 93
393 273 342
394 83 212
395 296 77
396 154 95
397 194 187
398 264 384
399 141 350
400 137 124
401 138 356
402 381 113
403 289 105
404 46 227
405 191 209
406 72 60
407 67 68
408 188 212
409 231 143
410 332 148
411 162 110
412 141 192
413 244 70
414 74 218
415 136 250
416 54 218
417 174 153
418 390 134
419 201 13
420 278 14
421 260 249
422 180 21
423 118 148
424 160 361
425 131 240
426 364 95
427 147 84
428 140 98
429 233 101
430 171 143
431 40 204
432 125 225
433 260 161
434 238 91
435 146 381
436 386 107
437 103 135
438 248 120
439 282 242
440 358 175
441 76 83
442 219 114
443 276 127
444 365 178
445 124 250
446 185 177
447 137 77
448 169 52
449 111 261
450 278 15
451 286 259
452 173 278
453 266 395
454 266 351
455 132 353
456 328 158
457 277 103
458 75 136
459 193 38
460 358 188
461 130 263
462 342 168
463 258 134
464 183 56
465 79 128
466 146 164
467 202 171
468 68 87
469 61 183
470 264 375
471 309 215
472 44 95
473 64 83
474 187 92
475 239 137
476 40 73
477 196 164
478 238 264
479 64 193
480 369 135
481 72 118
482 267 4
483 122 142
484 305 379
485 166 133
486 117 92
487 275 269
488 153 180
489 100 115
490 246 390
491 150 370
492 164 138
493 296 209
494 178 81
495 162 69
496 380 129
497 166 124
498 349 179
499 50 204
500 66 121
501 130 235
502 231 263
503 84 192
504 365 288
505 137 272
506 156 271
507 99 84
508 64 219
509 68 199
510 280 142
511 228 32
512 363 276
513 114 102
514 365 158
515 132 274
516 246 246
517 48 95
518 207 179
519 152 136
520 137 288
521 238 399
522 299 234
523 123 252
524 99 114
525 78 230
526 223 189
527 253 259
528 147 115
529 211 34
530 92 88
531 254 137
532 189 112
533 106 83
534 228 180
535 266 10
536 135 176
537 69 70
538 208 91
539 277 376
540 54 222
541 275 95
542 259 90
543 70 142
544 256 235
545 389 122
546 40 83
547 272 31
548 210 93
549 144 261
550 144 183
551 70 63
552 289 203
553 255 117
554 155 349
555 351 238
556 289 211
557 173 125
558 363 270
559 88 143
560 270 380
561 275 143
562 330 173
563 74 124
564 132 267
565 78 184
566 107 84
567 143 187
568 228 97
569 269 241
570 132 251
571 280 240
572 59 226
573 236 249
574 196 35
575 94 84
576 142 363
577 254 250
578 66 202
579 105 98
580 102 125
581 283 187
582 272 32
583 129 361
584 86 122
585 258 359
586 75 49
587 122 261
588 300 200
589 281 86
590 240 366
591 207 91
592 141 263
593 146 196
594 41 79
595 244 358
596 215 188
597 265 94
598 208 104
599 175 89
600 147 374
601 199 35
602 226 385
603 202 42
604 219 84
605 331 268
606 38 87
607 93 80
608 141 202
609 240 97
610 240 389
611 280 126
612 268 149
613 258 387
614 388 278
615 167 68
616 195 184
617 329 289
618 182 171
619 265 202
620 273 257
621 43 54
622 273 393
623 149 192
624 62 193
625 282 7
626 222 89
627 270 386
628 348 161
629 90 111
630 384 183
631 126 187
632 96 196
633 397 140
634 156 144
635 83 186
636 261 363
637 231 385
638 183 134
639 267 358
640 153 73
641 286 17
642 392 106
643 97 91
644 71 115
645 226 102
646 166 151
647 116 90
648 118 261
649 90 66
650 249 252
651 396 135
652 140 69
653 200 203
654 284 5
655 155 159
656 206 185
657 138 170
658 241 360
659 86 140
660 379 124
661 242 116
662 262 213
663 343 169
664 160 138
665 93 132
666 122 253
667 172 164
668 398 104
669 125 362
670 343 279
671 241 366
672 85 105
673 73 183
674 159 129
675 208 187
676 60 201
677 149 244
678 294 230
679 236 266
680 317 165
681 38 172
682 98 86
683 254 135
684 56 196
685 237 366
686 161 101
687 268 244
688 70 207
689 329 156
690 273 187
691 225 197
692 349 276
693 83 122
694 200 21
695 290 6
696 39 117
697 72 155
698 79 135
699 121 56
700 94 175
701 36 90
702 61 222
703 140 187
704 119 276
705 60 239
706 259 117
707 92 84
708 380 127
709 130 273
710 293 92
711 251 132
712 114 103
713 77 196
714 166 31
715 246 330
716 20 97
717 145 153
718 149 345
719 248 133
720 281 230
721 194 141
722 379 127
723 54 68
724 56 227
725 261 107
726 86 59
727 68 204
728 382 132
729 123 175
730 69 218
731 251 368
732 268 375
733 358 142
734 228 68
735 140 183
736 171 147
737 87 71
738 362 159
739 145 253
740 109 82
741 351 281
742 245 149
743 285 11
744 216 35
745 280 121
746 102 133
747 127 264
748 96 251
749 243 86
750 280 249
751 262 363
752 261 223
753 128 161
754 339 261
755 257 97
756 273 12
757 57 210
758 299 39
759 377 132
760 340 166
761 268 95
762 145 374
763 239 389
764 68 53
765 197 18
766 73 97
767 107 138
768 141 164
769 53 98
770 86 133
771 69 126
772 288 1
773 177 108
774 80 111
775 352 284
776 249 384
777 81 132
778 185 162
779 136 181
780 286 108
781 105 135
782 280 238
783 356 166
784 297 365
785 376 271
786 292 87
787 319 274
788 213 11
789 243 130
790 53 239
791 298 362
792 92 80
793 70 213
794 153 393
795 103 116
796 76 212
797 202 216
798 78 200
799 265 344
800 286 193
801 139 250
802 211 110
803 298 362
804 93 145
805 165 93
806 122 142
807 149 345
808 296 77
809 215 188
PICKUP_AND_DELIVERY_SECTION
1 0 0 3811 0 0 0
2 -10 2549 3562 90 131 0
3 20 115 1104 90 0 299
4 -10 2894 3602 90 306 0
5 10 1740 2444 90 0 657
6 10 500 683 90 0 119
7 20 1399 2188 90 0 536
8 20 567 1099 90 0 698
9 -20 1176 2320 90 266 0
10 10 180 1141 90 0 213
11 -20 1605 2459 90 532 0
12 -30 1394 2497 90 303 0
13 -20 2181 3596 90 253 0
14 -10 1435 2958 90 72 0
15 30 138 1143 90 0 580
16 -30 988 1669 90 162 0
17 20 6 744 90 0 247
18 -10 1454 2309 90 281 0
19 10 980 1759 90 0 759
20 -30 1792 2612 90 591 0
21 -30 2512 3558 90 765 0
22 20 91 1089 90 0 350
23 -20 2534 3559 90 539 0
24 -20 2580 3342 90 779 0
25 40 547 1030 90 0 467
26 -20 2394 2591 90 100 0
27 20 1870 2478 90 0 755
28 -20 2509 3272 90 37 0
29 30 1126 2698 90 0 353
30 30 1496 2240 90 0 534
31 -10 1180 2345 90 210 0
32 20 1829 3376 90 0 44
33 20 205 1356 90 0 344
34 10 2316 3252 90 0 555
35 -10 1790 2778 90 681 0
36 -10 997 1986 90 42 0
37 20 904 1731 90 0 28
38 20 130 611 90 0 237
39 20 338 817 90 0 339
40 -10 2662 3238 90 273 0
41 -30 1313 2393 90 185 0
42 10 250 1341 90 0 36
43 10 155 1162 90 0 689
44 -20 2944 3591 90 32 0
45 40 1637 2361 90 0 364
46 -30 2998 3467 90 615 0
47 30 2579 3089 90 0 294
48 -20 345 794 90 590 0
49 -30 2424 3339 90 523 0
50 10 2047 2959 90 0 739
51 20 980 1761 90 0 463
52 30 197 1005 90 0 179
53 20 2506 3162 90 0 667
54 -30 920 2004 90 438 0
55 10 1073 1500 90 0 579
56 -30 739 1477 90 631 0
57 10 631 1585 90 0 270
58 -10 1710 2867 90 251 0
59 -10 1264 2175 90 200 0
60 10 1773 2638 90 0 501
61 20 554 904 90 0 143
62 20 497 1560 90 0 223
63 30 1006 1357 90 0 699
64 -10 2480 3279 90 127 0
65 20 1652 2909 90 0 151
66 -20 2347 2776 90 588 0
67 -10 1846 3281 90 186 0
68 -20 1932 3007 90 676 0
69 -10 2106 2866 90 187 0
70 20 2511 2821 90 0 319
71 -30 2425 3424 90 167 0
72 10 1183 1433 90 0 14
73 10 1735 2752 90 0 545
74 -20 173 1262 90 316 0
75 -20 361 1400 90 513 0
76 10 53 870 90 0 342
77 -20 236 1220 90 576 0
78 10 2494 3601 0 0 804
79 -30 2520 3428 90 174 0
80 -30 1769 3283 90 738 0
81 10 1689 2521 90 0 465
82 -30 1957 2831 90 604 0
83 -30 2609 3541 90 728 0
84 10 119 1459 90 0 368
85 10 152 1103 90 0 399
86 -20 2164 2697 90 637 0
87 10 2151 2441 90 0 292
88 30 759 1208 90 0 110
89 10 1324 1991 90 0 207
90 -10 193 1678 90 230 0
91 30 1108 1440 90 0 133
92 -20 748 1590 90 457 0
93 -10 324 975 90 653 0
94 10 142 1313 90 0 566
95 -10 2742 3547 90 600 0
96 -30 597 1638 90 107 0
97 10 391 1372 90 0 219
98 20 1330 1860 90 0 643
99 30 159 757 90 0 468
100 20 443 1699 90 0 26
101 20 103 1273 90 0 719
102 -10 1978 2219 90 169 0
103 10 303 503 90 0 416
104 -20 1256 2122 90 581 0
105 30 54 447 90 0 646
106 -20 2154 3292 90 622 0
107 30 62 1161 90 0 96
108 -20 1117 2283 90 620 0
109 20 131 803 90 0 498
110 -30 1081 2259 90 88 0
111 10 947 1935 90 0 410
112 -10 1182 1368 90 609 0
113 10 360 1281 90 0 391
114 -50 1362 1562 90 505 0
115 20 2026 3557 90 0 355
116 20 327 1504 90 0 245
117 20 54 1298 90 0 479
118 -20 2644 3488 90 124 0
119 -10 1169 1942 90 6 0
120 -20 717 2152 90 361 0
121 -30 2761 3244 90 651 0
122 -10 1659 2056 90 769 0
123 -10 2718 3008 90 212 0
124 20 2152 2441 90 0 118
125 30 785 1665 90 0 205
126 -10 787 1756 90 402 0
127 10 1161 1818 90 0 64
128 10 62 827 90 0 182
129 -10 2849 3409 90 780 0
130 -40 1210 1580 90 692 0
131 10 2270 3045 90 0 2
132 10 154 994 90 0 603
133 -30 2126 2453 90 91 0
134 20 166 1166 90 0 170
135 -20 474 1322 90 204 0
136 10 633 1043 90 0 225
137 -30 470 1836 90 369 0
138 -20 2482 3266 90 304 0
139 -10 508 1811 90 727 0
140 20 52 1274 90 0 690
141 10 1283 1715 90 0 226
142 -30 2812 3396 90 668 0
143 -20 856 1946 90 61 0
144 20 392 1318 90 0 645
145 -10 2618 3467 90 503 0
146 20 1014 1998 90 0 687
147 -10 1148 1218 90 557 0
148 20 113 425 90 0 317
149 -10 1361 1574 90 599 0
150 30 1994 3331 90 0 720
151 -20 2914 3416 90 65 0
152 -30 2556 3159 90 484 0
153 -10 3079 3452 90 256 0
154 10 379 1512 90 0 686
155 -10 2123 3263 90 425 0
156 40 774 1313 90 0 209
157 -20 2210 3050 90 171 0
158 20 2447 2729 90 0 166
159 -20 857 1249 90 444 0
160 -10 2361 3558 90 349 0
161 -20 657 1232 90 464 0
162 30 999 1461 90 0 16
163 -20 2304 2868 90 257 0
164 20 147 820 90 0 363
165 -10 1280 1467 90 801 0
166 -20 3064 3261 90 158 0
167 30 1242 2218 90 0 71
168 10 320 981 90 0 548
169 10 801 1804 90 0 102
170 -20 1658 2957 90 134 0
171 20 1233 1896 90 0 157
172 -20 1375 1931 90 638 0
173 30 1761 2301 90 0 393
174 30 2766 2973 90 0 79
175 -20 2309 3588 90 647 0
176 -20 737 1165 90 242 0
177 -10 2025 2768 90 744 0
178 -20 514 1456 90 302 0
179 -30 1255 2148 90 52 0
180 10 59 680 90 0 211
181 20 594 810 90 0 530
182 -10 225 849 90 128 0
183 -30 867 2400 90 639 0
184 -10 195 1499 90 574 0
185 30 973 1374 90 0 41
186 10 547 1293 90 0 67
187 10 65 1275 90 0 69
188 -30 837 2053 90 582 0
189 -20 1369 2978 90 280 0
190 -30 2319 3562 90 542 0
191 30 72 1239 90 0 552
192 10 1259 1974 90 0 677
193 20 199 1398 90 0 480
194 -20 1883 2417 90 795 0
195 40 372 1980 90 0 265
196 30 73 1815 90 0 274
197 -30 2469 2913 90 605 0
198 20 181 1135 90 0 330
199 20 523 1204 90 0 288
200 10 945 1401 90 0 59
201 -20 1431 2172 90 669 0
202 -20 1720 2470 90 525 0
203 -20 1237 1622 90 428 0
204 20 645 855 90 0 135
205 -30 2133 2272 90 125 0
206 -40 2610 3582 90 231 0
207 -10 2021 2715 90 89 0
208 -20 1132 2184 90 712 0
209 -40 563 1595 90 156 0
210 10 1307 1625 90 0 31
211 -10 1016 2102 90 180 0
212 10 1944 2058 90 0 123
213 -10 705 1590 90 10 0
214 20 2174 2969 90 0 507
215 10 78 1268 90 0 597
216 10 183 1068 90 0 670
217 30 1820 2524 90 0 289
218 20 178 968 90 0 547
219 -10 2026 2902 90 97 0
220 -20 1658 3269 90 374 0
221 -20 2164 2896 90 559 0
222 -20 2635 3515 90 713 0
223 -20 1927 2178 90 62 0
224 20 132 1023 90 0 792
225 -10 855 1969 90 136 0
226 -10 1406 2550 90 141 0
227 -20 2695 3197 90 711 0
228 -30 1708 2509 90 298 0
229 10 120 923 90 0 664
230 10 177 720 90 0 90
231 40 2170 3075 90 0 206
232 -20 2937 3135 90 235 0
233 -20 3077 3269 90 575 0
234 -20 546 1786 90 482 0
235 20 1219 2161 90 0 232
236 10 101 1082 90 0 489
237 -20 126 1021 90 38 0
238 -20 1003 1594 90 593 0
239 20 327 1590 90 0 610
240 40 851 1057 90 0 517
241 -20 1495 2528 90 404 0
242 20 93 599 90 0 176
243 30 153 895 90 0 491
244 -10 1523 2162 90 721 0
245 -20 1165 1825 90 116 0
246 40 780 1299 90 0 700
247 -20 672 1196 90 17 0
248 -20 887 1457 90 452 0
249 20 973 1966 90 0 746
250 -10 2079 3040 90 477 0
251 10 301 1346 90 0 58
252 30 565 1690 90 0 439
253 20 1781 3019 90 0 13
254 -30 2633 3599 90 757 0
255 -10 2215 3568 90 334 0
256 10 1382 1806 90 0 153
257 20 1697 2491 90 0 163
258 10 1061 2513 90 0 556
259 -20 1327 2056 90 741 0
260 20 279 631 90 0 594
261 -20 460 1616 90 601 0
262 -40 1727 2494 90 515 0
263 10 777 1054 90 0 337
264 20 243 1176 90 0 485
265 -40 1763 2387 90 195 0
266 20 828 1349 90 0 9
267 -20 918 2070 90 567 0
268 10 486 526 90 0 336
269 30 197 1299 90 0 723
270 -10 1300 1876 90 57 0
271 30 817 1399 90 0 614
272 20 585 769 90 0 420
273 10 2206 2914 90 0 40
274 -30 1046 2011 90 196 0
275 -30 2034 3448 90 634 0
276 -20 2850 3203 90 495 0
277 40 2115 2849 90 0 697
278 -20 2347 3572 90 283 0
279 -10 2108 3076 90 312 0
280 20 1473 2490 90 0 189
281 10 666 1746 90 0 18
282 -10 2267 3670 90 753 0
283 20 169 1166 90 0 278
284 20 2277 3571 90 0 655
285 10 127 1000 90 0 774
286 20 1098 1592 90 0 307
287 -20 1889 2308 90 649 0
288 -20 2658 3342 90 199 0
289 -30 2111 3045 90 217 0
290 -20 2759 3567 90 435 0
291 -20 1138 1913 90 799 0
292 -10 1963 3037 90 87 0
293 10 1570 2538 90 0 565
294 -30 2483 3313 90 47 0
295 -20 1014 1653 90 499 0
296 10 2170 3483 90 0 717
297 20 186 1385 90 0 756
298 30 540 1412 90 0 228
299 -20 506 1375 90 3 0
300 -20 2653 3395 90 382 0
301 -10 1523 2882 90 449 0
302 20 128 1002 90 0 178
303 30 1298 2787 90 0 12
304 20 1634 2018 90 0 138
305 30 170 1466 90 0 473
306 10 2320 3385 90 0 4
307 -20 2257 2985 90 286 0
308 -20 2494 2808 90 405 0
309 20 2096 3380 90 0 598
310 30 2117 2848 90 0 764
311 20 1565 2261 90 0 333
312 10 860 1781 90 0 279
313 -10 246 1036 90 715 0
314 -20 2179 3612 90 535 0
315 -20 757 1847 90 787 0
316 20 161 1412 90 0 74
317 -20 2864 3609 90 148 0
318 -10 1856 3026 90 736 0
319 -20 2472 3439 90 70 0
320 10 1742 1796 90 0 386
321 10 1993 2684 90 0 640
322 20 58 859 90 0 775
323 -10 2375 2986 90 743 0
324 10 1373 2197 90 0 403
325 -10 1484 3053 90 786 0
326 20 1997 3553 90 0 478
327 20 364 1400 90 0 618
328 10 2553 2855 0 0 802
329 20 1001 2212 90 0 351
330 -20 1575 2335 90 198 0
331 -10 830 1612 90 544 0
332 -20 771 1545 90 658 0
333 -20 2310 2695 90 311 0
334 10 872 1964 90 0 255
335 -20 693 2110 90 619 0
336 -10 125 914 90 268 0
337 -10 2187 2538 90 263 0
338 10 104 873 90 0 584
339 -20 2721 3220 90 39 0
340 20 156 1206 90 0 785
341 -10 2065 3070 90 508 0
342 -10 76 1602 90 76 0
343 -20 492 1467 90 642 0
344 -20 1128 1375 90 33 0
345 20 1588 2001 90 0 370
346 30 1247 2518 90 0 493
347 -30 2578 2817 90 709 0
348 10 1354 2173 90 0 526
349 10 2545 2982 90 0 160
350 -20 1915 2871 90 22 0
351 -20 2257 3533 90 329 0
352 10 1997 2355 90 0 656
353 -30 2479 3578 90 29 0
354 20 3029 3377 90 0 448
355 -20 2591 3646 90 115 0
356 10 1919 2820 90 0 661
357 -30 2494 2805 90 409 0
358 -30 2098 2441 90 732 0
359 -20 1605 2026 90 427 0
360 10 1342 1866 90 0 768
361 20 191 714 90 0 120
362 -20 1449 2586 90 462 0
363 -20 1020 2551 90 164 0
364 -40 2924 3599 90 45 0
365 10 1213 2239 90 0 570
366 20 75 1341 90 0 471
367 30 1721 2118 90 0 502
368 -10 361 1395 90 84 0
369 30 171 932 90 0 137
370 -20 1599 2609 90 345 0
371 -30 858 2224 90 585 0
372 -10 368 1595 90 761 0
373 -20 622 1510 90 632 0
374 20 106 1478 90 0 220
375 -40 1870 2528 90 644 0
376 -30 2474 3711 90 447 0
377 -10 2521 3633 90 509 0
378 30 2305 2835 90 0 424
379 30 378 1645 90 0 729
380 20 1010 1554 90 0 778
381 -10 1089 2563 90 613 0
382 20 1238 2470 90 0 300
383 -20 145 1094 90 749 0
384 -20 1706 2646 90 510 0
385 30 137 988 90 0 624
386 -10 2890 3574 90 320 0
387 -30 1633 2473 90 472 0
388 -10 1649 2291 90 397 0
389 20 140 686 90 0 430
390 10 2525 3540 90 0 672
391 -10 1557 2235 90 113 0
392 30 345 1639 0 0 805
393 -30 2665 3562 90 173 0
394 -30 2955 3604 90 730 0
395 10 1158 1620 0 0 808
396 20 266 960 90 0 674
397 10 203 811 90 0 388
398 20 2075 2400 90 0 470
399 -10 161 1124 90 85 0
400 -20 1666 2807 90 528 0
401 10 167 924 90 0 455
402 10 814 1332 90 0 126
403 -10 1359 2411 90 324 0
404 20 617 1852 90 0 241
405 20 293 498 90 0 308
406 10 1652 1942 90 0 682
407 -10 2689 3275 90 551 0
408 10 120 481 90 0 446
409 30 64 312 90 0 357
410 -10 2196 3255 90 111 0
411 -10 1800 2039 90 492 0
412 -20 168 1094 90 703 0
413 20 238 840 90 0 734
414 -10 2134 3445 90 461 0
415 -10 2581 3366 90 445 0
416 -10 700 1565 90 103 0
417 -20 2262 3668 90 441 0
418 -20 2444 2979 90 722 0
419 -20 1937 3064 90 788 0
420 -20 1739 2287 90 272 0
421 30 110 414 90 0 527
422 20 2517 3076 90 0 459
423 -50 2360 3624 90 659 0
424 -30 2224 3305 90 378 0
425 10 2161 3035 90 0 155
426 20 194 1151 90 0 708
427 20 127 937 90 0 359
428 20 118 981 90 0 203
429 -20 611 1673 90 434 0
430 -20 630 1460 90 389 0
431 20 584 1101 90 0 540
432 10 1849 2759 90 0 549
433 20 1850 2692 90 0 742
434 20 115 819 90 0 429
435 20 1063 2336 90 0 290
436 20 207 1733 90 0 660
437 20 116 1110 90 0 665
438 30 299 1855 90 0 54
439 -30 2126 2654 90 252 0
440 30 286 1428 90 0 562
441 20 643 1652 90 0 417
442 -40 2278 3329 90 626 0
443 30 215 388 90 0 612
444 20 166 1868 90 0 159
445 10 1762 1871 90 0 415
446 -10 1063 1096 90 408 0
447 30 1807 2472 90 0 376
448 -20 3210 3570 90 354 0
449 10 1218 1603 90 0 301
450 10 1176 2668 90 0 641
451 30 2011 3352 90 0 487
452 20 82 1814 90 0 248
453 -20 1535 2119 90 490 0
454 -20 333 1360 90 797 0
455 -10 513 1511 90 401 0
456 10 2667 3165 90 0 680
457 20 278 1096 90 0 92
458 -10 1811 3340 90 770 0
459 -20 2736 3559 90 422 0
460 20 158 1067 90 0 783
461 10 94 906 90 0 414
462 20 1603 1861 90 0 362
463 -20 2114 3399 90 51 0
464 20 145 1060 90 0 161
465 -10 2144 2628 90 81 0
466 -20 2781 2932 90 550 0
467 -40 1312 1821 90 25 0
468 -30 173 1433 90 99 0
469 10 1985 2770 90 0 635
470 -20 1979 3066 90 398 0
471 -20 2170 2766 90 366 0
472 30 1099 1895 90 0 387
473 -30 465 840 90 305 0
474 30 2961 3289 90 0 773
475 40 74 936 90 0 789
476 10 1106 2805 90 0 586
477 10 1457 1478 90 0 250
478 -20 2659 3647 90 326 0
479 -20 136 764 90 117 0
480 -20 786 2352 90 193 0
481 -20 834 1324 90 777 0
482 20 467 1291 90 0 234
483 30 2805 3448 0 0 806
484 30 1656 2662 90 0 152
485 -20 1053 2196 90 264 0
486 30 136 781 90 0 707
487 -30 2166 3407 90 451 0
488 -20 2829 3462 90 735 0
489 -10 354 943 90 236 0
490 20 1229 1652 90 0 453
491 -30 1957 2993 90 243 0
492 10 806 1676 90 0 411
493 -30 1564 2776 90 346 0
494 -30 2766 3093 90 652 0
495 20 2180 2885 90 0 276
496 10 2140 2900 90 0 633
497 20 1365 2082 90 0 519
498 -20 1086 1403 90 109 0
499 20 165 1319 90 0 295
500 -30 1486 2157 90 696 0
501 -10 2383 2427 90 60 0
502 -30 2784 3651 90 367 0
503 10 2737 3163 90 0 145
504 10 1628 2531 90 0 512
505 50 226 1090 90 0 114
506 10 350 1183 90 0 520
507 -20 2286 3568 90 214 0
508 10 342 922 90 0 341
509 10 132 1365 90 0 377
510 20 1569 2554 90 0 384
511 -20 1197 2792 90 694 0
512 -10 2209 2974 90 504 0
513 20 141 573 90 0 75
514 -20 1934 2492 90 663 0
515 40 136 988 90 0 262
516 20 132 984 90 0 782
517 -40 817 1302 90 240 0
518 -30 2600 3267 90 691 0
519 -20 2019 2672 90 497 0
520 -10 549 1456 90 506 0
521 20 1018 1105 90 0 763
522 -10 2372 3354 90 617 0
523 30 1253 2564 90 0 49
524 30 312 1168 90 0 629
525 20 797 1923 90 0 202
526 -10 1957 2777 90 348 0
527 -30 902 1149 90 421 0
528 20 1751 2515 90 0 400
529 20 757 2273 90 0 714
530 -20 2165 3165 90 181 0
531 -20 1903 3238 90 541 0
532 20 88 1916 90 0 11
533 10 792 1352 90 0 607
534 -30 1720 2419 90 30 0
535 20 683 883 90 0 314
536 -20 1725 2649 90 7 0
537 10 2732 3416 90 0 737
538 -20 1041 2594 90 568 0
539 20 1715 2367 90 0 23
540 -20 1280 1577 90 431 0
541 20 447 1125 90 0 531
542 30 2455 3038 90 0 190
543 -10 2369 2976 90 693 0
544 10 66 950 90 0 331
545 -10 2033 2069 90 73 0
546 20 1110 2219 90 0 621
547 -20 183 1376 90 218 0
548 -10 1124 2143 90 168 0
549 -10 2387 3639 90 432 0
550 20 2000 2940 90 0 466
551 10 2677 3094 90 0 407
552 -30 612 1807 90 191 0
553 10 802 1730 90 0 683
554 -30 2263 3566 90 583 0
555 -10 2366 3566 90 34 0
556 -10 1883 2262 90 258 0
557 10 79 1756 90 0 147
558 -30 2070 2921 90 754 0
559 20 1549 2366 90 0 221
560 -20 2234 2436 90 627 0
561 -20 1285 2432 90 611 0
562 -30 838 2236 90 440 0
563 -20 1604 2421 90 771 0
564 30 95 806 90 0 572
565 -10 2289 3227 90 293 0
566 -10 707 1254 90 94 0
567 20 58 959 90 0 267
568 20 666 1812 90 0 538
569 10 1487 2497 90 0 573
570 -10 2288 3290 90 365 0
571 -20 2031 2563 90 577 0
572 -30 1495 1745 90 564 0
573 -10 3101 3661 90 569 0
574 10 187 1133 90 0 184
575 20 1827 2944 90 0 233
576 20 173 1295 90 0 77
577 20 73 844 90 0 571
578 20 134 1506 90 0 798
579 -10 2194 3582 90 55 0
580 -30 2508 2947 90 15 0
581 20 267 1372 90 0 104
582 30 182 1407 90 0 188
583 30 818 1600 90 0 554
584 -10 180 1393 90 338 0
585 30 833 1061 90 0 371
586 -10 2514 3047 90 476 0
587 10 885 1553 90 0 748
588 20 1992 2548 90 0 66
589 10 361 1591 90 0 710
590 20 170 969 90 0 48
591 30 1108 2345 90 0 20
592 -20 2896 3632 90 666 0
593 20 54 926 90 0 238
594 -20 929 2589 90 260 0
595 10 214 692 90 0 602
596 30 2055 2875 0 0 809
597 -10 2183 2927 90 215 0
598 -20 1974 3241 90 309 0
599 10 862 1888 90 0 149
600 10 1943 2817 90 0 95
601 20 199 1307 90 0 261
602 -10 406 945 90 595 0
603 -10 289 833 90 132 0
604 30 1791 2427 90 0 82
605 30 147 1072 90 0 197
606 -10 1452 1689 90 701 0
607 -10 2075 2324 90 533 0
608 -30 59 746 90 623 0
609 10 110 1561 90 0 112
610 -20 833 1855 90 239 0
611 20 1348 2154 90 0 561
612 -30 1413 2503 90 443 0
613 10 1302 2153 90 0 381
614 -30 2021 2557 90 271 0
615 30 2047 3209 90 0 46
616 20 166 1220 90 0 675
617 10 1264 1908 90 0 522
618 -20 803 1730 90 327 0
619 20 65 773 90 0 335
620 20 1143 2067 90 0 108
621 -20 2152 2609 90 546 0
622 20 1501 2366 90 0 106
623 30 51 762 90 0 608
624 -30 1651 2268 90 385 0
625 30 1145 1375 90 0 725
626 40 2002 2024 90 0 442
627 20 1771 2510 90 0 560
628 30 1644 2201 90 0 733
629 -30 859 1000 90 524 0
630 20 212 894 90 0 760
631 30 800 1611 90 0 56
632 20 104 1617 90 0 373
633 -10 2657 3148 90 496 0
634 30 2272 2801 90 0 275
635 -10 2867 3406 90 469 0
636 30 239 1845 90 0 784
637 20 397 1145 90 0 86
638 20 68 1029 90 0 172
639 30 171 1402 90 0 183
640 -10 2108 2758 90 321 0
641 -10 2355 3199 90 450 0
642 20 386 1170 90 0 343
643 -20 2730 3033 90 98 0
644 40 1035 1696 90 0 375
645 -20 640 2028 90 144 0
646 -30 2718 3141 90 105 0
647 20 138 834 90 0 175
648 -10 950 1676 90 747 0
649 20 1349 2463 90 0 287
650 10 395 1095 90 0 750
651 30 2314 3302 90 0 121
652 30 2177 2299 90 0 494
653 10 3 935 90 0 93
654 30 1123 1583 90 0 695
655 -20 1928 3355 90 284 0
656 -10 2733 2940 90 352 0
657 -10 2083 3246 90 5 0
658 20 165 1272 90 0 332
659 50 2708 3434 90 0 423
660 -20 1862 2440 90 436 0
661 -10 3412 3450 90 356 0
662 -10 3048 3658 90 678 0
663 20 1771 1877 90 0 514
664 -10 1176 1493 90 229 0
665 -20 126 635 90 437 0
666 20 1734 2267 90 0 592
667 -20 2297 3676 90 53 0
668 30 665 1083 90 0 142
669 20 1070 1726 90 0 201
670 -10 338 1307 90 216 0
671 30 192 751 90 0 685
672 -10 2081 3465 90 390 0
673 -20 2467 2859 90 702 0
674 -20 1018 2034 90 396 0
675 -20 2578 2910 90 616 0
676 20 1202 2142 90 0 68
677 -10 2723 3654 90 192 0
678 10 2062 3470 90 0 662
679 -20 2977 3431 90 776 0
680 -10 2605 3433 90 456 0
681 10 1915 2428 90 0 35
682 -10 2571 3383 90 406 0
683 -10 2243 3083 90 553 0
684 -10 1538 2189 90 793 0
685 -30 2701 2956 90 671 0
686 -10 739 866 90 154 0
687 -20 1504 2293 90 146 0
688 -20 2559 3413 90 704 0
689 -10 2274 3374 90 43 0
690 -20 241 1014 90 140 0
691 30 1985 2553 90 0 518
692 40 602 849 90 0 130
693 10 407 979 90 0 543
694 20 552 1713 90 0 511
695 -30 1419 1851 90 654 0
696 30 986 1782 90 0 500
697 -40 2696 2855 90 277 0
698 -20 1658 1860 90 8 0
699 -30 888 1882 90 63 0
700 -40 3101 3613 90 246 0
701 10 1218 1735 90 0 606
702 20 622 2430 90 0 673
703 20 78 995 90 0 412
704 20 850 1379 90 0 688
705 -20 2048 2560 90 790 0
706 10 101 1009 90 0 745
707 -30 2086 2869 90 486 0
708 -20 1979 2876 90 426 0
709 30 101 1218 90 0 347
710 -10 897 2272 90 589 0
711 20 2255 3453 90 0 227
712 20 129 1159 90 0 208
713 20 629 1121 90 0 222
714 -20 2534 3463 90 529 0
715 10 137 383 90 0 313
716 10 836 1902 90 0 766
717 -10 2497 3649 90 296 0
718 40 2286 3568 0 0 807
719 -20 2850 3228 90 101 0
720 -30 2760 3380 90 150 0
721 10 59 1532 90 0 244
722 20 2067 2606 90 0 418
723 -30 206 1497 90 269 0
724 20 1040 2386 90 0 796
725 -30 2602 3610 90 625 0
726 -10 1272 2114 90 740 0
727 10 132 1139 90 0 139
728 30 2238 2989 90 0 83
729 -30 1192 2199 90 379 0
730 30 2604 3165 90 0 394
731 -10 175 1129 90 751 0
732 30 850 1993 90 0 358
733 -30 2406 2418 90 628 0
734 -20 615 879 90 413 0
735 20 2247 2505 90 0 488
736 10 451 1828 90 0 318
737 -10 3326 3403 90 537 0
738 30 1113 3126 90 0 80
739 -10 3387 3524 90 50 0
740 10 587 1189 90 0 726
741 20 562 1280 90 0 259
742 -20 2520 3653 90 433 0
743 10 1110 2353 90 0 323
744 10 1407 2378 90 0 177
745 -10 112 865 90 706 0
746 -20 1953 2920 90 249 0
747 10 97 1156 90 0 648
748 -10 1217 1819 90 587 0
749 20 156 710 90 0 383
750 -10 1460 2130 90 650 0
751 10 580 1687 90 0 731
752 -30 2979 3656 90 800 0
753 10 1550 2430 90 0 282
754 30 151 969 90 0 558
755 -20 2288 3399 90 27 0
756 -20 1993 2412 90 297 0
757 30 1236 1909 90 0 254
758 -20 2534 3532 90 772 0
759 -10 1314 2021 90 19 0
760 -20 1379 1900 90 630 0
761 10 125 1176 90 0 372
762 -20 1418 2977 90 794 0
763 -20 1040 1467 90 521 0
764 -30 1683 3524 90 310 0
765 30 2376 3003 90 0 21
766 -10 1227 2004 90 716 0
767 10 1597 2902 90 0 781
768 -10 2672 2851 90 360 0
769 10 1243 1249 90 0 122
770 10 132 984 90 0 458
771 20 1867 1968 90 0 563
772 20 1054 2024 90 0 758
773 -30 3223 3245 90 474 0
774 -10 753 1779 90 285 0
775 -20 577 1450 90 322 0
776 20 1284 1971 90 0 679
777 20 195 992 90 0 481
778 -20 2545 3681 90 380 0
779 20 1798 2765 90 0 24
780 10 1631 2327 90 0 129
781 -10 1890 2797 90 767 0
782 -20 2704 3239 90 516 0
783 -20 668 1245 90 460 0
784 -30 1569 3162 90 636 0
785 -20 2047 2737 90 340 0
786 10 1102 1878 90 0 325
787 20 140 900 90 0 315
788 20 2102 2493 90 0 419
789 -40 82 1387 90 475 0
790 20 1539 2092 90 0 705
791 20 1785 3133 0 0 803
792 -20 2051 2531 90 224 0
793 10 427 456 90 0 684
794 20 1541 2251 90 0 762
795 20 128 1574 90 0 194
796 -20 2965 3385 90 724 0
797 20 16 598 90 0 454
798 -20 635 1303 90 578 0
799 20 520 978 90 0 291
800 30 442 1588 90 0 752
801 10 78 768 90 0 165
802 -10 2553 2855 90 328 0
803 -20 1785 3133 90 791 0
804 -10 2494 3601 90 78 0
805 -30 345 1639 90 392 0
806 -30 2805 3448 90 483 0
807 -40 2286 3568 90 718 0
808 -10 1158 1620 90 395 0
809 -30 2055 2875 90 596 0
DEPOT_SECTION
1
-1
EOF
