NAME: lc2_8_3
TYPE: PDPTW
COMMENT: Li & Lim PDPTW benchmark converted from SINTEF format
DIMENSION: 815
VEHICLES: 200
CAPACITY: 700
EDGE_WEIGHT_TYPE: EUC_2D
NODE_COORD_SECTION
1 200 200
2 271 343
3 85 208
4 82 179
5 132 172
6 278 109
7 117 170
8 96 113
9 165 85
10 371 171
11 141 105
12 150 77
13 75 208
14 287 233
15 113 92
16 271 375
17 201 206
18 352 291
19 368 125
20 216 84
21 183 37
22 235 115
23 273 345
24 150 178
25 190 186
26 280 24
27 282 95
28 261 268
29 212 93
30 228 162
31 379 136
32 72 221
33 73 195
34 351 272
35 57 183
36 106 50
37 264 253
38 70 184
39 255 15
40 270 355
41 380 135
42 110 84
43 355 192
44 77 209
45 93 65
46 183 156
47 182 78
48 237 373
49 134 251
50 136 240
51 267 125
52 197 184
53 167 156
54 268 124
55 127 62
56 127 180
57 127 350
58 146 373
59 67 109
60 121 232
61 134 195
62 96 104
63 112 65
64 351 267
65 34 58
66 312 217
67 143 180
68 63 184
69 282 248
70 152 363
71 234 361
72 282 198
73 377 124
74 252 365
75 90 121
76 253 205
77 137 364
78 93 145
79 79 139
80 343 161
81 74 126
82 212 81
83 371 143
84 279 111
85 146 343
86 265 377
87 214 88
88 191 175
89 283 124
90 368 103
91 59 115
92 249 121
93 246 247
94 110 89
95 151 352
96 290 205
97 254 106
98 93 55
99 78 97
100 273 7
101 263 118
102 150 381
103 73 205
104 275 209
105 204 146
106 248 377
107 262 199
108 276 252
109 331 197
110 215 174
111 334 177
112 272 78
113 133 196
114 66 228
115 351 264
116 132 360
117 146 208
118 294 26
119 271 122
120 218 109
121 388 145
122 33 78
123 154 355
124 275 16
125 200 18
126 374 121
127 332 284
128 190 138
129 257 102
130 337 282
131 283 362
132 195 46
133 73 129
134 366 195
135 162 96
136 252 253
137 51 95
138 292 20
139 76 210
140 252 205
141 272 200
142 380 153
143 111 185
144 233 86
145 85 189
146 267 251
147 172 101
148 87 204
149 173 88
150 301 218
151 68 70
152 270 358
153 268 224
154 177 135
155 130 245
156 237 93
157 96 122
158 285 23
159 356 172
160 274 346
161 200 26
162 266 368
163 290 255
164 333 264
165 194 160
166 299 31
167 261 391
168 224 63
169 130 364
170 361 156
171 83 125
172 170 86
173 289 392
174 75 153
175 110 101
176 236 91
177 214 20
178 76 118
179 206 38
180 190 141
181 108 87
182 187 129
183 256 386
184 202 33
185 371 113
186 131 186
187 241 251
188 286 5
189 364 284
190 250 97
191 272 193
192 104 252
193 370 95
194 97 139
195 263 80
196 224 131
197 354 273
198 353 102
199 230 387
200 70 114
201 149 393
202 117 252
203 163 135
204 176 121
205 217 8
206 242 283
207 253 159
208 86 126
209 269 83
210 361 125
211 172 89
212 158 379
213 356 177
214 89 87
215 245 136
216 341 269
217 16 56
218 278 40
219 252 154
220 264 95
221 99 132
222 134 261
223 90 138
224 130 88
225 265 248
226 291 215
227 250 134
228 275 9
229 145 93
230 350 105
231 256 370
232 255 100
233 108 95
234 278 7
235 302 104
236 140 118
237 74 193
238 123 189
239 227 392
240 55 81
241 41 246
242 246 119
243 144 343
244 163 81
245 125 369
246 53 215
247 252 259
248 185 175
249 78 127
250 212 185
251 134 360
252 265 262
253 64 235
254 79 178
255 178 48
256 274 204
257 274 230
258 282 213
259 343 296
260 75 78
261 197 24
262 50 248
263 288 184
264 158 101
265 282 104
266 170 97
267 108 185
268 152 78
269 59 80
270 127 372
271 348 283
272 250 8
273 288 357
274 215 107
275 164 156
276 179 88
277 77 134
278 154 342
279 200 12
280 361 295
281 341 287
282 152 181
283 146 361
284 112 129
285 91 133
286 339 181
287 100 71
288 244 277
289 55 60
290 148 345
291 254 373
292 198 90
293 59 190
294 215 116
295 50 219
296 110 121
297 275 29
298 274 2
299 45 210
300 122 130
301 51 246
302 92 131
303 143 76
304 281 10
305 74 85
306 78 188
307 338 161
308 210 185
309 186 73
310 55 54
311 46 239
312 204 21
313 249 353
314 263 110
315 339 281
316 249 354
317 90 178
318 151 141
319 156 353
320 53 198
321 151 69
322 252 227
323 288 23
324 299 108
325 279 98
326 276 350
327 187 186
328 211 110
329 210 35
330 389 128
331 263 259
332 241 394
333 76 230
334 206 29
335 280 200
336 140 90
337 300 203
338 136 117
339 298 22
340 343 264
341 69 179
342 275 184
343 384 111
344 77 212
345 209 37
346 287 211
347 76 219
348 218 172
349 267 360
350 271 21
351 179 30
352 228 196
353 204 183
354 190 36
355 272 223
356 268 97
357 266 90
358 291 364
359 168 123
360 125 176
361 214 56
362 350 157
363 346 294
364 126 103
365 123 250
366 275 191
367 267 393
368 276 93
369 69 90
370 223 13
371 255 384
372 248 114
373 78 207
374 243 103
375 73 130
376 199 190
377 140 265
378 147 367
379 130 186
380 174 92
381 256 396
382 76 139
383 207 55
384 260 156
385 64 220
386 80 181
387 43 66
388 234 172
389 152 81
390 73 71
391 124 160
392 165 93
393 273 342
394 83 212
395 296 77
396 154 95
397 194 187
398 264 384
399 141 350
400 137 124
401 138 356
402 381 113
403 289 105
404 46 227
405 191 209
406 72 60
407 67 68
408 188 212
409 231 143
410 332 148
411 162 110
412 141 192
413 244 70
414 74 218
415 136 250
416 54 218
417 174 153
418 390 134
419 201 13
420 278 14
421 260 249
422 180 21
423 118 148
424 160 361
425 131 240
426 364 95
427 147 84
428 140 98
429 233 101
430 171 143
431 40 204
432 125 225
433 260 161
434 238 91
435 146 381
436 386 107
437 103 135
438 248 120
439 282 242
440 358 175
441 76 83
442 219 114
443 276 127
444 365 178
445 124 250
446 185 177
447 137 77
448 169 52
449 111 261
450 278 15
451 286 259
452 173 278
453 266 395
454 266 351
455 132 353
456 328 158
457 277 103
458 75 136
459 193 38
460 358 188
461 130 263
462 342 168
463 258 134
464 183 56
465 79 128
466 146 164
467 202 171
468 68 87
469 61 183
470 264 375
471 309 215
472 44 95
473 64 83
474 187 92
475 239 137
476 40 73
477 196 164
478 238 264
479 64 193
480 369 135
481 72 118
482 267 4
483 122 142
484 305 379
485 166 133
486 117 92
487 275 269
488 153 180
489 100 115
490 246 390
491 150 370
492 164 138
493 296 209
494 178 81
495 162 69
496 380 129
497 166 124
498 349 179
499 50 204
500 66 121
501 130 235
502 231 263
503 84 192
504 365 288
505 137 272
506 156 271
507 99 84
508 64 219
509 68 199
510 280 142
511 228 32
512 363 276
513 114 102
514 365 158
515 132 274
516 246 246
517 48 95
518 207 179
519 152 136
520 137 288
521 238 399
522 299 234
523 123 252
524 99 114
525 78 230
526 223 189
527 253 259
528 147 115
529 211 34
530 92 88
531 254 137
532 189 112
533 106 83
534 228 180
535 266 10
536 135 176
537 69 70
538 208 91
539 277 376
540 54 222
541 275 95
542 259 90
543 70 142
544 256 235
545 389 122
546 40 83
547 272 31
548 210 93
549 144 261
550 144 183
551 70 63
552 289 203
553 255 117
554 155 349
555 351 238
556 289 211
557 173 125
558 363 270
559 88 143
560 270 380
561 275 143
562 330 173
563 74 124
564 132 267
565 78 184
566 107 84
567 143 187
568 228 97
569 269 241
570 132 251
571 280 240
572 59 226
573 236 249
574 196 35
575 94 84
576 142 363
577 254 250
578 66 202
579 105 98
580 102 125
581 283 187
582 272 32
583 129 361
584 86 122
585 258 359
586 75 49
587 122 261
588 300 200
589 281 86
590 240 366
591 207 91
592 141 263
593 146 196
594 41 79
595 244 358
596 215 188
597 265 94
598 208 104
599 175 89
600 147 374
601 199 35
602 226 385
603 202 42
604 219 84
605 331 268
606 38 87
607 93 80
608 141 202
609 240 97
610 240 389
611 280 126
612 268 149
613 258 387
614 388 278
615 167 68
616 195 184
617 329 289
618 182 171
619 265 202
620 273 257
621 43 54
622 273 393
623 149 192
624 62 193
625 282 7
626 222 89
627 270 386
628 348 161
629 90 111
630 384 183
631 126 187
632 96 196
633 397 140
634 156 144
635 83 186
636 261 363
637 231 385
638 183 134
639 267 358
640 153 73
641 286 17
642 392 106
643 97 91
644 71 115
645 226 102
646 166 151
647 116 90
648 118 261
649 90 66
650 249 252
651 396 135
652 140 69
653 200 203
654 284 5
655 155 159
656 206 185
657 138 170
658 241 360
659 86 140
660 379 124
661 242 116
662 262 213
663 343 169
664 160 138
665 93 132
666 122 253
667 172 164
668 398 104
669 125 362
670 343 279
671 241 366
672 85 105
673 73 183
674 159 129
675 208 187
676 60 201
677 149 244
678 294 230
679 236 266
680 317 165
681 38 172
682 98 86
683 254 135
684 56 196
685 237 366
686 161 101
687 268 244
688 70 207
689 329 156
690 273 187
691 225 197
692 349 276
693 83 122
694 200 21
695 290 6
696 39 117
697 72 155
698 79 135
699 121 56
700 94 175
701 36 90
702 61 222
703 140 187
704 119 276
705 60 239
706 259 117
707 92 84
708 380 127
709 130 273
710 293 92
711 251 132
712 114 103
713 77 196
714 166 31
715 246 330
716 20 97
717 145 153
718 149 345
719 248 133
720 281 230
721 194 141
722 379 127
723 54 68
724 56 227
725 261 107
726 86 59
727 68 204
728 382 132
729 123 175
730 69 218
731 251 368
732 268 375
733 358 142
734 228 68
735 140 183
736 171 147
737 87 71
738 362 159
739 145 253
740 109 82
741 351 281
742 245 149
743 285 11
744 216 35
745 280 121
746 102 133
747 127 264
748 96 251
749 243 86
750 280 249
751 262 363
752 261 223
753 128 161
754 339 261
755 257 97
756 273 12
757 57 210
758 299 39
759 377 132
760 340 166
761 268 95
762 145 374
763 239 389
764 68 53
765 197 18
766 73 97
767 107 138
768 141 164
769 53 98
770 86 133
771 69 126
772 288 1
773 177 108
774 80 111
775 352 284
776 249 384
777 81 132
778 185 162
779 136 181
780 286 108
781 105 135
782 280 238
783 356 166
784 297 365
785 376 271
786 292 87
787 319 274
788 213 11
789 243 130
790 53 239
791 298 362
792 92 80
793 70 213
794 153 393
795 103 116
796 76 212
797 202 216
798 78 200
799 265 344
800 286 193
801 139 250
802 238 91
803 248 377
804 249 354
805 134 360
806 68 70
807 105 135
808 59 226
809 254 137
810 204 146
811 152 181
812 141 202
813 224 131
814 371 143
815 199 190
PICKUP_AND_DELIVERY_SECTION
1 0 0 3811 0 0 0
2 -30 0 3562 90 74 0
3 20 221 381 90 0 508
4 -20 0 3602 90 114 0
5 10 2012 2172 90 0 657
6 10 0 3602 90 0 356
7 -20 0 3633 90 375 0
8 20 0 3586 90 0 528
9 -30 0 3601 90 447 0
10 10 0 3548 90 0 286
11 20 1952 2112 90 0 318
12 -10 1866 2026 90 740 0
13 -10 3001 3161 90 154 0
14 -10 2117 2277 90 687 0
15 30 0 3583 90 0 647
16 30 1248 1408 90 0 131
17 20 16 176 90 0 681
18 -10 1802 1962 90 127 0
19 -20 0 3538 90 619 0
20 -10 2122 2282 90 87 0
21 -10 0 3558 90 351 0
22 20 494 654 90 0 438
23 20 3154 3314 90 0 393
24 10 0 3667 90 0 488
25 -30 0 3704 90 446 0
26 20 0 3528 90 0 758
27 -20 0 3588 90 209 0
28 -10 0 3630 90 69 0
29 -30 0 3614 90 542 0
30 -20 1788 1948 90 442 0
31 20 0 3531 90 0 73
32 20 2523 2683 90 0 635
33 20 701 861 90 0 238
34 -20 2704 2864 90 785 0
35 -10 2204 2364 90 430 0
36 20 1411 1571 90 0 407
37 -10 1237 1397 90 136 0
38 20 130 290 90 0 578
39 20 498 658 90 0 158
40 -10 2870 3030 90 349 0
41 20 1773 1933 90 0 142
42 -20 716 876 90 712 0
43 10 0 3566 90 0 663
44 20 0 3598 90 0 684
45 -10 0 3549 90 200 0
46 -10 0 3674 90 494 0
47 -10 0 3598 90 172 0
48 -10 490 650 90 595 0
49 -10 2801 2961 90 50 0
50 10 0 3646 90 0 49
51 20 1290 1450 90 0 54
52 -20 521 681 90 797 0
53 20 0 3666 90 0 618
54 -20 0 3620 90 51 0
55 10 1206 1366 90 0 321
56 -10 0 3646 90 78 0
57 10 1028 1188 90 0 70
58 -10 0 3540 90 762 0
59 10 0 3560 90 0 441
60 10 2126 2286 90 0 432
61 -20 649 809 90 703 0
62 20 948 1108 90 0 336
63 -10 0 3560 90 338 0
64 -30 0 3556 90 670 0
65 -20 2200 2360 90 260 0
66 -10 2481 2641 90 256 0
67 -20 0 3661 90 117 0
68 -10 2390 2550 90 469 0
69 10 2406 2566 90 0 28
70 -10 0 3552 90 57 0
71 -20 2844 3004 90 454 0
72 -20 0 3639 90 342 0
73 -20 2163 2323 90 31 0
74 30 0 3548 90 0 2
75 10 0 3586 90 0 649
76 10 63 223 90 0 366
77 20 0 3546 90 0 169
78 10 0 3601 90 0 56
79 -20 0 3586 90 777 0
80 -10 0 3573 90 111 0
81 -20 0 3575 90 584 0
82 -20 0 3602 90 429 0
83 20 3128 3288 0 0 814
84 10 0 3602 90 0 710
85 10 0 3569 90 0 401
86 30 0 3533 90 0 152
87 10 0 3609 90 0 20
88 30 0 3695 90 0 616
89 10 0 3609 90 0 227
90 -20 0 3528 90 689 0
91 -20 1194 1354 90 171 0
92 -30 0 3629 90 308 0
93 -10 569 729 90 247 0
94 10 0 3579 90 0 309
95 -20 3065 3225 90 270 0
96 -20 0 3631 90 140 0
97 10 801 961 90 0 553
98 20 1515 1675 90 0 287
99 30 159 319 90 0 792
100 20 991 1151 90 0 118
101 20 116 276 90 0 112
102 20 0 3534 90 0 491
103 10 323 483 90 0 241
104 -10 1609 1769 90 141 0
105 30 0 3667 0 0 810
106 20 0 3538 0 0 803
107 30 164 324 90 0 150
108 30 1620 1780 90 0 439
109 20 131 291 90 0 680
110 30 1590 1750 90 0 656
111 10 0 3586 90 0 80
112 -20 0 3580 90 101 0
113 -30 740 900 90 623 0
114 20 0 3585 90 0 4
115 -20 0 3557 90 197 0
116 20 835 995 90 0 319
117 20 54 214 90 0 67
118 -20 2986 3146 90 100 0
119 20 0 3616 90 0 612
120 -20 1355 1515 90 413 0
121 -30 0 3526 90 330 0
122 -10 1777 1937 90 468 0
123 10 0 3560 90 0 718
124 20 2217 2377 90 0 323
125 30 1145 1305 90 0 370
126 30 1192 1352 90 0 460
127 10 1410 1570 90 0 18
128 10 262 422 90 0 694
129 -30 0 3608 90 443 0
130 10 1315 1475 90 0 614
131 -30 2577 2737 90 16 0
132 10 0 3567 90 0 529
133 10 2210 2370 90 0 382
134 20 361 521 90 0 562
135 -30 0 3611 90 411 0
136 10 758 918 90 0 37
137 20 1073 1233 90 0 551
138 10 0 3519 90 0 609
139 30 1080 1240 90 0 730
140 20 0 3669 90 0 96
141 10 0 3649 90 0 104
142 -20 3024 3184 90 41 0
143 10 1321 1481 90 0 391
144 -10 775 935 90 734 0
145 40 2963 3123 90 0 386
146 20 0 3637 90 0 487
147 10 0 3619 90 0 284
148 20 126 286 90 0 648
149 -10 0 3606 90 533 0
150 -30 0 3619 90 107 0
151 20 3085 3245 0 0 806
152 -30 0 3549 90 86 0
153 -10 0 3649 90 258 0
154 10 865 1025 90 0 13
155 -20 2613 2773 90 704 0
156 40 963 1123 90 0 604
157 -30 2550 2710 90 392 0
158 -20 2508 2668 90 39 0
159 10 0 3563 90 0 498
160 -20 3062 3222 90 470 0
161 -20 864 1024 90 182 0
162 30 1150 1310 90 0 358
163 20 0 3616 90 0 478
164 20 258 418 90 0 363
165 20 0 3681 90 0 329
166 -30 0 3526 90 298 0
167 30 1650 1810 90 0 398
168 -10 570 730 90 761 0
169 -20 0 3543 90 77 0
170 -30 2227 2387 90 440 0
171 20 0 3583 90 0 91
172 10 0 3604 90 0 47
173 -20 1951 2111 90 560 0
174 30 2790 2950 90 0 559
175 -10 3283 3443 90 507 0
176 10 871 1031 90 0 591
177 20 0 3541 90 0 334
178 -10 0 3573 90 285 0
179 -10 1622 1782 90 312 0
180 10 169 329 90 0 422
181 -10 622 782 90 236 0
182 20 457 617 90 0 161
183 -10 1553 1713 90 610 0
184 -20 767 927 90 361 0
185 30 0 3530 90 0 402
186 10 840 1000 90 0 753
187 -20 0 3656 90 288 0
188 10 1365 1525 90 0 695
189 -20 2094 2254 90 259 0
190 -10 2861 3021 90 250 0
191 30 360 520 90 0 800
192 -20 0 3612 90 262 0
193 -20 0 3522 90 588 0
194 -40 0 3602 90 400 0
195 40 1096 1256 90 0 786
196 30 0 3648 0 0 813
197 20 2611 2771 90 0 115
198 20 0 3540 90 0 230
199 20 783 943 90 0 332
200 10 1093 1253 90 0 45
201 -20 1722 1882 90 576 0
202 -20 2015 2175 90 666 0
203 -10 0 3647 90 736 0
204 20 670 830 90 0 664
205 20 0 3529 90 0 744
206 -30 0 3628 90 585 0
207 -20 0 3654 90 561 0
208 10 0 3586 90 0 696
209 20 999 1159 90 0 27
210 10 0 3544 90 0 418
211 30 0 3607 90 0 276
212 10 0 3538 90 0 424
213 20 0 3564 90 0 738
214 20 0 3563 90 0 537
215 10 291 451 90 0 789
216 -30 0 3565 90 605 0
217 30 2092 2252 90 0 586
218 -10 0 3543 90 756 0
219 -30 0 3652 90 742 0
220 -10 0 3599 90 324 0
221 10 2450 2610 90 0 300
222 -40 2995 3155 90 246 0
223 30 1973 2133 90 0 327
224 20 0 3589 90 0 646
225 -20 1332 1492 90 577 0
226 -20 1898 2058 90 690 0
227 -10 0 3639 90 89 0
228 20 0 3516 90 0 234
229 -20 229 389 90 427 0
230 -20 0 3544 90 198 0
231 -20 2542 2702 90 381 0
232 -20 0 3607 90 265 0
233 20 0 3582 90 0 486
234 -20 0 3513 90 228 0
235 -20 0 3581 90 745 0
236 10 0 3620 90 0 181
237 20 151 311 90 0 724
238 -20 0 3644 90 33 0
239 -20 0 3528 90 776 0
240 40 874 1034 90 0 606
241 -10 0 3556 90 103 0
242 20 93 253 90 0 292
243 30 0 3568 90 0 455
244 -20 1762 1922 90 640 0
245 -20 1415 1575 90 399 0
246 40 0 3574 90 0 222
247 10 0 3643 90 0 93
248 -20 0 3692 90 667 0
249 -10 1390 1550 90 693 0
250 10 0 3702 90 0 190
251 10 0 3548 0 0 805
252 -20 0 3632 90 782 0
253 -10 0 3581 90 705 0
254 20 0 3599 90 0 341
255 -20 0 3568 90 714 0
256 10 0 3647 90 0 66
257 20 2014 2174 90 0 502
258 10 1707 1867 90 0 153
259 20 1611 1771 90 0 189
260 20 375 535 90 0 65
261 10 0 3545 90 0 765
262 20 2031 2191 90 0 192
263 10 0 3632 90 0 352
264 -10 630 790 90 268 0
265 20 1995 2155 90 0 232
266 -20 1009 1169 90 389 0
267 40 0 3628 90 0 735
268 10 426 586 90 0 264
269 30 668 828 90 0 387
270 20 0 3535 90 0 95
271 30 1028 1188 90 0 315
272 -20 0 3523 90 297 0
273 -30 2480 2640 90 639 0
274 30 1448 1608 90 0 538
275 -30 2661 2821 90 634 0
276 -30 2946 3106 90 211 0
277 40 0 3582 90 0 697
278 -20 3349 3509 90 290 0
279 20 0 3533 90 0 788
280 -40 0 3535 90 692 0
281 -20 1126 1286 90 741 0
282 10 0 3670 0 0 811
283 20 459 619 90 0 669
284 -10 0 3608 90 147 0
285 10 229 389 90 0 178
286 -10 1265 1425 90 10 0
287 -20 2018 2178 90 98 0
288 20 0 3633 90 0 187
289 20 0 3520 90 0 764
290 20 3162 3322 90 0 278
291 -10 0 3540 90 371 0
292 -20 2420 2580 90 242 0
293 -40 1974 2134 90 624 0
294 30 0 3636 90 0 534
295 20 1254 1414 90 0 790
296 10 0 3602 90 0 717
297 20 0 3535 90 0 272
298 30 896 1056 90 0 166
299 -30 0 3566 90 385 0
300 -10 2944 3104 90 221 0
301 -10 0 3566 90 793 0
302 20 0 3593 90 0 771
303 -20 1963 2123 90 699 0
304 20 1746 1906 90 0 350
305 -30 278 438 90 369 0
306 10 2772 2932 90 0 713
307 20 0 3578 90 0 426
308 30 0 3703 90 0 92
309 -10 2658 2818 90 94 0
310 -20 2402 2562 90 621 0
311 20 0 3563 90 0 748
312 10 1240 1400 90 0 179
313 10 561 721 90 0 484
314 -10 0 3612 90 357 0
315 -30 1222 1382 90 271 0
316 20 0 3560 0 0 804
317 40 0 3609 90 0 700
318 -20 2361 2521 90 11 0
319 -20 2875 3035 90 116 0
320 -10 0 3574 90 509 0
321 -10 2259 2419 90 55 0
322 20 58 218 90 0 668
323 -20 2601 2761 90 124 0
324 10 1705 1865 90 0 220
325 20 0 3592 90 0 518
326 -10 0 3553 90 602 0
327 -30 0 3702 90 223 0
328 -10 0 3631 90 598 0
329 -20 0 3556 90 165 0
330 30 1875 2035 90 0 121
331 -10 1141 1301 90 715 0
332 -20 1078 1238 90 199 0
333 10 2423 2583 90 0 587
334 -20 0 3550 90 177 0
335 -20 1321 1481 90 581 0
336 -20 0 3596 90 62 0
337 -10 2283 2443 90 493 0
338 10 104 264 90 0 63
339 -20 0 3518 90 772 0
340 20 0 3565 90 0 555
341 -20 0 3589 90 254 0
342 20 641 801 90 0 72
343 10 0 3517 90 0 708
344 10 0 3598 90 0 394
345 20 0 3558 90 0 601
346 30 0 3634 90 0 355
347 -10 2617 2777 90 479 0
348 -20 1684 1844 90 383 0
349 10 2683 2843 90 0 40
350 -20 0 3529 90 304 0
351 10 2815 2975 90 0 21
352 -10 0 3693 90 263 0
353 -20 2948 3108 90 467 0
354 -20 0 3557 90 532 0
355 -30 0 3646 90 346 0
356 -10 2289 2449 90 6 0
357 10 2569 2729 90 0 314
358 -30 0 3534 90 162 0
359 10 0 3638 90 0 483
360 10 1524 1684 90 0 536
361 20 373 533 90 0 184
362 -20 0 3565 90 760 0
363 -20 0 3548 90 164 0
364 -10 3389 3549 90 406 0
365 -30 0 3630 90 523 0
366 -10 0 3646 90 76 0
367 -20 0 3517 90 637 0
368 -20 798 958 90 457 0
369 30 181 341 90 0 305
370 -30 0 3533 90 125 0
371 10 0 3529 90 0 291
372 20 901 1061 90 0 463
373 10 0 3599 90 0 503
374 20 0 3615 90 0 611
375 20 2119 2279 90 0 7
376 20 0 3711 0 0 815
377 10 0 3633 90 0 549
378 -20 2490 2650 90 435 0
379 30 0 3650 90 0 550
380 20 1202 1362 90 0 767
381 20 1746 1906 90 0 231
382 -10 0 3583 90 133 0
383 20 276 436 90 0 348
384 40 0 3647 90 0 596
385 30 461 621 90 0 299
386 -40 3152 3312 90 145 0
387 -30 0 3515 90 269 0
388 -40 1890 2050 90 626 0
389 20 0 3593 90 0 266
390 10 0 3540 90 0 737
391 -10 1816 1976 90 143 0
392 30 912 1072 90 0 157
393 -20 0 3562 90 23 0
394 -10 3285 3445 90 344 0
395 -10 1309 1469 90 589 0
396 20 533 693 90 0 580
397 10 427 587 90 0 417
398 -30 2157 2317 90 167 0
399 20 262 422 90 0 245
400 40 0 3623 90 0 194
401 -10 359 519 90 85 0
402 -30 0 3521 90 185 0
403 10 0 3591 90 0 780
404 20 0 3565 90 0 449
405 -10 315 475 90 653 0
406 10 0 3532 90 0 364
407 -20 2902 3062 90 36 0
408 -20 0 3705 90 431 0
409 30 64 224 90 0 706
410 20 0 3580 90 0 660
411 30 0 3624 90 0 135
412 30 551 711 90 0 779
413 20 459 619 90 0 120
414 -10 0 3594 90 416 0
415 10 0 3640 90 0 677
416 10 0 3574 90 0 414
417 -10 0 3668 90 397 0
418 -10 0 3520 90 210 0
419 -10 0 3534 90 574 0
420 -30 1933 2093 90 625 0
421 -10 0 3644 90 527 0
422 -10 0 3541 90 180 0
423 40 0 3624 90 0 489
424 -10 2684 2844 90 212 0
425 10 2518 2678 90 0 570
426 -20 0 3527 90 307 0
427 20 150 310 90 0 229
428 -30 0 3603 90 524 0
429 20 1062 1222 90 0 82
430 10 965 1125 90 0 35
431 20 762 922 90 0 408
432 -10 2224 2384 90 60 0
433 -40 2191 2351 90 475 0
434 20 0 3606 0 0 802
435 20 0 3533 90 0 378
436 20 0 3514 90 0 722
437 20 116 276 90 0 579
438 -20 997 1157 90 22 0
439 -30 2310 2470 90 108 0
440 30 777 937 90 0 170
441 -10 1067 1227 90 59 0
442 20 0 3633 90 0 30
443 30 222 382 90 0 129
444 20 680 840 90 0 783
445 -20 0 3631 90 452 0
446 30 0 3694 90 0 25
447 30 0 3583 90 0 9
448 20 3410 3570 90 0 464
449 -20 0 3614 90 404 0
450 -30 1842 2002 90 582 0
451 30 2602 2762 90 0 679
452 20 795 955 90 0 445
453 -20 0 3516 90 731 0
454 20 0 3557 90 0 71
455 -30 0 3554 90 243 0
456 -30 2836 2996 90 628 0
457 20 607 767 90 0 368
458 -30 0 3581 90 563 0
459 10 0 3559 90 0 511
460 -30 0 3563 90 126 0
461 10 0 3627 90 0 501
462 -20 1652 1812 90 630 0
463 -20 0 3634 90 372 0
464 -20 0 3576 90 448 0
465 20 2306 2466 90 0 659
466 -30 2776 2936 90 729 0
467 20 0 3692 90 0 353
468 10 477 637 90 0 122
469 10 2298 2458 90 0 68
470 20 0 3535 90 0 160
471 10 0 3611 90 0 678
472 -10 0 3533 90 769 0
473 30 572 732 90 0 517
474 30 0 3613 90 0 603
475 40 0 3647 90 0 433
476 -10 1876 2036 90 701 0
477 -10 1388 1548 90 721 0
478 -20 3217 3377 90 163 0
479 10 0 3585 90 0 347
480 10 0 3540 90 0 759
481 -20 999 1159 90 766 0
482 20 0 3514 90 0 654
483 -10 0 3624 90 359 0
484 -10 0 3514 90 313 0
485 10 1544 1704 90 0 565
486 -20 0 3585 90 233 0
487 -20 0 3620 90 146 0
488 -10 3066 3226 90 24 0
489 -40 0 3590 90 423 0
490 -20 0 3526 90 521 0
491 -20 0 3544 90 102 0
492 10 0 3650 90 0 798
493 10 2090 2250 90 0 337
494 10 0 3600 90 0 46
495 20 0 3585 90 0 773
496 10 2440 2600 90 0 651
497 -10 1643 1803 90 599 0
498 -10 0 3571 90 159 0
499 -10 0 3571 90 727 0
500 10 0 3566 90 0 543
501 -10 2325 2485 90 461 0
502 -20 3314 3474 90 257 0
503 -10 2870 3030 90 373 0
504 10 2000 2160 90 0 512
505 -30 0 3626 90 564 0
506 10 0 3638 90 0 709
507 10 2989 3149 90 0 175
508 -20 0 3584 90 3 0
509 10 0 3589 90 0 320
510 20 1982 2142 90 0 711
511 -10 0 3551 90 459 0
512 -10 0 3542 90 504 0
513 20 0 3591 90 0 566
514 -30 0 3551 90 733 0
515 -10 0 3621 90 520 0
516 20 0 3656 90 0 750
517 -30 980 1140 90 473 0
518 -20 0 3699 90 325 0
519 10 0 3641 90 0 655
520 10 922 1082 90 0 515
521 20 0 3519 90 0 490
522 -20 0 3617 90 558 0
523 30 0 3629 90 0 365
524 30 660 820 90 0 428
525 -20 0 3596 90 702 0
526 -20 0 3696 90 568 0
527 10 0 3642 90 0 421
528 -20 2053 2213 90 8 0
529 -10 1435 1595 90 132 0
530 -10 0 3566 90 726 0
531 10 2491 2651 0 0 809
532 20 564 724 90 0 354
533 10 992 1152 90 0 149
534 -30 0 3687 90 294 0
535 -10 0 3520 90 547 0
536 -10 0 3652 90 360 0
537 -20 2994 3154 90 214 0
538 -30 0 3612 90 274 0
539 20 1961 2121 90 0 791
540 -20 0 3574 90 688 0
541 20 706 866 90 0 661
542 30 0 3597 90 0 29
543 -10 0 3579 90 500 0
544 -10 0 3655 90 569 0
545 -20 0 3517 90 642 0
546 20 1585 1745 90 0 682
547 10 0 3538 90 0 535
548 -20 1553 1713 90 645 0
549 -10 3278 3438 90 377 0
550 -30 2390 2550 90 379 0
551 -20 0 3533 90 137 0
552 10 1130 1290 90 0 556
553 -10 1186 1346 90 97 0
554 -10 0 3566 90 600 0
555 -20 0 3566 90 340 0
556 -10 0 3632 90 552 0
557 10 765 925 90 0 673
558 20 2415 2575 90 0 522
559 -30 0 3596 90 174 0
560 20 0 3528 90 0 173
561 20 0 3627 90 0 207
562 -20 1457 1617 90 134 0
563 30 1933 2093 90 0 458
564 30 0 3626 90 0 505
565 -10 0 3598 90 485 0
566 -20 901 1061 90 513 0
567 20 363 523 90 0 631
568 20 0 3615 90 0 526
569 10 0 3641 90 0 544
570 -10 2709 2869 90 425 0
571 -20 2217 2377 90 720 0
572 10 0 3578 0 0 808
573 -20 0 3661 90 799 0
574 10 0 3556 90 0 419
575 20 2305 2465 90 0 707
576 20 553 713 90 0 201
577 20 0 3648 90 0 225
578 -20 0 3587 90 38 0
579 -20 0 3582 90 437 0
580 -20 2647 2807 90 396 0
581 20 0 3637 90 0 335
582 30 294 454 90 0 450
583 30 1129 1289 90 0 794
584 20 0 3583 90 0 81
585 30 0 3552 90 0 206
586 -30 2701 2861 90 217 0
587 -10 0 3622 90 333 0
588 20 0 3621 90 0 193
589 10 896 1056 90 0 395
590 20 274 434 90 0 671
591 -10 0 3612 90 176 0
592 30 0 3635 90 0 739
593 20 170 330 90 0 768
594 -20 0 3522 90 723 0
595 10 373 533 90 0 48
596 -40 0 3702 90 384 0
597 20 0 3597 90 0 749
598 10 2528 2688 90 0 328
599 10 1295 1455 90 0 497
600 10 2300 2460 90 0 554
601 -20 0 3556 90 345 0
602 10 0 3535 90 0 326
603 -30 0 3563 90 474 0
604 -40 2029 2189 90 156 0
605 30 164 324 90 0 216
606 -40 1490 1650 90 240 0
607 30 2120 2280 90 0 672
608 20 0 3662 0 0 812
609 -10 0 3611 90 138 0
610 10 1264 1424 90 0 183
611 -20 1671 1831 90 374 0
612 -20 0 3636 90 119 0
613 -10 0 3526 90 763 0
614 -10 0 3518 90 130 0
615 30 0 3585 90 0 778
616 -30 0 3705 90 88 0
617 -20 1506 1666 90 775 0
618 -20 0 3687 90 53 0
619 20 0 3656 90 0 19
620 -10 1525 1685 90 650 0
621 20 2300 2460 90 0 310
622 20 0 3515 90 0 627
623 30 0 3670 90 0 113
624 40 1880 2040 90 0 293
625 30 0 3512 90 0 420
626 40 0 3608 90 0 388
627 -20 0 3523 90 622 0
628 30 1843 2003 90 0 456
629 -20 0 3580 90 795 0
630 20 0 3537 90 0 462
631 -20 0 3646 90 567 0
632 -10 0 3617 90 796 0
633 -30 2823 2983 90 728 0
634 30 0 3650 90 0 275
635 -20 0 3604 90 32 0
636 30 0 3547 90 0 784
637 20 691 851 90 0 367
638 -30 0 3653 90 652 0
639 30 0 3550 90 0 273
640 20 0 3586 90 0 244
641 -10 0 3519 90 743 0
642 20 698 858 90 0 545
643 -40 2801 2961 90 644 0
644 40 0 3567 90 0 643
645 20 1254 1414 90 0 548
646 -20 2849 3009 90 224 0
647 -30 0 3583 90 15 0
648 -20 0 3619 90 148 0
649 -10 0 3548 90 75 0
650 10 665 825 90 0 620
651 -10 2728 2888 90 496 0
652 30 2158 2318 90 0 638
653 10 3 163 90 0 405
654 -20 0 3509 90 482 0
655 -10 2562 2722 90 519 0
656 -30 2757 2917 90 110 0
657 -10 0 3653 90 5 0
658 20 178 338 90 0 685
659 -20 2991 3151 90 465 0
660 -20 0 3527 90 410 0
661 -20 0 3628 90 541 0
662 -20 3383 3543 90 752 0
663 -10 1744 1904 90 43 0
664 -20 1255 1415 90 204 0
665 10 137 297 90 0 774
666 20 1920 2080 90 0 202
667 20 3049 3209 90 0 248
668 -20 794 954 90 322 0
669 -20 1318 1478 90 283 0
670 30 0 3558 90 0 64
671 -20 392 552 90 590 0
672 -30 2693 2853 90 607 0
673 -10 0 3593 90 557 0
674 -10 0 3640 90 716 0
675 -30 0 3706 90 691 0
676 -30 1592 1752 90 757 0
677 -10 3476 3636 90 415 0
678 -10 2686 2846 90 471 0
679 -30 0 3646 90 451 0
680 -20 2939 3099 90 109 0
681 -20 0 3557 90 17 0
682 -20 0 3569 90 546 0
683 30 2583 2743 90 0 719
684 -20 0 3577 90 44 0
685 -20 2748 2908 90 658 0
686 10 0 3615 90 0 746
687 10 0 3641 90 0 14
688 20 0 3591 90 0 540
689 20 2744 2904 90 0 90
690 20 548 708 90 0 226
691 30 2189 2349 90 0 675
692 40 0 3554 90 0 280
693 10 0 3581 90 0 249
694 -10 0 3542 90 128 0
695 -10 0 3508 90 188 0
696 -10 0 3540 90 208 0
697 -40 0 3586 90 277 0
698 -10 1679 1839 90 770 0
699 20 0 3557 90 0 303
700 -40 3453 3613 90 317 0
701 10 0 3524 90 0 476
702 20 0 3581 90 0 525
703 20 456 616 90 0 61
704 20 0 3610 90 0 155
705 10 2224 2384 90 0 253
706 -30 0 3620 90 409 0
707 -20 2397 2557 90 575 0
708 -10 2348 2508 90 343 0
709 -10 0 3620 90 506 0
710 -10 0 3579 90 84 0
711 -20 0 3636 90 510 0
712 20 368 528 90 0 42
713 -10 0 3598 90 306 0
714 20 2918 3078 90 0 255
715 10 137 297 90 0 331
716 10 1289 1449 90 0 674
717 -10 3261 3421 90 296 0
718 -10 3253 3413 90 123 0
719 -30 0 3639 90 683 0
720 20 0 3635 90 0 571
721 10 0 3662 90 0 477
722 -20 0 3528 90 436 0
723 20 771 931 90 0 594
724 -20 0 3575 90 237 0
725 -20 3146 3306 90 755 0
726 10 0 3540 90 0 530
727 10 418 578 90 0 499
728 30 2533 2693 90 0 633
729 30 0 3641 90 0 466
730 -30 2805 2965 90 139 0
731 20 0 3546 90 0 453
732 -10 1341 1501 90 751 0
733 30 0 3553 90 0 514
734 10 0 3587 90 0 144
735 -40 2296 2456 90 267 0
736 10 1059 1219 90 0 203
737 -10 3285 3445 90 390 0
738 -20 0 3554 90 213 0
739 -30 3376 3536 90 592 0
740 10 0 3572 90 0 12
741 20 841 1001 90 0 281
742 30 3065 3225 90 0 219
743 10 1652 1812 90 0 641
744 -20 0 3556 90 205 0
745 20 319 479 90 0 235
746 -10 0 3603 90 686 0
747 -10 198 358 90 801 0
748 -20 0 3606 90 311 0
749 -20 353 513 90 597 0
750 -20 0 3628 90 516 0
751 10 0 3547 90 0 732
752 20 3283 3443 90 0 662
753 -10 1910 2070 90 186 0
754 -20 0 3570 90 787 0
755 20 2764 2924 90 0 725
756 10 2122 2282 90 0 218
757 30 1492 1652 90 0 676
758 -20 3181 3341 90 26 0
759 -10 1588 1748 90 480 0
760 20 1559 1719 90 0 362
761 10 136 296 90 0 168
762 10 2117 2277 90 0 58
763 10 1173 1333 90 0 613
764 -20 2603 2763 90 289 0
765 -10 0 3539 90 261 0
766 20 0 3558 90 0 481
767 -20 2170 2330 90 380 0
768 -20 2681 2841 90 593 0
769 10 1166 1326 90 0 472
770 10 418 578 90 0 698
771 -20 1837 1997 90 302 0
772 20 1459 1619 90 0 339
773 -20 3154 3314 90 495 0
774 -10 1186 1346 90 665 0
775 20 0 3548 90 0 617
776 20 0 3531 90 0 239
777 20 513 673 90 0 79
778 -30 0 3681 90 615 0
779 -30 0 3655 90 412 0
780 -10 1899 2059 90 403 0
781 10 2263 2423 0 0 807
782 20 0 3633 90 0 252
783 -20 877 1037 90 444 0
784 -30 2286 2446 90 636 0
785 20 0 3532 90 0 34
786 -40 0 3576 90 195 0
787 20 0 3581 90 0 754
788 -20 2217 2377 90 279 0
789 -10 0 3639 90 215 0
790 -20 1736 1896 90 295 0
791 -20 0 3532 90 539 0
792 -30 0 3560 90 99 0
793 10 362 522 90 0 301
794 -30 1816 1976 90 583 0
795 20 0 3593 90 0 629
796 10 3095 3255 90 0 632
797 20 116 276 90 0 52
798 -10 0 3599 90 492 0
799 20 669 829 90 0 573
800 -30 0 3635 90 191 0
801 10 78 238 90 0 747
802 -20 0 3606 90 434 0
803 -20 0 3538 90 106 0
804 -20 0 3560 90 316 0
805 -10 0 3548 90 251 0
806 -20 3085 3245 90 151 0
807 -10 2263 2423 90 781 0
808 -10 0 3578 90 572 0
809 -10 2491 2651 90 531 0
810 -30 0 3667 90 105 0
811 -10 0 3670 90 282 0
812 -20 0 3662 90 608 0
813 -30 0 3648 90 196 0
814 -20 3128 3288 90 83 0
815 -20 0 3711 90 376 0
DEPOT_SECTION
1
-1
EOF
