NAME: lc2_8_1
TYPE: PDPTW
COMMENT: Li & Lim PDPTW benchmark converted from SINTEF format
DIMENSION: 811
VEHICLES: 200
CAPACITY: 700
EDGE_WEIGHT_TYPE: EUC_2D
NODE_COORD_SECTION
1 200 200
2 271 343
3 85 208
4 82 179
5 132 172
6 278 109
7 117 170
8 96 113
9 165 85
10 371 171
11 141 105
12 150 77
13 75 208
14 287 233
15 113 92
16 271 375
17 201 206
18 352 291
19 368 125
20 216 84
21 183 37
22 235 115
23 273 345
24 150 178
25 190 186
26 280 24
27 282 95
28 261 268
29 212 93
30 228 162
31 379 136
32 72 221
33 73 195
34 351 272
35 57 183
36 106 50
37 264 253
38 70 184
39 255 15
40 270 355
41 380 135
42 110 84
43 355 192
44 77 209
45 93 65
46 183 156
47 182 78
48 237 373
49 134 251
50 136 240
51 267 125
52 197 184
53 167 156
54 268 124
55 127 62
56 127 180
57 127 350
58 146 373
59 67 109
60 121 232
61 134 195
62 96 104
63 112 65
64 351 267
65 34 58
66 312 217
67 143 180
68 63 184
69 282 248
70 152 363
71 234 361
72 282 198
73 377 124
74 252 365
75 90 121
76 253 205
77 137 364
78 93 145
79 79 139
80 343 161
81 74 126
82 212 81
83 371 143
84 279 111
85 146 343
86 265 377
87 214 88
88 191 175
89 283 124
90 368 103
91 59 115
92 249 121
93 246 247
94 110 89
95 151 352
96 290 205
97 254 106
98 93 55
99 78 97
100 273 7
101 263 118
102 150 381
103 73 205
104 275 209
105 204 146
106 248 377
107 262 199
108 276 252
109 331 197
110 215 174
111 334 177
112 272 78
113 133 196
114 66 228
115 351 264
116 132 360
117 146 208
118 294 26
119 271 122
120 218 109
121 388 145
122 33 78
123 154 355
124 275 16
125 200 18
126 374 121
127 332 284
128 190 138
129 257 102
130 337 282
131 283 362
132 195 46
133 73 129
134 366 195
135 162 96
136 252 253
137 51 95
138 292 20
139 76 210
140 252 205
141 272 200
142 380 153
143 111 185
144 233 86
145 85 189
146 267 251
147 172 101
148 87 204
149 173 88
150 301 218
151 68 70
152 270 358
153 268 224
154 177 135
155 130 245
156 237 93
157 96 122
158 285 23
159 356 172
160 274 346
161 200 26
162 266 368
163 290 255
164 333 264
165 194 160
166 299 31
167 261 391
168 224 63
169 130 364
170 361 156
171 83 125
172 170 86
173 289 392
174 75 153
175 110 101
176 236 91
177 214 20
178 76 118
179 206 38
180 190 141
181 108 87
182 187 129
183 256 386
184 202 33
185 371 113
186 131 186
187 241 251
188 286 5
189 364 284
190 250 97
191 272 193
192 104 252
193 370 95
194 97 139
195 263 80
196 224 131
197 354 273
198 353 102
199 230 387
200 70 114
201 149 393
202 117 252
203 163 135
204 176 121
205 217 8
206 242 283
207 253 159
208 86 126
209 269 83
210 361 125
211 172 89
212 158 379
213 356 177
214 89 87
215 245 136
216 341 269
217 16 56
218 278 40
219 252 154
220 264 95
221 99 132
222 134 261
223 90 138
224 130 88
225 265 248
226 291 215
227 250 134
228 275 9
229 145 93
230 350 105
231 256 370
232 255 100
233 108 95
234 278 7
235 302 104
236 140 118
237 74 193
238 123 189
239 227 392
240 55 81
241 41 246
242 246 119
243 144 343
244 163 81
245 125 369
246 53 215
247 252 259
248 185 175
249 78 127
250 212 185
251 134 360
252 265 262
253 64 235
254 79 178
255 178 48
256 274 204
257 274 230
258 282 213
259 343 296
260 75 78
261 197 24
262 50 248
263 288 184
264 158 101
265 282 104
266 170 97
267 108 185
268 152 78
269 59 80
270 127 372
271 348 283
272 250 8
273 288 357
274 215 107
275 164 156
276 179 88
277 77 134
278 154 342
279 200 12
280 361 295
281 341 287
282 152 181
283 146 361
284 112 129
285 91 133
286 339 181
287 100 71
288 244 277
289 55 60
290 148 345
291 254 373
292 198 90
293 59 190
294 215 116
295 50 219
296 110 121
297 275 29
298 274 2
299 45 210
300 122 130
301 51 246
302 92 131
303 143 76
304 281 10
305 74 85
306 78 188
307 338 161
308 210 185
309 186 73
310 55 54
311 46 239
312 204 21
313 249 353
314 263 110
315 339 281
316 249 354
317 90 178
318 151 141
319 156 353
320 53 198
321 151 69
322 252 227
323 288 23
324 299 108
325 279 98
326 276 350
327 187 186
328 211 110
329 210 35
330 389 128
331 263 259
332 241 394
333 76 230
334 206 29
335 280 200
336 140 90
337 300 203
338 136 117
339 298 22
340 343 264
341 69 179
342 275 184
343 384 111
344 77 212
345 209 37
346 287 211
347 76 219
348 218 172
349 267 360
350 271 21
351 179 30
352 228 196
353 204 183
354 190 36
355 272 223
356 268 97
357 266 90
358 291 364
359 168 123
360 125 176
361 214 56
362 350 157
363 346 294
364 126 103
365 123 250
366 275 191
367 267 393
368 276 93
369 69 90
370 223 13
371 255 384
372 248 114
373 78 207
374 243 103
375 73 130
376 199 190
377 140 265
378 147 367
379 130 186
380 174 92
381 256 396
382 76 139
383 207 55
384 260 156
385 64 220
386 80 181
387 43 66
388 234 172
389 152 81
390 73 71
391 124 160
392 165 93
393 273 342
394 83 212
395 296 77
396 154 95
397 194 187
398 264 384
399 141 350
400 137 124
401 138 356
402 381 113
403 289 105
404 46 227
405 191 209
406 72 60
407 67 68
408 188 212
409 231 143
410 332 148
411 162 110
412 141 192
413 244 70
414 74 218
415 136 250
416 54 218
417 174 153
418 390 134
419 201 13
420 278 14
421 260 249
422 180 21
423 118 148
424 160 361
425 131 240
426 364 95
427 147 84
428 140 98
429 233 101
430 171 143
431 40 204
432 125 225
433 260 161
434 238 91
435 146 381
436 386 107
437 103 135
438 248 120
439 282 242
440 358 175
441 76 83
442 219 114
443 276 127
444 365 178
445 124 250
446 185 177
447 137 77
448 169 52
449 111 261
450 278 15
451 286 259
452 173 278
453 266 395
454 266 351
455 132 353
456 328 158
457 277 103
458 75 136
459 193 38
460 358 188
461 130 263
462 342 168
463 258 134
464 183 56
465 79 128
466 146 164
467 202 171
468 68 87
469 61 183
470 264 375
471 309 215
472 44 95
473 64 83
474 187 92
475 239 137
476 40 73
477 196 164
478 238 264
479 64 193
480 369 135
481 72 118
482 267 4
483 122 142
484 305 379
485 166 133
486 117 92
487 275 269
488 153 180
489 100 115
490 246 390
491 150 370
492 164 138
493 296 209
494 178 81
495 162 69
496 380 129
497 166 124
498 349 179
499 50 204
500 66 121
501 130 235
502 231 263
503 84 192
504 365 288
505 137 272
506 156 271
507 99 84
508 64 219
509 68 199
510 280 142
511 228 32
512 363 276
513 114 102
514 365 158
515 132 274
516 246 246
517 48 95
518 207 179
519 152 136
520 137 288
521 238 399
522 299 234
523 123 252
524 99 114
525 78 230
526 223 189
527 253 259
528 147 115
529 211 34
530 92 88
531 254 137
532 189 112
533 106 83
534 228 180
535 266 10
536 135 176
537 69 70
538 208 91
539 277 376
540 54 222
541 275 95
542 259 90
543 70 142
544 256 235
545 389 122
546 40 83
547 272 31
548 210 93
549 144 261
550 144 183
551 70 63
552 289 203
553 255 117
554 155 349
555 351 238
556 289 211
557 173 125
558 363 270
559 88 143
560 270 380
561 275 143
562 330 173
563 74 124
564 132 267
565 78 184
566 107 84
567 143 187
568 228 97
569 269 241
570 132 251
571 280 240
572 59 226
573 236 249
574 196 35
575 94 84
576 142 363
577 254 250
578 66 202
579 105 98
580 102 125
581 283 187
582 272 32
583 129 361
584 86 122
585 258 359
586 75 49
587 122 261
588 300 200
589 281 86
590 240 366
591 207 91
592 141 263
593 146 196
594 41 79
595 244 358
596 215 188
597 265 94
598 208 104
599 175 89
600 147 374
601 199 35
602 226 385
603 202 42
604 219 84
605 331 268
606 38 87
607 93 80
608 141 202
609 240 97
610 240 389
611 280 126
612 268 149
613 258 387
614 388 278
615 167 68
616 195 184
617 329 289
618 182 171
619 265 202
620 273 257
621 43 54
622 273 393
623 149 192
624 62 193
625 282 7
626 222 89
627 270 386
628 348 161
629 90 111
630 384 183
631 126 187
632 96 196
633 397 140
634 156 144
635 83 186
636 261 363
637 231 385
638 183 134
639 267 358
640 153 73
641 286 17
642 392 106
643 97 91
644 71 115
645 226 102
646 166 151
647 116 90
648 118 261
649 90 66
650 249 252
651 396 135
652 140 69
653 200 203
654 284 5
655 155 159
656 206 185
657 138 170
658 241 360
659 86 140
660 379 124
661 242 116
662 262 213
663 343 169
664 160 138
665 93 132
666 122 253
667 172 164
668 398 104
669 125 362
670 343 279
671 241 366
672 85 105
673 73 183
674 159 129
675 208 187
676 60 201
677 149 244
678 294 230
679 236 266
680 317 165
681 38 172
682 98 86
683 254 135
684 56 196
685 237 366
686 161 101
687 268 244
688 70 207
689 329 156
690 273 187
691 225 197
692 349 276
693 83 122
694 200 21
695 290 6
696 39 117
697 72 155
698 79 135
699 121 56
700 94 175
701 36 90
702 61 222
703 140 187
704 119 276
705 60 239
706 259 117
707 92 84
708 380 127
709 130 273
710 293 92
711 251 132
712 114 103
713 77 196
714 166 31
715 246 330
716 20 97
717 145 153
718 149 345
719 248 133
720 281 230
721 194 141
722 379 127
723 54 68
724 56 227
725 261 107
726 86 59
727 68 204
728 382 132
729 123 175
730 69 218
731 251 368
732 268 375
733 358 142
734 228 68
735 140 183
736 171 147
737 87 71
738 362 159
739 145 253
740 109 82
741 351 281
742 245 149
743 285 11
744 216 35
745 280 121
746 102 133
747 127 264
748 96 251
749 243 86
750 280 249
751 262 363
752 261 223
753 128 161
754 339 261
755 257 97
756 273 12
757 57 210
758 299 39
759 377 132
760 340 166
761 268 95
762 145 374
763 239 389
764 68 53
765 197 18
766 73 97
767 107 138
768 141 164
769 53 98
770 86 133
771 69 126
772 288 1
773 177 108
774 80 111
775 352 284
776 249 384
777 81 132
778 185 162
779 136 181
780 286 108
781 105 135
782 280 238
783 356 166
784 297 365
785 376 271
786 292 87
787 319 274
788 213 11
789 243 130
790 53 239
791 298 362
792 92 80
793 70 213
794 153 393
795 103 116
796 76 212
797 202 216
798 78 200
799 265 344
800 286 193
801 139 250
802 225 197
803 299 234
804 141 164
805 280 240
806 208 104
807 162 69
808 74 218
809 200 12
810 142 363
811 86 140
PICKUP_AND_DELIVERY_SECTION
1 0 0 3811 0 0 0
2 -20 3247 3407 90 23 0
3 20 221 381 90 0 509
4 -20 3339 3499 90 565 0
5 10 2012 2172 90 0 550
6 -10 511 671 90 84 0
7 -20 1714 1874 90 61 0
8 -20 753 913 90 489 0
9 10 1668 1828 90 0 244
10 10 581 741 90 0 444
11 20 1952 2112 90 0 275
12 30 1866 2026 90 0 474
13 -20 3001 3161 90 262 0
14 -20 2117 2277 90 516 0
15 30 435 595 90 0 94
16 30 1248 1408 90 0 160
17 20 16 176 90 0 467
18 -20 1802 1962 90 787 0
19 10 1289 1449 90 0 210
20 -10 2122 2282 90 761 0
21 -20 3026 3186 90 603 0
22 20 494 654 90 0 683
23 20 3154 3314 90 0 2
24 -10 2881 3041 90 753 0
25 40 709 869 90 0 352
26 -20 2413 2573 90 234 0
27 -10 2094 2254 90 786 0
28 -10 2811 2971 90 69 0
29 -10 1832 1992 90 734 0
30 30 1788 1948 90 0 534
31 -30 1682 1842 90 668 0
32 -10 2523 2683 90 373 0
33 20 701 861 90 0 572
34 10 2704 2864 90 0 115
35 -20 2204 2364 90 431 0
36 20 1411 1571 90 0 214
37 -30 1237 1397 90 252 0
38 20 130 290 90 0 757
39 20 498 658 90 0 450
40 -30 2870 3030 90 74 0
41 -20 1773 1933 90 90 0
42 10 716 876 90 0 533
43 10 166 326 90 0 80
44 -10 3188 3348 90 333 0
45 -30 1919 2079 90 486 0
46 -30 3152 3312 90 604 0
47 30 2754 2914 90 0 276
48 30 490 650 90 0 199
49 -30 2801 2961 90 523 0
50 -10 2423 2583 90 449 0
51 20 1290 1450 90 0 531
52 30 521 681 90 0 248
53 20 2754 2914 90 0 417
54 10 1382 1542 90 0 463
55 10 1206 1366 90 0 287
56 30 1028 1188 90 0 536
57 10 1028 1188 90 0 58
58 -10 2209 2369 90 57 0
59 -30 1639 1799 90 696 0
60 10 2126 2286 90 0 222
61 20 649 809 90 0 7
62 20 948 1108 90 0 606
63 30 1101 1261 90 0 726
64 -30 2799 2959 90 614 0
65 20 2200 2360 90 0 151
66 20 2481 2641 90 0 355
67 -30 2483 2643 90 729 0
68 10 2390 2550 90 0 254
69 10 2406 2566 90 0 28
70 -30 2586 2746 90 378 0
71 -10 2844 3004 90 453 0
72 -20 1228 1388 90 619 0
73 -30 2163 2323 90 126 0
74 30 198 358 90 0 40
75 -20 800 960 90 777 0
76 10 63 223 90 0 342
77 -10 648 808 90 85 0
78 -30 3090 3250 90 697 0
79 -10 2894 3054 90 458 0
80 -10 2446 2606 90 43 0
81 10 2025 2185 90 0 277
82 -10 2314 2474 90 120 0
83 -20 3128 3288 90 418 0
84 10 419 579 90 0 6
85 10 152 312 90 0 77
86 30 2350 2510 90 0 106
87 -20 2216 2376 90 429 0
88 -20 904 1064 90 405 0
89 10 1577 1737 90 0 227
90 20 297 457 90 0 41
91 30 1194 1354 90 0 500
92 -20 1089 1249 90 374 0
93 20 569 729 90 0 163
94 -30 529 689 90 15 0
95 10 3065 3225 90 0 278
96 10 1038 1198 90 0 720
97 10 801 961 90 0 561
98 20 1515 1675 90 0 579
99 30 159 319 90 0 465
100 20 991 1151 90 0 695
101 20 116 276 90 0 443
102 -10 2019 2179 90 245 0
103 10 323 483 90 0 796
104 -20 1609 1769 90 690 0
105 30 54 214 90 0 634
106 -30 2643 2803 90 86 0
107 30 164 324 90 0 581
108 -10 1620 1780 90 247 0
109 20 131 291 90 0 460
110 30 1590 1750 90 0 348
111 -20 1361 1521 90 286 0
112 20 1195 1355 90 0 324
113 -20 740 900 90 608 0
114 -20 1382 1542 90 525 0
115 -10 2892 3052 90 34 0
116 20 835 995 90 0 270
117 20 54 214 90 0 631
118 10 2986 3146 90 0 166
119 20 1475 1635 90 0 711
120 10 1355 1515 90 0 82
121 -10 2923 3083 90 660 0
122 20 1777 1937 90 0 289
123 -30 2783 2943 90 583 0
124 20 2217 2377 90 0 641
125 30 1145 1305 90 0 329
126 30 1192 1352 90 0 73
127 -30 1410 1570 90 271 0
128 -10 262 422 90 180 0
129 -10 3049 3209 90 357 0
130 -10 1315 1475 90 315 0
131 10 2577 2737 90 0 326
132 10 171 331 90 0 255
133 10 2210 2370 90 0 543
134 20 361 521 90 0 514
135 20 818 978 90 0 392
136 10 758 918 90 0 146
137 20 1073 1233 90 0 764
138 10 2794 2954 90 0 339
139 30 1080 1240 90 0 394
140 20 52 212 90 0 366
141 -30 1419 1579 90 191 0
142 -20 3024 3184 90 708 0
143 -30 1321 1481 90 379 0
144 -20 775 935 90 413 0
145 -10 2963 3123 90 306 0
146 -10 1426 1586 90 136 0
147 10 1103 1263 90 0 652
148 20 126 286 90 0 578
149 -20 1388 1548 90 389 0
150 30 2582 2742 90 0 782
151 -20 3085 3245 90 65 0
152 -10 2777 2937 90 273 0
153 -20 3186 3346 90 588 0
154 -20 865 1025 90 532 0
155 10 2613 2773 90 0 415
156 40 963 1123 90 0 568
157 -10 2550 2710 90 285 0
158 20 2508 2668 90 0 758
159 -30 973 1133 90 440 0
160 -30 3062 3222 90 16 0
161 10 864 1024 90 0 179
162 -20 1150 1310 90 731 0
163 -20 2506 2666 90 93 0
164 20 258 418 90 0 754
165 -20 1293 1453 90 616 0
166 -10 3083 3243 90 118 0
167 -10 1650 1810 90 715 0
168 10 570 730 90 0 176
169 10 1222 1382 90 0 794
170 -20 2227 2387 90 362 0
171 -40 1485 1645 90 644 0
172 -30 1573 1733 90 211 0
173 -10 1951 2111 90 751 0
174 -20 2790 2950 90 723 0
175 -20 3283 3443 90 672 0
176 -10 871 1031 90 168 0
177 -20 2316 2476 90 345 0
178 -20 905 1065 90 302 0
179 -10 1622 1782 90 161 0
180 10 169 329 90 0 128
181 20 622 782 90 0 707
182 20 457 617 90 0 204
183 -20 1553 1713 90 239 0
184 -20 767 927 90 361 0
185 -20 1093 1253 90 642 0
186 10 840 1000 90 0 391
187 10 381 541 90 0 225
188 10 1365 1525 90 0 743
189 -10 2094 2254 90 363 0
190 -20 2861 3021 90 597 0
191 30 360 520 90 0 141
192 -10 1536 1696 90 801 0
193 20 492 652 90 0 759
194 20 2070 2230 90 0 296
195 -10 1096 1256 90 368 0
196 30 89 249 90 0 372
197 20 2611 2771 90 0 662
198 20 192 352 90 0 436
199 -30 783 943 90 48 0
200 -20 1093 1253 90 584 0
201 40 1722 1882 90 0 424
202 30 2015 2175 90 0 739
203 30 1349 1509 90 0 411
204 -20 670 830 90 182 0
205 -20 2122 2282 90 601 0
206 -20 3016 3176 90 398 0
207 -10 2288 2448 90 612 0
208 10 1578 1738 90 0 284
209 20 999 1159 90 0 542
210 -10 1386 1546 90 19 0
211 30 1479 1639 90 0 172
212 10 1921 2081 90 0 600
213 20 1068 1228 90 0 689
214 -20 2492 2652 90 36 0
215 -30 291 451 90 409 0
216 10 545 705 90 0 741
217 -20 2092 2252 90 441 0
218 20 178 338 90 0 535
219 -20 2384 2544 90 433 0
220 30 2384 2544 90 0 314
221 10 2450 2610 90 0 580
222 -10 2995 3155 90 60 0
223 30 1973 2133 90 0 781
224 -20 145 305 90 428 0
225 -10 1332 1492 90 187 0
226 20 1898 2058 90 0 493
227 -10 2866 3026 90 89 0
228 20 2029 2189 90 0 756
229 10 229 389 90 0 264
230 10 177 337 90 0 402
231 -20 2542 2702 90 627 0
232 -10 2956 3116 90 395 0
233 -10 3093 3253 90 406 0
234 20 1086 1246 90 0 26
235 20 1610 1770 90 0 755
236 10 101 261 90 0 472
237 20 151 311 90 0 416
238 -20 1219 1379 90 703 0
239 20 879 1039 90 0 183
240 -20 874 1034 90 260 0
241 30 1931 2091 90 0 253
242 20 93 253 90 0 749
243 30 165 325 90 0 283
244 -10 1762 1922 90 9 0
245 10 1415 1575 90 0 102
246 40 960 1120 90 0 700
247 10 854 1014 90 0 108
248 -30 1092 1252 90 52 0
249 20 1390 1550 90 0 767
250 10 2479 2639 90 0 353
251 -20 743 903 90 399 0
252 30 1048 1208 90 0 37
253 -30 2320 2480 90 241 0
254 -10 3245 3405 90 68 0
255 -10 3325 3485 90 132 0
256 10 1514 1674 90 0 346
257 -10 2014 2174 90 544 0
258 10 1707 1867 90 0 337
259 -10 1611 1771 90 617 0
260 20 375 535 90 0 240
261 10 958 1118 90 0 459
262 20 2031 2191 90 0 13
263 10 836 996 90 0 335
264 -10 630 790 90 229 0
265 20 1995 2155 90 0 725
266 20 1009 1169 90 0 773
267 40 1414 1574 90 0 488
268 -20 426 586 90 427 0
269 30 668 828 90 0 563
270 -20 1508 1668 90 116 0
271 30 1028 1188 90 0 127
272 20 597 757 90 0 304
273 10 2480 2640 90 0 152
274 30 1448 1608 90 0 548
275 -20 2661 2821 90 11 0
276 -30 2946 3106 90 47 0
277 -10 2402 2562 90 81 0
278 -10 3349 3509 90 95 0
279 20 2512 2672 0 0 809
280 -40 1902 2062 90 692 0
281 -20 1126 1286 90 775 0
282 -20 2974 3134 90 735 0
283 -30 459 619 90 243 0
284 -10 2844 3004 90 208 0
285 10 229 389 90 0 157
286 20 1265 1425 90 0 111
287 -10 2018 2178 90 55 0
288 -10 2920 3080 90 439 0
289 -20 2498 2658 90 122 0
290 20 3162 3322 90 0 718
291 10 1446 1606 90 0 349
292 30 2420 2580 90 0 778
293 -20 1974 2134 90 540 0
294 -20 2818 2978 90 442 0
295 -10 1254 1414 90 299 0
296 -20 2746 2906 90 194 0
297 20 199 359 90 0 772
298 30 896 1056 90 0 654
299 10 860 1020 90 0 295
300 -20 2944 3104 90 746 0
301 -20 2123 2283 90 311 0
302 20 322 482 90 0 178
303 30 1963 2123 90 0 640
304 -20 1746 1906 90 272 0
305 30 278 438 90 0 771
306 10 2772 2932 90 0 145
307 -20 2541 2701 90 498 0
308 -10 2571 2731 90 408 0
309 -10 2658 2818 90 686 0
310 30 2402 2562 90 0 390
311 20 1833 1993 90 0 301
312 10 1240 1400 90 0 529
313 10 561 721 90 0 454
314 -30 3239 3399 90 220 0
315 10 1222 1382 90 0 130
316 20 470 630 90 0 585
317 -10 3437 3597 90 635 0
318 -10 2361 2521 90 492 0
319 -10 2875 3035 90 762 0
320 10 1689 1849 90 0 681
321 10 2259 2419 90 0 615
322 20 58 218 90 0 451
323 -10 2601 2761 90 547 0
324 -20 1705 1865 90 112 0
325 -10 2188 2348 90 710 0
326 -10 2968 3128 90 131 0
327 20 802 962 90 0 618
328 -30 2624 2784 90 538 0
329 -30 1527 1687 90 125 0
330 -10 1875 2035 90 480 0
331 10 1141 1301 90 0 478
332 10 1078 1238 90 0 685
333 10 2423 2583 90 0 44
334 10 1338 1498 90 0 511
335 -10 1321 1481 90 263 0
336 30 125 285 90 0 494
337 -10 2283 2443 90 258 0
338 10 104 264 90 0 586
339 -10 2890 3050 90 138 0
340 -30 450 610 90 605 0
341 20 2488 2648 90 0 503
342 -10 641 801 90 76 0
343 10 900 1060 90 0 633
344 10 1172 1332 90 0 702
345 20 1715 1875 90 0 177
346 -10 1802 1962 90 256 0
347 20 2617 2777 90 0 688
348 -30 1684 1844 90 110 0
349 -10 2683 2843 90 291 0
350 20 2313 2473 90 0 661
351 -30 2815 2975 90 765 0
352 -40 2096 2256 90 25 0
353 -10 2948 3108 90 250 0
354 -20 3123 3283 90 694 0
355 -20 3091 3251 90 66 0
356 -20 2289 2449 90 745 0
357 10 2569 2729 90 0 129
358 -30 2190 2350 90 636 0
359 10 1736 1896 90 0 400
360 10 1524 1684 90 0 657
361 20 373 533 90 0 184
362 20 1937 2097 90 0 170
363 10 1705 1865 90 0 189
364 -10 3389 3549 90 769 0
365 -20 1646 1806 90 704 0
366 -20 453 613 90 140 0
367 -10 1839 1999 90 763 0
368 10 798 958 90 0 195
369 30 181 341 90 0 473
370 -20 2024 2184 90 464 0
371 -10 1461 1621 90 610 0
372 -30 901 1061 90 196 0
373 10 986 1146 90 0 32
374 20 700 860 90 0 92
375 -20 2119 2279 90 766 0
376 -10 3047 3207 90 477 0
377 10 3092 3252 90 0 592
378 30 2490 2650 90 0 70
379 30 931 1091 90 0 143
380 20 1202 1362 90 0 599
381 -10 1746 1906 90 595 0
382 -10 1774 1934 90 770 0
383 20 276 436 90 0 574
384 -30 2096 2256 90 438 0
385 30 461 621 90 0 404
386 -20 3152 3312 90 499 0
387 30 1973 2133 90 0 407
388 20 1890 2050 90 0 675
389 20 333 493 90 0 149
390 -30 3181 3341 90 310 0
391 -10 1816 1976 90 186 0
392 -20 912 1072 90 135 0
393 -20 3339 3499 90 539 0
394 -30 3285 3445 90 139 0
395 10 1309 1469 90 0 232
396 20 533 693 90 0 447
397 -20 427 587 90 797 0
398 20 2157 2317 90 0 206
399 20 262 422 90 0 251
400 -10 2157 2317 90 359 0
401 10 359 519 90 0 455
402 -10 993 1153 90 230 0
403 10 1805 1965 90 0 780
404 -30 1155 1315 90 385 0
405 20 315 475 90 0 88
406 10 1717 1877 90 0 233
407 -30 2902 3062 90 387 0
408 10 221 381 90 0 308
409 30 64 224 90 0 215
410 20 2645 2805 90 0 680
411 -30 1840 2000 90 203 0
412 -20 551 711 90 593 0
413 20 459 619 90 0 144
414 10 2710 2870 0 0 808
415 -10 2893 3053 90 155 0
416 -20 1053 1213 90 237 0
417 -20 2948 3108 90 53 0
418 20 2631 2791 90 0 83
419 10 2421 2581 90 0 448
420 -30 1933 2093 90 582 0
421 30 182 342 90 0 687
422 20 2716 2876 90 0 714
423 -10 3144 3304 90 693 0
424 -40 2684 2844 90 201 0
425 -10 2518 2678 90 445 0
426 20 396 556 90 0 651
427 20 150 310 90 0 268
428 20 132 292 90 0 224
429 20 1062 1222 90 0 87
430 10 965 1125 90 0 655
431 20 762 922 90 0 35
432 10 2224 2384 90 0 570
433 20 2191 2351 90 0 219
434 20 256 416 90 0 591
435 -20 1619 1779 90 669 0
436 -20 602 762 90 198 0
437 20 116 276 90 0 665
438 30 997 1157 90 0 384
439 10 2310 2470 90 0 288
440 30 777 937 90 0 159
441 20 1067 1227 90 0 217
442 20 2723 2883 90 0 294
443 -20 222 382 90 101 0
444 -10 680 840 90 10 0
445 10 1737 1897 90 0 425
446 -10 1000 1160 90 653 0
447 -20 2059 2219 90 396 0
448 -10 3410 3570 90 419 0
449 10 1330 1490 90 0 50
450 -20 1842 2002 90 39 0
451 -20 2602 2762 90 322 0
452 -10 795 955 90 747 0
453 10 1747 1907 90 0 71
454 -10 766 926 90 313 0
455 -10 932 1092 90 401 0
456 -20 2836 2996 90 630 0
457 20 607 767 90 0 589
458 10 2495 2655 90 0 79
459 -10 3217 3377 90 261 0
460 -20 261 421 90 109 0
461 10 105 265 90 0 748
462 20 1652 1812 90 0 738
463 -10 2677 2837 90 54 0
464 20 145 305 90 0 370
465 -30 2306 2466 90 99 0
466 -20 2776 2936 90 779 0
467 -20 1487 1647 90 17 0
468 10 477 637 90 0 716
469 10 2298 2458 90 0 673
470 -20 2443 2603 90 590 0
471 -30 2388 2548 90 556 0
472 -10 1417 1577 90 236 0
473 -30 572 732 90 369 0
474 -30 3045 3205 90 12 0
475 40 195 355 90 0 789
476 -30 1876 2036 90 524 0
477 10 1388 1548 90 0 376
478 -10 3217 3377 90 331 0
479 10 251 411 90 0 793
480 10 1489 1649 90 0 330
481 30 999 1159 90 0 698
482 20 799 959 90 0 625
483 -20 3046 3206 90 559 0
484 30 2079 2239 90 0 784
485 -20 1544 1704 90 674 0
486 30 249 409 90 0 45
487 -10 2707 2867 90 569 0
488 -40 3066 3226 90 267 0
489 20 568 728 90 0 8
490 -30 1360 1520 90 671 0
491 10 2395 2555 90 0 554
492 10 1161 1321 90 0 318
493 -20 2090 2250 90 226 0
494 -30 2849 3009 90 336 0
495 20 2453 2613 0 0 807
496 -20 2440 2600 90 722 0
497 20 1643 1803 90 0 528
498 20 1165 1325 90 0 307
499 20 662 822 90 0 386
500 -30 1741 1901 90 91 0
501 -10 2325 2485 90 520 0
502 -30 3314 3474 90 679 0
503 -20 2870 3030 90 341 0
504 10 2000 2160 90 0 558
505 -30 578 738 90 709 0
506 10 687 847 90 0 587
507 -30 2989 3149 90 682 0
508 10 552 712 90 0 684
509 -20 604 764 90 3 0
510 -10 1982 2142 90 553 0
511 -10 1915 2075 90 334 0
512 10 2511 2671 90 0 555
513 20 277 437 90 0 795
514 -20 2133 2293 90 134 0
515 -30 482 642 90 564 0
516 20 478 638 90 0 14
517 10 980 1140 90 0 701
518 -10 2853 3013 90 656 0
519 -30 2266 2426 90 664 0
520 10 922 1082 90 0 501
521 -20 982 1142 90 658 0
522 30 2783 2943 0 0 803
523 30 1829 1989 90 0 49
524 30 660 820 90 0 476
525 20 1280 1440 90 0 114
526 10 2287 2447 90 0 596
527 10 945 1105 90 0 750
528 -20 2053 2213 90 497 0
529 -10 1435 1595 90 312 0
530 10 2585 2745 90 0 643
531 -20 2491 2651 90 51 0
532 20 564 724 90 0 154
533 -10 992 1152 90 42 0
534 -30 1990 2150 90 30 0
535 -20 703 863 90 218 0
536 -30 2107 2267 90 56 0
537 -20 2994 3154 90 621 0
538 30 1738 1898 90 0 328
539 20 1961 2121 90 0 393
540 20 1349 1509 90 0 293
541 -10 706 866 90 706 0
542 -20 2666 2826 90 209 0
543 -10 2593 2753 90 133 0
544 10 78 238 90 0 257
545 20 1971 2131 90 0 728
546 -20 1585 1745 90 629 0
547 10 385 545 90 0 323
548 -30 1553 1713 90 274 0
549 20 3278 3438 90 0 677
550 -10 2390 2550 90 5 0
551 -20 2806 2966 90 712 0
552 -30 1130 1290 90 800 0
553 10 1186 1346 90 0 510
554 -10 2970 3130 90 491 0
555 -10 3008 3168 90 512 0
556 30 1992 2152 90 0 471
557 10 765 925 90 0 736
558 -10 2415 2575 90 504 0
559 20 1877 2037 90 0 483
560 -10 2255 2415 90 613 0
561 -10 1779 1939 90 97 0
562 -20 1457 1617 90 783 0
563 -30 1933 2093 90 269 0
564 30 294 454 90 0 515
565 20 2678 2838 90 0 4
566 -10 901 1061 90 740 0
567 -30 363 523 90 623 0
568 -40 1159 1319 90 156 0
569 10 1912 2072 90 0 487
570 -10 2709 2869 90 432 0
571 30 2217 2377 0 0 805
572 -20 1540 1700 90 33 0
573 -20 3419 3579 90 620 0
574 -20 580 740 90 383 0
575 -30 2305 2465 90 607 0
576 20 553 713 0 0 810
577 20 278 438 90 0 650
578 -20 511 671 90 148 0
579 -20 3187 3347 90 98 0
580 -10 2647 2807 90 221 0
581 -30 740 900 90 107 0
582 30 294 454 90 0 420
583 30 1129 1289 90 0 123
584 20 706 866 90 0 200
585 -20 867 1027 90 316 0
586 -10 2701 2861 90 338 0
587 -10 1139 1299 90 506 0
588 20 2190 2350 90 0 153
589 -20 896 1056 90 457 0
590 20 274 434 90 0 470
591 -20 1647 1807 90 434 0
592 -10 3184 3344 90 377 0
593 20 170 330 90 0 412
594 10 1679 1839 90 0 737
595 10 373 533 90 0 381
596 -10 2385 2545 90 526 0
597 20 2475 2635 90 0 190
598 10 2528 2688 0 0 806
599 -20 1295 1455 90 380 0
600 -10 2300 2460 90 212 0
601 20 673 833 90 0 205
602 10 596 756 90 0 637
603 20 481 641 90 0 21
604 30 2029 2189 90 0 46
605 30 164 324 90 0 340
606 -20 1490 1650 90 62 0
607 30 2120 2280 90 0 575
608 20 72 232 90 0 113
609 10 603 763 90 0 742
610 10 1264 1424 90 0 371
611 20 1671 1831 90 0 719
612 10 1878 2038 90 0 207
613 10 1647 1807 90 0 560
614 30 2209 2369 90 0 64
615 -10 2548 2708 90 321 0
616 20 613 773 90 0 165
617 10 1506 1666 90 0 259
618 -20 1187 1347 90 327 0
619 20 258 418 90 0 72
620 20 1525 1685 90 0 573
621 20 2300 2460 90 0 537
622 20 1854 2014 90 0 791
623 30 265 425 90 0 567
624 -20 1880 2040 90 676 0
625 -20 1180 1340 90 482 0
626 -20 1933 2093 90 645 0
627 20 2061 2221 90 0 231
628 -20 1843 2003 90 663 0
629 20 849 1009 90 0 546
630 20 473 633 90 0 456
631 -20 1125 1285 90 117 0
632 20 104 264 90 0 713
633 -10 2823 2983 90 343 0
634 -30 2457 2617 90 105 0
635 10 3056 3216 90 0 317
636 30 962 1122 90 0 358
637 -10 691 851 90 602 0
638 -10 360 520 90 721 0
639 30 171 331 90 0 776
640 -30 2353 2513 90 303 0
641 -20 2697 2857 90 124 0
642 20 698 858 90 0 185
643 -10 2801 2961 90 530 0
644 40 1286 1446 90 0 171
645 20 1254 1414 90 0 626
646 20 2849 3009 90 0 667
647 20 341 501 90 0 792
648 30 1233 1393 90 0 666
649 -20 1826 1986 90 699 0
650 -20 665 825 90 577 0
651 -20 2728 2888 90 426 0
652 -10 2158 2318 90 147 0
653 10 3 163 90 0 446
654 -30 1273 1433 90 298 0
655 -10 2562 2722 90 430 0
656 10 2757 2917 90 0 518
657 -10 2585 2745 90 360 0
658 20 178 338 90 0 521
659 50 2991 3151 0 0 811
660 10 2071 2231 90 0 121
661 -20 3351 3511 90 350 0
662 -20 3383 3543 90 197 0
663 20 1744 1904 90 0 628
664 30 1255 1415 90 0 519
665 -20 137 297 90 437 0
666 -30 1920 2080 90 648 0
667 -20 3049 3209 90 646 0
668 30 794 954 90 0 31
669 20 1318 1478 90 0 435
670 30 742 902 90 0 785
671 30 392 552 90 0 490
672 20 2693 2853 90 0 175
673 -10 2583 2743 90 469 0
674 20 1446 1606 90 0 485
675 -20 2664 2824 90 388 0
676 20 1592 1752 90 0 624
677 -20 3476 3636 90 549 0
678 10 2686 2846 90 0 752
679 30 3124 3284 90 0 502
680 -20 2939 3099 90 410 0
681 -10 2092 2252 90 320 0
682 30 2897 3057 90 0 507
683 -20 2583 2743 90 22 0
684 -10 1783 1943 90 508 0
685 -10 2748 2908 90 332 0
686 10 723 883 90 0 309
687 -30 1818 1978 90 421 0
688 -20 2906 3066 90 347 0
689 -20 2744 2904 90 213 0
690 20 548 708 90 0 104
691 30 2189 2349 0 0 802
692 40 646 806 90 0 280
693 10 613 773 90 0 423
694 20 1052 1212 90 0 354
695 -20 1555 1715 90 100 0
696 30 1304 1464 90 0 59
697 30 2696 2856 90 0 78
698 -30 1679 1839 90 481 0
699 20 1305 1465 90 0 649
700 -40 3453 3613 90 246 0
701 -10 1397 1557 90 517 0
702 -10 1446 1606 90 344 0
703 20 456 616 90 0 238
704 20 1034 1194 90 0 365
705 -10 2224 2384 90 727 0
706 10 101 261 90 0 541
707 -20 2397 2557 90 181 0
708 20 2348 2508 90 0 142
709 30 390 550 90 0 505
710 10 1505 1665 90 0 325
711 -20 2774 2934 90 119 0
712 20 368 528 90 0 551
713 -20 795 955 90 632 0
714 -20 2918 3078 90 422 0
715 10 137 297 90 0 167
716 -10 1289 1449 90 468 0
717 -30 3261 3421 90 774 0
718 -20 3253 3413 90 290 0
719 -20 2959 3119 90 611 0
720 -10 2990 3150 90 96 0
721 10 75 235 90 0 638
722 20 2257 2417 90 0 496
723 20 771 931 90 0 174
724 20 1633 1793 90 0 730
725 -20 3146 3306 90 265 0
726 -30 1613 1773 90 63 0
727 10 418 578 90 0 705
728 -20 2533 2693 90 545 0
729 30 1616 1776 90 0 67
730 -20 2805 2965 90 724 0
731 20 291 451 90 0 162
732 -20 1341 1501 90 799 0
733 -20 2332 2492 90 760 0
734 10 667 827 90 0 29
735 20 2296 2456 90 0 282
736 -10 1059 1219 90 557 0
737 -10 3285 3445 90 594 0
738 -20 2040 2200 90 462 0
739 -30 3376 3536 90 202 0
740 10 808 968 90 0 566
741 -10 841 1001 90 216 0
742 -10 3065 3225 90 609 0
743 -10 1652 1812 90 188 0
744 10 1812 1972 90 0 788
745 20 319 479 90 0 356
746 20 2357 2517 90 0 300
747 10 198 358 90 0 452
748 -10 1438 1598 90 461 0
749 -20 353 513 90 242 0
750 -10 1715 1875 90 527 0
751 10 1053 1213 90 0 173
752 -10 3283 3443 90 678 0
753 10 1910 2070 90 0 24
754 -20 355 515 90 164 0
755 -20 2764 2924 90 235 0
756 -20 2122 2282 90 228 0
757 -20 1492 1652 90 38 0
758 -20 3181 3341 90 158 0
759 -20 1588 1748 90 193 0
760 20 1559 1719 90 0 733
761 10 136 296 90 0 20
762 10 2117 2277 90 0 319
763 10 1173 1333 90 0 367
764 -20 2603 2763 90 137 0
765 30 2609 2769 90 0 351
766 20 1536 1696 90 0 375
767 -20 2170 2330 90 249 0
768 10 2681 2841 0 0 804
769 10 1166 1326 90 0 364
770 10 418 578 90 0 382
771 -30 1837 1997 90 305 0
772 -20 1459 1619 90 297 0
773 -20 3154 3314 90 266 0
774 30 1186 1346 90 0 717
775 20 934 1094 90 0 281
776 -30 1548 1708 90 639 0
777 20 513 673 90 0 75
778 -30 3249 3409 90 292 0
779 20 2202 2362 90 0 466
780 -10 1899 2059 90 403 0
781 -30 2263 2423 90 223 0
782 -30 2892 3052 90 150 0
783 20 877 1037 90 0 562
784 -30 2286 2446 90 484 0
785 -30 2312 2472 90 670 0
786 10 1410 1570 90 0 27
787 20 140 300 90 0 18
788 -10 2217 2377 90 744 0
789 -40 387 547 90 475 0
790 -10 1736 1896 90 798 0
791 -20 2379 2539 90 622 0
792 -20 2211 2371 90 647 0
793 -10 362 522 90 479 0
794 -10 1816 1976 90 169 0
795 -20 475 635 90 513 0
796 -10 3095 3255 90 103 0
797 20 116 276 90 0 397
798 10 889 1049 90 0 790
799 20 669 829 90 0 732
800 30 935 1095 90 0 552
801 10 78 238 90 0 192
802 -30 2189 2349 90 691 0
803 -30 2783 2943 90 522 0
804 -10 2681 2841 90 768 0
805 -30 2217 2377 90 571 0
806 -10 2528 2688 90 598 0
807 -20 2453 2613 90 495 0
808 -10 2710 2870 90 414 0
809 -20 2512 2672 90 279 0
810 -20 553 713 90 576 0
811 -50 2991 3151 90 659 0
DEPOT_SECTION
1
-1
EOF
