NAME: lr1_8_7
TYPE: PDPTW
COMMENT: Li & Lim PDPTW benchmark converted from SINTEF format
DIMENSION: 833
VEHICLES: 200
CAPACITY: 200
EDGE_WEIGHT_TYPE: EUC_2D
NODE_COORD_SECTION
1 200 200
2 321 287
3 123 176
4 234 20
5 256 385
6 108 399
7 303 258
8 148 94
9 35 238
10 356 223
11 349 324
12 29 9
13 21 82
14 146 320
15 337 81
16 160 313
17 237 243
18 343 134
19 13 59
20 123 30
21 156 32
22 361 194
23 330 310
24 326 335
25 209 283
26 267 221
27 57 124
28 280 5
29 92 238
30 51 205
31 369 6
32 131 89
33 359 157
34 195 148
35 239 252
36 328 8
37 162 316
38 184 233
39 29 86
40 340 276
41 129 53
42 332 124
43 55 115
44 393 246
45 348 319
46 361 287
47 16 114
48 353 65
49 73 126
50 91 61
51 117 148
52 60 319
53 244 50
54 79 95
55 255 80
56 319 115
57 35 160
58 358 309
59 232 131
60 161 124
61 85 128
62 211 153
63 152 361
64 327 115
65 151 231
66 210 294
67 264 341
68 309 53
69 108 75
70 303 358
71 33 226
72 378 118
73 26 70
74 45 291
75 329 208
76 30 39
77 78 85
78 4 307
79 151 188
80 14 53
81 125 182
82 232 127
83 368 63
84 280 224
85 348 102
86 319 160
87 116 102
88 192 268
89 220 337
90 264 69
91 142 238
92 231 229
93 81 290
94 290 82
95 207 185
96 21 255
97 353 357
98 324 184
99 305 255
100 381 27
101 137 132
102 147 376
103 312 247
104 163 270
105 384 307
106 375 294
107 274 247
108 225 53
109 292 392
110 267 321
111 228 96
112 334 186
113 339 3
114 158 85
115 75 238
116 213 216
117 122 105
118 303 112
119 307 396
120 13 220
121 299 227
122 230 234
123 299 399
124 366 340
125 46 197
126 97 387
127 234 7
128 327 11
129 348 189
130 266 234
131 184 69
132 158 121
133 206 7
134 260 352
135 184 235
136 202 6
137 325 311
138 143 159
139 259 285
140 366 97
141 87 147
142 48 304
143 76 72
144 1 335
145 157 220
146 400 373
147 123 159
148 377 144
149 200 144
150 52 94
151 140 344
152 390 376
153 206 286
154 208 86
155 384 294
156 315 237
157 392 14
158 269 203
159 248 286
160 168 15
161 391 42
162 92 384
163 344 154
164 59 51
165 100 10
166 250 340
167 84 293
168 66 118
169 98 107
170 103 154
171 243 287
172 362 383
173 70 81
174 230 266
175 148 71
176 6 62
177 165 335
178 313 64
179 80 282
180 73 124
181 59 89
182 279 337
183 330 353
184 201 195
185 125 175
186 52 251
187 52 301
188 192 200
189 136 373
190 357 202
191 203 40
192 36 288
193 348 343
194 359 42
195 248 124
196 218 134
197 142 385
198 299 270
199 40 314
200 66 5
201 248 126
202 54 341
203 101 99
204 355 41
205 186 179
206 55 346
207 282 252
208 377 72
209 135 161
210 85 61
211 19 61
212 279 262
213 87 164
214 80 392
215 384 72
216 234 73
217 68 250
218 192 151
219 47 190
220 193 390
221 184 282
222 310 363
223 86 112
224 223 41
225 165 126
226 178 103
227 285 184
228 26 326
229 8 68
230 2 52
231 361 236
232 287 279
233 199 45
234 384 248
235 397 283
236 326 79
237 217 211
238 364 213
239 124 179
240 168 223
241 341 78
242 166 357
243 73 292
244 160 62
245 190 27
246 340 290
247 180 15
248 147 210
249 102 42
250 8 363
251 250 183
252 193 18
253 287 343
254 17 348
255 96 22
256 46 102
257 371 396
258 365 303
259 196 129
260 278 265
261 367 300
262 226 52
263 37 397
264 40 31
265 332 216
266 96 209
267 179 175
268 195 121
269 251 70
270 285 287
271 2 17
272 362 399
273 88 372
274 231 6
275 194 121
276 350 207
277 302 274
278 241 275
279 350 131
280 175 192
281 397 261
282 32 163
283 205 372
284 75 89
285 397 362
286 370 57
287 316 327
288 177 139
289 317 68
290 50 315
291 102 324
292 236 38
293 79 344
294 10 202
295 74 283
296 72 315
297 197 200
298 395 340
299 166 115
300 362 115
301 84 206
302 126 208
303 179 125
304 78 261
305 279 91
306 16 294
307 368 215
308 5 345
309 369 118
310 172 109
311 208 20
312 9 47
313 358 261
314 376 19
315 159 164
316 176 154
317 8 119
318 308 217
319 308 178
320 117 395
321 251 381
322 210 1
323 30 349
324 309 279
325 133 375
326 381 12
327 103 95
328 17 99
329 377 29
330 237 259
331 49 222
332 296 156
333 153 224
334 382 169
335 371 349
336 265 127
337 159 11
338 354 199
339 244 285
340 220 238
341 285 107
342 337 248
343 377 282
344 310 340
345 74 213
346 309 18
347 304 319
348 44 277
349 378 30
350 160 222
351 381 375
352 209 208
353 285 136
354 194 65
355 13 322
356 91 388
357 107 159
358 110 241
359 92 68
360 291 398
361 200 48
362 267 295
363 191 167
364 393 256
365 308 314
366 371 111
367 300 64
368 108 395
369 338 315
370 343 335
371 349 249
372 294 184
373 347 59
374 12 368
375 119 286
376 105 254
377 194 166
378 309 274
379 304 395
380 326 374
381 277 143
382 338 290
383 98 375
384 286 308
385 145 301
386 2 3
387 110 351
388 74 351
389 201 255
390 11 328
391 95 391
392 161 346
393 338 5
394 376 205
395 300 319
396 170 114
397 273 118
398 97 105
399 168 87
400 206 106
401 93 31
402 37 21
403 162 94
404 96 162
405 66 144
406 52 194
407 395 167
408 384 53
409 237 200
410 162 121
411 138 306
412 345 195
413 68 143
414 56 292
415 303 142
416 40 153
417 338 14
418 368 278
419 68 386
420 369 171
421 201 6
422 5 266
423 311 344
424 131 275
425 247 377
426 174 326
427 6 20
428 353 3
429 352 383
430 23 317
431 221 225
432 278 289
433 380 390
434 175 304
435 348 41
436 26 275
437 306 85
438 357 147
439 188 67
440 166 185
441 90 311
442 26 199
443 342 154
444 357 38
445 154 41
446 26 247
447 215 260
448 391 260
449 244 135
450 236 44
451 142 379
452 157 378
453 120 170
454 94 165
455 356 299
456 78 194
457 162 251
458 196 51
459 146 324
460 340 79
461 273 182
462 311 356
463 213 332
464 289 234
465 166 19
466 274 7
467 174 329
468 243 140
469 82 78
470 41 183
471 325 45
472 65 335
473 226 378
474 44 296
475 103 361
476 169 235
477 41 337
478 388 106
479 350 214
480 325 130
481 339 69
482 279 247
483 236 119
484 170 176
485 246 247
486 388 275
487 286 44
488 100 218
489 336 386
490 186 75
491 76 90
492 52 343
493 362 378
494 138 143
495 169 352
496 352 303
497 343 359
498 92 255
499 338 150
500 125 122
501 58 98
502 308 327
503 74 231
504 330 76
505 165 264
506 214 119
507 94 268
508 11 274
509 54 108
510 68 215
511 334 100
512 256 356
513 115 51
514 391 136
515 387 267
516 106 302
517 398 325
518 74 87
519 294 118
520 142 262
521 380 145
522 364 55
523 379 126
524 12 40
525 177 77
526 185 180
527 382 49
528 314 257
529 271 116
530 336 201
531 341 33
532 344 321
533 276 298
534 371 386
535 319 113
536 362 207
537 146 301
538 146 174
539 247 212
540 356 315
541 43 67
542 163 207
543 32 78
544 55 341
545 117 381
546 39 34
547 277 163
548 397 133
549 180 359
550 266 13
551 48 358
552 87 378
553 41 93
554 173 384
555 320 211
556 291 304
557 108 48
558 102 84
559 138 326
560 244 176
561 287 225
562 324 194
563 400 109
564 136 226
565 5 344
566 374 175
567 122 397
568 310 163
569 24 57
570 77 319
571 398 258
572 111 4
573 70 231
574 389 171
575 212 197
576 246 298
577 299 351
578 305 257
579 153 222
580 343 184
581 42 197
582 131 82
583 41 340
584 85 256
585 196 77
586 156 4
587 202 158
588 372 382
589 234 214
590 67 318
591 57 381
592 118 122
593 178 353
594 114 88
595 51 64
596 73 4
597 196 107
598 343 322
599 297 240
600 262 212
601 279 148
602 316 112
603 231 182
604 183 71
605 257 98
606 326 156
607 48 278
608 113 80
609 323 218
610 126 90
611 238 119
612 334 92
613 228 341
614 294 249
615 384 64
616 233 100
617 15 4
618 294 13
619 381 144
620 193 216
621 68 378
622 102 377
623 220 71
624 338 106
625 262 30
626 394 299
627 63 166
628 38 366
629 45 85
630 116 195
631 390 357
632 328 39
633 171 168
634 246 47
635 4 280
636 256 145
637 153 315
638 8 285
639 351 199
640 111 286
641 34 371
642 230 139
643 59 285
644 93 283
645 317 240
646 49 187
647 374 163
648 134 320
649 262 390
650 26 260
651 80 365
652 246 244
653 192 291
654 173 72
655 364 23
656 31 360
657 321 144
658 296 388
659 268 223
660 107 98
661 32 229
662 140 387
663 302 300
664 56 97
665 359 389
666 320 373
667 140 131
668 102 118
669 330 313
670 344 72
671 37 106
672 316 383
673 75 76
674 262 233
675 320 166
676 36 286
677 236 171
678 177 55
679 91 233
680 244 56
681 317 183
682 192 332
683 299 308
684 350 18
685 196 138
686 110 290
687 297 137
688 35 79
689 335 202
690 85 333
691 18 294
692 320 24
693 159 79
694 13 167
695 322 281
696 150 49
697 26 372
698 168 100
699 236 260
700 50 385
701 199 22
702 143 20
703 352 156
704 220 38
705 213 280
706 384 47
707 101 8
708 3 2
709 396 106
710 124 221
711 84 221
712 92 73
713 369 211
714 186 355
715 3 15
716 46 110
717 349 181
718 102 252
719 154 68
720 325 294
721 381 290
722 302 345
723 36 203
724 81 156
725 100 15
726 209 167
727 69 82
728 163 264
729 186 145
730 140 40
731 40 336
732 231 76
733 380 126
734 16 311
735 395 113
736 253 316
737 238 124
738 240 201
739 380 339
740 271 371
741 155 159
742 53 51
743 2 200
744 164 80
745 194 43
746 43 121
747 2 29
748 397 73
749 7 143
750 37 119
751 367 361
752 137 68
753 102 149
754 306 361
755 135 384
756 105 360
757 187 23
758 56 156
759 217 98
760 229 371
761 399 179
762 379 254
763 193 29
764 88 121
765 344 236
766 145 165
767 11 135
768 300 272
769 348 371
770 266 8
771 349 135
772 359 31
773 59 49
774 0 155
775 18 235
776 177 174
777 213 305
778 201 242
779 41 399
780 4 60
781 321 85
782 254 0
783 229 105
784 243 215
785 231 36
786 278 221
787 243 209
788 168 268
789 284 311
790 231 320
791 219 49
792 234 37
793 259 4
794 8 384
795 243 275
796 13 96
797 246 152
798 38 291
799 18 102
800 163 364
801 292 33
802 8 68
803 74 283
804 231 76
805 395 340
806 82 78
807 330 76
808 17 99
809 157 378
810 230 266
811 4 307
812 379 126
813 163 207
814 66 118
815 214 119
816 161 346
817 250 340
818 59 285
819 190 27
820 296 156
821 356 315
822 78 85
823 193 216
824 123 159
825 319 113
826 377 29
827 103 95
828 336 386
829 255 80
830 160 313
831 74 231
832 232 131
833 80 365
PICKUP_AND_DELIVERY_SECTION
1 0 0 1688 0 0 0
2 -20 591 621 10 659 0
3 -18 1170 1200 10 79 0
4 -8 0 1495 10 625 0
5 5 0 1485 10 0 649
6 23 219 249 10 0 368
7 -19 0 1560 10 313 0
8 -15 838 868 10 693 0
9 32 191 221 10 0 446
10 28 0 1521 10 0 281
11 33 538 568 10 0 455
12 -18 0 1422 10 617 0
13 26 0 1464 10 0 491
14 22 0 1547 10 0 91
15 22 713 743 10 0 353
16 8 859 889 0 0 830
17 9 0 1622 10 0 683
18 -28 1009 1039 10 771 0
19 -29 0 1444 10 780 0
20 -12 0 1492 10 572 0
21 -25 0 1505 10 586 0
22 -1 0 1517 10 112 0
23 -9 0 1508 10 369 0
24 11 0 1494 10 0 497
25 24 617 647 10 0 738
26 -8 587 617 10 614 0
27 -29 161 191 10 405 0
28 9 0 1468 10 0 154
29 -16 1214 1244 10 436 0
30 26 0 1529 10 0 302
31 -13 0 1421 10 408 0
32 26 140 170 10 0 41
33 5 0 1514 10 0 415
34 -19 1326 1356 10 224 0
35 -22 1332 1362 10 107 0
36 36 0 1448 10 0 417
37 -3 0 1556 10 554 0
38 -41 0 1642 10 520 0
39 -14 570 600 10 164 0
40 -2 868 898 10 106 0
41 -26 751 781 10 32 0
42 22 334 364 10 0 677
43 8 0 1510 10 0 141
44 14 508 538 10 0 448
45 29 0 1489 10 0 58
46 -5 256 286 10 371 0
47 26 723 753 10 0 746
48 24 0 1474 10 0 208
49 -16 419 449 10 413 0
50 -18 1472 1502 10 513 0
51 14 97 127 10 0 416
52 29 255 285 10 0 290
53 -19 0 1522 10 458 0
54 22 1226 1256 10 0 223
55 11 520 550 0 0 829
56 16 0 1532 10 0 366
57 13 1017 1047 10 0 627
58 -29 856 886 10 45 0
59 20 0 1602 0 0 832
60 17 0 1593 10 0 399
61 18 0 1543 10 0 764
62 -17 56 86 10 726 0
63 18 0 1510 10 0 102
64 -34 303 333 10 397 0
65 10 79 109 10 0 187
66 -7 0 1584 10 760 0
67 9 0 1524 10 0 340
68 -5 327 357 10 797 0
69 -2 0 1523 10 267 0
70 37 0 1490 10 0 666
71 -29 1192 1222 10 96 0
72 12 0 1483 10 0 748
73 3 921 951 10 0 518
74 -26 0 1499 10 583 0
75 -16 1317 1347 10 276 0
76 -23 368 398 10 673 0
77 21 741 771 0 0 822
78 14 0 1455 0 0 811
79 18 50 80 10 0 3
80 -5 0 1441 10 312 0
81 24 0 1601 10 0 776
82 13 0 1599 10 0 128
83 -11 0 1462 10 632 0
84 -12 0 1595 10 318 0
85 26 0 1501 10 0 334
86 26 168 198 10 0 568
87 -17 0 1549 10 169 0
88 -21 0 1610 10 718 0
89 -31 0 1540 10 682 0
90 -8 0 1533 10 605 0
91 -22 1177 1207 10 14 0
92 -16 0 1636 10 431 0
93 -13 401 431 10 644 0
94 -23 898 928 10 201 0
95 -22 0 1662 10 305 0
96 29 761 791 10 0 71
97 20 0 1459 10 0 588
98 -29 0 1553 10 681 0
99 11 0 1560 10 0 609
100 27 463 493 10 0 157
101 20 216 246 10 0 315
102 -18 193 223 10 63 0
103 14 0 1557 10 0 207
104 -23 0 1599 10 291 0
105 -10 0 1466 10 739 0
106 2 603 633 10 0 40
107 22 944 974 10 0 35
108 -16 1082 1112 10 354 0
109 18 661 691 10 0 740
110 -11 633 663 10 122 0
111 37 0 1571 10 0 280
112 1 0 1544 10 0 22
113 8 803 833 10 0 655
114 -20 933 963 10 719 0
115 13 0 1548 10 0 710
116 -14 0 1658 10 577 0
117 7 0 1556 10 0 249
118 -13 873 903 10 519 0
119 -17 0 1455 10 493 0
120 -26 1065 1095 10 581 0
121 -33 0 1576 10 156 0
122 11 0 1633 10 0 110
123 -18 0 1456 10 379 0
124 23 715 745 10 0 258
125 -33 0 1524 10 357 0
126 -16 0 1465 10 419 0
127 -26 1116 1146 10 793 0
128 -13 590 620 10 82 0
129 17 0 1530 10 0 547
130 7 0 1604 10 0 669
131 1 503 533 10 0 136
132 -24 1105 1135 10 594 0
133 -20 0 1485 10 701 0
134 13 0 1515 10 0 795
135 -8 0 1640 10 426 0
136 -1 636 666 10 131 0
137 15 613 643 10 0 260
138 16 0 1608 10 0 494
139 14 0 1575 10 0 330
140 -12 0 1483 10 381 0
141 -8 0 1554 10 43 0
142 -23 0 1494 10 656 0
143 -9 1010 1040 10 180 0
144 -14 0 1438 10 308 0
145 -18 0 1631 10 350 0
146 -12 0 1414 10 193 0
147 30 1315 1345 0 0 824
148 23 467 497 10 0 619
149 12 81 111 10 0 791
150 -24 0 1496 10 181 0
151 -21 1288 1318 10 325 0
152 2 0 1420 10 0 285
153 -29 0 1592 10 705 0
154 -9 958 988 10 28 0
155 20 0 1472 10 0 486
156 33 520 550 10 0 121
157 -27 0 1411 10 100 0
158 -8 375 405 10 352 0
159 35 0 1580 10 0 789
160 -13 0 1491 10 310 0
161 44 0 1431 10 0 314
162 -3 0 1465 10 653 0
163 30 0 1527 10 0 461
164 14 206 236 10 0 39
165 27 0 1464 10 0 244
166 21 0 1530 0 0 817
167 11 556 586 10 0 375
168 27 0 1521 0 0 814
169 17 934 964 10 0 87
170 -13 0 1571 10 766 0
171 8 137 167 10 0 278
172 21 256 286 10 0 272
173 -18 0 1502 10 742 0
174 14 0 1606 0 0 810
175 8 0 1539 10 0 582
176 23 0 1440 10 0 569
177 -30 0 1539 10 467 0
178 29 0 1502 10 0 706
179 10 0 1533 10 0 206
180 9 553 583 10 0 143
181 24 0 1499 10 0 150
182 5 603 633 10 0 512
183 9 1186 1216 10 0 395
184 -29 0 1673 10 698 0
185 20 162 192 10 0 456
186 -19 0 1522 10 355 0
187 -10 0 1499 10 65 0
188 22 8 38 10 0 409
189 33 614 644 10 0 495
190 5 0 1521 10 0 394
191 11 0 1518 10 0 745
192 -32 0 1492 10 304 0
193 12 0 1473 10 0 146
194 10 0 1454 10 0 204
195 -8 664 694 10 449 0
196 -12 1275 1305 10 450 0
197 16 0 1485 10 0 790
198 24 0 1557 10 0 695
199 -7 0 1482 10 565 0
200 3 1135 1165 10 0 596
201 23 0 1590 10 0 94
202 -8 308 338 10 243 0
203 12 0 1537 10 0 660
204 -10 839 869 10 194 0
205 -22 0 1653 10 301 0
206 -10 443 473 10 179 0
207 -14 868 898 10 103 0
208 -24 0 1460 10 48 0
209 15 0 1603 10 0 470
210 20 180 210 10 0 725
211 -11 0 1450 10 230 0
212 19 100 130 10 0 277
213 11 662 692 10 0 500
214 16 535 565 10 0 662
215 -18 0 1454 10 709 0
216 -26 0 1547 10 737 0
217 -9 564 594 10 348 0
218 22 584 614 10 0 642
219 -12 631 661 10 753 0
220 21 0 1488 10 0 473
221 19 83 113 10 0 640
222 -23 1059 1089 10 365 0
223 -22 0 1534 10 54 0
224 19 551 581 10 0 34
225 -4 0 1597 10 303 0
226 -22 0 1579 10 445 0
227 9 0 1592 10 0 675
228 -12 0 1464 10 390 0
229 29 0 1446 0 0 802
230 11 0 1431 10 0 211
231 13 164 194 10 0 235
232 -17 0 1561 10 663 0
233 26 790 820 10 0 704
234 35 0 1488 10 0 364
235 -13 412 442 10 231 0
236 29 806 836 10 0 615
237 -19 1180 1210 10 480 0
238 11 578 608 10 0 717
239 -1 718 748 10 410 0
240 19 0 1639 10 0 579
241 16 0 1492 10 0 460
242 -21 1213 1243 10 800 0
243 8 175 205 10 0 202
244 -27 0 1535 10 165 0
245 10 0 1505 0 0 819
246 39 0 1512 10 0 324
247 7 875 905 10 0 757
248 23 53 83 10 0 358
249 -7 0 1493 10 117 0
250 -22 0 1427 10 591 0
251 -4 0 1626 10 639 0
252 22 0 1496 10 0 763
253 -19 720 750 10 432 0
254 22 438 468 10 0 731
255 -19 816 846 10 608 0
256 25 0 1496 10 0 749
257 5 601 631 10 0 433
258 -23 902 932 10 124 0
259 22 766 796 10 0 587
260 -15 0 1577 10 137 0
261 16 0 1484 10 0 343
262 17 0 1528 10 0 680
263 -3 825 855 10 686 0
264 9 0 1446 10 0 546
265 12 447 477 10 0 580
266 -25 0 1574 10 679 0
267 2 32 62 10 0 69
268 -22 871 901 10 623 0
269 24 458 488 10 0 611
270 -9 0 1557 10 462 0
271 11 269 299 10 0 708
272 -21 0 1422 10 172 0
273 14 354 384 10 0 559
274 -21 0 1482 10 466 0
275 21 1272 1302 10 0 729
276 16 378 408 10 0 75
277 -19 0 1552 10 212 0
278 -8 696 726 10 171 0
279 12 0 1513 10 0 478
280 -37 924 954 10 111 0
281 -28 0 1472 10 10 0
282 9 0 1506 10 0 668
283 2 0 1506 10 0 425
284 18 826 856 10 0 727
285 -2 0 1423 10 152 0
286 10 0 1456 10 0 560
287 -22 763 793 10 751 0
288 -15 1580 1610 10 316 0
289 -15 1160 1190 10 326 0
290 -29 0 1489 10 52 0
291 23 0 1520 10 0 104
292 -34 0 1513 10 785 0
293 16 0 1490 10 0 516
294 -9 0 1488 10 406 0
295 5 0 1528 0 0 803
296 -12 681 711 10 441 0
297 15 3 33 10 0 714
298 24 240 270 0 0 805
299 -11 1249 1279 10 403 0
300 -18 0 1496 10 687 0
301 22 577 607 10 0 205
302 -26 0 1604 10 30 0
303 4 77 107 10 0 225
304 32 136 166 10 0 192
305 22 1308 1338 10 0 95
306 21 0 1472 10 0 691
307 -6 727 757 10 555 0
308 14 0 1435 10 0 144
309 -31 1052 1082 10 733 0
310 13 0 1583 10 0 160
311 -20 0 1498 10 361 0
312 5 0 1434 10 0 80
313 19 750 780 10 0 7
314 -44 1281 1311 10 161 0
315 -20 0 1624 10 101 0
316 15 51 81 10 0 288
317 -18 0 1470 10 799 0
318 12 0 1569 10 0 84
319 -6 0 1568 10 703 0
320 13 0 1467 10 0 549
321 17 268 298 10 0 360
322 -25 0 1479 10 421 0
323 -32 678 708 10 388 0
324 -39 0 1544 10 246 0
325 21 0 1491 10 0 151
326 15 591 621 10 0 289
327 26 0 1536 0 0 827
328 1 1006 1036 0 0 808
329 22 0 1432 0 0 826
330 -14 1174 1204 10 139 0
331 -26 1127 1157 10 442 0
332 17 0 1573 0 0 820
333 15 0 1626 10 0 476
334 -26 658 688 10 85 0
335 -21 263 293 10 598 0
336 35 97 127 10 0 601
337 7 1188 1218 10 0 678
338 27 0 1524 10 0 713
339 -4 1318 1348 10 754 0
340 -9 0 1636 10 67 0
341 -23 0 1553 10 373 0
342 -27 477 507 10 786 0
343 -16 0 1483 10 261 0
344 11 178 208 10 0 722
345 33 435 465 10 0 526
346 26 396 426 10 0 618
347 14 861 891 10 0 556
348 9 534 564 10 0 217
349 35 0 1432 10 0 529
350 18 0 1633 10 0 145
351 -23 0 1427 10 534 0
352 8 12 42 10 0 158
353 -22 1089 1119 10 15 0
354 16 386 416 10 0 108
355 19 368 398 10 0 186
356 -10 0 1461 10 621 0
357 33 0 1577 10 0 125
358 -23 98 128 10 248 0
359 -31 0 1508 10 610 0
360 -17 531 561 10 321 0
361 20 0 1526 10 0 311
362 20 0 1562 10 0 502
363 17 952 982 10 0 377
364 -35 389 419 10 234 0
365 23 0 1521 10 0 222
366 -16 249 279 10 56 0
367 35 0 1510 10 0 550
368 -23 0 1463 10 6 0
369 9 952 982 10 0 23
370 18 0 1482 10 0 769
371 5 0 1522 10 0 46
372 -3 1073 1103 10 574 0
373 23 0 1475 10 0 341
374 12 771 801 10 0 794
375 -11 829 859 10 167 0
376 -21 409 439 10 457 0
377 -17 0 1644 10 363 0
378 23 341 371 10 0 720
379 18 0 1457 10 0 123
380 17 578 608 10 0 423
381 12 644 674 10 0 140
382 12 650 680 10 0 674
383 29 202 232 10 0 756
384 -19 627 657 10 576 0
385 8 115 145 10 0 552
386 -27 794 824 10 427 0
387 21 175 205 10 0 544
388 32 0 1482 10 0 323
389 16 0 1623 10 0 784
390 12 0 1450 10 0 228
391 5 473 503 10 0 613
392 7 1056 1086 0 0 816
393 -28 1017 1047 10 692 0
394 -5 0 1502 10 190 0
395 -9 0 1523 10 183 0
396 -26 637 667 10 783 0
397 34 0 1569 10 0 64
398 -5 944 974 10 454 0
399 -17 917 947 10 60 0
400 -18 0 1584 10 685 0
401 21 658 688 10 0 557
402 -28 0 1436 10 747 0
403 11 0 1566 10 0 299
404 15 0 1568 10 0 724
405 29 145 175 10 0 27
406 9 0 1530 10 0 294
407 24 0 1481 10 0 761
408 13 950 980 10 0 31
409 -22 0 1641 10 188 0
410 1 0 1591 10 0 239
411 1 864 894 10 0 788
412 9 0 1533 10 0 420
413 16 0 1535 10 0 49
414 -18 506 536 10 474 0
415 -5 1077 1107 10 33 0
416 -14 0 1512 10 51 0
417 -36 0 1447 10 36 0
418 20 241 271 10 0 482
419 16 309 339 10 0 126
420 -9 0 1507 10 412 0
421 25 585 615 10 0 322
422 -24 368 398 10 775 0
423 -17 0 1497 10 380 0
424 30 0 1577 10 0 778
425 -2 1215 1245 10 283 0
426 8 955 985 10 0 135
427 27 0 1414 10 0 386
428 -9 0 1429 10 735 0
429 16 798 828 10 0 665
430 -14 0 1466 10 697 0
431 16 32 62 10 0 92
432 19 118 148 10 0 253
433 -5 0 1417 10 257 0
434 24 106 136 10 0 648
435 -11 0 1461 10 772 0
436 16 1132 1162 10 0 29
437 21 0 1522 10 0 531
438 -18 0 1513 10 566 0
439 -25 0 1545 10 744 0
440 17 37 67 10 0 741
441 12 669 699 10 0 296
442 26 0 1504 10 0 331
443 25 0 1529 10 0 657
444 -20 1104 1134 10 684 0
445 22 1286 1316 10 0 226
446 -32 388 418 10 9 0
447 9 61 91 10 0 533
448 -14 604 634 10 44 0
449 8 672 702 10 0 195
450 12 774 804 10 0 196
451 11 0 1490 10 0 755
452 22 0 1495 0 0 809
453 24 457 487 10 0 758
454 5 649 679 10 0 398
455 -33 1051 1081 10 11 0
456 -20 938 968 10 185 0
457 21 63 93 10 0 376
458 19 0 1529 10 0 53
459 -25 1412 1442 10 475 0
460 -16 670 700 10 241 0
461 -30 850 880 10 163 0
462 9 191 221 10 0 270
463 21 0 1546 10 0 777
464 33 95 125 10 0 600
465 -15 1199 1229 10 702 0
466 21 329 359 10 0 274
467 30 0 1547 10 0 177
468 15 0 1605 10 0 483
469 20 0 1509 0 0 806
470 -15 1177 1207 10 209 0
471 8 589 619 10 0 527
472 -16 329 359 10 637 0
473 -21 0 1499 10 220 0
474 18 484 514 10 0 414
475 25 460 490 10 0 459
476 -15 0 1632 10 333 0
477 9 669 699 10 0 676
478 -12 0 1468 10 279 0
479 -18 820 850 10 536 0
480 19 0 1535 10 0 237
481 -16 0 1487 10 781 0
482 -20 0 1587 10 418 0
483 -15 1350 1380 10 468 0
484 -23 1016 1046 10 538 0
485 21 0 1613 10 0 652
486 -20 927 957 10 155 0
487 18 0 1500 10 0 770
488 31 0 1577 10 0 630
489 21 727 757 0 0 828
490 35 780 810 10 0 585
491 -26 0 1513 10 13 0
492 18 427 457 10 0 584
493 17 472 502 10 0 119
494 -16 0 1594 10 138 0
495 -33 0 1523 10 189 0
496 -36 1072 1102 10 721 0
497 -11 456 486 10 24 0
498 -25 424 454 10 507 0
499 -15 0 1532 10 606 0
500 -11 0 1570 10 213 0
501 15 263 293 10 0 595
502 -20 388 418 10 362 0
503 11 474 504 0 0 831
504 10 0 1499 0 0 807
505 20 0 1606 10 0 728
506 5 0 1596 0 0 815
507 25 365 395 10 0 498
508 18 0 1476 10 0 734
509 -15 0 1506 10 541 0
510 -35 0 1546 10 743 0
511 21 0 1511 10 0 647
512 -5 0 1513 10 182 0
513 18 848 878 10 0 50
514 33 0 1477 10 0 563
515 -3 892 922 10 762 0
516 -16 0 1540 10 293 0
517 22 0 1444 10 0 626
518 -3 1355 1385 10 73 0
519 13 124 154 10 0 118
520 41 512 542 10 0 38
521 31 523 553 10 0 548
522 -8 0 1460 10 670 0
523 8 866 896 0 0 812
524 -20 0 1432 10 715 0
525 13 0 1553 10 0 654
526 -33 0 1653 10 345 0
527 -8 876 906 10 471 0
528 13 127 157 10 0 765
529 -35 0 1569 10 349 0
530 17 820 850 10 0 689
531 -21 0 1460 10 437 0
532 -13 0 1490 10 631 0
533 -9 0 1554 10 447 0
534 23 0 1426 10 0 351
535 26 1167 1197 0 0 825
536 18 0 1516 10 0 479
537 34 353 383 10 0 711
538 23 59 89 10 0 484
539 15 0 1630 10 0 768
540 18 0 1485 0 0 821
541 15 408 438 10 0 509
542 6 1125 1155 0 0 813
543 23 0 1471 10 0 671
544 -21 675 705 10 387 0
545 -16 0 1479 10 622 0
546 -9 0 1447 10 264 0
547 -17 0 1593 10 129 0
548 -31 0 1470 10 521 0
549 -13 0 1518 10 320 0
550 -35 679 709 10 367 0
551 -13 876 906 10 779 0
552 -8 0 1468 10 385 0
553 -10 994 1024 10 629 0
554 3 0 1493 10 0 37
555 6 0 1558 10 0 307
556 -14 1038 1068 10 347 0
557 -21 832 862 10 401 0
558 -8 0 1527 10 712 0
559 -14 561 591 10 273 0
560 -10 0 1628 10 286 0
561 -12 0 1588 10 571 0
562 -18 0 1554 10 603 0
563 -33 847 877 10 514 0
564 -18 998 1028 10 635 0
565 7 1259 1289 10 0 199
566 18 344 374 10 0 438
567 22 576 606 10 0 593
568 -26 692 722 10 86 0
569 -23 0 1452 10 176 0
570 12 0 1507 10 0 628
571 12 598 628 10 0 561
572 12 0 1463 10 0 20
573 16 0 1545 10 0 661
574 3 451 481 10 0 372
575 -11 0 1666 10 787 0
576 19 0 1570 10 0 384
577 14 180 210 10 0 116
578 -16 619 649 10 645 0
579 -19 0 1627 10 240 0
580 -12 1123 1153 10 265 0
581 26 0 1520 10 0 120
582 -8 896 926 10 175 0
583 26 863 893 10 0 74
584 -18 1004 1034 10 492 0
585 -35 828 858 10 490 0
586 25 210 240 10 0 21
587 -22 1158 1188 10 259 0
588 -20 625 655 10 97 0
589 20 0 1642 10 0 599
590 15 246 276 10 0 690
591 22 0 1448 10 0 250
592 -19 0 1565 10 664 0
593 -22 0 1524 10 567 0
594 24 674 704 10 0 132
595 -15 0 1477 10 501 0
596 -3 0 1445 10 200 0
597 -14 0 1585 10 604 0
598 21 0 1491 10 0 335
599 -20 0 1574 10 589 0
600 -33 1125 1155 10 464 0
601 -35 1452 1482 10 336 0
602 -8 964 994 10 624 0
603 18 35 65 10 0 562
604 14 765 795 10 0 597
605 8 338 368 10 0 90
606 15 291 321 10 0 499
607 -8 0 1508 10 798 0
608 19 166 196 10 0 255
609 -11 0 1554 10 99 0
610 31 0 1546 10 0 359
611 -24 0 1589 10 269 0
612 29 444 474 10 0 636
613 -5 0 1535 10 391 0
614 8 471 501 10 0 26
615 -29 1066 1096 10 236 0
616 26 0 1573 10 0 759
617 18 0 1409 10 0 12
618 -26 587 617 10 346 0
619 -23 0 1489 10 148 0
620 1 0 1661 0 0 823
621 10 682 712 10 0 356
622 16 0 1476 10 0 545
623 22 676 706 10 0 268
624 8 951 981 10 0 602
625 8 0 1498 10 0 4
626 -22 794 824 10 517 0
627 -13 0 1537 10 57 0
628 -12 258 288 10 570 0
629 10 915 945 10 0 553
630 -31 1066 1096 10 488 0
631 13 1041 1071 10 0 532
632 11 756 786 10 0 83
633 -34 0 1635 10 667 0
634 -13 0 1519 10 801 0
635 18 238 268 10 0 564
636 -29 1144 1174 10 612 0
637 16 124 154 10 0 472
638 24 0 1469 10 0 650
639 4 792 822 10 0 251
640 -19 0 1555 10 221 0
641 18 380 410 10 0 700
642 -22 0 1611 10 218 0
643 16 0 1514 0 0 818
644 13 331 361 10 0 93
645 16 0 1555 10 0 578
646 20 0 1527 10 0 723
647 -21 0 1501 10 511 0
648 -24 165 195 10 434 0
649 -5 0 1479 10 5 0
650 -24 629 659 10 638 0
651 18 449 479 0 0 833
652 -21 679 709 10 485 0
653 3 104 134 10 0 162
654 -13 274 304 10 525 0
655 -8 1065 1095 10 113 0
656 23 277 307 10 0 142
657 -25 0 1545 10 443 0
658 -14 0 1467 10 672 0
659 20 0 1607 10 0 2
660 -12 0 1540 10 203 0
661 -16 1054 1084 10 573 0
662 -16 0 1482 10 214 0
663 17 0 1536 10 0 232
664 19 941 971 10 0 592
665 -16 1054 1084 10 429 0
666 -37 551 581 10 70 0
667 34 879 909 10 0 633
668 -9 1169 1199 10 282 0
669 -7 172 202 10 130 0
670 8 0 1486 10 0 522
671 -23 0 1490 10 543 0
672 14 0 1462 10 0 658
673 23 0 1502 10 0 76
674 -12 0 1608 10 382 0
675 -9 0 1554 10 227 0
676 -9 762 792 10 477 0
677 -22 0 1632 10 42 0
678 -7 0 1532 10 337 0
679 25 466 496 10 0 266
680 -17 0 1528 10 262 0
681 29 118 148 10 0 98
682 31 438 468 10 0 89
683 -9 563 593 10 17 0
684 20 0 1443 10 0 444
685 18 72 102 10 0 400
686 3 127 157 10 0 263
687 18 458 488 10 0 300
688 -36 0 1474 10 773 0
689 -17 0 1543 10 530 0
690 -15 576 606 10 590 0
691 -21 0 1474 10 306 0
692 28 0 1465 10 0 393
693 15 792 822 10 0 8
694 42 189 219 10 0 774
695 -24 0 1532 10 198 0
696 -25 848 878 10 752 0
697 14 244 274 10 0 430
698 29 0 1574 10 0 184
699 -21 1119 1149 10 736 0
700 -18 0 1440 10 641 0
701 20 0 1500 10 0 133
702 15 0 1490 10 0 465
703 6 898 928 10 0 319
704 -26 0 1515 10 233 0
705 29 81 111 10 0 153
706 -29 1091 1121 10 178 0
707 3 0 1462 10 0 730
708 -11 956 986 10 271 0
709 18 270 300 10 0 215
710 -13 1003 1033 10 115 0
711 -34 0 1561 10 537 0
712 8 0 1512 10 0 558
713 -27 463 493 10 338 0
714 -15 155 185 10 297 0
715 20 1102 1132 10 0 524
716 -28 0 1500 10 767 0
717 -11 0 1528 10 238 0
718 21 110 140 10 0 88
719 20 0 1539 10 0 114
720 -23 1146 1176 10 378 0
721 36 0 1476 10 0 496
722 -11 229 259 10 344 0
723 -20 380 410 10 646 0
724 -15 0 1552 10 404 0
725 -20 316 346 10 210 0
726 17 34 64 10 0 62
727 -18 875 905 10 284 0
728 -20 73 103 10 505 0
729 -21 1490 1520 10 275 0
730 -3 0 1508 10 707 0
731 -22 0 1469 10 254 0
732 31 816 846 0 0 804
733 31 0 1484 10 0 309
734 -18 293 323 10 508 0
735 9 0 1465 10 0 428
736 21 421 451 10 0 699
737 26 0 1594 10 0 216
738 -24 754 784 10 25 0
739 10 741 771 10 0 105
740 -18 752 782 10 109 0
741 -17 0 1618 10 440 0
742 18 0 1469 10 0 173
743 35 341 371 10 0 510
744 25 0 1553 10 0 439
745 -11 0 1521 10 191 0
746 -26 985 1015 10 47 0
747 28 0 1417 10 0 402
748 -12 0 1444 10 72 0
749 -25 333 363 10 256 0
750 -19 0 1496 10 796 0
751 22 487 517 10 0 287
752 25 146 176 10 0 696
753 12 0 1568 10 0 219
754 4 0 1486 10 0 339
755 -11 244 274 10 451 0
756 -29 786 816 10 383 0
757 -7 1003 1033 10 247 0
758 -24 683 713 10 453 0
759 -26 0 1575 10 616 0
760 7 1013 1043 10 0 66
761 -24 0 1478 10 407 0
762 3 289 319 10 0 515
763 -22 0 1507 10 252 0
764 -18 0 1541 10 61 0
765 -13 0 1530 10 528 0
766 13 0 1613 10 0 170
767 28 259 289 10 0 716
768 -15 693 723 10 539 0
769 -18 652 682 10 370 0
770 -18 0 1475 10 487 0
771 28 548 578 10 0 18
772 11 1253 1283 10 0 435
773 36 0 1472 10 0 688
774 -42 205 235 10 694 0
775 24 218 248 10 0 422
776 -24 0 1644 10 81 0
777 -21 0 1573 10 463 0
778 -30 770 800 10 424 0
779 13 0 1424 10 0 551
780 29 240 270 10 0 19
781 16 434 464 10 0 481
782 4 0 1471 10 0 792
783 26 0 1579 10 0 396
784 -16 0 1633 10 389 0
785 34 0 1512 10 0 292
786 27 0 1598 10 0 342
787 11 0 1635 10 0 575
788 -1 1053 1083 10 411 0
789 -35 0 1539 10 159 0
790 -16 0 1555 10 197 0
791 -12 461 491 10 149 0
792 -4 0 1512 10 782 0
793 26 606 636 10 0 127
794 -12 1011 1041 10 374 0
795 -13 0 1592 10 134 0
796 19 751 781 10 0 750
797 5 0 1612 10 0 68
798 8 0 1493 10 0 607
799 18 232 262 10 0 317
800 21 0 1510 10 0 242
801 13 0 1488 10 0 634
802 -29 0 1446 10 229 0
803 -5 0 1528 10 295 0
804 -31 816 846 10 732 0
805 -24 240 270 10 298 0
806 -20 0 1509 10 469 0
807 -10 0 1499 10 504 0
808 -1 1006 1036 10 328 0
809 -22 0 1495 10 452 0
810 -14 0 1606 10 174 0
811 -14 0 1455 10 78 0
812 -8 866 896 10 523 0
813 -6 1125 1155 10 542 0
814 -27 0 1521 10 168 0
815 -5 0 1596 10 506 0
816 -7 1056 1086 10 392 0
817 -21 0 1530 10 166 0
818 -16 0 1514 10 643 0
819 -10 0 1505 10 245 0
820 -17 0 1573 10 332 0
821 -18 0 1485 10 540 0
822 -21 741 771 10 77 0
823 -1 0 1661 10 620 0
824 -30 1315 1345 10 147 0
825 -26 1167 1197 10 535 0
826 -22 0 1432 10 329 0
827 -26 0 1536 10 327 0
828 -21 727 757 10 489 0
829 -11 520 550 10 55 0
830 -8 859 889 10 16 0
831 -11 474 504 10 503 0
832 -20 0 1602 10 59 0
833 -18 449 479 10 651 0
DEPOT_SECTION
1
-1
EOF
