NAME: lr1_8_2
TYPE: PDPTW
COMMENT: Li & Lim PDPTW benchmark converted from SINTEF format
DIMENSION: 835
VEHICLES: 200
CAPACITY: 200
EDGE_WEIGHT_TYPE: EUC_2D
NODE_COORD_SECTION
1 200 200
2 321 287
3 123 176
4 234 20
5 256 385
6 108 399
7 303 258
8 148 94
9 35 238
10 356 223
11 349 324
12 29 9
13 21 82
14 146 320
15 337 81
16 160 313
17 237 243
18 343 134
19 13 59
20 123 30
21 156 32
22 361 194
23 330 310
24 326 335
25 209 283
26 267 221
27 57 124
28 280 5
29 92 238
30 51 205
31 369 6
32 131 89
33 359 157
34 195 148
35 239 252
36 328 8
37 162 316
38 184 233
39 29 86
40 340 276
41 129 53
42 332 124
43 55 115
44 393 246
45 348 319
46 361 287
47 16 114
48 353 65
49 73 126
50 91 61
51 117 148
52 60 319
53 244 50
54 79 95
55 255 80
56 319 115
57 35 160
58 358 309
59 232 131
60 161 124
61 85 128
62 211 153
63 152 361
64 327 115
65 151 231
66 210 294
67 264 341
68 309 53
69 108 75
70 303 358
71 33 226
72 378 118
73 26 70
74 45 291
75 329 208
76 30 39
77 78 85
78 4 307
79 151 188
80 14 53
81 125 182
82 232 127
83 368 63
84 280 224
85 348 102
86 319 160
87 116 102
88 192 268
89 220 337
90 264 69
91 142 238
92 231 229
93 81 290
94 290 82
95 207 185
96 21 255
97 353 357
98 324 184
99 305 255
100 381 27
101 137 132
102 147 376
103 312 247
104 163 270
105 384 307
106 375 294
107 274 247
108 225 53
109 292 392
110 267 321
111 228 96
112 334 186
113 339 3
114 158 85
115 75 238
116 213 216
117 122 105
118 303 112
119 307 396
120 13 220
121 299 227
122 230 234
123 299 399
124 366 340
125 46 197
126 97 387
127 234 7
128 327 11
129 348 189
130 266 234
131 184 69
132 158 121
133 206 7
134 260 352
135 184 235
136 202 6
137 325 311
138 143 159
139 259 285
140 366 97
141 87 147
142 48 304
143 76 72
144 1 335
145 157 220
146 400 373
147 123 159
148 377 144
149 200 144
150 52 94
151 140 344
152 390 376
153 206 286
154 208 86
155 384 294
156 315 237
157 392 14
158 269 203
159 248 286
160 168 15
161 391 42
162 92 384
163 344 154
164 59 51
165 100 10
166 250 340
167 84 293
168 66 118
169 98 107
170 103 154
171 243 287
172 362 383
173 70 81
174 230 266
175 148 71
176 6 62
177 165 335
178 313 64
179 80 282
180 73 124
181 59 89
182 279 337
183 330 353
184 201 195
185 125 175
186 52 251
187 52 301
188 192 200
189 136 373
190 357 202
191 203 40
192 36 288
193 348 343
194 359 42
195 248 124
196 218 134
197 142 385
198 299 270
199 40 314
200 66 5
201 248 126
202 54 341
203 101 99
204 355 41
205 186 179
206 55 346
207 282 252
208 377 72
209 135 161
210 85 61
211 19 61
212 279 262
213 87 164
214 80 392
215 384 72
216 234 73
217 68 250
218 192 151
219 47 190
220 193 390
221 184 282
222 310 363
223 86 112
224 223 41
225 165 126
226 178 103
227 285 184
228 26 326
229 8 68
230 2 52
231 361 236
232 287 279
233 199 45
234 384 248
235 397 283
236 326 79
237 217 211
238 364 213
239 124 179
240 168 223
241 341 78
242 166 357
243 73 292
244 160 62
245 190 27
246 340 290
247 180 15
248 147 210
249 102 42
250 8 363
251 250 183
252 193 18
253 287 343
254 17 348
255 96 22
256 46 102
257 371 396
258 365 303
259 196 129
260 278 265
261 367 300
262 226 52
263 37 397
264 40 31
265 332 216
266 96 209
267 179 175
268 195 121
269 251 70
270 285 287
271 2 17
272 362 399
273 88 372
274 231 6
275 194 121
276 350 207
277 302 274
278 241 275
279 350 131
280 175 192
281 397 261
282 32 163
283 205 372
284 75 89
285 397 362
286 370 57
287 316 327
288 177 139
289 317 68
290 50 315
291 102 324
292 236 38
293 79 344
294 10 202
295 74 283
296 72 315
297 197 200
298 395 340
299 166 115
300 362 115
301 84 206
302 126 208
303 179 125
304 78 261
305 279 91
306 16 294
307 368 215
308 5 345
309 369 118
310 172 109
311 208 20
312 9 47
313 358 261
314 376 19
315 159 164
316 176 154
317 8 119
318 308 217
319 308 178
320 117 395
321 251 381
322 210 1
323 30 349
324 309 279
325 133 375
326 381 12
327 103 95
328 17 99
329 377 29
330 237 259
331 49 222
332 296 156
333 153 224
334 382 169
335 371 349
336 265 127
337 159 11
338 354 199
339 244 285
340 220 238
341 285 107
342 337 248
343 377 282
344 310 340
345 74 213
346 309 18
347 304 319
348 44 277
349 378 30
350 160 222
351 381 375
352 209 208
353 285 136
354 194 65
355 13 322
356 91 388
357 107 159
358 110 241
359 92 68
360 291 398
361 200 48
362 267 295
363 191 167
364 393 256
365 308 314
366 371 111
367 300 64
368 108 395
369 338 315
370 343 335
371 349 249
372 294 184
373 347 59
374 12 368
375 119 286
376 105 254
377 194 166
378 309 274
379 304 395
380 326 374
381 277 143
382 338 290
383 98 375
384 286 308
385 145 301
386 2 3
387 110 351
388 74 351
389 201 255
390 11 328
391 95 391
392 161 346
393 338 5
394 376 205
395 300 319
396 170 114
397 273 118
398 97 105
399 168 87
400 206 106
401 93 31
402 37 21
403 162 94
404 96 162
405 66 144
406 52 194
407 395 167
408 384 53
409 237 200
410 162 121
411 138 306
412 345 195
413 68 143
414 56 292
415 303 142
416 40 153
417 338 14
418 368 278
419 68 386
420 369 171
421 201 6
422 5 266
423 311 344
424 131 275
425 247 377
426 174 326
427 6 20
428 353 3
429 352 383
430 23 317
431 221 225
432 278 289
433 380 390
434 175 304
435 348 41
436 26 275
437 306 85
438 357 147
439 188 67
440 166 185
441 90 311
442 26 199
443 342 154
444 357 38
445 154 41
446 26 247
447 215 260
448 391 260
449 244 135
450 236 44
451 142 379
452 157 378
453 120 170
454 94 165
455 356 299
456 78 194
457 162 251
458 196 51
459 146 324
460 340 79
461 273 182
462 311 356
463 213 332
464 289 234
465 166 19
466 274 7
467 174 329
468 243 140
469 82 78
470 41 183
471 325 45
472 65 335
473 226 378
474 44 296
475 103 361
476 169 235
477 41 337
478 388 106
479 350 214
480 325 130
481 339 69
482 279 247
483 236 119
484 170 176
485 246 247
486 388 275
487 286 44
488 100 218
489 336 386
490 186 75
491 76 90
492 52 343
493 362 378
494 138 143
495 169 352
496 352 303
497 343 359
498 92 255
499 338 150
500 125 122
501 58 98
502 308 327
503 74 231
504 330 76
505 165 264
506 214 119
507 94 268
508 11 274
509 54 108
510 68 215
511 334 100
512 256 356
513 115 51
514 391 136
515 387 267
516 106 302
517 398 325
518 74 87
519 294 118
520 142 262
521 380 145
522 364 55
523 379 126
524 12 40
525 177 77
526 185 180
527 382 49
528 314 257
529 271 116
530 336 201
531 341 33
532 344 321
533 276 298
534 371 386
535 319 113
536 362 207
537 146 301
538 146 174
539 247 212
540 356 315
541 43 67
542 163 207
543 32 78
544 55 341
545 117 381
546 39 34
547 277 163
548 397 133
549 180 359
550 266 13
551 48 358
552 87 378
553 41 93
554 173 384
555 320 211
556 291 304
557 108 48
558 102 84
559 138 326
560 244 176
561 287 225
562 324 194
563 400 109
564 136 226
565 5 344
566 374 175
567 122 397
568 310 163
569 24 57
570 77 319
571 398 258
572 111 4
573 70 231
574 389 171
575 212 197
576 246 298
577 299 351
578 305 257
579 153 222
580 343 184
581 42 197
582 131 82
583 41 340
584 85 256
585 196 77
586 156 4
587 202 158
588 372 382
589 234 214
590 67 318
591 57 381
592 118 122
593 178 353
594 114 88
595 51 64
596 73 4
597 196 107
598 343 322
599 297 240
600 262 212
601 279 148
602 316 112
603 231 182
604 183 71
605 257 98
606 326 156
607 48 278
608 113 80
609 323 218
610 126 90
611 238 119
612 334 92
613 228 341
614 294 249
615 384 64
616 233 100
617 15 4
618 294 13
619 381 144
620 193 216
621 68 378
622 102 377
623 220 71
624 338 106
625 262 30
626 394 299
627 63 166
628 38 366
629 45 85
630 116 195
631 390 357
632 328 39
633 171 168
634 246 47
635 4 280
636 256 145
637 153 315
638 8 285
639 351 199
640 111 286
641 34 371
642 230 139
643 59 285
644 93 283
645 317 240
646 49 187
647 374 163
648 134 320
649 262 390
650 26 260
651 80 365
652 246 244
653 192 291
654 173 72
655 364 23
656 31 360
657 321 144
658 296 388
659 268 223
660 107 98
661 32 229
662 140 387
663 302 300
664 56 97
665 359 389
666 320 373
667 140 131
668 102 118
669 330 313
670 344 72
671 37 106
672 316 383
673 75 76
674 262 233
675 320 166
676 36 286
677 236 171
678 177 55
679 91 233
680 244 56
681 317 183
682 192 332
683 299 308
684 350 18
685 196 138
686 110 290
687 297 137
688 35 79
689 335 202
690 85 333
691 18 294
692 320 24
693 159 79
694 13 167
695 322 281
696 150 49
697 26 372
698 168 100
699 236 260
700 50 385
701 199 22
702 143 20
703 352 156
704 220 38
705 213 280
706 384 47
707 101 8
708 3 2
709 396 106
710 124 221
711 84 221
712 92 73
713 369 211
714 186 355
715 3 15
716 46 110
717 349 181
718 102 252
719 154 68
720 325 294
721 381 290
722 302 345
723 36 203
724 81 156
725 100 15
726 209 167
727 69 82
728 163 264
729 186 145
730 140 40
731 40 336
732 231 76
733 380 126
734 16 311
735 395 113
736 253 316
737 238 124
738 240 201
739 380 339
740 271 371
741 155 159
742 53 51
743 2 200
744 164 80
745 194 43
746 43 121
747 2 29
748 397 73
749 7 143
750 37 119
751 367 361
752 137 68
753 102 149
754 306 361
755 135 384
756 105 360
757 187 23
758 56 156
759 217 98
760 229 371
761 399 179
762 379 254
763 193 29
764 88 121
765 344 236
766 145 165
767 11 135
768 300 272
769 348 371
770 266 8
771 349 135
772 359 31
773 59 49
774 0 155
775 18 235
776 177 174
777 213 305
778 201 242
779 41 399
780 4 60
781 321 85
782 254 0
783 229 105
784 243 215
785 231 36
786 278 221
787 243 209
788 168 268
789 284 311
790 231 320
791 219 49
792 234 37
793 259 4
794 8 384
795 243 275
796 13 96
797 246 152
798 38 291
799 18 102
800 163 364
801 292 33
802 330 353
803 307 396
804 384 294
805 319 160
806 168 87
807 202 6
808 239 252
809 310 163
810 79 95
811 357 38
812 292 33
813 166 115
814 74 283
815 131 275
816 92 73
817 49 222
818 40 314
819 316 327
820 317 68
821 335 202
822 248 124
823 40 336
824 243 215
825 309 53
826 136 373
827 279 247
828 213 280
829 42 197
830 350 214
831 319 113
832 201 195
833 177 55
834 267 321
835 308 217
PICKUP_AND_DELIVERY_SECTION
1 0 0 1688 0 0 0
2 -39 601 611 10 246 0
3 -20 1180 1190 10 185 0
4 15 0 1495 10 0 346
5 -13 606 616 10 134 0
6 23 219 229 10 0 368
7 -3 998 1008 10 762 0
8 23 848 858 10 0 225
9 -13 201 211 10 115 0
10 28 0 1521 10 0 338
11 -26 548 558 10 497 0
12 -10 835 845 10 546 0
13 26 852 862 10 0 315
14 -21 507 517 10 800 0
15 -30 723 733 10 460 0
16 -31 869 879 10 682 0
17 9 56 66 10 0 257
18 -23 1019 1029 10 334 0
19 -5 569 579 10 312 0
20 -15 708 718 10 702 0
21 -7 0 1505 10 337 0
22 -20 0 1517 10 448 0
23 -9 688 698 10 722 0
24 -18 0 1494 10 370 0
25 -19 627 637 10 153 0
26 24 597 607 10 0 409
27 24 161 171 10 0 76
28 9 1026 1036 10 0 196
29 -21 1224 1234 10 306 0
30 26 0 1529 10 0 345
31 16 557 567 10 0 157
32 26 150 160 10 0 608
33 -15 0 1514 10 606 0
34 -22 1336 1346 10 259 0
35 20 1342 1352 0 0 808
36 36 0 1448 10 0 684
37 -3 606 616 10 554 0
38 19 36 46 10 0 88
39 28 580 590 10 0 629
40 -13 878 888 10 231 0
41 -25 761 771 10 586 0
42 -15 344 354 10 64 0
43 -17 793 803 10 223 0
44 -35 518 528 10 234 0
45 -11 0 1489 10 344 0
46 13 266 276 10 0 58
47 -28 733 743 10 767 0
48 24 316 326 10 0 140
49 38 429 439 10 0 668
50 -17 1486 1496 10 509 0
51 14 97 107 10 0 77
52 29 265 275 10 0 355
53 -14 0 1522 10 680 0
54 22 1236 1246 0 0 810
55 11 530 540 10 0 95
56 16 0 1532 10 0 771
57 -19 1027 1037 10 758 0
58 -13 866 876 10 46 0
59 -8 1146 1156 10 605 0
60 17 0 1593 10 0 667
61 -14 1298 1308 10 386 0
62 14 66 76 10 0 625
63 -25 0 1510 10 714 0
64 15 313 323 10 0 42
65 10 89 99 10 0 507
66 43 0 1584 10 0 795
67 -19 0 1524 10 221 0
68 26 337 347 0 0 825
69 24 0 1523 10 0 610
70 37 0 1490 10 0 740
71 -8 1202 1212 10 186 0
72 -23 737 747 10 148 0
73 3 931 941 10 0 671
74 -14 0 1499 10 93 0
75 20 1327 1337 10 0 555
76 -24 378 388 10 27 0
77 -14 751 761 10 51 0
78 -11 1087 1097 10 296 0
79 18 50 60 10 0 723
80 -29 815 825 10 780 0
81 24 77 87 10 0 125
82 13 79 89 10 0 611
83 22 0 1462 10 0 208
84 20 237 247 10 0 130
85 26 402 412 10 0 241
86 26 178 188 0 0 805
87 -15 824 834 10 316 0
88 -19 534 544 10 38 0
89 -24 322 332 10 777 0
90 15 675 685 10 0 450
91 -15 1187 1197 10 584 0
92 -27 1213 1223 10 786 0
93 14 411 421 10 0 74
94 24 908 918 10 0 305
95 -11 1230 1240 10 55 0
96 -32 771 781 10 422 0
97 20 230 240 10 0 335
98 25 0 1553 10 0 276
99 11 321 331 10 0 614
100 -21 473 483 10 511 0
101 -15 226 236 10 741 0
102 36 203 213 10 0 467
103 14 0 1557 10 0 237
104 -41 555 565 10 520 0
105 7 0 1466 10 0 307
106 2 613 623 10 0 371
107 -33 954 964 10 464 0
108 23 1092 1102 10 0 483
109 18 671 681 10 0 270
110 26 643 653 0 0 834
111 -22 0 1571 10 218 0
112 1 0 1544 10 0 639
113 8 813 823 10 0 314
114 -15 943 953 10 582 0
115 13 0 1548 10 0 9
116 -21 0 1658 10 485 0
117 7 0 1556 10 0 284
118 -34 883 893 10 397 0
119 28 782 792 0 0 803
120 -18 1075 1085 10 508 0
121 25 108 118 10 0 530
122 -7 1571 1581 10 760 0
123 11 0 1456 10 0 360
124 23 725 735 10 0 631
125 -24 0 1524 10 81 0
126 37 0 1465 10 0 505
127 -26 1126 1136 10 793 0
128 22 600 610 10 0 772
129 -5 0 1530 10 190 0
130 -20 923 933 10 84 0
131 1 513 523 10 0 745
132 -18 1115 1125 10 685 0
133 8 804 814 10 0 439
134 13 405 415 10 0 5
135 -8 0 1640 10 426 0
136 20 646 656 0 0 807
137 15 623 633 10 0 556
138 -13 0 1608 10 766 0
139 14 103 113 10 0 598
140 -24 782 792 10 48 0
141 7 884 894 10 0 627
142 15 240 250 10 0 711
143 -9 1020 1030 10 173 0
144 -39 0 1438 10 250 0
145 -16 1386 1396 10 650 0
146 7 0 1414 10 0 433
147 30 1325 1335 10 0 209
148 23 477 487 10 0 72
149 12 91 101 10 0 701
150 14 0 1496 10 0 264
151 -21 1298 1308 10 220 0
152 2 473 483 10 0 272
153 19 496 506 10 0 25
154 -7 968 978 10 377 0
155 20 0 1472 0 0 804
156 -16 530 540 10 645 0
157 -16 0 1411 10 31 0
158 30 385 395 10 0 652
159 35 0 1580 10 0 533
160 -10 0 1491 10 245 0
161 44 974 984 10 0 615
162 26 0 1465 10 0 552
163 30 0 1527 10 0 319
164 14 216 226 10 0 742
165 -36 0 1464 10 773 0
166 21 200 210 10 0 754
167 -10 566 576 10 179 0
168 -17 0 1521 10 440 0
169 -2 944 954 10 491 0
170 22 0 1571 10 0 746
171 8 147 157 10 0 683
172 21 266 276 10 0 534
173 9 0 1502 10 0 143
174 -4 0 1606 10 790 0
175 -20 825 835 10 719 0
176 23 0 1440 10 0 569
177 -22 0 1539 10 452 0
178 29 0 1502 10 0 437
179 10 531 541 10 0 167
180 9 563 573 10 0 327
181 -3 779 789 10 558 0
182 5 613 623 10 0 613
183 9 1196 1206 0 0 802
184 12 5 15 0 0 832
185 20 172 182 10 0 3
186 8 169 179 10 0 71
187 -14 0 1499 10 308 0
188 22 13 23 10 0 280
189 33 624 634 0 0 826
190 5 0 1521 10 0 129
191 -10 802 812 10 311 0
192 1 0 1492 10 0 661
193 -10 0 1473 10 739 0
194 10 0 1454 10 0 341
195 19 674 684 0 0 822
196 -9 1285 1295 10 28 0
197 16 537 547 10 0 620
198 24 0 1557 10 0 378
199 7 734 744 0 0 818
200 -15 1145 1155 10 541 0
201 23 0 1590 10 0 275
202 19 318 328 10 0 388
203 12 0 1537 10 0 398
204 9 849 859 10 0 367
205 -19 0 1653 10 288 0
206 -4 453 463 10 472 0
207 -15 878 888 10 768 0
208 -22 0 1460 10 83 0
209 -30 1360 1370 10 147 0
210 20 180 190 10 0 725
211 -11 1162 1172 10 271 0
212 19 100 110 10 0 277
213 -25 672 682 10 724 0
214 16 545 555 10 0 621
215 21 0 1454 10 0 408
216 8 165 175 10 0 292
217 -12 574 584 10 376 0
218 22 594 604 10 0 111
219 23 641 651 10 0 302
220 21 0 1488 10 0 151
221 19 83 93 10 0 67
222 -17 1069 1079 10 380 0
223 17 0 1534 10 0 43
224 19 561 571 10 0 458
225 -23 0 1597 10 8 0
226 -22 0 1579 10 445 0
227 -24 1040 1050 10 407 0
228 -12 0 1464 10 390 0
229 -18 0 1446 10 617 0
230 11 0 1431 10 0 524
231 13 172 182 10 0 40
232 -14 0 1561 10 347 0
233 26 800 810 10 0 634
234 35 0 1488 10 0 44
235 -24 422 432 10 298 0
236 -27 816 826 10 531 0
237 -14 1190 1200 10 103 0
238 11 588 598 10 0 580
239 -15 728 738 10 297 0
240 19 0 1639 10 0 375
241 -26 840 850 10 85 0
242 -11 1223 1233 10 451 0
243 8 185 195 10 0 430
244 -10 719 729 10 776 0
245 10 0 1505 10 0 160
246 39 461 471 10 0 2
247 7 885 895 10 0 465
248 23 53 63 10 0 436
249 17 0 1493 10 0 513
250 39 889 899 10 0 144
251 -18 1032 1042 10 461 0
252 22 0 1496 10 0 757
253 -21 730 740 10 463 0
254 22 448 458 10 0 374
255 -3 826 836 10 707 0
256 -2 614 624 10 267 0
257 -9 611 621 10 17 0
258 4 912 922 10 0 720
259 22 776 786 10 0 34
260 -19 0 1577 10 324 0
261 16 459 469 10 0 515
262 -4 0 1528 10 782 0
263 -13 835 845 10 779 0
264 -14 586 596 10 150 0
265 -20 457 467 10 659 0
266 -31 133 143 10 488 0
267 2 32 42 10 0 256
268 -5 881 891 10 797 0
269 24 468 478 10 0 550
270 -18 0 1557 10 109 0
271 11 279 289 10 0 211
272 -2 0 1422 10 152 0
273 14 364 374 10 0 591
274 -11 711 721 10 322 0
275 -23 1282 1292 10 201 0
276 -25 388 398 10 98 0
277 -19 302 312 10 212 0
278 18 706 716 10 0 330
279 12 0 1513 10 0 657
280 -22 934 944 10 188 0
281 -12 0 1472 10 571 0
282 9 229 239 10 0 456
283 2 899 909 10 0 593
284 -7 836 846 10 117 0
285 15 260 270 10 0 588
286 -31 1128 1138 10 706 0
287 24 773 783 0 0 819
288 19 1590 1600 10 0 205
289 13 1170 1180 0 0 820
290 -25 0 1489 10 679 0
291 23 501 511 10 0 544
292 -8 443 453 10 216 0
293 16 227 237 10 0 570
294 -24 0 1488 10 775 0
295 5 0 1528 0 0 814
296 11 691 701 10 0 78
297 15 3 13 10 0 239
298 24 240 250 10 0 235
299 13 1259 1269 0 0 813
300 -12 1071 1081 10 309 0
301 22 587 597 10 0 710
302 -23 1380 1390 10 219 0
303 4 77 87 10 0 557
304 32 136 146 10 0 510
305 -24 1318 1328 10 94 0
306 21 0 1472 10 0 29
307 -7 737 747 10 105 0
308 14 1221 1231 10 0 187
309 12 1062 1072 10 0 300
310 13 100 110 10 0 403
311 10 611 621 10 0 191
312 5 0 1434 10 0 19
313 -13 760 770 10 364 0
314 -8 1291 1301 10 113 0
315 -26 1346 1356 10 13 0
316 15 51 61 10 0 87
317 -9 0 1470 10 774 0
318 12 1002 1012 0 0 835
319 -30 0 1568 10 163 0
320 -13 411 421 10 755 0
321 -19 278 288 10 512 0
322 11 0 1479 10 0 274
323 -14 688 698 10 697 0
324 19 0 1544 10 0 260
325 -18 660 670 10 545 0
326 15 601 611 10 0 624
327 -9 0 1536 10 180 0
328 -23 1016 1026 10 543 0
329 22 757 767 10 0 417
330 -18 1184 1194 10 278 0
331 11 1137 1147 0 0 817
332 -29 0 1573 10 547 0
333 -13 795 805 10 644 0
334 23 668 678 10 0 18
335 -20 273 283 10 97 0
336 35 97 107 10 0 504
337 7 1198 1208 10 0 21
338 -28 0 1524 10 10 0
339 -9 1328 1338 10 462 0
340 12 42 52 10 0 789
341 -10 0 1553 10 194 0
342 26 487 497 10 0 765
343 -19 0 1483 10 432 0
344 11 183 193 10 0 45
345 -26 445 455 10 30 0
346 -15 406 416 10 4 0
347 14 871 881 10 0 232
348 -30 544 554 10 414 0
349 -16 1110 1120 10 781 0
350 -12 1304 1314 10 441 0
351 -22 1081 1091 10 517 0
352 8 12 22 10 0 468
353 -9 1099 1109 10 602 0
354 16 396 406 10 0 704
355 -29 378 388 10 52 0
356 2 0 1461 10 0 411
357 -9 1042 1052 10 396 0
358 9 98 108 10 0 635
359 -23 0 1508 10 673 0
360 -11 541 551 10 123 0
361 20 230 240 10 0 466
362 20 741 751 10 0 699
363 17 962 972 10 0 484
364 13 399 409 10 0 313
365 23 0 1521 10 0 663
366 3 259 269 10 0 670
367 -9 0 1510 10 204 0
368 -23 583 593 10 6 0
369 -13 962 972 10 502 0
370 18 0 1482 10 0 24
371 -2 0 1522 10 106 0
372 -25 1083 1093 10 443 0
373 -13 0 1475 10 519 0
374 -22 781 791 10 254 0
375 -19 839 849 10 240 0
376 12 419 429 10 0 217
377 7 0 1644 10 0 154
378 -24 351 361 10 198 0
379 18 0 1457 10 0 425
380 17 588 598 10 0 222
381 -24 654 664 10 560 0
382 -13 660 670 10 528 0
383 29 202 212 10 0 651
384 3 637 647 10 0 576
385 8 115 125 10 0 648
386 14 804 814 10 0 61
387 21 175 185 10 0 477
388 -19 970 980 10 202 0
389 16 0 1623 10 0 778
390 12 777 787 10 0 228
391 5 483 493 10 0 756
392 -30 1066 1076 10 473 0
393 23 1027 1037 10 0 655
394 4 0 1502 10 0 562
395 14 162 172 10 0 540
396 9 647 657 10 0 357
397 34 116 126 10 0 118
398 -12 954 964 10 203 0
399 5 927 937 0 0 806
400 33 0 1584 10 0 587
401 -12 668 678 10 572 0
402 24 919 929 10 0 596
403 -13 0 1566 10 310 0
404 -12 0 1568 10 753 0
405 29 150 160 10 0 501
406 -26 559 569 10 442 0
407 24 0 1481 10 0 227
408 -21 960 970 10 215 0
409 -24 0 1641 10 26 0
410 -17 0 1591 10 494 0
411 -2 874 884 10 356 0
412 -29 0 1533 10 681 0
413 -23 0 1535 10 538 0
414 30 516 526 10 0 348
415 -16 1087 1097 10 435 0
416 15 166 176 10 0 553
417 -22 1211 1221 10 329 0
418 20 251 261 10 0 695
419 16 319 329 10 0 622
420 23 171 181 10 0 761
421 25 595 605 10 0 597
422 32 378 388 10 0 96
423 -23 0 1497 10 769 0
424 30 0 1577 0 0 815
425 -18 1225 1235 10 379 0
426 8 965 975 10 0 135
427 27 0 1414 10 0 708
428 20 266 276 10 0 692
429 16 808 818 10 0 665
430 -8 0 1466 10 243 0
431 16 32 42 10 0 578
432 19 118 128 10 0 343
433 -7 0 1417 10 146 0
434 24 106 116 10 0 537
435 16 668 678 10 0 415
436 -23 1142 1152 10 248 0
437 -29 1154 1164 10 178 0
438 23 541 551 10 0 675
439 -8 0 1545 10 133 0
440 17 37 47 10 0 168
441 12 679 689 10 0 350
442 26 0 1504 10 0 406
443 25 0 1529 10 0 372
444 2 1114 1124 0 0 811
445 22 1296 1306 10 0 226
446 31 398 408 10 0 503
447 9 61 71 10 0 649
448 20 614 624 10 0 22
449 -13 682 692 10 525 0
450 -15 784 794 10 90 0
451 11 790 800 10 0 242
452 22 926 936 10 0 177
453 24 467 477 10 0 764
454 5 659 669 10 0 630
455 31 1061 1071 10 0 496
456 -9 948 958 10 282 0
457 21 63 73 10 0 590
458 -19 0 1529 10 224 0
459 -26 1422 1432 10 549 0
460 30 680 690 10 0 15
461 18 860 870 10 0 251
462 9 191 201 10 0 339
463 21 0 1546 10 0 253
464 33 95 105 10 0 107
465 -7 1209 1219 10 247 0
466 -20 339 349 10 361 0
467 -36 710 720 10 102 0
468 -8 1283 1293 10 352 0
469 -14 1196 1206 10 595 0
470 -20 1187 1197 10 646 0
471 8 599 609 10 0 632
472 4 339 349 10 0 206
473 30 369 379 10 0 392
474 18 494 504 10 0 607
475 -16 470 480 10 637 0
476 -17 0 1632 10 559 0
477 -21 679 689 10 387 0
478 -19 274 284 10 480 0
479 28 830 840 0 0 830
480 19 0 1535 10 0 478
481 -29 0 1487 10 612 0
482 12 0 1587 0 0 827
483 -23 1360 1370 10 108 0
484 -17 1026 1036 10 363 0
485 21 689 699 10 0 116
486 -2 937 947 10 532 0
487 18 576 586 10 0 642
488 31 113 123 10 0 266
489 21 737 747 10 0 672
490 -26 790 800 10 616 0
491 2 757 767 10 0 169
492 18 437 447 10 0 583
493 17 482 492 10 0 666
494 17 92 102 10 0 410
495 7 259 269 10 0 788
496 -31 1082 1092 10 455 0
497 26 466 476 10 0 11
498 30 434 444 10 0 516
499 -28 778 788 10 529 0
500 15 0 1570 10 0 633
501 -29 273 283 10 405 0
502 13 398 408 10 0 369
503 -31 484 494 10 446 0
504 -35 938 948 10 336 0
505 -37 0 1606 10 126 0
506 5 0 1596 10 0 585
507 -10 375 385 10 65 0
508 18 810 820 10 0 120
509 17 277 287 10 0 50
510 -32 981 991 10 304 0
511 21 0 1511 10 0 100
512 19 173 183 10 0 321
513 -17 858 868 10 249 0
514 -27 0 1477 10 677 0
515 -16 902 912 10 261 0
516 -30 0 1540 10 498 0
517 22 885 895 10 0 351
518 9 1365 1375 10 0 660
519 13 124 134 10 0 373
520 41 522 532 10 0 104
521 31 533 543 10 0 733
522 17 0 1460 10 0 636
523 -18 876 886 10 619 0
524 -11 0 1432 10 230 0
525 13 0 1553 10 0 449
526 -22 1643 1653 10 623 0
527 -15 886 896 10 748 0
528 13 127 137 10 0 382
529 28 0 1569 10 0 499
530 -25 830 840 10 121 0
531 27 289 299 10 0 236
532 2 264 274 10 0 486
533 -35 0 1554 10 159 0
534 -21 335 345 10 172 0
535 26 1177 1187 0 0 831
536 -20 0 1516 10 713 0
537 -24 363 373 10 434 0
538 23 59 69 10 0 413
539 -20 0 1630 10 589 0
540 -14 431 441 10 395 0
541 15 418 428 10 0 200
542 -42 1135 1145 10 694 0
543 23 0 1471 10 0 328
544 -23 685 695 10 291 0
545 18 0 1479 10 0 325
546 10 0 1447 10 0 12
547 29 0 1593 10 0 332
548 24 0 1470 10 0 574
549 26 951 961 10 0 459
550 -24 689 699 10 269 0
551 -31 886 896 10 700 0
552 -26 0 1468 10 162 0
553 -15 1004 1014 10 416 0
554 3 185 195 10 0 37
555 -20 0 1558 10 75 0
556 -15 1048 1058 10 137 0
557 -4 842 852 10 303 0
558 3 175 185 10 0 181
559 17 571 581 10 0 476
560 24 0 1628 10 0 381
561 -37 756 766 10 599 0
562 -4 1076 1086 10 394 0
563 -9 857 867 10 735 0
564 7 1008 1018 10 0 579
565 -18 1269 1279 10 628 0
566 -29 354 364 10 647 0
567 -8 586 596 10 662 0
568 20 702 712 0 0 809
569 -23 0 1452 10 176 0
570 -16 1249 1259 10 293 0
571 12 608 618 10 0 281
572 12 520 530 10 0 401
573 -24 0 1545 10 638 0
574 -24 461 471 10 548 0
575 -11 864 874 10 787 0
576 -3 966 976 10 384 0
577 14 180 190 10 0 658
578 -16 629 639 10 431 0
579 -7 0 1627 10 564 0
580 -11 1133 1143 10 238 0
581 26 379 389 0 0 829
582 15 906 916 10 0 114
583 -18 873 883 10 492 0
584 15 1014 1024 10 0 91
585 -5 838 848 10 506 0
586 25 220 230 10 0 41
587 -33 1168 1178 10 400 0
588 -15 635 645 10 285 0
589 20 36 46 10 0 539
590 -21 256 266 10 457 0
591 -14 0 1448 10 273 0
592 -24 0 1565 10 594 0
593 -2 968 978 10 283 0
594 24 684 694 10 0 592
595 14 805 815 10 0 469
596 -24 1416 1426 10 402 0
597 -25 1339 1349 10 421 0
598 -14 821 831 10 139 0
599 37 270 280 10 0 561
600 -34 1135 1145 10 609 0
601 -18 1462 1472 10 709 0
602 9 974 984 10 0 353
603 18 35 45 10 0 687
604 14 775 785 10 0 693
605 8 348 358 10 0 59
606 15 301 311 10 0 33
607 -18 0 1508 10 474 0
608 -26 176 186 10 32 0
609 34 830 840 10 0 600
610 -24 876 886 10 69 0
611 -13 0 1589 10 82 0
612 29 454 464 10 0 481
613 -5 1017 1027 10 182 0
614 -11 481 491 10 99 0
615 -44 1076 1086 10 161 0
616 26 696 706 10 0 490
617 18 0 1409 10 0 229
618 -12 597 607 10 792 0
619 18 0 1489 10 0 523
620 -16 0 1661 10 197 0
621 -16 692 702 10 214 0
622 -16 0 1476 10 419 0
623 22 686 696 10 0 526
624 -15 961 971 10 326 0
625 -14 0 1498 10 62 0
626 14 804 814 10 0 721
627 -7 1006 1016 10 141 0
628 18 268 278 10 0 565
629 -28 925 935 10 39 0
630 -5 1076 1086 10 454 0
631 -23 1051 1061 10 124 0
632 -8 766 776 10 471 0
633 -15 0 1635 10 500 0
634 -26 1131 1141 10 233 0
635 -9 248 258 10 358 0
636 -17 1154 1164 10 522 0
637 16 124 134 10 0 475
638 24 333 343 10 0 573
639 -1 802 812 10 112 0
640 -26 143 153 10 728 0
641 -23 390 400 10 656 0
642 -18 0 1611 10 487 0
643 16 0 1514 10 0 734
644 13 341 351 10 0 333
645 16 314 324 10 0 156
646 20 201 211 10 0 470
647 29 325 335 10 0 566
648 -8 175 185 10 385 0
649 -9 0 1479 10 447 0
650 16 639 649 10 0 145
651 -29 459 469 10 383 0
652 -30 689 699 10 158 0
653 3 114 124 10 0 736
654 -25 284 294 10 752 0
655 -23 1075 1085 10 393 0
656 23 287 297 10 0 641
657 -12 1074 1084 10 279 0
658 -14 272 282 10 577 0
659 20 71 81 10 0 265
660 -9 0 1540 10 518 0
661 -1 1064 1074 10 192 0
662 8 203 213 10 0 567
663 -23 0 1536 10 365 0
664 -4 951 961 10 749 0
665 -16 1064 1074 10 429 0
666 -17 561 571 10 493 0
667 -17 889 899 10 60 0
668 -38 1179 1189 10 49 0
669 27 172 182 10 0 751
670 -3 1075 1085 10 366 0
671 -3 0 1490 10 73 0
672 -21 0 1462 10 489 0
673 23 0 1502 10 0 359
674 16 0 1608 10 0 738
675 -23 596 606 10 438 0
676 -45 772 782 10 691 0
677 27 46 56 10 0 514
678 17 766 776 0 0 833
679 25 476 486 10 0 290
680 14 0 1528 10 0 53
681 29 128 138 10 0 412
682 31 448 458 10 0 16
683 -8 573 583 10 171 0
684 -36 0 1443 10 36 0
685 18 82 92 10 0 132
686 3 132 142 10 0 798
687 -18 468 478 10 603 0
688 -19 0 1474 10 796 0
689 23 839 849 0 0 821
690 19 586 596 10 0 794
691 45 497 507 10 0 676
692 -20 0 1465 10 428 0
693 -14 802 812 10 604 0
694 42 195 205 10 0 542
695 -20 0 1532 10 418 0
696 5 858 868 10 0 744
697 14 244 254 10 0 323
698 -27 0 1574 10 730 0
699 -20 1129 1139 10 362 0
700 31 833 843 10 0 551
701 -12 0 1500 10 149 0
702 15 0 1490 10 0 20
703 -1 908 918 10 717 0
704 -16 590 600 10 354 0
705 29 81 91 0 0 828
706 31 1101 1111 10 0 286
707 3 0 1462 10 0 255
708 -27 966 976 10 427 0
709 18 280 290 10 0 601
710 -22 1013 1023 10 301 0
711 -15 1113 1123 10 142 0
712 8 0 1512 0 0 816
713 20 473 483 10 0 536
714 25 155 165 10 0 63
715 -28 1112 1122 10 747 0
716 16 0 1500 10 0 727
717 1 0 1528 10 0 703
718 21 110 120 10 0 743
719 20 749 759 10 0 175
720 -4 1156 1166 10 258 0
721 -14 0 1476 10 626 0
722 9 239 249 10 0 23
723 -18 390 400 10 79 0
724 25 445 455 10 0 213
725 -20 326 336 10 210 0
726 17 34 44 10 0 770
727 -16 885 895 10 716 0
728 26 73 83 10 0 640
729 -26 1500 1510 10 737 0
730 27 1025 1035 10 0 698
731 9 1215 1225 0 0 823
732 31 826 836 10 0 783
733 -31 0 1484 10 521 0
734 -16 303 313 10 643 0
735 9 0 1465 10 0 563
736 -3 431 441 10 653 0
737 26 0 1594 10 0 729
738 -16 764 774 10 674 0
739 10 751 761 10 0 193
740 -37 762 772 10 70 0
741 15 66 76 10 0 101
742 -14 245 255 10 164 0
743 -21 351 361 10 718 0
744 -5 1193 1203 10 696 0
745 -1 0 1521 10 131 0
746 -22 995 1005 10 170 0
747 28 0 1417 10 0 715
748 15 234 244 10 0 527
749 4 343 353 10 0 664
750 -18 536 546 10 799 0
751 -27 497 507 10 669 0
752 25 154 164 10 0 654
753 12 517 527 10 0 404
754 -21 715 725 10 166 0
755 13 254 264 10 0 320
756 -5 796 806 10 391 0
757 -22 1013 1023 10 252 0
758 19 693 703 10 0 57
759 19 103 113 10 0 785
760 7 1023 1033 10 0 122
761 -23 458 468 10 420 0
762 3 299 309 10 0 7
763 -23 767 777 10 791 0
764 -24 578 588 10 453 0
765 -26 0 1530 10 342 0
766 13 65 75 10 0 138
767 28 269 279 10 0 47
768 15 703 713 10 0 207
769 23 662 672 10 0 423
770 -17 590 600 10 726 0
771 -16 558 568 10 56 0
772 -22 1263 1273 10 128 0
773 36 0 1472 10 0 165
774 9 205 215 10 0 317
775 24 228 238 10 0 294
776 10 0 1644 10 0 244
777 24 0 1573 10 0 89
778 -16 780 790 10 389 0
779 13 0 1424 10 0 263
780 29 250 260 10 0 80
781 16 444 454 10 0 349
782 4 0 1471 10 0 262
783 -31 865 875 10 732 0
784 7 45 55 0 0 824
785 -19 0 1512 10 759 0
786 27 912 922 10 0 92
787 11 0 1635 10 0 575
788 -7 1063 1073 10 495 0
789 -12 359 369 10 340 0
790 4 0 1555 10 0 174
791 23 471 481 10 0 763
792 12 522 532 10 0 618
793 26 616 626 10 0 127
794 -19 1021 1031 10 690 0
795 -43 930 940 10 66 0
796 19 761 771 10 0 688
797 5 611 621 10 0 268
798 -3 0 1493 10 686 0
799 18 242 252 10 0 750
800 21 0 1510 10 0 14
801 13 0 1488 0 0 812
802 -9 1196 1206 10 183 0
803 -28 782 792 10 119 0
804 -20 0 1472 10 155 0
805 -26 178 188 10 86 0
806 -5 927 937 10 399 0
807 -20 646 656 10 136 0
808 -20 1342 1352 10 35 0
809 -20 702 712 10 568 0
810 -22 1236 1246 10 54 0
811 -2 1114 1124 10 444 0
812 -13 0 1488 10 801 0
813 -13 1259 1269 10 299 0
814 -5 0 1528 10 295 0
815 -30 0 1577 10 424 0
816 -8 0 1512 10 712 0
817 -11 1137 1147 10 331 0
818 -7 734 744 10 199 0
819 -24 773 783 10 287 0
820 -13 1170 1180 10 289 0
821 -23 839 849 10 689 0
822 -19 674 684 10 195 0
823 -9 1215 1225 10 731 0
824 -7 45 55 10 784 0
825 -26 337 347 10 68 0
826 -33 624 634 10 189 0
827 -12 0 1587 10 482 0
828 -29 81 91 10 705 0
829 -26 379 389 10 581 0
830 -28 830 840 10 479 0
831 -26 1177 1187 10 535 0
832 -12 5 15 10 184 0
833 -17 766 776 10 678 0
834 -26 643 653 10 110 0
835 -12 1002 1012 10 318 0
DEPOT_SECTION
1
-1
EOF
