NAME: lr1_8_1
TYPE: PDPTW
COMMENT: Li & Lim PDPTW benchmark converted from SINTEF format
DIMENSION: 843
VEHICLES: 200
CAPACITY: 200
EDGE_WEIGHT_TYPE: EUC_2D
NODE_COORD_SECTION
1 200 200
2 321 287
3 123 176
4 234 20
5 256 385
6 108 399
7 303 258
8 148 94
9 35 238
10 356 223
11 349 324
12 29 9
13 21 82
14 146 320
15 337 81
16 160 313
17 237 243
18 343 134
19 13 59
20 123 30
21 156 32
22 361 194
23 330 310
24 326 335
25 209 283
26 267 221
27 57 124
28 280 5
29 92 238
30 51 205
31 369 6
32 131 89
33 359 157
34 195 148
35 239 252
36 328 8
37 162 316
38 184 233
39 29 86
40 340 276
41 129 53
42 332 124
43 55 115
44 393 246
45 348 319
46 361 287
47 16 114
48 353 65
49 73 126
50 91 61
51 117 148
52 60 319
53 244 50
54 79 95
55 255 80
56 319 115
57 35 160
58 358 309
59 232 131
60 161 124
61 85 128
62 211 153
63 152 361
64 327 115
65 151 231
66 210 294
67 264 341
68 309 53
69 108 75
70 303 358
71 33 226
72 378 118
73 26 70
74 45 291
75 329 208
76 30 39
77 78 85
78 4 307
79 151 188
80 14 53
81 125 182
82 232 127
83 368 63
84 280 224
85 348 102
86 319 160
87 116 102
88 192 268
89 220 337
90 264 69
91 142 238
92 231 229
93 81 290
94 290 82
95 207 185
96 21 255
97 353 357
98 324 184
99 305 255
100 381 27
101 137 132
102 147 376
103 312 247
104 163 270
105 384 307
106 375 294
107 274 247
108 225 53
109 292 392
110 267 321
111 228 96
112 334 186
113 339 3
114 158 85
115 75 238
116 213 216
117 122 105
118 303 112
119 307 396
120 13 220
121 299 227
122 230 234
123 299 399
124 366 340
125 46 197
126 97 387
127 234 7
128 327 11
129 348 189
130 266 234
131 184 69
132 158 121
133 206 7
134 260 352
135 184 235
136 202 6
137 325 311
138 143 159
139 259 285
140 366 97
141 87 147
142 48 304
143 76 72
144 1 335
145 157 220
146 400 373
147 123 159
148 377 144
149 200 144
150 52 94
151 140 344
152 390 376
153 206 286
154 208 86
155 384 294
156 315 237
157 392 14
158 269 203
159 248 286
160 168 15
161 391 42
162 92 384
163 344 154
164 59 51
165 100 10
166 250 340
167 84 293
168 66 118
169 98 107
170 103 154
171 243 287
172 362 383
173 70 81
174 230 266
175 148 71
176 6 62
177 165 335
178 313 64
179 80 282
180 73 124
181 59 89
182 279 337
183 330 353
184 201 195
185 125 175
186 52 251
187 52 301
188 192 200
189 136 373
190 357 202
191 203 40
192 36 288
193 348 343
194 359 42
195 248 124
196 218 134
197 142 385
198 299 270
199 40 314
200 66 5
201 248 126
202 54 341
203 101 99
204 355 41
205 186 179
206 55 346
207 282 252
208 377 72
209 135 161
210 85 61
211 19 61
212 279 262
213 87 164
214 80 392
215 384 72
216 234 73
217 68 250
218 192 151
219 47 190
220 193 390
221 184 282
222 310 363
223 86 112
224 223 41
225 165 126
226 178 103
227 285 184
228 26 326
229 8 68
230 2 52
231 361 236
232 287 279
233 199 45
234 384 248
235 397 283
236 326 79
237 217 211
238 364 213
239 124 179
240 168 223
241 341 78
242 166 357
243 73 292
244 160 62
245 190 27
246 340 290
247 180 15
248 147 210
249 102 42
250 8 363
251 250 183
252 193 18
253 287 343
254 17 348
255 96 22
256 46 102
257 371 396
258 365 303
259 196 129
260 278 265
261 367 300
262 226 52
263 37 397
264 40 31
265 332 216
266 96 209
267 179 175
268 195 121
269 251 70
270 285 287
271 2 17
272 362 399
273 88 372
274 231 6
275 194 121
276 350 207
277 302 274
278 241 275
279 350 131
280 175 192
281 397 261
282 32 163
283 205 372
284 75 89
285 397 362
286 370 57
287 316 327
288 177 139
289 317 68
290 50 315
291 102 324
292 236 38
293 79 344
294 10 202
295 74 283
296 72 315
297 197 200
298 395 340
299 166 115
300 362 115
301 84 206
302 126 208
303 179 125
304 78 261
305 279 91
306 16 294
307 368 215
308 5 345
309 369 118
310 172 109
311 208 20
312 9 47
313 358 261
314 376 19
315 159 164
316 176 154
317 8 119
318 308 217
319 308 178
320 117 395
321 251 381
322 210 1
323 30 349
324 309 279
325 133 375
326 381 12
327 103 95
328 17 99
329 377 29
330 237 259
331 49 222
332 296 156
333 153 224
334 382 169
335 371 349
336 265 127
337 159 11
338 354 199
339 244 285
340 220 238
341 285 107
342 337 248
343 377 282
344 310 340
345 74 213
346 309 18
347 304 319
348 44 277
349 378 30
350 160 222
351 381 375
352 209 208
353 285 136
354 194 65
355 13 322
356 91 388
357 107 159
358 110 241
359 92 68
360 291 398
361 200 48
362 267 295
363 191 167
364 393 256
365 308 314
366 371 111
367 300 64
368 108 395
369 338 315
370 343 335
371 349 249
372 294 184
373 347 59
374 12 368
375 119 286
376 105 254
377 194 166
378 309 274
379 304 395
380 326 374
381 277 143
382 338 290
383 98 375
384 286 308
385 145 301
386 2 3
387 110 351
388 74 351
389 201 255
390 11 328
391 95 391
392 161 346
393 338 5
394 376 205
395 300 319
396 170 114
397 273 118
398 97 105
399 168 87
400 206 106
401 93 31
402 37 21
403 162 94
404 96 162
405 66 144
406 52 194
407 395 167
408 384 53
409 237 200
410 162 121
411 138 306
412 345 195
413 68 143
414 56 292
415 303 142
416 40 153
417 338 14
418 368 278
419 68 386
420 369 171
421 201 6
422 5 266
423 311 344
424 131 275
425 247 377
426 174 326
427 6 20
428 353 3
429 352 383
430 23 317
431 221 225
432 278 289
433 380 390
434 175 304
435 348 41
436 26 275
437 306 85
438 357 147
439 188 67
440 166 185
441 90 311
442 26 199
443 342 154
444 357 38
445 154 41
446 26 247
447 215 260
448 391 260
449 244 135
450 236 44
451 142 379
452 157 378
453 120 170
454 94 165
455 356 299
456 78 194
457 162 251
458 196 51
459 146 324
460 340 79
461 273 182
462 311 356
463 213 332
464 289 234
465 166 19
466 274 7
467 174 329
468 243 140
469 82 78
470 41 183
471 325 45
472 65 335
473 226 378
474 44 296
475 103 361
476 169 235
477 41 337
478 388 106
479 350 214
480 325 130
481 339 69
482 279 247
483 236 119
484 170 176
485 246 247
486 388 275
487 286 44
488 100 218
489 336 386
490 186 75
491 76 90
492 52 343
493 362 378
494 138 143
495 169 352
496 352 303
497 343 359
498 92 255
499 338 150
500 125 122
501 58 98
502 308 327
503 74 231
504 330 76
505 165 264
506 214 119
507 94 268
508 11 274
509 54 108
510 68 215
511 334 100
512 256 356
513 115 51
514 391 136
515 387 267
516 106 302
517 398 325
518 74 87
519 294 118
520 142 262
521 380 145
522 364 55
523 379 126
524 12 40
525 177 77
526 185 180
527 382 49
528 314 257
529 271 116
530 336 201
531 341 33
532 344 321
533 276 298
534 371 386
535 319 113
536 362 207
537 146 301
538 146 174
539 247 212
540 356 315
541 43 67
542 163 207
543 32 78
544 55 341
545 117 381
546 39 34
547 277 163
548 397 133
549 180 359
550 266 13
551 48 358
552 87 378
553 41 93
554 173 384
555 320 211
556 291 304
557 108 48
558 102 84
559 138 326
560 244 176
561 287 225
562 324 194
563 400 109
564 136 226
565 5 344
566 374 175
567 122 397
568 310 163
569 24 57
570 77 319
571 398 258
572 111 4
573 70 231
574 389 171
575 212 197
576 246 298
577 299 351
578 305 257
579 153 222
580 343 184
581 42 197
582 131 82
583 41 340
584 85 256
585 196 77
586 156 4
587 202 158
588 372 382
589 234 214
590 67 318
591 57 381
592 118 122
593 178 353
594 114 88
595 51 64
596 73 4
597 196 107
598 343 322
599 297 240
600 262 212
601 279 148
602 316 112
603 231 182
604 183 71
605 257 98
606 326 156
607 48 278
608 113 80
609 323 218
610 126 90
611 238 119
612 334 92
613 228 341
614 294 249
615 384 64
616 233 100
617 15 4
618 294 13
619 381 144
620 193 216
621 68 378
622 102 377
623 220 71
624 338 106
625 262 30
626 394 299
627 63 166
628 38 366
629 45 85
630 116 195
631 390 357
632 328 39
633 171 168
634 246 47
635 4 280
636 256 145
637 153 315
638 8 285
639 351 199
640 111 286
641 34 371
642 230 139
643 59 285
644 93 283
645 317 240
646 49 187
647 374 163
648 134 320
649 262 390
650 26 260
651 80 365
652 246 244
653 192 291
654 173 72
655 364 23
656 31 360
657 321 144
658 296 388
659 268 223
660 107 98
661 32 229
662 140 387
663 302 300
664 56 97
665 359 389
666 320 373
667 140 131
668 102 118
669 330 313
670 344 72
671 37 106
672 316 383
673 75 76
674 262 233
675 320 166
676 36 286
677 236 171
678 177 55
679 91 233
680 244 56
681 317 183
682 192 332
683 299 308
684 350 18
685 196 138
686 110 290
687 297 137
688 35 79
689 335 202
690 85 333
691 18 294
692 320 24
693 159 79
694 13 167
695 322 281
696 150 49
697 26 372
698 168 100
699 236 260
700 50 385
701 199 22
702 143 20
703 352 156
704 220 38
705 213 280
706 384 47
707 101 8
708 3 2
709 396 106
710 124 221
711 84 221
712 92 73
713 369 211
714 186 355
715 3 15
716 46 110
717 349 181
718 102 252
719 154 68
720 325 294
721 381 290
722 302 345
723 36 203
724 81 156
725 100 15
726 209 167
727 69 82
728 163 264
729 186 145
730 140 40
731 40 336
732 231 76
733 380 126
734 16 311
735 395 113
736 253 316
737 238 124
738 240 201
739 380 339
740 271 371
741 155 159
742 53 51
743 2 200
744 164 80
745 194 43
746 43 121
747 2 29
748 397 73
749 7 143
750 37 119
751 367 361
752 137 68
753 102 149
754 306 361
755 135 384
756 105 360
757 187 23
758 56 156
759 217 98
760 229 371
761 399 179
762 379 254
763 193 29
764 88 121
765 344 236
766 145 165
767 11 135
768 300 272
769 348 371
770 266 8
771 349 135
772 359 31
773 59 49
774 0 155
775 18 235
776 177 174
777 213 305
778 201 242
779 41 399
780 4 60
781 321 85
782 254 0
783 229 105
784 243 215
785 231 36
786 278 221
787 243 209
788 168 268
789 284 311
790 231 320
791 219 49
792 234 37
793 259 4
794 8 384
795 243 275
796 13 96
797 246 152
798 38 291
799 18 102
800 163 364
801 292 33
802 192 200
803 316 383
804 230 139
805 236 38
806 310 163
807 9 47
808 359 31
809 70 231
810 285 184
811 44 277
812 250 183
813 122 397
814 145 165
815 337 81
816 82 78
817 78 261
818 291 304
819 344 236
820 230 266
821 169 352
822 375 294
823 108 395
824 42 197
825 98 375
826 123 176
827 384 72
828 142 238
829 352 383
830 208 86
831 156 32
832 362 115
833 342 154
834 39 34
835 91 61
836 170 176
837 194 43
838 317 240
839 11 135
840 206 7
841 294 249
842 38 366
843 124 221
PICKUP_AND_DELIVERY_SECTION
1 0 0 1688 0 0 0
2 -23 601 611 10 378 0
3 6 1180 1190 0 0 826
4 15 428 438 10 0 782
5 -30 606 616 10 473 0
6 23 219 229 10 0 545
7 21 998 1008 10 0 674
8 -15 848 858 10 500 0
9 32 201 211 10 0 775
10 -7 978 988 10 105 0
11 -8 548 558 10 335 0
12 14 835 845 10 0 715
13 26 852 862 10 0 203
14 -31 507 517 10 682 0
15 22 723 733 0 0 815
16 -30 869 879 10 467 0
17 9 56 66 10 0 277
18 -25 1019 1029 10 675 0
19 13 569 579 10 0 150
20 12 708 718 10 0 696
21 34 800 810 0 0 831
22 12 415 425 10 0 639
23 -39 688 698 10 246 0
24 11 991 1001 10 0 222
25 24 627 637 10 0 278
26 24 597 607 10 0 787
27 24 161 171 10 0 230
28 -21 1026 1036 10 466 0
29 -18 1224 1234 10 508 0
30 -21 1226 1236 10 718 0
31 16 557 567 10 0 314
32 26 150 160 10 0 608
33 5 820 830 10 0 163
34 -13 1336 1346 10 801 0
35 -24 1342 1352 10 272 0
36 -13 455 465 10 519 0
37 30 606 616 10 0 177
38 19 36 46 10 0 461
39 28 580 590 10 0 668
40 -2 878 888 10 532 0
41 -1 761 771 10 410 0
42 22 344 354 10 0 504
43 -38 793 803 10 49 0
44 14 518 528 10 0 448
45 -14 341 351 10 395 0
46 13 266 276 10 0 343
47 26 733 743 10 0 317
48 24 316 326 10 0 326
49 38 429 439 10 0 43
50 10 1486 1496 0 0 835
51 14 97 107 10 0 664
52 29 265 275 10 0 93
53 -13 964 974 10 82 0
54 22 1236 1246 10 0 209
55 -35 530 540 10 336 0
56 16 675 685 10 0 523
57 -16 1027 1037 10 716 0
58 -23 866 876 10 124 0
59 -28 1146 1156 10 529 0
60 -17 670 680 10 494 0
61 -3 1298 1308 10 200 0
62 14 66 76 10 0 111
63 -22 1039 1049 10 452 0
64 15 313 323 10 0 85
65 10 89 99 10 0 723
66 43 94 104 10 0 777
67 -24 1051 1061 10 298 0
68 -34 337 347 10 397 0
69 24 155 165 10 0 557
70 37 351 361 10 0 384
71 24 1202 1212 10 0 302
72 12 737 747 10 0 535
73 3 931 941 10 0 553
74 18 223 233 10 0 263
75 -8 1327 1337 10 496 0
76 -20 378 388 10 210 0
77 -26 751 761 10 327 0
78 -16 1087 1097 10 676 0
79 18 50 60 10 0 223
80 -20 815 825 10 524 0
81 24 77 87 10 0 213
82 13 79 89 10 0 53
83 22 425 435 10 0 204
84 20 237 247 10 0 319
85 -15 402 412 10 64 0
86 26 178 188 10 0 574
87 10 824 834 10 0 667
88 31 534 544 10 0 485
89 -3 322 332 10 554 0
90 -8 675 685 10 605 0
91 3 1187 1197 0 0 828
92 -5 1213 1223 10 182 0
93 -29 411 421 10 52 0
94 24 908 918 10 0 367
95 -8 1230 1240 10 449 0
96 -16 771 781 10 650 0
97 -19 230 240 10 432 0
98 -17 130 140 10 409 0
99 11 321 331 10 0 561
100 -17 473 483 10 332 0
101 -17 226 236 10 440 0
102 36 203 213 10 0 463
103 -15 892 902 10 768 0
104 14 555 565 10 0 778
105 7 390 400 10 0 10
106 2 613 623 0 0 822
107 -22 954 964 10 270 0
108 -12 1092 1102 10 450 0
109 -16 671 681 10 389 0
110 26 643 653 10 0 207
111 -14 332 342 10 62 0
112 1 166 176 10 0 407
113 8 813 823 10 0 349
114 22 943 953 10 0 132
115 -33 1015 1025 10 345 0
116 9 20 30 10 0 606
117 -15 188 198 10 741 0
118 21 883 893 10 0 636
119 28 782 792 10 0 576
120 -35 1075 1085 10 743 0
121 25 108 118 10 0 265
122 -7 1571 1581 10 588 0
123 11 784 794 10 0 283
124 23 725 735 10 0 58
125 21 433 443 10 0 627
126 -26 571 581 10 162 0
127 -25 1126 1136 10 421 0
128 22 600 610 10 0 684
129 17 279 289 10 0 309
130 -23 923 933 10 260 0
131 -39 513 523 10 654 0
132 -22 1115 1125 10 114 0
133 8 804 814 0 0 840
134 13 405 415 10 0 253
135 -18 1134 1144 10 379 0
136 -22 646 656 10 252 0
137 15 623 633 10 0 754
138 16 70 80 10 0 742
139 14 103 113 10 0 382
140 -16 782 792 10 431 0
141 7 884 894 10 0 357
142 15 240 250 10 0 254
143 8 1020 1030 10 0 518
144 12 260 270 10 0 250
145 -15 1386 1396 10 333 0
146 7 272 282 10 0 380
147 -15 1325 1335 10 404 0
148 23 477 487 10 0 521
149 12 91 101 10 0 616
150 -13 1152 1162 10 19 0
151 -16 1298 1308 10 419 0
152 2 473 483 10 0 666
153 19 496 506 10 0 575
154 2 968 978 0 0 830
155 20 567 577 10 0 258
156 33 530 540 10 0 609
157 1 1036 1046 10 0 208
158 -7 385 395 10 784 0
159 35 104 114 10 0 736
160 -21 632 642 10 725 0
161 -9 974 984 10 735 0
162 26 413 423 10 0 126
163 -5 1008 1018 10 33 0
164 14 216 226 10 0 712
165 -17 295 305 10 249 0
166 21 200 210 10 0 663
167 -3 566 576 10 686 0
168 -9 575 585 10 282 0
169 17 944 954 10 0 170
170 -17 1116 1126 10 169 0
171 -9 147 157 10 447 0
172 21 266 276 10 0 493
173 -29 887 897 10 405 0
174 14 858 868 0 0 820
175 -29 825 835 10 698 0
176 -29 907 917 10 780 0
177 -30 658 668 10 37 0
178 29 412 422 10 0 341
179 10 531 541 10 0 711
180 -15 563 573 10 416 0
181 -18 779 789 10 799 0
182 5 613 623 10 0 92
183 -13 1196 1206 10 665 0
184 12 5 15 10 0 531
185 20 172 182 10 0 764
186 8 169 179 10 0 355
187 -18 935 945 10 635 0
188 22 13 23 0 0 802
189 33 624 634 10 0 613
190 5 509 519 10 0 689
191 11 802 812 10 0 757
192 -31 967 977 10 446 0
193 12 350 360 10 0 740
194 -3 852 862 10 366 0
195 -23 674 684 10 201 0
196 -26 1285 1295 10 346 0
197 -25 537 547 10 714 0
198 -19 843 853 10 324 0
199 7 734 744 10 0 295
200 3 1145 1155 10 0 61
201 23 662 672 10 0 195
202 19 318 328 10 0 296
203 -26 1322 1332 10 13 0
204 -22 849 859 10 83 0
205 29 25 35 10 0 445
206 13 453 463 10 0 731
207 -26 878 888 10 110 0
208 -1 1318 1328 10 157 0
209 -22 1360 1370 10 54 0
210 20 180 190 10 0 76
211 -14 1162 1172 10 386 0
212 19 100 110 10 0 695
213 -24 672 682 10 81 0
214 -5 545 555 10 391 0
215 21 1003 1013 0 0 827
216 8 165 175 10 0 506
217 -25 574 584 10 679 0
218 22 594 604 10 0 702
219 -9 641 651 10 406 0
220 -21 1045 1055 10 800 0
221 19 83 93 10 0 653
222 -11 1069 1079 10 24 0
223 -18 723 733 10 79 0
224 -12 561 571 10 792 0
225 -12 1252 1262 10 572 0
226 -4 627 637 10 303 0
227 9 1040 1050 0 0 810
228 21 643 653 10 0 477
229 29 663 673 10 0 328
230 -24 687 697 10 27 0
231 -6 172 182 10 555 0
232 -9 1207 1217 10 369 0
233 -26 800 810 10 770 0
234 35 232 242 10 0 762
235 -15 422 432 10 285 0
236 -29 816 826 10 612 0
237 -19 1190 1200 10 789 0
238 11 588 598 10 0 307
239 -5 728 738 10 454 0
240 19 39 49 10 0 488
241 16 840 850 10 0 481
242 -19 1223 1233 10 593 0
243 8 185 195 10 0 507
244 11 719 729 10 0 719
245 10 426 436 10 0 701
246 39 461 471 10 0 23
247 -17 885 895 10 611 0
248 23 53 63 10 0 442
249 17 192 202 10 0 165
250 -12 889 899 10 144 0
251 24 1032 1042 0 0 812
252 22 446 456 10 0 136
253 -13 730 740 10 134 0
254 -15 448 458 10 142 0
255 -9 826 836 10 264 0
256 25 614 624 10 0 796
257 -36 611 621 10 433 0
258 -20 912 922 10 155 0
259 -9 776 786 10 396 0
260 23 659 669 10 0 130
261 -18 459 469 10 540 0
262 17 505 515 10 0 623
263 -18 835 845 10 74 0
264 9 586 596 10 0 255
265 -25 457 467 10 121 0
266 28 133 143 10 0 301
267 2 32 42 10 0 685
268 23 881 891 10 0 363
269 24 468 478 10 0 487
270 22 755 765 10 0 107
271 -18 279 289 10 569 0
272 24 900 910 10 0 35
273 -21 364 374 10 387 0
274 32 711 721 10 0 585
275 21 1282 1292 10 0 729
276 -29 388 398 10 681 0
277 -9 302 312 10 17 0
278 -24 706 716 10 25 0
279 -16 812 822 10 499 0
280 -25 934 944 10 724 0
281 16 595 605 10 0 479
282 9 229 239 10 0 168
283 -11 899 909 10 123 0
284 18 836 846 10 0 413
285 15 260 270 10 0 235
286 -18 1128 1138 10 536 0
287 -29 773 783 10 705 0
288 -18 1590 1600 10 513 0
289 -8 1170 1180 10 670 0
290 4 638 648 10 0 565
291 23 501 511 10 0 375
292 38 443 453 0 0 805
293 16 227 237 10 0 350
294 -42 336 346 10 694 0
295 -7 1096 1106 10 199 0
296 -19 691 701 10 202 0
297 15 3 13 10 0 377
298 24 240 250 10 0 67
299 -19 1259 1269 10 359 0
300 11 1071 1081 0 0 832
301 -28 587 597 10 266 0
302 -24 1380 1390 10 71 0
303 4 77 87 10 0 226
304 32 136 146 0 0 817
305 -28 1318 1328 10 692 0
306 21 388 398 10 0 308
307 -11 737 747 10 238 0
308 -21 1221 1231 10 306 0
309 -17 1062 1072 10 129 0
310 13 100 110 10 0 361
311 10 611 621 10 0 465
312 5 863 873 0 0 807
313 -10 760 770 10 533 0
314 -16 1291 1301 10 31 0
315 -31 1346 1356 10 610 0
316 15 51 61 10 0 458
317 -26 849 859 10 47 0
318 -26 1002 1012 10 342 0
319 -20 408 418 10 84 0
320 -8 411 421 10 662 0
321 -19 278 288 10 512 0
322 11 1010 1020 10 0 633
323 -18 688 698 10 474 0
324 19 167 177 10 0 198
325 -13 660 670 10 755 0
326 -24 601 611 10 48 0
327 26 606 616 10 0 77
328 -29 1016 1026 10 229 0
329 22 757 767 10 0 444
330 -21 1184 1194 10 683 0
331 -30 1137 1147 10 498 0
332 17 113 123 10 0 100
333 15 795 805 10 0 145
334 23 668 678 10 0 480
335 8 273 283 10 0 11
336 35 97 107 10 0 55
337 7 1198 1208 10 0 596
338 -17 1290 1300 10 580 0
339 -23 1328 1338 10 365 0
340 12 42 52 10 0 739
341 -29 510 520 10 178 0
342 26 487 497 10 0 318
343 -13 398 408 10 46 0
344 11 183 193 10 0 370
345 33 445 455 10 0 115
346 26 406 416 10 0 196
347 -4 871 881 10 790 0
348 9 544 554 0 0 811
349 -8 1110 1120 10 113 0
350 -16 1304 1314 10 293 0
351 -22 1081 1091 10 517 0
352 8 12 22 10 0 471
353 -9 1099 1109 10 602 0
354 16 396 406 10 0 604
355 -8 378 388 10 186 0
356 2 225 235 10 0 651
357 -7 1042 1052 10 141 0
358 9 98 108 10 0 607
359 19 730 740 10 0 299
360 -21 541 551 10 649 0
361 -13 230 240 10 310 0
362 -14 741 751 10 577 0
363 -23 962 972 10 268 0
364 13 399 409 10 0 486
365 23 650 660 10 0 339
366 3 259 269 10 0 194
367 -24 1167 1177 10 94 0
368 12 583 593 0 0 823
369 9 962 972 10 0 232
370 -11 863 873 10 344 0
371 -12 880 890 10 571 0
372 -27 1083 1093 10 669 0
373 23 481 491 10 0 435
374 12 781 791 10 0 794
375 -23 839 849 10 291 0
376 12 419 429 10 0 661
377 -15 698 708 10 297 0
378 23 351 361 10 0 2
379 18 539 549 10 0 135
380 -7 588 598 10 146 0
381 -29 654 664 10 547 0
382 -14 660 670 10 139 0
383 29 202 212 0 0 825
384 -37 637 647 10 70 0
385 8 115 125 10 0 537
386 14 804 814 10 0 211
387 21 175 185 10 0 273
388 32 970 980 10 0 570
389 16 55 65 10 0 109
390 -10 777 787 10 430 0
391 5 483 493 10 0 214
392 -11 1066 1076 10 451 0
393 23 1027 1037 10 0 417
394 -20 463 473 10 589 0
395 14 162 172 10 0 45
396 9 647 657 10 0 259
397 34 116 126 10 0 68
398 -11 954 964 10 727 0
399 -3 927 937 10 707 0
400 -17 298 308 10 726 0
401 -27 668 678 10 427 0
402 -18 919 929 10 617 0
403 11 112 122 10 0 752
404 15 922 932 10 0 147
405 29 150 160 10 0 173
406 9 559 569 10 0 219
407 -1 990 1000 10 112 0
408 -9 960 970 10 527 0
409 17 37 47 10 0 98
410 1 87 97 10 0 41
411 1 874 884 10 0 542
412 -29 942 952 10 647 0
413 -18 1265 1275 10 284 0
414 30 516 526 10 0 643
415 10 1087 1097 10 0 601
416 15 166 176 10 0 180
417 -23 1211 1221 10 393 0
418 20 251 261 10 0 721
419 16 319 329 10 0 151
420 23 171 181 10 0 566
421 25 595 605 10 0 127
422 32 378 388 10 0 691
423 26 197 207 10 0 598
424 30 539 549 10 0 564
425 -7 1225 1235 10 760 0
426 -17 965 975 10 559 0
427 27 273 283 10 0 401
428 20 266 276 10 0 655
429 16 808 818 0 0 829
430 10 464 474 10 0 390
431 16 32 42 10 0 140
432 19 118 128 10 0 97
433 36 267 277 10 0 257
434 24 106 116 10 0 549
435 -23 668 678 10 373 0
436 -20 1142 1152 10 505 0
437 -18 1154 1164 10 603 0
438 -18 541 551 10 619 0
439 14 1059 1069 10 0 597
440 17 37 47 10 0 101
441 -19 679 689 10 690 0
442 -23 818 828 10 248 0
443 25 410 420 0 0 833
444 -22 1114 1124 10 329 0
445 -29 1296 1306 10 205 0
446 31 398 408 10 0 192
447 9 61 71 10 0 171
448 -14 614 624 10 44 0
449 8 682 692 10 0 95
450 12 784 794 10 0 108
451 11 790 800 10 0 392
452 22 926 936 10 0 63
453 24 467 477 10 0 753
454 5 659 669 10 0 239
455 -23 1061 1071 10 769 0
456 -33 948 958 10 579 0
457 21 63 73 10 0 590
458 -15 540 550 10 316 0
459 -22 1422 1432 10 591 0
460 30 680 690 10 0 468
461 -19 860 870 10 38 0
462 9 191 201 10 0 620
463 -36 728 738 10 102 0
464 33 95 105 10 0 599
465 -10 1209 1219 10 311 0
466 21 339 349 10 0 28
467 30 710 720 10 0 16
468 -30 1283 1293 10 460 0
469 20 1196 1206 0 0 816
470 -4 1187 1197 10 749 0
471 -8 599 609 10 352 0
472 -21 339 349 10 640 0
473 30 369 379 10 0 5
474 18 494 504 10 0 323
475 25 470 480 10 0 756
476 35 46 56 10 0 646
477 -21 679 689 10 228 0
478 -31 274 284 10 733 0
479 -16 830 840 10 281 0
480 -23 1048 1058 10 334 0
481 -16 976 986 10 241 0
482 12 91 101 10 0 578
483 -26 1360 1370 10 783 0
484 19 1026 1036 0 0 836
485 -31 689 699 10 88 0
486 -13 937 947 10 364 0
487 -24 576 586 10 269 0
488 -19 113 123 10 240 0
489 -13 737 747 10 528 0
490 35 790 800 10 0 525
491 -15 757 767 10 501 0
492 -18 437 447 10 641 0
493 -21 482 492 10 172 0
494 17 92 102 10 0 60
495 7 259 269 0 0 821
496 8 1082 1092 10 0 75
497 26 466 476 10 0 751
498 30 434 444 10 0 331
499 16 778 788 10 0 279
500 15 121 131 10 0 8
501 15 273 283 10 0 491
502 -9 398 408 10 722 0
503 11 484 494 10 0 510
504 -22 938 948 10 42 0
505 20 72 82 10 0 436
506 -8 1025 1035 10 216 0
507 -8 375 385 10 243 0
508 18 810 820 10 0 29
509 17 277 287 10 0 671
510 -11 981 991 10 503 0
511 -8 1147 1157 10 624 0
512 19 173 183 10 0 321
513 18 858 868 10 0 288
514 33 223 233 10 0 530
515 11 902 912 10 0 562
516 3 138 148 10 0 638
517 22 885 895 10 0 351
518 -8 1365 1375 10 143 0
519 13 124 134 10 0 36
520 -26 522 532 10 728 0
521 -23 533 543 10 148 0
522 -24 350 360 10 560 0
523 -16 876 886 10 56 0
524 20 625 635 10 0 80
525 -35 809 819 10 490 0
526 -15 1643 1653 10 582 0
527 9 886 896 10 0 408
528 13 127 137 10 0 489
529 28 919 929 10 0 59
530 -33 830 840 10 514 0
531 -12 289 299 10 184 0
532 2 264 274 10 0 40
533 10 124 134 10 0 313
534 23 335 345 10 0 631
535 -12 1177 1187 10 72 0
536 18 806 816 10 0 286
537 -8 363 373 10 385 0
538 23 59 69 10 0 688
539 15 182 192 10 0 687
540 18 431 441 10 0 261
541 15 418 428 10 0 543
542 -1 1135 1145 10 411 0
543 -15 659 669 10 541 0
544 14 685 695 10 0 583
545 -23 632 642 10 6 0
546 10 252 262 0 0 834
547 29 601 611 10 0 381
548 -26 751 761 10 761 0
549 -24 951 961 10 434 0
550 -26 689 699 10 618 0
551 -10 886 896 10 621 0
552 25 377 387 10 0 700
553 -3 1004 1014 10 73 0
554 3 185 195 10 0 89
555 6 120 130 10 0 231
556 9 1048 1058 0 0 818
557 -24 842 852 10 69 0
558 3 175 185 10 0 773
559 17 571 581 10 0 426
560 24 50 60 10 0 522
561 -11 756 766 10 99 0
562 -11 1076 1086 10 515 0
563 -15 857 867 10 748 0
564 -30 1008 1018 10 424 0
565 -4 1269 1279 10 290 0
566 -23 354 364 10 420 0
567 22 586 596 0 0 813
568 20 702 712 0 0 806
569 18 226 236 10 0 271
570 -32 1249 1259 10 388 0
571 12 608 618 10 0 371
572 12 520 530 10 0 225
573 16 1107 1117 0 0 809
574 -26 461 471 10 86 0
575 -19 864 874 10 153 0
576 -28 966 976 10 119 0
577 14 180 190 10 0 362
578 -12 629 639 10 482 0
579 33 51 61 10 0 456
580 17 1133 1143 10 0 338
581 26 379 389 0 0 824
582 15 906 916 10 0 526
583 -14 873 883 10 544 0
584 -13 1014 1024 10 644 0
585 -32 838 848 10 274 0
586 25 220 230 10 0 763
587 -10 1168 1178 10 776 0
588 7 635 645 10 0 122
589 20 36 46 10 0 394
590 -21 256 266 10 457 0
591 22 239 249 10 0 459
592 -15 960 970 10 693 0
593 19 968 978 10 0 242
594 -23 684 694 10 673 0
595 -21 805 815 10 660 0
596 -7 1416 1426 10 337 0
597 -14 1339 1349 10 439 0
598 -26 821 831 10 423 0
599 -33 270 280 10 464 0
600 -13 1135 1145 10 738 0
601 -10 1462 1472 10 415 0
602 9 974 984 10 0 353
603 18 35 45 10 0 437
604 -16 775 785 10 354 0
605 8 348 358 10 0 90
606 -9 301 311 10 116 0
607 -9 176 186 10 358 0
608 -26 176 186 10 32 0
609 -33 830 840 10 156 0
610 31 876 886 10 0 315
611 17 683 693 10 0 247
612 29 454 464 10 0 236
613 -33 1017 1027 10 189 0
614 8 481 491 0 0 841
615 -11 1076 1086 10 632 0
616 -12 696 706 10 149 0
617 18 709 719 10 0 402
618 26 597 607 10 0 550
619 18 500 510 10 0 438
620 -9 1241 1251 10 462 0
621 10 692 702 10 0 551
622 -13 994 1004 10 779 0
623 -17 686 696 10 262 0
624 8 961 971 10 0 511
625 8 180 190 10 0 634
626 14 804 814 10 0 720
627 -21 1006 1016 10 125 0
628 18 268 278 0 0 842
629 10 925 935 10 0 746
630 -19 1076 1086 10 758 0
631 -23 1051 1061 10 534 0
632 11 766 776 10 0 615
633 -11 1363 1373 10 322 0
634 -8 1131 1141 10 625 0
635 18 248 258 10 0 187
636 -21 1154 1164 10 118 0
637 16 124 134 10 0 648
638 -3 333 343 10 516 0
639 -12 802 812 10 22 0
640 21 143 153 10 0 472
641 18 390 400 10 0 492
642 14 1308 1318 0 0 804
643 -30 1157 1167 10 414 0
644 13 341 351 10 0 584
645 16 314 324 0 0 838
646 -35 201 211 10 476 0
647 29 325 335 10 0 412
648 -16 175 185 10 637 0
649 21 486 496 10 0 360
650 16 639 649 10 0 96
651 -2 459 469 10 356 0
652 33 689 699 10 0 786
653 -19 114 124 10 221 0
654 39 284 294 10 0 131
655 -20 1075 1085 10 428 0
656 -14 287 297 10 697 0
657 -6 1074 1084 10 703 0
658 41 272 282 10 0 788
659 20 71 81 10 0 771
660 21 143 153 10 0 595
661 -12 1064 1074 10 376 0
662 8 203 213 10 0 320
663 -21 842 852 10 166 0
664 -14 951 961 10 51 0
665 13 1064 1074 10 0 183
666 -2 561 571 10 152 0
667 -10 889 899 10 87 0
668 -28 1179 1189 10 39 0
669 27 172 182 10 0 372
670 8 1075 1085 10 0 289
671 -17 368 378 10 509 0
672 14 826 836 0 0 803
673 23 339 349 10 0 594
674 -21 1120 1130 10 7 0
675 25 596 606 10 0 18
676 16 772 782 10 0 78
677 27 46 56 10 0 797
678 -32 766 776 10 704 0
679 25 476 486 10 0 217
680 14 672 682 10 0 785
681 29 128 138 10 0 276
682 31 448 458 10 0 14
683 21 573 583 10 0 330
684 -22 1146 1156 10 128 0
685 -2 82 92 10 267 0
686 3 132 142 10 0 167
687 -15 468 478 10 539 0
688 -23 433 443 10 538 0
689 -5 839 849 10 190 0
690 19 586 596 10 0 441
691 -32 497 507 10 422 0
692 28 1018 1028 10 0 305
693 15 802 812 10 0 592
694 42 195 205 10 0 294
695 -19 152 162 10 212 0
696 -12 858 868 10 20 0
697 14 244 254 10 0 656
698 29 642 652 10 0 175
699 -31 1129 1139 10 795 0
700 -25 833 843 10 552 0
701 -10 463 473 10 245 0
702 -22 1227 1237 10 218 0
703 6 908 918 10 0 657
704 32 590 600 10 0 678
705 29 81 91 10 0 287
706 -18 1101 1111 10 709 0
707 3 397 407 10 0 399
708 16 966 976 10 0 747
709 18 280 290 10 0 706
710 27 1013 1023 0 0 843
711 -10 1113 1123 10 179 0
712 -14 347 357 10 164 0
713 -1 473 483 10 717 0
714 25 155 165 10 0 197
715 -14 1112 1122 10 12 0
716 16 573 583 10 0 57
717 1 299 309 10 0 713
718 21 110 120 10 0 30
719 -11 749 759 10 244 0
720 -14 1156 1166 10 626 0
721 -20 479 489 10 418 0
722 9 239 249 10 0 502
723 -10 390 400 10 65 0
724 25 445 455 10 0 280
725 21 326 336 10 0 160
726 17 34 44 10 0 400
727 11 885 895 10 0 398
728 26 73 83 10 0 520
729 -21 1500 1510 10 275 0
730 27 1025 1035 10 0 744
731 -13 1215 1225 10 206 0
732 -23 826 836 10 791 0
733 31 212 222 10 0 478
734 10 303 313 10 0 798
735 9 590 600 10 0 161
736 -35 431 441 10 159 0
737 -16 587 597 10 781 0
738 13 764 774 10 0 600
739 -12 751 761 10 340 0
740 -12 762 772 10 193 0
741 15 66 76 10 0 117
742 -16 245 255 10 138 0
743 35 351 361 10 0 120
744 -27 1193 1203 10 730 0
745 26 735 745 0 0 837
746 -10 995 1005 10 629 0
747 -16 1373 1383 10 708 0
748 15 234 244 10 0 563
749 4 343 353 10 0 470
750 -9 536 546 10 774 0
751 -26 497 507 10 497 0
752 -11 154 164 10 403 0
753 -24 517 527 10 453 0
754 -15 715 725 10 137 0
755 13 254 264 10 0 325
756 -25 796 806 10 475 0
757 -11 1013 1023 10 191 0
758 19 693 703 10 0 630
759 19 103 113 10 0 793
760 7 1023 1033 10 0 425
761 26 458 468 10 0 548
762 -35 299 309 10 234 0
763 -25 767 777 10 586 0
764 -20 578 588 10 185 0
765 28 894 904 0 0 819
766 13 65 75 0 0 814
767 28 269 279 0 0 839
768 15 703 713 10 0 103
769 23 662 672 10 0 455
770 26 590 600 10 0 233
771 -20 558 568 10 659 0
772 11 1263 1273 0 0 808
773 -3 419 429 10 558 0
774 9 205 215 10 0 750
775 -32 228 238 10 9 0
776 10 34 44 10 0 587
777 -43 500 510 10 66 0
778 -14 780 790 10 104 0
779 13 271 281 10 0 622
780 29 250 260 10 0 176
781 16 444 454 10 0 737
782 -15 683 693 10 4 0
783 26 865 875 10 0 483
784 7 45 55 10 0 158
785 -14 1041 1051 10 680 0
786 -33 912 922 10 652 0
787 -24 1389 1399 10 26 0
788 -41 1063 1073 10 658 0
789 19 359 369 10 0 237
790 4 170 180 10 0 347
791 23 471 481 10 0 732
792 12 522 532 10 0 224
793 -19 616 626 10 759 0
794 -12 1021 1031 10 374 0
795 31 930 940 10 0 699
796 -25 761 771 10 256 0
797 -27 611 621 10 677 0
798 -10 519 529 10 734 0
799 18 242 252 10 0 181
800 21 797 807 10 0 220
801 13 954 964 10 0 34
802 -22 13 23 10 188 0
803 -14 826 836 10 672 0
804 -14 1308 1318 10 642 0
805 -38 443 453 10 292 0
806 -20 702 712 10 568 0
807 -5 863 873 10 312 0
808 -11 1263 1273 10 772 0
809 -16 1107 1117 10 573 0
810 -9 1040 1050 10 227 0
811 -9 544 554 10 348 0
812 -24 1032 1042 10 251 0
813 -22 586 596 10 567 0
814 -13 65 75 10 766 0
815 -22 723 733 10 15 0
816 -20 1196 1206 10 469 0
817 -32 136 146 10 304 0
818 -9 1048 1058 10 556 0
819 -28 894 904 10 765 0
820 -14 858 868 10 174 0
821 -7 259 269 10 495 0
822 -2 613 623 10 106 0
823 -12 583 593 10 368 0
824 -26 379 389 10 581 0
825 -29 202 212 10 383 0
826 -6 1180 1190 10 3 0
827 -21 1003 1013 10 215 0
828 -3 1187 1197 10 91 0
829 -16 808 818 10 429 0
830 -2 968 978 10 154 0
831 -34 800 810 10 21 0
832 -11 1071 1081 10 300 0
833 -25 410 420 10 443 0
834 -10 252 262 10 546 0
835 -10 1486 1496 10 50 0
836 -19 1026 1036 10 484 0
837 -26 735 745 10 745 0
838 -16 314 324 10 645 0
839 -28 269 279 10 767 0
840 -8 804 814 10 133 0
841 -8 481 491 10 614 0
842 -18 268 278 10 628 0
843 -27 1013 1023 10 710 0
DEPOT_SECTION
1
-1
EOF
