NAME: lr1_8_9
TYPE: PDPTW
COMMENT: Li & Lim PDPTW benchmark converted from SINTEF format
DIMENSION: 835
VEHICLES: 200
CAPACITY: 200
EDGE_WEIGHT_TYPE: EUC_2D
NODE_COORD_SECTION
1 200 200
2 321 287
3 123 176
4 234 20
5 256 385
6 108 399
7 303 258
8 148 94
9 35 238
10 356 223
11 349 324
12 29 9
13 21 82
14 146 320
15 337 81
16 160 313
17 237 243
18 343 134
19 13 59
20 123 30
21 156 32
22 361 194
23 330 310
24 326 335
25 209 283
26 267 221
27 57 124
28 280 5
29 92 238
30 51 205
31 369 6
32 131 89
33 359 157
34 195 148
35 239 252
36 328 8
37 162 316
38 184 233
39 29 86
40 340 276
41 129 53
42 332 124
43 55 115
44 393 246
45 348 319
46 361 287
47 16 114
48 353 65
49 73 126
50 91 61
51 117 148
52 60 319
53 244 50
54 79 95
55 255 80
56 319 115
57 35 160
58 358 309
59 232 131
60 161 124
61 85 128
62 211 153
63 152 361
64 327 115
65 151 231
66 210 294
67 264 341
68 309 53
69 108 75
70 303 358
71 33 226
72 378 118
73 26 70
74 45 291
75 329 208
76 30 39
77 78 85
78 4 307
79 151 188
80 14 53
81 125 182
82 232 127
83 368 63
84 280 224
85 348 102
86 319 160
87 116 102
88 192 268
89 220 337
90 264 69
91 142 238
92 231 229
93 81 290
94 290 82
95 207 185
96 21 255
97 353 357
98 324 184
99 305 255
100 381 27
101 137 132
102 147 376
103 312 247
104 163 270
105 384 307
106 375 294
107 274 247
108 225 53
109 292 392
110 267 321
111 228 96
112 334 186
113 339 3
114 158 85
115 75 238
116 213 216
117 122 105
118 303 112
119 307 396
120 13 220
121 299 227
122 230 234
123 299 399
124 366 340
125 46 197
126 97 387
127 234 7
128 327 11
129 348 189
130 266 234
131 184 69
132 158 121
133 206 7
134 260 352
135 184 235
136 202 6
137 325 311
138 143 159
139 259 285
140 366 97
141 87 147
142 48 304
143 76 72
144 1 335
145 157 220
146 400 373
147 123 159
148 377 144
149 200 144
150 52 94
151 140 344
152 390 376
153 206 286
154 208 86
155 384 294
156 315 237
157 392 14
158 269 203
159 248 286
160 168 15
161 391 42
162 92 384
163 344 154
164 59 51
165 100 10
166 250 340
167 84 293
168 66 118
169 98 107
170 103 154
171 243 287
172 362 383
173 70 81
174 230 266
175 148 71
176 6 62
177 165 335
178 313 64
179 80 282
180 73 124
181 59 89
182 279 337
183 330 353
184 201 195
185 125 175
186 52 251
187 52 301
188 192 200
189 136 373
190 357 202
191 203 40
192 36 288
193 348 343
194 359 42
195 248 124
196 218 134
197 142 385
198 299 270
199 40 314
200 66 5
201 248 126
202 54 341
203 101 99
204 355 41
205 186 179
206 55 346
207 282 252
208 377 72
209 135 161
210 85 61
211 19 61
212 279 262
213 87 164
214 80 392
215 384 72
216 234 73
217 68 250
218 192 151
219 47 190
220 193 390
221 184 282
222 310 363
223 86 112
224 223 41
225 165 126
226 178 103
227 285 184
228 26 326
229 8 68
230 2 52
231 361 236
232 287 279
233 199 45
234 384 248
235 397 283
236 326 79
237 217 211
238 364 213
239 124 179
240 168 223
241 341 78
242 166 357
243 73 292
244 160 62
245 190 27
246 340 290
247 180 15
248 147 210
249 102 42
250 8 363
251 250 183
252 193 18
253 287 343
254 17 348
255 96 22
256 46 102
257 371 396
258 365 303
259 196 129
260 278 265
261 367 300
262 226 52
263 37 397
264 40 31
265 332 216
266 96 209
267 179 175
268 195 121
269 251 70
270 285 287
271 2 17
272 362 399
273 88 372
274 231 6
275 194 121
276 350 207
277 302 274
278 241 275
279 350 131
280 175 192
281 397 261
282 32 163
283 205 372
284 75 89
285 397 362
286 370 57
287 316 327
288 177 139
289 317 68
290 50 315
291 102 324
292 236 38
293 79 344
294 10 202
295 74 283
296 72 315
297 197 200
298 395 340
299 166 115
300 362 115
301 84 206
302 126 208
303 179 125
304 78 261
305 279 91
306 16 294
307 368 215
308 5 345
309 369 118
310 172 109
311 208 20
312 9 47
313 358 261
314 376 19
315 159 164
316 176 154
317 8 119
318 308 217
319 308 178
320 117 395
321 251 381
322 210 1
323 30 349
324 309 279
325 133 375
326 381 12
327 103 95
328 17 99
329 377 29
330 237 259
331 49 222
332 296 156
333 153 224
334 382 169
335 371 349
336 265 127
337 159 11
338 354 199
339 244 285
340 220 238
341 285 107
342 337 248
343 377 282
344 310 340
345 74 213
346 309 18
347 304 319
348 44 277
349 378 30
350 160 222
351 381 375
352 209 208
353 285 136
354 194 65
355 13 322
356 91 388
357 107 159
358 110 241
359 92 68
360 291 398
361 200 48
362 267 295
363 191 167
364 393 256
365 308 314
366 371 111
367 300 64
368 108 395
369 338 315
370 343 335
371 349 249
372 294 184
373 347 59
374 12 368
375 119 286
376 105 254
377 194 166
378 309 274
379 304 395
380 326 374
381 277 143
382 338 290
383 98 375
384 286 308
385 145 301
386 2 3
387 110 351
388 74 351
389 201 255
390 11 328
391 95 391
392 161 346
393 338 5
394 376 205
395 300 319
396 170 114
397 273 118
398 97 105
399 168 87
400 206 106
401 93 31
402 37 21
403 162 94
404 96 162
405 66 144
406 52 194
407 395 167
408 384 53
409 237 200
410 162 121
411 138 306
412 345 195
413 68 143
414 56 292
415 303 142
416 40 153
417 338 14
418 368 278
419 68 386
420 369 171
421 201 6
422 5 266
423 311 344
424 131 275
425 247 377
426 174 326
427 6 20
428 353 3
429 352 383
430 23 317
431 221 225
432 278 289
433 380 390
434 175 304
435 348 41
436 26 275
437 306 85
438 357 147
439 188 67
440 166 185
441 90 311
442 26 199
443 342 154
444 357 38
445 154 41
446 26 247
447 215 260
448 391 260
449 244 135
450 236 44
451 142 379
452 157 378
453 120 170
454 94 165
455 356 299
456 78 194
457 162 251
458 196 51
459 146 324
460 340 79
461 273 182
462 311 356
463 213 332
464 289 234
465 166 19
466 274 7
467 174 329
468 243 140
469 82 78
470 41 183
471 325 45
472 65 335
473 226 378
474 44 296
475 103 361
476 169 235
477 41 337
478 388 106
479 350 214
480 325 130
481 339 69
482 279 247
483 236 119
484 170 176
485 246 247
486 388 275
487 286 44
488 100 218
489 336 386
490 186 75
491 76 90
492 52 343
493 362 378
494 138 143
495 169 352
496 352 303
497 343 359
498 92 255
499 338 150
500 125 122
501 58 98
502 308 327
503 74 231
504 330 76
505 165 264
506 214 119
507 94 268
508 11 274
509 54 108
510 68 215
511 334 100
512 256 356
513 115 51
514 391 136
515 387 267
516 106 302
517 398 325
518 74 87
519 294 118
520 142 262
521 380 145
522 364 55
523 379 126
524 12 40
525 177 77
526 185 180
527 382 49
528 314 257
529 271 116
530 336 201
531 341 33
532 344 321
533 276 298
534 371 386
535 319 113
536 362 207
537 146 301
538 146 174
539 247 212
540 356 315
541 43 67
542 163 207
543 32 78
544 55 341
545 117 381
546 39 34
547 277 163
548 397 133
549 180 359
550 266 13
551 48 358
552 87 378
553 41 93
554 173 384
555 320 211
556 291 304
557 108 48
558 102 84
559 138 326
560 244 176
561 287 225
562 324 194
563 400 109
564 136 226
565 5 344
566 374 175
567 122 397
568 310 163
569 24 57
570 77 319
571 398 258
572 111 4
573 70 231
574 389 171
575 212 197
576 246 298
577 299 351
578 305 257
579 153 222
580 343 184
581 42 197
582 131 82
583 41 340
584 85 256
585 196 77
586 156 4
587 202 158
588 372 382
589 234 214
590 67 318
591 57 381
592 118 122
593 178 353
594 114 88
595 51 64
596 73 4
597 196 107
598 343 322
599 297 240
600 262 212
601 279 148
602 316 112
603 231 182
604 183 71
605 257 98
606 326 156
607 48 278
608 113 80
609 323 218
610 126 90
611 238 119
612 334 92
613 228 341
614 294 249
615 384 64
616 233 100
617 15 4
618 294 13
619 381 144
620 193 216
621 68 378
622 102 377
623 220 71
624 338 106
625 262 30
626 394 299
627 63 166
628 38 366
629 45 85
630 116 195
631 390 357
632 328 39
633 171 168
634 246 47
635 4 280
636 256 145
637 153 315
638 8 285
639 351 199
640 111 286
641 34 371
642 230 139
643 59 285
644 93 283
645 317 240
646 49 187
647 374 163
648 134 320
649 262 390
650 26 260
651 80 365
652 246 244
653 192 291
654 173 72
655 364 23
656 31 360
657 321 144
658 296 388
659 268 223
660 107 98
661 32 229
662 140 387
663 302 300
664 56 97
665 359 389
666 320 373
667 140 131
668 102 118
669 330 313
670 344 72
671 37 106
672 316 383
673 75 76
674 262 233
675 320 166
676 36 286
677 236 171
678 177 55
679 91 233
680 244 56
681 317 183
682 192 332
683 299 308
684 350 18
685 196 138
686 110 290
687 297 137
688 35 79
689 335 202
690 85 333
691 18 294
692 320 24
693 159 79
694 13 167
695 322 281
696 150 49
697 26 372
698 168 100
699 236 260
700 50 385
701 199 22
702 143 20
703 352 156
704 220 38
705 213 280
706 384 47
707 101 8
708 3 2
709 396 106
710 124 221
711 84 221
712 92 73
713 369 211
714 186 355
715 3 15
716 46 110
717 349 181
718 102 252
719 154 68
720 325 294
721 381 290
722 302 345
723 36 203
724 81 156
725 100 15
726 209 167
727 69 82
728 163 264
729 186 145
730 140 40
731 40 336
732 231 76
733 380 126
734 16 311
735 395 113
736 253 316
737 238 124
738 240 201
739 380 339
740 271 371
741 155 159
742 53 51
743 2 200
744 164 80
745 194 43
746 43 121
747 2 29
748 397 73
749 7 143
750 37 119
751 367 361
752 137 68
753 102 149
754 306 361
755 135 384
756 105 360
757 187 23
758 56 156
759 217 98
760 229 371
761 399 179
762 379 254
763 193 29
764 88 121
765 344 236
766 145 165
767 11 135
768 300 272
769 348 371
770 266 8
771 349 135
772 359 31
773 59 49
774 0 155
775 18 235
776 177 174
777 213 305
778 201 242
779 41 399
780 4 60
781 321 85
782 254 0
783 229 105
784 243 215
785 231 36
786 278 221
787 243 209
788 168 268
789 284 311
790 231 320
791 219 49
792 234 37
793 259 4
794 8 384
795 243 275
796 13 96
797 246 152
798 38 291
799 18 102
800 163 364
801 292 33
802 343 134
803 329 208
804 231 36
805 303 258
806 102 118
807 145 301
808 347 59
809 370 57
810 79 344
811 8 285
812 192 332
813 398 258
814 195 148
815 217 211
816 140 387
817 238 124
818 68 215
819 325 294
820 172 109
821 21 255
822 94 268
823 297 240
824 163 264
825 365 303
826 348 102
827 92 68
828 323 218
829 256 356
830 123 176
831 26 70
832 177 77
833 133 375
834 330 353
835 124 179
PICKUP_AND_DELIVERY_SECTION
1 0 0 1688 0 0 0
2 12 573 638 10 0 137
3 6 1151 1219 0 0 830
4 15 395 471 10 0 218
5 5 586 636 10 0 109
6 23 219 285 10 0 392
7 21 977 1029 0 0 805
8 23 820 887 10 0 667
9 -8 172 240 10 186 0
10 28 946 1019 10 0 600
11 -18 521 586 10 540 0
12 14 811 870 10 0 402
13 -20 826 887 10 210 0
14 22 486 537 10 0 37
15 -26 702 754 10 68 0
16 -41 832 916 10 520 0
17 9 56 104 10 0 253
18 8 1004 1044 0 0 802
19 13 545 604 10 0 229
20 -1 676 749 10 410 0
21 34 779 831 10 0 465
22 12 385 454 10 0 265
23 11 654 733 10 0 313
24 -14 959 1033 10 577 0
25 24 614 651 10 0 278
26 24 559 644 10 0 461
27 24 161 206 10 0 569
28 -32 1009 1053 10 704 0
29 -22 1192 1266 10 188 0
30 -22 1206 1256 10 711 0
31 -15 525 599 10 326 0
32 26 139 172 10 0 513
33 -23 781 869 10 438 0
34 19 1303 1379 0 0 814
35 -8 1309 1385 10 171 0
36 -24 418 503 10 48 0
37 -22 597 625 10 14 0
38 19 36 115 10 0 88
39 -16 547 624 10 138 0
40 -13 863 902 10 46 0
41 -27 738 795 10 165 0
42 -24 325 372 10 560 0
43 -17 767 829 10 440 0
44 -25 502 545 10 121 0
45 -27 302 391 10 669 0
46 13 256 286 10 0 40
47 -15 707 769 10 416 0
48 24 284 358 10 0 36
49 38 408 460 10 0 630
50 -20 1436 1502 10 596 0
51 14 97 198 10 0 180
52 29 246 295 10 0 544
53 -12 924 1015 10 149 0
54 -33 1212 1269 10 398 0
55 11 517 553 10 0 642
56 16 651 708 10 0 468
57 -15 1010 1055 10 750 0
58 -2 841 900 10 532 0
59 -24 1120 1182 10 94 0
60 17 660 690 10 0 337
61 18 1282 1324 10 0 315
62 14 48 146 10 0 111
63 18 1016 1072 10 0 242
64 15 266 371 10 0 353
65 10 80 108 10 0 686
66 43 94 117 10 0 649
67 -37 1019 1092 10 70 0
68 26 312 371 10 0 15
69 24 155 196 10 0 696
70 37 331 382 10 0 67
71 -26 1179 1236 10 442 0
72 -9 711 773 10 735 0
73 3 910 962 0 0 831
74 18 194 263 10 0 348
75 20 1295 1368 0 0 803
76 -15 358 407 10 500 0
77 -23 725 787 10 673 0
78 14 1054 1131 10 0 436
79 18 50 90 10 0 81
80 -29 800 839 10 780 0
81 -18 77 150 10 79 0
82 13 79 130 10 0 625
83 22 377 483 10 0 100
84 20 209 274 10 0 318
85 26 387 427 0 0 826
86 26 144 222 10 0 706
87 10 802 856 10 0 610
88 -19 502 575 10 38 0
89 23 290 364 10 0 800
90 -24 668 692 10 269 0
91 -32 1161 1224 10 551 0
92 12 1198 1238 10 0 145
93 14 387 445 10 0 179
94 24 896 931 10 0 59
95 -11 1204 1266 10 322 0
96 29 740 812 0 0 821
97 20 219 268 10 0 257
98 25 125 194 10 0 107
99 11 292 361 10 0 287
100 -22 448 507 10 83 0
101 20 211 252 10 0 203
102 36 186 229 10 0 214
103 -5 867 928 10 371 0
104 14 522 598 10 0 738
105 7 356 433 10 0 124
106 -6 586 650 10 555 0
107 -25 937 980 10 98 0
108 -26 1054 1140 10 233 0
109 -5 643 709 10 5 0
110 -15 620 677 10 277 0
111 -14 297 378 10 62 0
112 1 140 202 10 0 717
113 -3 786 849 10 366 0
114 22 932 964 10 0 132
115 -11 978 1063 10 503 0
116 9 20 86 10 0 533
117 -15 159 227 10 741 0
118 21 854 921 10 0 437
119 -11 758 817 10 123 0
120 -35 1053 1107 10 743 0
121 25 102 213 10 0 44
122 -7 1544 1608 10 130 0
123 11 777 800 10 0 119
124 -7 716 745 10 105 0
125 -26 415 461 10 581 0
126 -5 520 633 10 391 0
127 10 1114 1148 10 0 634
128 -27 566 644 10 531 0
129 17 248 320 10 0 614
130 7 877 979 10 0 122
131 1 483 554 10 0 377
132 -22 1087 1154 10 114 0
133 8 761 856 10 0 763
134 -13 371 449 10 502 0
135 -34 1104 1173 10 537 0
136 20 614 687 10 0 585
137 -12 593 663 10 2 0
138 16 70 130 10 0 39
139 14 103 153 10 0 378
140 -16 769 806 10 435 0
141 -24 862 917 10 181 0
142 -8 223 267 10 243 0
143 8 979 1070 10 0 469
144 -21 253 277 10 718 0
145 -12 1362 1420 10 92 0
146 7 264 322 10 0 497
147 -15 1298 1362 10 404 0
148 23 460 504 10 0 619
149 12 56 138 10 0 53
150 -18 1139 1174 10 284 0
151 -15 1268 1337 10 590 0
152 2 456 499 10 0 272
153 19 493 510 10 0 795
154 -10 939 1007 10 311 0
155 -36 530 615 10 721 0
156 -16 500 569 10 645 0
157 1 1008 1073 10 0 444
158 30 370 409 10 0 547
159 35 98 158 10 0 489
160 6 589 685 10 0 191
161 -22 936 1022 10 329 0
162 -25 382 453 10 552 0
163 -23 996 1030 10 334 0
164 14 205 250 10 0 742
165 27 282 319 10 0 41
166 21 179 231 10 0 182
167 11 536 606 10 0 192
168 -25 548 611 10 724 0
169 -27 917 981 10 427 0
170 -1 1088 1153 10 328 0
171 8 112 192 10 0 35
172 21 267 274 10 0 351
173 9 852 932 10 0 747
174 14 837 889 10 0 674
175 -10 788 873 10 226 0
176 -20 878 945 10 524 0
177 3 628 697 10 0 778
178 29 379 456 10 0 241
179 -14 510 563 10 93 0
180 -14 532 603 10 51 0
181 24 765 804 10 0 141
182 -21 576 661 10 166 0
183 9 1182 1221 0 0 834
184 12 5 59 10 0 605
185 20 148 206 10 0 209
186 8 156 204 10 0 9
187 -12 912 967 10 441 0
188 22 8 69 10 0 29
189 -18 600 658 10 545 0
190 -4 477 552 10 394 0
191 -6 772 841 10 160 0
192 -11 928 1016 10 167 0
193 12 324 385 10 0 429
194 -9 828 885 10 204 0
195 19 646 713 10 0 729
196 -26 1275 1305 10 783 0
197 16 536 549 10 0 459
198 -26 830 865 10 342 0
199 7 699 780 10 0 583
200 -20 1127 1174 10 715 0
201 23 639 695 10 0 259
202 -4 301 345 10 472 0
203 -20 1284 1370 10 101 0
204 9 836 872 10 0 194
205 29 25 94 10 0 776
206 13 427 488 10 0 477
207 10 863 903 10 0 786
208 -15 1283 1363 10 606 0
209 -20 1334 1397 10 185 0
210 20 180 207 10 0 13
211 -45 1122 1213 10 553 0
212 19 100 144 10 0 395
213 11 655 699 10 0 357
214 -36 524 576 10 102 0
215 -16 971 1046 10 499 0
216 8 151 189 10 0 793
217 14 548 609 10 0 333
218 -15 592 605 10 4 0
219 23 613 679 10 0 710
220 -22 1028 1072 10 567 0
221 19 83 171 10 0 756
222 -14 1049 1099 10 672 0
223 17 697 758 10 0 491
224 19 534 597 10 0 305
225 -19 1244 1271 10 608 0
226 10 590 674 10 0 175
227 9 1017 1072 10 0 580
228 -18 614 681 10 651 0
229 -13 629 708 10 19 0
230 -18 660 723 10 799 0
231 13 164 209 10 0 536
232 -17 1197 1227 10 380 0
233 26 794 815 10 0 108
234 35 207 267 10 0 281
235 -13 399 455 10 364 0
236 -16 786 856 10 781 0
237 12 1143 1248 0 0 815
238 -16 575 612 10 276 0
239 36 697 769 0 0 835
240 19 39 116 10 0 476
241 -29 806 883 10 178 0
242 -18 1197 1259 10 63 0
243 8 165 216 10 0 142
244 -20 691 756 10 719 0
245 -4 385 478 10 303 0
246 -19 448 484 10 432 0
247 7 858 922 10 0 702
248 23 53 125 10 0 266
249 17 189 205 10 0 439
250 -22 857 932 10 254 0
251 -3 1014 1060 10 578 0
252 -39 401 500 10 654 0
253 -9 706 765 10 17 0
254 22 427 479 10 0 250
255 23 803 860 10 0 730
256 -29 592 645 10 405 0
257 -20 593 640 10 97 0
258 4 899 934 0 0 825
259 -23 754 808 10 201 0
260 -29 638 690 10 681 0
261 16 432 497 10 0 382
262 -16 490 531 10 354 0
263 -9 788 893 10 323 0
264 9 565 616 10 0 617
265 -12 423 501 10 22 0
266 -23 104 186 10 248 0
267 2 32 88 10 0 712
268 23 842 929 10 0 275
269 24 442 504 10 0 90
270 -22 750 770 10 751 0
271 -10 269 400 10 546 0
272 -2 893 917 10 152 0
273 -29 353 385 10 383 0
274 -17 699 732 10 726 0
275 -23 1254 1321 10 268 0
276 16 376 410 10 0 238
277 15 279 336 10 0 110
278 -24 681 741 10 25 0
279 -31 777 856 10 521 0
280 -31 931 946 10 488 0
281 -35 581 618 10 234 0
282 9 216 252 10 0 767
283 -11 890 918 10 451 0
284 18 815 867 10 0 150
285 -8 255 330 10 335 0
286 10 1099 1167 0 0 809
287 -11 735 822 10 99 0
288 -22 1522 1613 10 757 0
289 13 1164 1187 10 0 483
290 4 600 686 10 0 731
291 -21 480 532 10 387 0
292 38 401 495 10 0 363
293 16 205 259 0 0 810
294 3 299 384 10 0 661
295 -31 1067 1134 10 700 0
296 -13 666 727 10 644 0
297 15 3 79 10 0 774
298 -8 240 307 10 352 0
299 -25 1229 1299 10 744 0
300 -26 1042 1111 10 481 0
301 -33 564 621 10 345 0
302 -15 1356 1414 10 584 0
303 4 77 110 10 0 245
304 32 136 184 10 0 798
305 -19 1300 1346 10 224 0
306 -36 364 422 10 607 0
307 15 711 773 10 0 689
308 14 1190 1261 10 0 565
309 -10 1036 1097 10 504 0
310 13 95 167 0 0 820
311 10 588 644 10 0 154
312 5 836 900 10 0 518
313 -11 727 803 10 23 0
314 -35 1260 1331 10 349 0
315 -18 1319 1384 10 61 0
316 15 51 129 10 0 445
317 -23 837 871 10 538 0
318 -20 977 1037 10 84 0
319 4 385 442 10 0 443
320 -3 392 440 10 554 0
321 17 256 310 10 0 473
322 11 999 1030 10 0 95
323 9 666 719 10 0 263
324 19 134 229 10 0 739
325 21 640 690 0 0 833
326 15 571 641 10 0 31
327 26 570 652 10 0 557
328 1 1001 1042 10 0 170
329 22 724 800 10 0 161
330 11 1174 1204 10 0 350
331 -16 1111 1174 10 676 0
332 17 105 175 10 0 514
333 -14 746 854 10 217 0
334 23 666 680 10 0 163
335 8 251 304 10 0 285
336 35 97 164 10 0 449
337 -17 1178 1229 10 60 0
338 -24 1262 1329 10 407 0
339 -4 1293 1373 10 790 0
340 12 42 93 10 0 588
341 17 474 556 10 0 787
342 26 448 536 10 0 198
343 -3 377 430 10 762 0
344 11 178 249 10 0 423
345 33 411 488 10 0 301
346 -17 377 445 10 522 0
347 -12 840 912 10 482 0
348 -18 524 574 10 74 0
349 35 1090 1140 10 0 314
350 -11 1305 1313 10 330 0
351 -21 1048 1125 10 172 0
352 8 12 76 10 0 298
353 -15 1087 1121 10 64 0
354 16 365 437 10 0 262
355 19 363 402 10 0 430
356 -16 217 254 10 637 0
357 -11 1027 1066 10 213 0
358 9 98 156 10 0 406
359 19 694 777 0 0 827
360 16 498 595 10 0 379
361 20 201 268 10 0 458
362 -21 725 767 10 683 0
363 -38 940 994 10 292 0
364 13 372 436 10 0 235
365 -22 617 693 10 666 0
366 3 235 293 10 0 113
367 -21 1131 1213 10 511 0
368 12 559 617 10 0 425
369 9 930 1004 10 0 556
370 -9 842 894 10 722 0
371 5 852 919 10 0 103
372 -6 1074 1101 10 703 0
373 23 448 525 0 0 808
374 -18 746 827 10 628 0
375 18 809 879 10 0 411
376 -33 397 450 10 579 0
377 -1 658 749 10 131 0
378 -14 329 382 10 139 0
379 -16 517 571 10 360 0
380 17 562 624 10 0 232
381 -18 624 693 10 687 0
382 -16 640 691 10 261 0
383 29 202 292 10 0 273
384 3 609 676 10 0 663
385 8 115 157 0 0 807
386 -36 782 836 10 773 0
387 21 175 210 10 0 291
388 -21 940 1009 10 640 0
389 16 55 108 10 0 699
390 -14 764 801 10 697 0
391 5 456 520 10 0 126
392 -23 1053 1090 10 6 0
393 -11 993 1070 10 632 0
394 4 419 516 10 0 190
395 -19 155 178 10 212 0
396 9 620 683 10 0 693
397 34 109 198 10 0 529
398 33 933 984 10 0 54
399 -14 902 962 10 604 0
400 33 284 322 10 0 680
401 -21 644 702 10 725 0
402 -14 901 947 10 12 0
403 11 112 164 10 0 752
404 15 893 962 10 0 147
405 29 146 164 10 0 256
406 -9 528 599 10 358 0
407 24 966 1025 10 0 338
408 -9 928 1001 10 527 0
409 17 37 85 10 0 420
410 1 87 129 10 0 20
411 -18 846 911 10 375 0
412 -9 907 987 10 478 0
413 -4 1235 1305 10 627 0
414 30 503 540 10 0 570
415 -29 1057 1127 10 612 0
416 15 166 243 10 0 47
417 -20 1191 1242 10 428 0
418 20 215 297 10 0 448
419 -13 290 359 10 779 0
420 -17 171 243 10 409 0
421 -20 558 642 10 701 0
422 32 347 418 10 0 542
423 -11 181 259 10 344 0
424 -21 509 579 10 457 0
425 -12 1201 1259 10 368 0
426 -24 932 1008 10 434 0
427 27 264 333 10 0 169
428 20 249 323 10 0 417
429 -12 784 842 10 193 0
430 -19 443 494 10 355 0
431 16 32 57 10 0 539
432 19 118 193 10 0 246
433 36 261 315 10 0 534
434 24 106 179 10 0 426
435 16 643 703 10 0 140
436 -14 1120 1173 10 78 0
437 -21 1127 1191 10 118 0
438 23 521 570 10 0 33
439 -17 1028 1101 10 249 0
440 17 37 97 10 0 43
441 12 661 707 10 0 187
442 26 796 849 10 0 71
443 -4 384 446 10 319 0
444 -1 1084 1155 10 157 0
445 -15 1274 1328 10 316 0
446 -18 359 446 10 635 0
447 9 61 157 10 0 736
448 -20 586 652 10 418 0
449 -35 653 721 10 336 0
450 12 760 817 10 0 692
451 11 754 836 10 0 283
452 -21 895 967 10 463 0
453 24 438 507 10 0 454
454 -24 648 681 10 453 0
455 -9 1042 1090 10 695 0
456 2 931 976 10 0 564
457 21 63 122 10 0 424
458 -20 516 574 10 361 0
459 -16 1398 1456 10 197 0
460 30 648 722 10 0 523
461 -24 827 903 10 26 0
462 9 191 248 10 0 613
463 21 693 773 10 0 452
464 33 95 167 10 0 713
465 -34 1190 1238 10 21 0
466 21 322 367 10 0 550
467 -39 676 754 10 648 0
468 -16 1262 1315 10 56 0
469 -8 1183 1218 10 143 0
470 -5 1167 1217 10 671 0
471 8 566 643 10 0 801
472 4 305 383 10 0 202
473 -17 330 418 10 321 0
474 18 451 546 10 0 573
475 25 440 510 10 0 559
476 -19 46 117 10 240 0
477 -13 660 707 10 206 0
478 9 244 313 10 0 412
479 28 812 858 10 0 765
480 19 1022 1085 10 0 636
481 26 944 1017 10 0 300
482 12 91 171 10 0 347
483 -13 1329 1401 10 289 0
484 -29 992 1069 10 698 0
485 21 645 743 10 0 575
486 -14 920 963 10 626 0
487 18 533 628 10 0 618
488 31 101 167 10 0 280
489 -35 705 779 10 159 0
490 -18 771 819 10 685 0
491 -17 722 802 10 223 0
492 18 427 457 10 0 622
493 17 453 521 10 0 665
494 17 84 112 10 0 592
495 7 239 289 10 0 593
496 -13 1042 1133 10 631 0
497 -7 437 506 10 146 0
498 30 402 475 10 0 679
499 16 765 802 10 0 215
500 15 108 206 10 0 76
501 -17 239 317 10 509 0
502 13 373 434 10 0 134
503 11 461 516 10 0 115
504 10 920 965 10 0 309
505 20 72 190 10 0 652
506 5 992 1068 10 0 587
507 25 354 407 0 0 822
508 -10 783 848 10 734 0
509 17 269 295 10 0 501
510 19 960 1013 0 0 818
511 21 1109 1196 10 0 367
512 19 165 249 0 0 829
513 -26 836 891 10 32 0
514 -17 208 248 10 332 0
515 -22 862 951 10 517 0
516 3 138 158 10 0 591
517 22 866 913 10 0 515
518 -5 1335 1405 10 312 0
519 13 124 216 10 0 748
520 41 496 558 10 0 16
521 31 500 576 10 0 279
522 17 338 372 10 0 346
523 -30 851 912 10 460 0
524 20 593 667 10 0 176
525 13 769 859 0 0 832
526 -19 1612 1653 10 796 0
527 9 870 911 10 0 408
528 13 127 178 10 0 530
529 -34 880 967 10 397 0
530 -13 808 863 10 528 0
531 27 270 318 10 0 128
532 2 242 296 10 0 58
533 -9 124 193 10 116 0
534 -36 306 373 10 433 0
535 -8 1137 1227 10 670 0
536 -13 773 848 10 231 0
537 34 337 399 10 0 135
538 23 59 117 10 0 317
539 -16 144 231 10 431 0
540 18 395 477 10 0 11
541 15 403 442 10 0 629
542 -32 1114 1166 10 422 0
543 -22 644 684 10 688 0
544 -29 670 711 10 52 0
545 18 624 650 10 0 189
546 10 231 296 10 0 271
547 -30 574 639 10 158 0
548 -28 732 780 10 771 0
549 -25 912 1000 10 714 0
550 -21 663 725 10 466 0
551 32 887 894 10 0 91
552 25 374 391 10 0 162
553 45 979 1038 10 0 211
554 3 185 273 10 0 320
555 6 120 171 10 0 106
556 -9 1021 1086 10 369 0
557 -26 820 874 10 327 0
558 3 176 184 10 0 708
559 -25 541 610 10 475 0
560 24 50 103 10 0 42
561 -7 733 788 10 784 0
562 -20 1052 1110 10 568 0
563 20 820 905 10 0 615
564 -2 981 1045 10 456 0
565 -14 1243 1305 10 308 0
566 -18 316 402 10 709 0
567 22 556 627 10 0 220
568 20 666 749 10 0 562
569 -24 226 309 10 27 0
570 -30 1205 1302 10 414 0
571 12 584 642 0 0 813
572 -3 497 554 10 707 0
573 -18 1076 1148 10 474 0
574 3 435 497 10 0 639
575 -21 838 899 10 485 0
576 -29 940 1002 10 705 0
577 14 180 212 10 0 24
578 3 592 676 10 0 251
579 33 51 99 10 0 376
580 -9 1110 1165 10 227 0
581 26 338 430 10 0 125
582 15 870 951 10 0 633
583 -7 831 925 10 199 0
584 15 991 1047 10 0 302
585 -20 814 873 10 136 0
586 25 200 264 10 0 745
587 -5 1148 1198 10 506 0
588 -12 594 686 10 340 0
589 20 36 91 10 0 675
590 15 231 290 10 0 151
591 -3 230 304 10 516 0
592 -17 945 985 10 494 0
593 -7 932 1014 10 495 0
594 -21 665 713 10 660 0
595 14 785 836 10 0 664
596 20 1398 1444 10 0 50
597 -17 1313 1376 10 678 0
598 -23 793 859 10 769 0
599 37 222 329 0 0 823
600 -28 1123 1157 10 10 0
601 -11 1452 1483 10 655 0
602 9 935 1023 10 0 624
603 18 35 101 10 0 732
604 14 755 805 10 0 399
605 -12 330 377 10 184 0
606 15 264 349 10 0 208
607 36 170 217 10 0 306
608 19 155 207 10 0 225
609 34 807 862 0 0 828
610 -10 856 905 10 87 0
611 -5 648 729 10 797 0
612 29 418 500 10 0 415
613 -9 995 1050 10 462 0
614 -17 446 526 10 129 0
615 -20 1071 1090 10 563 0
616 -27 674 729 10 677 0
617 -9 698 731 10 264 0
618 -18 557 646 10 487 0
619 -23 477 533 10 148 0
620 -22 1206 1286 10 788 0
621 -23 665 729 10 656 0
622 -18 972 1027 10 492 0
623 -12 647 735 10 792 0
624 -9 922 1010 10 602 0
625 -13 180 233 10 82 0
626 14 781 836 10 0 486
627 4 993 1030 10 0 413
628 18 244 302 10 0 374
629 -15 898 962 10 541 0
630 -38 1050 1113 10 49 0
631 13 1032 1080 10 0 496
632 11 751 792 10 0 393
633 -15 1332 1404 10 582 0
634 -10 1102 1170 10 127 0
635 18 223 283 10 0 446
636 -19 1134 1183 10 480 0
637 16 124 136 10 0 356
638 24 316 360 0 0 811
639 -3 787 827 10 574 0
640 21 123 201 10 0 388
641 18 377 413 10 0 794
642 -11 1279 1347 10 55 0
643 -19 1122 1202 10 690 0
644 13 311 381 10 0 296
645 16 302 337 10 0 156
646 20 161 251 10 0 694
647 29 302 358 10 0 657
648 39 145 215 10 0 467
649 -43 458 524 10 66 0
650 -45 632 656 10 691 0
651 18 445 484 10 0 228
652 -20 662 725 10 505 0
653 3 91 155 10 0 755
654 39 274 304 10 0 252
655 11 1051 1109 10 0 601
656 23 276 309 10 0 621
657 -29 1052 1107 10 647 0
658 41 253 300 10 0 754
659 20 71 123 10 0 768
660 21 138 202 10 0 594
661 -3 1033 1106 10 294 0
662 8 196 254 0 0 816
663 -3 815 880 10 384 0
664 -14 926 987 10 595 0
665 -17 1049 1089 10 493 0
666 22 549 583 10 0 365
667 -23 865 923 10 8 0
668 22 1146 1222 0 0 806
669 27 172 258 10 0 45
670 8 1032 1128 10 0 535
671 5 320 426 10 0 470
672 14 781 881 10 0 222
673 23 305 383 10 0 77
674 -14 1093 1157 10 174 0
675 -20 557 644 10 589 0
676 16 744 810 10 0 331
677 27 46 118 10 0 616
678 17 742 800 10 0 597
679 -30 453 510 10 498 0
680 -33 647 706 10 400 0
681 29 118 192 10 0 260
682 31 431 476 0 0 812
683 21 533 623 10 0 362
684 20 1110 1191 10 0 772
685 18 65 109 10 0 490
686 -10 127 181 10 65 0
687 18 467 480 10 0 381
688 22 416 459 10 0 543
689 -15 799 890 10 307 0
690 19 559 623 10 0 643
691 45 491 513 10 0 650
692 -12 979 1067 10 450 0
693 -9 785 829 10 396 0
694 -20 189 232 10 646 0
695 9 146 194 10 0 455
696 -24 833 892 10 69 0
697 14 244 321 10 0 390
698 29 617 678 10 0 484
699 -16 1103 1164 10 389 0
700 31 779 898 10 0 295
701 20 423 513 10 0 421
702 -7 1209 1255 10 247 0
703 6 877 949 10 0 372
704 32 551 639 10 0 28
705 29 81 174 10 0 576
706 -26 1072 1140 10 86 0
707 3 372 433 10 0 572
708 -3 957 986 10 558 0
709 18 256 315 10 0 566
710 -23 986 1050 10 219 0
711 22 1085 1150 10 0 30
712 -2 338 366 10 267 0
713 -33 471 485 10 464 0
714 25 155 202 10 0 549
715 20 1076 1158 10 0 200
716 16 558 598 10 0 758
717 -1 264 343 10 112 0
718 21 110 145 10 0 144
719 20 735 773 10 0 244
720 22 1135 1186 0 0 819
721 36 456 513 10 0 155
722 9 226 262 10 0 370
723 -24 367 423 10 775 0
724 25 411 490 10 0 168
725 21 300 362 10 0 401
726 17 34 101 10 0 274
727 -15 867 913 10 764 0
728 26 73 150 0 0 824
729 -19 1457 1553 10 195 0
730 -23 988 1072 10 255 0
731 -4 1205 1235 10 290 0
732 -18 795 867 10 603 0
733 31 201 234 10 0 761
734 10 281 335 10 0 508
735 9 564 626 10 0 72
736 -9 401 470 10 447 0
737 26 544 640 0 0 817
738 -14 737 801 10 104 0
739 -19 721 791 10 324 0
740 15 730 803 10 0 760
741 15 60 103 10 0 117
742 -14 225 275 10 164 0
743 35 307 405 10 0 120
744 25 1159 1237 10 0 299
745 -25 716 764 10 586 0
746 -4 963 1036 10 749 0
747 -9 1352 1404 10 173 0
748 -13 234 281 10 519 0
749 4 304 392 10 0 746
750 15 501 581 10 0 57
751 22 463 541 10 0 270
752 -11 146 208 10 403 0
753 -13 491 554 10 766 0
754 -41 673 767 10 658 0
755 -3 218 299 10 653 0
756 -19 755 847 10 221 0
757 22 987 1049 10 0 288
758 -16 659 736 10 716 0
759 19 103 160 10 0 791
760 -15 998 1058 10 740 0
761 -31 443 482 10 733 0
762 3 272 337 10 0 343
763 -8 739 804 10 133 0
764 15 569 596 10 0 727
765 -28 881 917 10 479 0
766 13 65 149 10 0 753
767 -9 237 311 10 282 0
768 -20 676 739 10 659 0
769 23 635 700 10 0 598
770 26 554 635 10 0 782
771 28 523 603 10 0 548
772 -20 1234 1303 10 684 0
773 36 389 458 10 0 386
774 -15 205 253 10 297 0
775 24 195 270 10 0 723
776 -29 34 126 10 205 0
777 -19 479 531 10 789 0
778 -3 761 810 10 177 0
779 13 254 317 10 0 419
780 29 240 308 10 0 80
781 16 431 467 10 0 236
782 -26 643 733 10 770 0
783 26 861 879 10 0 196
784 7 45 90 10 0 561
785 34 1020 1071 0 0 804
786 -10 876 959 10 207 0
787 -17 1368 1420 10 341 0
788 22 1041 1095 10 0 620
789 19 339 389 10 0 777
790 4 154 196 10 0 339
791 -19 445 508 10 759 0
792 12 521 533 10 0 623
793 -8 612 630 10 216 0
794 -18 997 1055 10 641 0
795 -19 899 971 10 153 0
796 19 751 782 10 0 526
797 5 590 643 10 0 611
798 -32 478 569 10 304 0
799 18 217 277 10 0 230
800 -23 772 833 10 89 0
801 -8 911 1007 10 471 0
802 -8 1004 1044 10 18 0
803 -20 1295 1368 10 75 0
804 -34 1020 1071 10 785 0
805 -21 977 1029 10 7 0
806 -22 1146 1222 10 668 0
807 -8 115 157 10 385 0
808 -23 448 525 10 373 0
809 -10 1099 1167 10 286 0
810 -16 205 259 10 293 0
811 -24 316 360 10 638 0
812 -31 431 476 10 682 0
813 -12 584 642 10 571 0
814 -19 1303 1379 10 34 0
815 -12 1143 1248 10 237 0
816 -8 196 254 10 662 0
817 -26 544 640 10 737 0
818 -19 960 1013 10 510 0
819 -22 1135 1186 10 720 0
820 -13 95 167 10 310 0
821 -29 740 812 10 96 0
822 -25 354 407 10 507 0
823 -37 222 329 10 599 0
824 -26 73 150 10 728 0
825 -4 899 934 10 258 0
826 -26 387 427 10 85 0
827 -19 694 777 10 359 0
828 -34 807 862 10 609 0
829 -19 165 249 10 512 0
830 -6 1151 1219 10 3 0
831 -3 910 962 10 73 0
832 -13 769 859 10 525 0
833 -21 640 690 10 325 0
834 -9 1182 1221 10 183 0
835 -36 697 769 10 239 0
DEPOT_SECTION
1
-1
EOF
