NAME: lr1_8_8
TYPE: PDPTW
COMMENT: Li & Lim PDPTW benchmark converted from SINTEF format
DIMENSION: 839
VEHICLES: 200
CAPACITY: 200
EDGE_WEIGHT_TYPE: EUC_2D
NODE_COORD_SECTION
1 200 200
2 321 287
3 123 176
4 234 20
5 256 385
6 108 399
7 303 258
8 148 94
9 35 238
10 356 223
11 349 324
12 29 9
13 21 82
14 146 320
15 337 81
16 160 313
17 237 243
18 343 134
19 13 59
20 123 30
21 156 32
22 361 194
23 330 310
24 326 335
25 209 283
26 267 221
27 57 124
28 280 5
29 92 238
30 51 205
31 369 6
32 131 89
33 359 157
34 195 148
35 239 252
36 328 8
37 162 316
38 184 233
39 29 86
40 340 276
41 129 53
42 332 124
43 55 115
44 393 246
45 348 319
46 361 287
47 16 114
48 353 65
49 73 126
50 91 61
51 117 148
52 60 319
53 244 50
54 79 95
55 255 80
56 319 115
57 35 160
58 358 309
59 232 131
60 161 124
61 85 128
62 211 153
63 152 361
64 327 115
65 151 231
66 210 294
67 264 341
68 309 53
69 108 75
70 303 358
71 33 226
72 378 118
73 26 70
74 45 291
75 329 208
76 30 39
77 78 85
78 4 307
79 151 188
80 14 53
81 125 182
82 232 127
83 368 63
84 280 224
85 348 102
86 319 160
87 116 102
88 192 268
89 220 337
90 264 69
91 142 238
92 231 229
93 81 290
94 290 82
95 207 185
96 21 255
97 353 357
98 324 184
99 305 255
100 381 27
101 137 132
102 147 376
103 312 247
104 163 270
105 384 307
106 375 294
107 274 247
108 225 53
109 292 392
110 267 321
111 228 96
112 334 186
113 339 3
114 158 85
115 75 238
116 213 216
117 122 105
118 303 112
119 307 396
120 13 220
121 299 227
122 230 234
123 299 399
124 366 340
125 46 197
126 97 387
127 234 7
128 327 11
129 348 189
130 266 234
131 184 69
132 158 121
133 206 7
134 260 352
135 184 235
136 202 6
137 325 311
138 143 159
139 259 285
140 366 97
141 87 147
142 48 304
143 76 72
144 1 335
145 157 220
146 400 373
147 123 159
148 377 144
149 200 144
150 52 94
151 140 344
152 390 376
153 206 286
154 208 86
155 384 294
156 315 237
157 392 14
158 269 203
159 248 286
160 168 15
161 391 42
162 92 384
163 344 154
164 59 51
165 100 10
166 250 340
167 84 293
168 66 118
169 98 107
170 103 154
171 243 287
172 362 383
173 70 81
174 230 266
175 148 71
176 6 62
177 165 335
178 313 64
179 80 282
180 73 124
181 59 89
182 279 337
183 330 353
184 201 195
185 125 175
186 52 251
187 52 301
188 192 200
189 136 373
190 357 202
191 203 40
192 36 288
193 348 343
194 359 42
195 248 124
196 218 134
197 142 385
198 299 270
199 40 314
200 66 5
201 248 126
202 54 341
203 101 99
204 355 41
205 186 179
206 55 346
207 282 252
208 377 72
209 135 161
210 85 61
211 19 61
212 279 262
213 87 164
214 80 392
215 384 72
216 234 73
217 68 250
218 192 151
219 47 190
220 193 390
221 184 282
222 310 363
223 86 112
224 223 41
225 165 126
226 178 103
227 285 184
228 26 326
229 8 68
230 2 52
231 361 236
232 287 279
233 199 45
234 384 248
235 397 283
236 326 79
237 217 211
238 364 213
239 124 179
240 168 223
241 341 78
242 166 357
243 73 292
244 160 62
245 190 27
246 340 290
247 180 15
248 147 210
249 102 42
250 8 363
251 250 183
252 193 18
253 287 343
254 17 348
255 96 22
256 46 102
257 371 396
258 365 303
259 196 129
260 278 265
261 367 300
262 226 52
263 37 397
264 40 31
265 332 216
266 96 209
267 179 175
268 195 121
269 251 70
270 285 287
271 2 17
272 362 399
273 88 372
274 231 6
275 194 121
276 350 207
277 302 274
278 241 275
279 350 131
280 175 192
281 397 261
282 32 163
283 205 372
284 75 89
285 397 362
286 370 57
287 316 327
288 177 139
289 317 68
290 50 315
291 102 324
292 236 38
293 79 344
294 10 202
295 74 283
296 72 315
297 197 200
298 395 340
299 166 115
300 362 115
301 84 206
302 126 208
303 179 125
304 78 261
305 279 91
306 16 294
307 368 215
308 5 345
309 369 118
310 172 109
311 208 20
312 9 47
313 358 261
314 376 19
315 159 164
316 176 154
317 8 119
318 308 217
319 308 178
320 117 395
321 251 381
322 210 1
323 30 349
324 309 279
325 133 375
326 381 12
327 103 95
328 17 99
329 377 29
330 237 259
331 49 222
332 296 156
333 153 224
334 382 169
335 371 349
336 265 127
337 159 11
338 354 199
339 244 285
340 220 238
341 285 107
342 337 248
343 377 282
344 310 340
345 74 213
346 309 18
347 304 319
348 44 277
349 378 30
350 160 222
351 381 375
352 209 208
353 285 136
354 194 65
355 13 322
356 91 388
357 107 159
358 110 241
359 92 68
360 291 398
361 200 48
362 267 295
363 191 167
364 393 256
365 308 314
366 371 111
367 300 64
368 108 395
369 338 315
370 343 335
371 349 249
372 294 184
373 347 59
374 12 368
375 119 286
376 105 254
377 194 166
378 309 274
379 304 395
380 326 374
381 277 143
382 338 290
383 98 375
384 286 308
385 145 301
386 2 3
387 110 351
388 74 351
389 201 255
390 11 328
391 95 391
392 161 346
393 338 5
394 376 205
395 300 319
396 170 114
397 273 118
398 97 105
399 168 87
400 206 106
401 93 31
402 37 21
403 162 94
404 96 162
405 66 144
406 52 194
407 395 167
408 384 53
409 237 200
410 162 121
411 138 306
412 345 195
413 68 143
414 56 292
415 303 142
416 40 153
417 338 14
418 368 278
419 68 386
420 369 171
421 201 6
422 5 266
423 311 344
424 131 275
425 247 377
426 174 326
427 6 20
428 353 3
429 352 383
430 23 317
431 221 225
432 278 289
433 380 390
434 175 304
435 348 41
436 26 275
437 306 85
438 357 147
439 188 67
440 166 185
441 90 311
442 26 199
443 342 154
444 357 38
445 154 41
446 26 247
447 215 260
448 391 260
449 244 135
450 236 44
451 142 379
452 157 378
453 120 170
454 94 165
455 356 299
456 78 194
457 162 251
458 196 51
459 146 324
460 340 79
461 273 182
462 311 356
463 213 332
464 289 234
465 166 19
466 274 7
467 174 329
468 243 140
469 82 78
470 41 183
471 325 45
472 65 335
473 226 378
474 44 296
475 103 361
476 169 235
477 41 337
478 388 106
479 350 214
480 325 130
481 339 69
482 279 247
483 236 119
484 170 176
485 246 247
486 388 275
487 286 44
488 100 218
489 336 386
490 186 75
491 76 90
492 52 343
493 362 378
494 138 143
495 169 352
496 352 303
497 343 359
498 92 255
499 338 150
500 125 122
501 58 98
502 308 327
503 74 231
504 330 76
505 165 264
506 214 119
507 94 268
508 11 274
509 54 108
510 68 215
511 334 100
512 256 356
513 115 51
514 391 136
515 387 267
516 106 302
517 398 325
518 74 87
519 294 118
520 142 262
521 380 145
522 364 55
523 379 126
524 12 40
525 177 77
526 185 180
527 382 49
528 314 257
529 271 116
530 336 201
531 341 33
532 344 321
533 276 298
534 371 386
535 319 113
536 362 207
537 146 301
538 146 174
539 247 212
540 356 315
541 43 67
542 163 207
543 32 78
544 55 341
545 117 381
546 39 34
547 277 163
548 397 133
549 180 359
550 266 13
551 48 358
552 87 378
553 41 93
554 173 384
555 320 211
556 291 304
557 108 48
558 102 84
559 138 326
560 244 176
561 287 225
562 324 194
563 400 109
564 136 226
565 5 344
566 374 175
567 122 397
568 310 163
569 24 57
570 77 319
571 398 258
572 111 4
573 70 231
574 389 171
575 212 197
576 246 298
577 299 351
578 305 257
579 153 222
580 343 184
581 42 197
582 131 82
583 41 340
584 85 256
585 196 77
586 156 4
587 202 158
588 372 382
589 234 214
590 67 318
591 57 381
592 118 122
593 178 353
594 114 88
595 51 64
596 73 4
597 196 107
598 343 322
599 297 240
600 262 212
601 279 148
602 316 112
603 231 182
604 183 71
605 257 98
606 326 156
607 48 278
608 113 80
609 323 218
610 126 90
611 238 119
612 334 92
613 228 341
614 294 249
615 384 64
616 233 100
617 15 4
618 294 13
619 381 144
620 193 216
621 68 378
622 102 377
623 220 71
624 338 106
625 262 30
626 394 299
627 63 166
628 38 366
629 45 85
630 116 195
631 390 357
632 328 39
633 171 168
634 246 47
635 4 280
636 256 145
637 153 315
638 8 285
639 351 199
640 111 286
641 34 371
642 230 139
643 59 285
644 93 283
645 317 240
646 49 187
647 374 163
648 134 320
649 262 390
650 26 260
651 80 365
652 246 244
653 192 291
654 173 72
655 364 23
656 31 360
657 321 144
658 296 388
659 268 223
660 107 98
661 32 229
662 140 387
663 302 300
664 56 97
665 359 389
666 320 373
667 140 131
668 102 118
669 330 313
670 344 72
671 37 106
672 316 383
673 75 76
674 262 233
675 320 166
676 36 286
677 236 171
678 177 55
679 91 233
680 244 56
681 317 183
682 192 332
683 299 308
684 350 18
685 196 138
686 110 290
687 297 137
688 35 79
689 335 202
690 85 333
691 18 294
692 320 24
693 159 79
694 13 167
695 322 281
696 150 49
697 26 372
698 168 100
699 236 260
700 50 385
701 199 22
702 143 20
703 352 156
704 220 38
705 213 280
706 384 47
707 101 8
708 3 2
709 396 106
710 124 221
711 84 221
712 92 73
713 369 211
714 186 355
715 3 15
716 46 110
717 349 181
718 102 252
719 154 68
720 325 294
721 381 290
722 302 345
723 36 203
724 81 156
725 100 15
726 209 167
727 69 82
728 163 264
729 186 145
730 140 40
731 40 336
732 231 76
733 380 126
734 16 311
735 395 113
736 253 316
737 238 124
738 240 201
739 380 339
740 271 371
741 155 159
742 53 51
743 2 200
744 164 80
745 194 43
746 43 121
747 2 29
748 397 73
749 7 143
750 37 119
751 367 361
752 137 68
753 102 149
754 306 361
755 135 384
756 105 360
757 187 23
758 56 156
759 217 98
760 229 371
761 399 179
762 379 254
763 193 29
764 88 121
765 344 236
766 145 165
767 11 135
768 300 272
769 348 371
770 266 8
771 349 135
772 359 31
773 59 49
774 0 155
775 18 235
776 177 174
777 213 305
778 201 242
779 41 399
780 4 60
781 321 85
782 254 0
783 229 105
784 243 215
785 231 36
786 278 221
787 243 209
788 168 268
789 284 311
790 231 320
791 219 49
792 234 37
793 259 4
794 8 384
795 243 275
796 13 96
797 246 152
798 38 291
799 18 102
800 163 364
801 292 33
802 371 386
803 76 72
804 342 154
805 299 227
806 336 386
807 80 365
808 54 341
809 381 290
810 111 4
811 169 352
812 196 77
813 37 119
814 348 319
815 266 13
816 285 136
817 256 356
818 316 327
819 359 31
820 48 358
821 232 131
822 218 134
823 253 316
824 108 395
825 217 98
826 70 231
827 206 286
828 68 143
829 123 30
830 171 168
831 320 24
832 103 95
833 371 111
834 379 126
835 246 152
836 231 36
837 179 175
838 81 290
839 343 134
PICKUP_AND_DELIVERY_SECTION
1 0 0 1688 0 0 0
2 -15 591 621 10 277 0
3 -36 0 1598 10 239 0
4 15 0 1495 10 0 782
5 -2 0 1485 10 283 0
6 -5 0 1459 10 391 0
7 -16 0 1560 10 645 0
8 23 838 868 10 0 225
9 32 191 221 10 0 775
10 28 0 1521 10 0 609
11 33 538 568 10 0 556
12 -16 0 1422 10 708 0
13 -23 0 1464 10 176 0
14 22 0 1547 10 0 648
15 22 0 1497 10 0 612
16 8 0 1559 10 0 411
17 -11 0 1622 10 330 0
18 8 1009 1039 0 0 839
19 13 0 1444 10 0 629
20 12 0 1492 0 0 829
21 34 0 1505 10 0 247
22 12 0 1517 10 0 647
23 -17 0 1508 10 663 0
24 11 0 1494 10 0 533
25 -12 0 1595 10 340 0
26 -8 587 617 10 352 0
27 24 0 1517 10 0 141
28 -8 0 1468 10 625 0
29 -36 1214 1244 10 607 0
30 26 0 1529 10 0 743
31 16 0 1421 10 0 684
32 26 140 170 10 0 610
33 -18 0 1514 10 372 0
34 -15 1326 1356 10 297 0
35 -31 1332 1362 10 795 0
36 -22 0 1448 10 128 0
37 30 0 1556 10 0 637
38 -14 0 1642 10 104 0
39 -1 0 1473 10 328 0
40 43 0 1519 10 0 528
41 14 751 781 10 0 403
42 -23 334 364 10 140 0
43 -26 0 1510 10 47 0
44 -35 508 538 10 234 0
45 29 0 1489 0 0 814
46 -20 256 286 10 418 0
47 26 723 753 10 0 43
48 -8 0 1474 10 670 0
49 -23 419 449 10 538 0
50 -22 1472 1502 10 445 0
51 -27 0 1581 10 168 0
52 29 255 285 10 0 250
53 23 0 1522 10 0 450
54 -17 0 1518 10 249 0
55 -26 0 1546 10 737 0
56 -21 0 1532 10 118 0
57 13 0 1509 10 0 213
58 -10 856 886 10 739 0
59 20 0 1602 0 0 821
60 -17 0 1593 10 494 0
61 -33 0 1543 10 357 0
62 14 56 86 10 0 82
63 18 0 1510 10 0 593
64 15 303 333 10 0 208
65 10 79 109 10 0 142
66 43 0 1584 10 0 389
67 -21 0 1524 10 220 0
68 26 0 1495 10 0 367
69 24 0 1523 10 0 673
70 37 0 1490 10 0 577
71 -21 1192 1222 10 125 0
72 -22 0 1483 10 83 0
73 -16 0 1461 10 211 0
74 18 0 1499 10 0 676
75 -20 0 1549 10 568 0
76 8 0 1444 10 0 541
77 -21 0 1511 10 401 0
78 14 0 1455 10 0 734
79 18 50 80 10 0 766
80 -9 0 1441 10 518 0
81 -2 0 1601 10 456 0
82 -14 0 1599 10 62 0
83 22 0 1462 10 0 72
84 20 0 1595 10 0 786
85 26 0 1501 10 0 687
86 26 0 1553 10 0 555
87 -17 0 1549 10 169 0
88 -35 0 1610 10 476 0
89 -24 0 1540 10 434 0
90 15 0 1533 10 0 95
91 -11 1177 1207 10 296 0
92 12 0 1636 10 0 599
93 14 401 431 0 0 838
94 -8 898 928 10 449 0
95 -15 0 1662 10 90 0
96 -21 761 791 10 718 0
97 20 0 1459 10 0 257
98 25 0 1553 10 0 562
99 11 0 1560 10 0 614
100 -11 0 1428 10 314 0
101 20 0 1586 10 0 667
102 36 193 223 10 0 800
103 -8 0 1557 10 335 0
104 14 0 1599 10 0 38
105 7 0 1466 10 0 324
106 -22 0 1480 10 751 0
107 -3 944 974 10 384 0
108 -14 1082 1112 10 439 0
109 -21 661 691 10 649 0
110 -17 0 1540 10 253 0
111 37 0 1571 10 0 483
112 1 0 1544 10 0 580
113 8 0 1437 10 0 531
114 22 0 1556 10 0 752
115 13 0 1548 10 0 301
116 -33 0 1658 10 652 0
117 -22 0 1556 10 668 0
118 21 873 903 10 0 56
119 -22 0 1455 10 666 0
120 -11 1065 1095 10 723 0
121 25 0 1576 0 0 805
122 -31 0 1633 10 699 0
123 11 0 1456 10 0 658
124 -12 715 745 10 193 0
125 21 0 1524 10 0 71
126 37 0 1465 10 0 755
127 10 0 1483 10 0 793
128 22 0 1451 10 0 36
129 17 0 1530 10 0 319
130 -12 0 1604 10 482 0
131 -11 0 1547 10 244 0
132 17 1105 1135 10 0 288
133 8 0 1485 10 0 322
134 -15 0 1515 10 740 0
135 -22 0 1640 10 788 0
136 -32 636 666 10 704 0
137 15 613 643 10 0 139
138 16 0 1608 10 0 440
139 -15 0 1575 10 137 0
140 23 0 1483 10 0 42
141 -24 0 1554 10 27 0
142 -10 0 1494 10 65 0
143 8 0 1500 0 0 803
144 12 0 1438 10 0 254
145 -27 0 1631 10 710 0
146 -13 0 1414 10 631 0
147 30 1315 1345 10 0 209
148 -26 467 497 10 761 0
149 -7 0 1622 10 377 0
150 -14 0 1496 10 164 0
151 6 0 1522 10 0 197
152 2 0 1420 10 0 172
153 19 0 1592 0 0 827
154 -16 958 988 10 354 0
155 -18 0 1472 10 370 0
156 -20 0 1558 10 448 0
157 -9 0 1411 10 527 0
158 -16 0 1609 10 575 0
159 35 0 1580 10 0 278
160 6 0 1491 10 0 763
161 -13 0 1431 10 408 0
162 -29 0 1465 10 383 0
163 -15 0 1527 10 606 0
164 14 0 1473 10 0 150
165 27 0 1464 10 0 596
166 -28 0 1530 10 425 0
167 -18 556 586 10 628 0
168 27 0 1521 10 0 51
169 17 0 1540 10 0 87
170 -29 0 1571 10 405 0
171 8 137 167 10 0 754
172 -2 0 1434 10 152 0
173 -24 0 1502 10 181 0
174 14 0 1606 10 0 576
175 8 0 1539 10 0 730
176 23 0 1440 10 0 13
177 3 0 1539 10 0 392
178 29 0 1502 10 0 305
179 10 0 1533 10 0 798
180 9 553 583 10 0 753
181 24 0 1499 10 0 173
182 -9 0 1520 10 462 0
183 -16 0 1478 10 261 0
184 -21 0 1673 10 275 0
185 20 162 192 10 0 453
186 -32 0 1522 10 304 0
187 -25 0 1499 10 507 0
188 -29 0 1670 10 205 0
189 33 0 1494 10 0 242
190 -27 0 1521 10 338 0
191 -20 0 1518 10 701 0
192 1 0 1492 10 0 217
193 12 0 1473 10 0 124
194 -23 0 1454 10 373 0
195 19 0 1589 10 0 201
196 24 1275 1305 0 0 822
197 -6 0 1485 10 151 0
198 -19 0 1557 10 212 0
199 -9 0 1482 10 477 0
200 -3 0 1442 10 707 0
201 -19 0 1590 10 195 0
202 19 0 1476 0 0 808
203 -33 0 1537 10 398 0
204 9 839 869 10 0 286
205 29 0 1653 10 0 188
206 13 0 1473 10 0 552
207 -4 0 1581 10 232 0
208 -15 0 1460 10 64 0
209 -30 0 1603 10 147 0
210 20 180 210 10 0 491
211 16 0 1450 10 0 73
212 19 0 1578 10 0 198
213 -13 0 1560 10 57 0
214 -10 0 1452 10 756 0
215 21 0 1454 10 0 478
216 -38 0 1547 10 292 0
217 -1 0 1537 10 192 0
218 -17 584 614 10 363 0
219 23 631 661 10 0 724
220 21 0 1488 10 0 67
221 -8 0 1595 10 662 0
222 -20 1059 1089 10 362 0
223 -15 0 1534 10 764 0
224 -31 0 1518 10 732 0
225 -23 0 1597 10 8 0
226 10 0 1579 10 0 791
227 9 0 1592 10 0 657
228 21 0 1464 10 0 308
229 29 0 1446 10 0 230
230 -29 0 1431 10 229 0
231 13 0 1514 10 0 515
232 4 0 1561 10 0 207
233 -20 0 1523 10 361 0
234 35 0 1488 10 0 44
235 9 0 1465 10 0 455
236 29 0 1504 10 0 381
237 12 0 1658 10 0 659
238 11 0 1514 10 0 265
239 36 718 748 10 0 3
240 -18 0 1639 10 350 0
241 -26 0 1492 10 481 0
242 -33 1213 1243 10 189 0
243 -13 0 1522 10 644 0
244 11 0 1535 10 0 131
245 -11 0 1505 10 465 0
246 39 0 1512 10 0 578
247 -34 875 905 10 21 0
248 23 53 83 10 0 579
249 17 0 1493 10 0 54
250 -29 0 1427 10 52 0
251 24 0 1626 10 0 787
252 -25 0 1496 10 421 0
253 17 0 1511 10 0 110
254 -12 438 468 10 144 0
255 -21 816 846 10 725 0
256 -45 0 1496 10 553 0
257 -20 0 1418 10 97 0
258 4 902 932 10 0 343
259 -18 766 796 10 685 0
260 23 0 1577 10 0 270
261 16 0 1484 10 0 183
262 -19 0 1528 10 458 0
263 50 0 1423 10 0 779
264 -36 0 1446 10 773 0
265 -11 0 1546 10 238 0
266 -22 0 1574 10 711 0
267 2 0 1646 0 0 837
268 23 871 901 10 0 400
269 24 0 1539 10 0 634
270 -23 0 1557 10 260 0
271 -28 0 1409 10 747 0
272 24 0 1422 10 0 665
273 -3 0 1473 10 686 0
274 32 0 1482 10 0 770
275 21 0 1599 10 0 184
276 16 378 408 10 0 394
277 15 0 1552 10 0 2
278 -35 696 726 10 159 0
279 -31 0 1513 10 521 0
280 -15 924 954 10 404 0
281 -12 0 1472 10 571 0
282 9 0 1506 10 0 694
283 2 0 1506 10 0 5
284 -19 826 856 10 359 0
285 -22 0 1423 10 517 0
286 -9 0 1456 10 204 0
287 24 763 793 0 0 818
288 -17 0 1613 10 132 0
289 13 0 1502 10 0 341
290 4 0 1489 10 0 441
291 23 0 1520 10 0 375
292 38 0 1513 10 0 216
293 -12 0 1490 10 570 0
294 3 0 1488 10 0 331
295 5 0 1528 10 0 691
296 11 0 1506 10 0 91
297 15 3 33 10 0 34
298 24 240 270 10 0 351
299 -15 0 1587 10 693 0
300 -19 0 1496 10 480 0
301 -13 577 607 10 115 0
302 26 0 1604 10 0 488
303 4 0 1601 10 0 623
304 32 136 166 10 0 186
305 -29 1308 1338 10 178 0
306 21 0 1472 10 0 542
307 15 727 757 10 0 717
308 -21 0 1435 10 228 0
309 -24 0 1491 10 548 0
310 -9 0 1583 10 396 0
311 -18 0 1498 10 597 0
312 5 0 1434 10 0 524
313 -21 750 780 10 486 0
314 11 1281 1311 10 0 100
315 13 0 1624 10 0 741
316 15 0 1627 10 0 526
317 -28 0 1470 10 767 0
318 -28 0 1569 10 765 0
319 -17 0 1568 10 129 0
320 13 0 1467 10 0 567
321 -3 0 1490 10 554 0
322 -8 0 1479 10 133 0
323 -26 678 708 10 583 0
324 -7 0 1544 10 105 0
325 -21 0 1491 10 387 0
326 15 0 1418 10 0 632
327 26 0 1536 0 0 832
328 1 1006 1036 10 0 39
329 -2 0 1432 10 444 0
330 11 0 1609 10 0 17
331 -3 0 1526 10 294 0
332 17 0 1573 10 0 438
333 15 0 1626 10 0 358
334 23 0 1494 10 0 407
335 8 0 1452 10 0 103
336 35 97 127 10 0 535
337 -25 0 1485 10 586 0
338 27 0 1524 10 0 190
339 -26 0 1583 10 423 0
340 12 0 1636 10 0 25
341 -13 0 1553 10 289 0
342 26 0 1533 10 0 762
343 -4 0 1483 10 258 0
344 11 178 208 10 0 722
345 -19 435 465 10 510 0
346 -26 0 1466 10 618 0
347 14 861 891 10 0 789
348 9 534 564 10 0 436
349 -11 0 1432 10 655 0
350 18 0 1633 10 0 240
351 -24 0 1427 10 298 0
352 8 0 1666 10 0 26
353 11 0 1572 0 0 816
354 16 386 416 10 0 154
355 -10 0 1455 10 430 0
356 2 0 1461 10 0 419
357 33 0 1577 10 0 61
358 -15 98 128 10 333 0
359 19 0 1508 10 0 284
360 -18 0 1461 10 379 0
361 20 0 1526 10 0 233
362 20 0 1562 10 0 222
363 17 0 1644 10 0 218
364 13 389 419 10 0 626
365 -27 0 1521 10 669 0
366 3 249 279 0 0 833
367 -26 0 1510 10 68 0
368 12 0 1463 0 0 824
369 -2 952 982 10 532 0
370 18 0 1482 10 0 155
371 5 0 1522 10 0 496
372 18 0 1583 10 0 33
373 23 0 1475 10 0 194
374 -21 0 1426 10 640 0
375 -23 829 859 10 291 0
376 -41 409 439 10 520 0
377 7 0 1644 10 0 149
378 23 341 371 10 0 683
379 18 0 1457 10 0 360
380 17 578 608 10 0 672
381 -29 0 1583 10 236 0
382 12 650 680 10 0 674
383 29 202 232 10 0 162
384 3 627 657 10 0 107
385 8 0 1563 10 0 537
386 -20 794 824 10 715 0
387 21 0 1503 10 0 325
388 -19 0 1482 10 690 0
389 -43 0 1623 10 66 0
390 -18 0 1450 10 635 0
391 5 0 1461 10 0 6
392 -3 0 1527 10 177 0
393 23 1017 1047 10 0 417
394 -16 0 1502 10 276 0
395 -13 0 1523 10 502 0
396 9 637 667 10 0 310
397 34 0 1569 10 0 602
398 33 0 1538 10 0 203
399 5 0 1561 10 0 678
400 -23 0 1584 10 268 0
401 21 658 688 10 0 77
402 24 0 1436 10 0 558
403 -14 0 1566 10 41 0
404 15 0 1568 10 0 280
405 29 145 175 10 0 170
406 9 0 1530 10 0 470
407 -23 0 1481 10 334 0
408 13 950 980 10 0 161
409 -13 0 1641 10 738 0
410 1 0 1591 10 0 484
411 -8 864 894 10 16 0
412 -23 0 1533 10 689 0
413 16 0 1535 0 0 828
414 30 506 536 10 0 590
415 10 0 1560 10 0 601
416 15 0 1512 10 0 758
417 -23 0 1447 10 393 0
418 20 241 271 10 0 46
419 -2 309 339 10 356 0
420 -18 0 1507 10 566 0
421 25 585 615 10 0 252
422 32 0 1473 10 0 650
423 26 0 1497 10 0 339
424 30 0 1577 10 0 630
425 28 1215 1245 10 0 166
426 -22 955 985 10 452 0
427 27 0 1414 10 0 617
428 -31 0 1429 10 706 0
429 16 0 1441 10 0 769
430 10 0 1466 10 0 355
431 16 32 62 10 0 432
432 -16 118 148 10 431 0
433 36 0 1417 10 0 497
434 24 106 136 10 0 89
435 16 0 1461 10 0 437
436 -9 1132 1162 10 348 0
437 -16 0 1522 10 435 0
438 -17 0 1513 10 332 0
439 14 0 1545 10 0 108
440 -16 0 1641 10 138 0
441 -4 669 699 10 290 0
442 -26 0 1504 10 581 0
443 25 0 1529 0 0 804
444 2 0 1453 10 0 329
445 22 0 1513 10 0 50
446 31 388 418 10 0 661
447 9 61 91 10 0 778
448 20 0 1478 10 0 156
449 8 672 702 10 0 94
450 -23 0 1518 10 53 0
451 -18 0 1490 10 545 0
452 22 0 1495 10 0 426
453 -20 0 1593 10 185 0
454 -20 0 1567 10 646 0
455 -9 1051 1081 10 235 0
456 2 938 968 10 0 81
457 21 63 93 10 0 679
458 19 0 1529 10 0 262
459 24 0 1543 10 0 559
460 -16 0 1493 10 781 0
461 18 850 880 10 0 539
462 9 0 1487 10 0 182
463 21 0 1546 10 0 790
464 33 0 1583 10 0 784
465 11 0 1494 10 0 245
466 21 0 1472 10 0 471
467 -26 0 1547 10 549 0
468 15 0 1605 10 0 529
469 20 0 1509 10 0 660
470 -9 0 1519 10 406 0
471 -21 589 619 10 466 0
472 4 329 359 10 0 544
473 -25 0 1499 10 714 0
474 -16 484 514 10 643 0
475 -1 460 490 10 620 0
476 35 0 1632 10 0 88
477 9 0 1469 10 0 199
478 -21 0 1468 10 215 0
479 -20 0 1528 10 561 0
480 19 0 1535 10 0 300
481 26 0 1487 10 0 241
482 12 0 1587 10 0 130
483 -37 1350 1380 10 111 0
484 -1 1016 1046 10 410 0
485 -15 0 1613 10 768 0
486 21 0 1476 10 0 313
487 18 0 1500 10 0 801
488 -26 0 1577 10 302 0
489 21 727 757 0 0 806
490 -13 0 1553 10 525 0
491 -20 0 1513 10 210 0
492 -24 0 1473 10 794 0
493 17 472 502 10 0 588
494 17 0 1594 10 0 60
495 7 0 1523 0 0 811
496 -5 1072 1102 10 371 0
497 -36 0 1465 10 433 0
498 30 0 1557 10 0 584
499 -29 0 1532 10 547 0
500 -15 0 1570 10 582 0
501 15 263 293 10 0 592
502 13 0 1512 10 0 395
503 -7 0 1549 10 564 0
504 10 0 1499 10 0 522
505 20 0 1606 10 0 728
506 5 0 1596 10 0 587
507 25 365 395 10 0 187
508 -24 0 1476 10 638 0
509 -29 0 1506 10 780 0
510 19 0 1546 10 0 345
511 21 0 1511 10 0 677
512 19 0 1513 0 0 817
513 -15 848 878 10 702 0
514 33 0 1477 10 0 733
515 -13 0 1480 10 231 0
516 -23 0 1540 10 656 0
517 22 0 1444 10 0 285
518 9 0 1509 10 0 80
519 13 124 154 10 0 709
520 41 0 1594 10 0 376
521 31 523 553 10 0 279
522 -10 0 1460 10 504 0
523 8 0 1485 0 0 834
524 -5 0 1432 10 312 0
525 13 0 1553 10 0 490
526 -15 0 1653 10 316 0
527 9 876 906 10 0 157
528 -43 0 1551 10 40 0
529 -15 0 1569 10 468 0
530 17 0 1542 10 0 713
531 -8 0 1460 10 113 0
532 2 0 1490 10 0 369
533 -11 0 1554 10 24 0
534 23 0 1426 0 0 802
535 -35 1167 1197 10 336 0
536 -4 0 1516 10 639 0
537 -8 0 1564 10 385 0
538 23 59 89 10 0 49
539 -18 0 1630 10 461 0
540 -21 0 1485 10 598 0
541 -8 0 1473 10 76 0
542 -21 1125 1155 10 306 0
543 23 0 1471 10 0 688
544 -4 675 705 10 472 0
545 18 0 1479 10 0 451
546 -18 0 1447 10 742 0
547 29 0 1593 10 0 499
548 24 0 1470 10 0 309
549 26 0 1518 10 0 467
550 17 679 709 0 0 815
551 32 876 906 0 0 820
552 -13 0 1468 10 206 0
553 45 0 1487 10 0 256
554 3 0 1493 10 0 321
555 -26 0 1558 10 86 0
556 -33 0 1540 10 11 0
557 18 832 862 10 0 712
558 -24 0 1527 10 402 0
559 -24 561 591 10 459 0
560 -18 0 1628 10 603 0
561 20 0 1588 10 0 479
562 -25 0 1554 10 98 0
563 -15 0 1459 10 748 0
564 7 0 1609 10 0 503
565 7 0 1436 10 0 731
566 18 0 1503 10 0 420
567 -13 0 1467 10 320 0
568 20 692 722 10 0 75
569 -14 0 1452 10 595 0
570 12 0 1507 10 0 293
571 12 598 628 10 0 281
572 12 0 1463 0 0 810
573 16 0 1545 0 0 826
574 3 0 1487 10 0 619
575 16 0 1666 10 0 158
576 -14 0 1570 10 174 0
577 -37 0 1498 10 70 0
578 -39 619 649 10 246 0
579 -23 0 1627 10 248 0
580 -1 0 1535 10 112 0
581 26 0 1520 10 0 442
582 15 0 1542 10 0 500
583 26 0 1467 10 0 323
584 -30 0 1551 10 498 0
585 4 0 1555 0 0 812
586 25 210 240 10 0 337
587 -5 0 1636 10 506 0
588 -17 625 655 10 493 0
589 -19 0 1642 10 600 0
590 -30 0 1501 10 414 0
591 -16 0 1448 10 622 0
592 -15 0 1565 10 501 0
593 -18 0 1524 10 63 0
594 -19 674 704 10 608 0
595 14 0 1477 10 0 569
596 -27 0 1445 10 165 0
597 18 0 1585 10 0 311
598 21 0 1491 10 0 540
599 -12 0 1574 10 92 0
600 19 1125 1155 10 0 589
601 -10 0 1584 10 415 0
602 -34 0 1533 10 397 0
603 18 35 65 10 0 560
604 -39 765 795 10 654 0
605 -14 338 368 10 642 0
606 15 291 321 10 0 163
607 36 0 1508 10 0 29
608 19 166 196 10 0 594
609 -28 0 1554 10 10 0
610 -26 0 1546 10 32 0
611 -17 0 1589 10 726 0
612 -22 0 1506 10 15 0
613 -31 0 1535 10 682 0
614 -11 0 1572 10 99 0
615 19 0 1450 10 0 735
616 -26 0 1573 10 783 0
617 -27 0 1409 10 427 0
618 26 0 1469 10 0 346
619 -3 0 1489 10 574 0
620 1 0 1661 10 0 475
621 -31 0 1457 10 700 0
622 16 0 1476 10 0 591
623 -4 0 1548 10 303 0
624 -12 951 981 10 636 0
625 8 0 1498 10 0 28
626 -13 0 1461 10 364 0
627 4 0 1537 10 0 746
628 18 0 1447 10 0 167
629 -13 0 1485 10 19 0
630 -30 0 1594 10 424 0
631 13 1041 1071 10 0 146
632 -15 0 1473 10 326 0
633 14 0 1635 0 0 830
634 -24 0 1519 10 269 0
635 18 238 268 10 0 390
636 12 0 1600 10 0 624
637 -30 0 1554 10 37 0
638 24 0 1469 10 0 508
639 4 0 1527 10 0 536
640 21 0 1555 10 0 374
641 18 0 1440 10 0 697
642 14 0 1611 10 0 605
643 16 0 1514 10 0 474
644 13 331 361 10 0 243
645 16 0 1555 10 0 7
646 20 0 1527 10 0 454
647 -12 0 1501 10 22 0
648 -22 0 1542 10 14 0
649 21 0 1479 10 0 109
650 -32 629 659 10 422 0
651 18 449 479 0 0 807
652 33 0 1615 10 0 116
653 3 104 134 10 0 760
654 39 0 1548 10 0 604
655 11 0 1437 10 0 349
656 23 0 1446 10 0 516
657 -9 0 1545 10 227 0
658 -11 0 1467 10 123 0
659 -12 0 1607 10 237 0
660 -20 0 1540 10 469 0
661 -31 1054 1084 10 446 0
662 8 0 1482 10 0 221
663 17 0 1536 10 0 23
664 19 941 971 10 0 727
665 -24 0 1432 10 272 0
666 22 551 581 10 0 119
667 -20 879 909 10 101 0
668 22 0 1551 10 0 117
669 27 172 202 10 0 365
670 8 0 1486 10 0 48
671 5 0 1490 10 0 796
672 -17 0 1462 10 380 0
673 -24 0 1502 10 69 0
674 -12 0 1608 10 382 0
675 25 0 1554 10 0 681
676 -18 762 792 10 74 0
677 -21 0 1632 10 511 0
678 -5 0 1532 10 399 0
679 -21 466 496 10 457 0
680 14 0 1528 10 0 792
681 -25 0 1560 10 675 0
682 31 0 1546 10 0 613
683 -23 0 1532 10 378 0
684 -16 0 1443 10 31 0
685 18 0 1616 10 0 259
686 3 127 157 10 0 273
687 -26 458 488 10 85 0
688 -23 0 1474 10 543 0
689 23 0 1543 10 0 412
690 19 576 606 10 0 388
691 -5 0 1474 10 295 0
692 28 0 1465 0 0 831
693 15 792 822 10 0 299
694 -9 0 1489 10 282 0
695 9 0 1532 10 0 720
696 5 848 878 10 0 698
697 -18 244 274 10 641 0
698 -5 0 1574 10 696 0
699 31 0 1609 10 0 122
700 31 0 1440 10 0 621
701 20 0 1500 10 0 191
702 15 0 1490 10 0 513
703 -28 898 928 10 771 0
704 32 0 1515 10 0 136
705 29 0 1597 10 0 777
706 31 1091 1121 10 0 428
707 3 0 1462 10 0 200
708 16 956 986 10 0 12
709 -13 0 1461 10 519 0
710 27 1003 1033 10 0 145
711 22 0 1561 10 0 266
712 -18 0 1512 10 557 0
713 -17 463 493 10 530 0
714 25 0 1523 10 0 473
715 20 0 1408 10 0 386
716 16 0 1500 10 0 799
717 -15 0 1528 10 307 0
718 21 110 140 10 0 96
719 20 0 1539 10 0 744
720 -9 0 1522 10 695 0
721 36 0 1476 0 0 809
722 -11 0 1501 10 344 0
723 11 0 1514 10 0 120
724 -23 0 1552 10 219 0
725 21 0 1468 10 0 255
726 17 34 64 10 0 611
727 -19 0 1502 10 664 0
728 -20 73 103 10 505 0
729 18 1490 1520 10 0 776
730 -8 0 1508 10 175 0
731 -7 0 1469 10 565 0
732 31 0 1551 10 0 224
733 -33 0 1484 10 514 0
734 -14 0 1464 10 78 0
735 -19 0 1465 10 615 0
736 21 0 1551 0 0 823
737 26 0 1594 10 0 55
738 13 0 1638 10 0 409
739 10 741 771 10 0 58
740 15 752 782 10 0 134
741 -13 0 1618 10 315 0
742 18 0 1469 10 0 546
743 -26 341 371 10 30 0
744 -20 0 1553 10 719 0
745 -22 0 1521 10 757 0
746 -4 985 1015 10 627 0
747 28 0 1417 10 0 271
748 15 0 1444 10 0 563
749 -9 333 363 10 774 0
750 15 0 1496 0 0 813
751 22 487 517 10 0 106
752 -22 146 176 10 114 0
753 -9 0 1568 10 180 0
754 -8 0 1486 10 171 0
755 -37 0 1483 10 126 0
756 10 0 1492 10 0 214
757 22 1003 1033 10 0 745
758 -15 0 1528 10 416 0
759 19 0 1575 0 0 825
760 -3 1013 1043 10 653 0
761 26 0 1478 10 0 148
762 -26 289 319 10 342 0
763 -6 0 1507 10 160 0
764 15 0 1541 10 0 223
765 28 0 1530 10 0 318
766 -18 0 1613 10 79 0
767 28 0 1479 10 0 317
768 15 693 723 10 0 485
769 -16 0 1452 10 429 0
770 -32 0 1475 10 274 0
771 28 548 578 10 0 703
772 11 1253 1283 0 0 819
773 36 0 1472 10 0 264
774 9 0 1473 10 0 749
775 -32 0 1493 10 9 0
776 -18 0 1644 10 729 0
777 -29 0 1573 10 705 0
778 -9 770 800 10 447 0
779 -50 0 1424 10 263 0
780 29 240 270 10 0 509
781 16 434 464 10 0 460
782 -15 0 1471 10 4 0
783 26 0 1579 10 0 616
784 -33 0 1633 10 464 0
785 34 0 1512 0 0 836
786 -20 0 1598 10 84 0
787 -24 0 1635 10 251 0
788 22 0 1603 10 0 135
789 -14 0 1539 10 347 0
790 -21 0 1555 10 463 0
791 -10 461 491 10 226 0
792 -14 0 1512 10 680 0
793 -10 0 1474 10 127 0
794 24 0 1413 10 0 492
795 31 0 1592 10 0 35
796 -5 751 781 10 671 0
797 5 0 1612 0 0 835
798 -10 0 1493 10 179 0
799 -16 232 262 10 716 0
800 -36 0 1510 10 102 0
801 -18 0 1488 10 487 0
802 -23 0 1426 10 534 0
803 -8 0 1500 10 143 0
804 -25 0 1529 10 443 0
805 -25 0 1576 10 121 0
806 -21 727 757 10 489 0
807 -18 449 479 10 651 0
808 -19 0 1476 10 202 0
809 -36 0 1476 10 721 0
810 -12 0 1463 10 572 0
811 -7 0 1523 10 495 0
812 -4 0 1555 10 585 0
813 -15 0 1496 10 750 0
814 -29 0 1489 10 45 0
815 -17 679 709 10 550 0
816 -11 0 1572 10 353 0
817 -19 0 1513 10 512 0
818 -24 763 793 10 287 0
819 -11 1253 1283 10 772 0
820 -32 876 906 10 551 0
821 -20 0 1602 10 59 0
822 -24 1275 1305 10 196 0
823 -21 0 1551 10 736 0
824 -12 0 1463 10 368 0
825 -19 0 1575 10 759 0
826 -16 0 1545 10 573 0
827 -19 0 1592 10 153 0
828 -16 0 1535 10 413 0
829 -12 0 1492 10 20 0
830 -14 0 1635 10 633 0
831 -28 0 1465 10 692 0
832 -26 0 1536 10 327 0
833 -3 249 279 10 366 0
834 -8 0 1485 10 523 0
835 -5 0 1612 10 797 0
836 -34 0 1512 10 785 0
837 -2 0 1646 10 267 0
838 -14 401 431 10 93 0
839 -8 1009 1039 10 18 0
DEPOT_SECTION
1
-1
EOF
