NAME: lr2_8_3
TYPE: PDPTW
COMMENT: Li & Lim PDPTW benchmark converted from SINTEF format
DIMENSION: 809
VEHICLES: 200
CAPACITY: 1000
EDGE_WEIGHT_TYPE: EUC_2D
NODE_COORD_SECTION
1 200 200
2 221 225
3 279 247
4 355 41
5 93 283
6 163 207
7 364 55
8 329 208
9 102 377
10 356 299
11 10 202
12 40 153
13 145 165
14 278 265
15 338 14
16 13 167
17 179 125
18 194 43
19 358 261
20 299 399
21 246 247
22 343 359
23 101 8
24 302 274
25 131 275
26 191 167
27 332 124
28 106 302
29 380 145
30 334 100
31 180 359
32 142 238
33 138 306
34 16 294
35 206 7
36 299 308
37 343 335
38 135 384
39 161 346
40 206 286
41 156 4
42 326 335
43 82 78
44 37 21
45 177 174
46 84 221
47 171 168
48 207 185
49 92 255
50 220 337
51 137 132
52 342 154
53 353 65
54 70 231
55 79 95
56 352 303
57 136 226
58 243 209
59 145 301
60 254 0
61 310 363
62 387 267
63 236 44
64 94 268
65 84 293
66 11 135
67 280 5
68 265 127
69 259 285
70 52 94
71 278 221
72 231 229
73 168 100
74 14 53
75 237 259
76 69 82
77 192 291
78 8 384
79 367 361
80 91 233
81 125 175
82 304 319
83 241 275
84 193 29
85 80 392
86 300 64
87 327 11
88 299 351
89 311 344
90 229 105
91 362 207
92 344 154
93 39 34
94 68 250
95 268 223
96 116 195
97 352 156
98 313 64
99 375 294
100 391 260
101 334 186
102 84 206
103 12 40
104 195 148
105 381 144
106 320 211
107 308 178
108 376 205
109 257 98
110 111 4
111 330 310
112 305 255
113 140 387
114 164 80
115 271 371
116 4 280
117 347 59
118 147 376
119 74 213
120 54 341
121 303 358
122 21 82
123 379 126
124 398 258
125 152 361
126 397 261
127 250 340
128 166 185
129 294 184
130 303 258
131 87 378
132 250 183
133 384 72
134 98 107
135 56 97
136 225 53
137 280 224
138 208 86
139 395 167
140 215 260
141 44 277
142 174 329
143 380 390
144 120 170
145 273 118
146 103 154
147 180 15
148 371 396
149 169 352
150 78 85
151 226 378
152 357 202
153 68 143
154 384 248
155 391 42
156 267 295
157 350 131
158 5 345
159 199 45
160 166 115
161 103 361
162 239 252
163 2 3
164 335 202
165 158 121
166 320 24
167 166 19
168 326 374
169 317 240
170 357 147
171 32 78
172 40 336
173 52 251
174 40 314
175 233 100
176 78 194
177 110 351
178 321 287
179 369 118
180 101 99
181 232 127
182 390 376
183 73 292
184 195 121
185 175 192
186 33 226
187 390 357
188 80 365
189 344 321
190 397 283
191 66 5
192 160 313
193 210 294
194 320 373
195 231 182
196 30 349
197 26 372
198 154 68
199 338 106
200 49 222
201 17 99
202 279 148
203 309 279
204 384 64
205 231 36
206 279 337
207 187 23
208 32 163
209 214 119
210 74 87
211 134 320
212 42 197
213 350 18
214 92 68
215 48 358
216 160 222
217 184 282
218 168 268
219 289 234
220 123 176
221 231 76
222 196 107
223 138 143
224 285 136
225 194 166
226 162 94
227 165 335
228 205 372
229 168 87
230 159 11
231 143 20
232 297 240
233 17 348
234 192 200
235 303 142
236 48 304
237 200 144
238 185 180
239 317 68
240 324 194
241 274 247
242 337 81
243 345 195
244 129 53
245 285 184
246 378 118
247 309 53
248 246 298
249 153 222
250 306 361
251 46 110
252 123 159
253 234 7
254 162 316
255 309 274
256 57 124
257 46 102
258 382 49
259 96 22
260 292 33
261 359 389
262 392 14
263 68 386
264 163 364
265 116 102
266 37 397
267 264 341
268 269 203
269 230 266
270 31 360
271 68 378
272 262 390
273 236 119
274 220 238
275 36 288
276 276 298
277 362 399
278 244 285
279 32 229
280 179 175
281 200 48
282 13 59
283 165 264
284 56 292
285 178 353
286 210 1
287 306 85
288 196 129
289 243 287
290 396 106
291 151 188
292 151 231
293 11 274
294 92 238
295 108 48
296 38 291
297 232 131
298 217 98
299 340 79
300 308 327
301 279 91
302 384 294
303 90 311
304 359 31
305 391 136
306 344 236
307 202 6
308 2 29
309 366 340
310 328 8
311 316 383
312 384 53
313 302 300
314 29 86
315 358 309
316 147 210
317 287 279
318 102 149
319 115 51
320 393 256
321 340 290
322 271 116
323 332 216
324 319 113
325 246 47
326 247 377
327 371 111
328 397 362
329 157 220
330 322 281
331 50 385
332 193 216
333 80 282
334 91 388
335 351 199
336 327 115
337 23 317
338 362 378
339 337 248
340 4 307
341 379 254
342 67 318
343 372 382
344 356 223
345 243 215
346 336 201
347 338 5
348 142 385
349 192 332
350 18 294
351 400 373
352 287 225
353 66 144
354 19 61
355 389 171
356 377 29
357 6 20
358 68 215
359 177 55
360 118 122
361 43 121
362 13 322
363 193 390
364 369 211
365 92 73
366 163 270
367 349 249
368 133 375
369 266 234
370 353 3
371 18 102
372 236 260
373 142 262
374 314 257
375 161 124
376 170 114
377 85 256
378 243 140
379 41 183
380 359 157
381 146 301
382 184 233
383 194 121
384 277 163
385 125 182
386 51 205
387 260 352
388 55 115
389 102 324
390 238 124
391 54 108
392 108 75
393 359 42
394 248 286
395 98 375
396 340 276
397 85 128
398 277 143
399 6 62
400 143 159
401 159 164
402 343 322
403 223 41
404 155 159
405 73 4
406 175 304
407 40 31
408 110 241
409 399 179
410 196 77
411 8 363
412 126 90
413 136 373
414 339 69
415 234 73
416 65 335
417 35 238
418 201 242
419 279 262
420 111 286
421 350 207
422 305 257
423 320 166
424 285 287
425 228 96
426 296 388
427 38 366
428 26 275
429 49 187
430 291 304
431 81 156
432 3 2
433 354 199
434 361 194
435 267 321
436 378 30
437 217 211
438 246 152
439 336 386
440 348 102
441 162 251
442 70 81
443 231 320
444 374 163
445 367 300
446 45 85
447 330 76
448 371 386
449 253 316
450 264 69
451 330 353
452 169 235
453 186 179
454 13 220
455 323 218
456 300 319
457 356 315
458 193 18
459 228 341
460 324 184
461 344 72
462 376 19
463 74 351
464 262 30
465 256 145
466 361 287
467 188 67
468 26 70
469 381 375
470 220 71
471 371 349
472 26 260
473 339 3
474 308 314
475 113 80
476 78 261
477 85 333
478 192 151
479 382 169
480 52 301
481 51 64
482 273 182
483 163 264
484 213 305
485 96 162
486 209 208
487 100 15
488 8 68
489 256 385
490 178 103
491 285 107
492 1 335
493 274 7
494 213 216
495 190 27
496 73 124
497 321 144
498 296 156
499 348 189
500 117 395
501 2 52
502 186 145
503 381 290
504 244 50
505 11 328
506 317 183
507 196 51
508 212 197
509 299 227
510 395 340
511 259 4
512 292 392
513 211 153
514 370 57
515 119 286
516 213 332
517 328 39
518 312 247
519 248 126
520 208 20
521 201 195
522 146 174
523 341 33
524 86 112
525 140 40
526 310 340
527 176 154
528 131 89
529 74 231
530 93 31
531 349 324
532 5 344
533 159 79
534 137 68
535 103 95
536 315 237
537 294 118
538 75 89
539 369 6
540 63 166
541 59 89
542 138 326
543 304 395
544 59 49
545 170 176
546 384 47
547 117 381
548 72 315
549 326 156
550 41 340
551 94 165
552 229 371
553 107 98
554 262 233
555 41 337
556 243 275
557 384 307
558 365 303
559 397 73
560 234 214
561 3 15
562 244 135
563 303 112
564 325 45
565 343 134
566 307 396
567 278 289
568 203 40
569 238 119
570 166 357
571 290 82
572 177 139
573 2 200
574 348 319
575 36 203
576 125 122
577 184 69
578 368 278
579 374 175
580 126 208
581 184 235
582 153 315
583 48 278
584 286 308
585 197 200
586 196 138
587 226 52
588 256 356
589 108 399
590 124 221
591 240 201
592 122 105
593 236 171
594 348 371
595 183 71
596 26 326
597 338 315
598 380 126
599 74 283
600 46 197
601 30 39
602 88 372
603 60 319
604 174 326
605 172 109
606 157 378
607 219 49
608 316 112
609 398 325
610 230 234
611 97 387
612 262 212
613 349 181
614 29 9
615 201 255
616 21 255
617 102 252
618 9 47
619 237 243
620 330 313
621 282 252
622 16 114
623 236 38
624 247 212
625 366 97
626 284 311
627 308 217
628 343 184
629 55 346
630 316 327
631 255 80
632 102 118
633 73 126
634 369 171
635 350 214
636 244 56
637 287 343
638 220 38
639 154 41
640 173 72
641 206 106
642 362 383
643 107 159
644 319 160
645 88 121
646 341 78
647 97 105
648 246 244
649 35 79
650 37 106
651 173 384
652 368 63
653 300 272
654 237 200
655 286 44
656 294 249
657 388 106
658 148 71
659 100 218
660 177 77
661 148 94
662 16 311
663 158 85
664 105 254
665 66 118
666 13 96
667 348 41
668 135 161
669 85 61
670 160 62
671 234 20
672 108 395
673 230 139
674 45 291
675 266 8
676 95 391
677 156 32
678 58 98
679 79 344
680 59 51
681 380 339
682 165 126
683 43 67
684 377 72
685 209 167
686 57 381
687 294 13
688 87 147
689 4 60
690 26 247
691 44 296
692 357 38
693 56 156
694 52 194
695 124 179
696 311 356
697 140 131
698 364 213
699 102 84
700 7 143
701 105 360
702 150 49
703 52 343
704 218 134
705 199 22
706 381 27
707 75 76
708 377 282
709 377 144
710 59 285
711 321 85
712 194 65
713 213 280
714 41 93
715 41 399
716 334 92
717 76 72
718 55 341
719 248 124
720 0 155
721 186 355
722 102 42
723 96 209
724 325 294
725 251 381
726 362 115
727 8 119
728 53 51
729 123 30
730 361 236
731 76 90
732 77 319
733 395 113
734 110 290
735 251 70
736 26 199
737 92 384
738 122 397
739 15 4
740 168 15
741 47 190
742 35 160
743 388 275
744 338 150
745 186 75
746 352 383
747 50 315
748 153 224
749 2 17
750 168 223
751 299 270
752 397 133
753 24 57
754 234 37
755 381 12
756 117 148
757 325 130
758 146 320
759 8 285
760 146 324
761 131 82
762 266 13
763 348 343
764 91 61
765 114 88
766 36 286
767 325 311
768 192 268
769 37 119
770 291 398
771 201 6
772 162 121
773 302 345
774 297 137
775 34 371
776 202 158
777 338 290
778 100 10
779 310 163
780 368 215
781 142 379
782 326 79
783 5 266
784 140 344
785 267 221
786 18 235
787 393 246
788 394 299
789 244 176
790 309 18
791 364 23
792 75 238
793 81 290
794 209 283
795 353 357
796 87 164
797 400 109
798 319 115
799 349 135
800 12 368
801 231 6
802 370 57
803 146 301
804 325 311
805 105 254
806 262 212
807 160 62
808 271 371
809 123 159
PICKUP_AND_DELIVERY_SECTION
1 0 0 6751 0 0 0
2 16 90 172 10 0 788
3 12 312 423 10 0 178
4 9 3343 3489 10 0 30
5 13 0 6606 10 0 59
6 6 0 6704 10 0 524
7 -10 0 6523 10 393 0
8 20 0 6612 10 0 346
9 16 0 6539 10 0 672
10 -11 0 6557 10 20 0
11 -19 0 6551 10 693 0
12 15 590 745 10 0 371
13 13 188 333 10 0 307
14 -8 2584 2725 10 656 0
15 -23 4814 4916 10 347 0
16 -11 0 6552 10 529 0
17 4 251 372 10 0 493
18 26 2862 3055 10 0 376
19 19 0 6572 10 0 635
20 11 0 6519 10 0 10
21 21 2688 2862 10 0 648
22 26 0 6528 10 0 343
23 3 0 6525 10 0 534
24 15 0 6615 10 0 396
25 -20 2104 2247 10 95 0
26 -26 3787 3946 10 644 0
27 22 1337 1453 10 0 223
28 -35 501 609 10 452 0
29 31 2092 2210 10 0 579
30 -9 0 6574 10 4 0
31 -25 3741 3910 10 161 0
32 -16 4686 4854 10 472 0
33 -37 3460 3571 10 611 0
34 21 1501 1643 10 0 551
35 -23 3168 3303 10 607 0
36 21 0 6595 10 0 430
37 -19 0 6545 10 419 0
38 -9 957 1114 10 140 0
39 7 4272 4298 10 0 570
40 -30 0 6655 10 254 0
41 25 864 940 10 0 762
42 -22 3946 4023 10 609 0
43 -4 0 6572 10 60 0
44 -19 0 6499 10 135 0
45 10 50 228 10 0 722
46 -9 4432 4511 10 210 0
47 14 0 6698 10 0 764
48 -12 0 6725 10 465 0
49 30 0 6620 10 0 783
50 23 1228 1388 10 0 330
51 20 0 6649 10 0 545
52 -16 0 6592 10 744 0
53 24 1238 1328 10 0 436
54 16 4391 4505 10 0 200
55 -16 4887 5038 10 798 0
56 8 4258 4440 10 0 335
57 -34 3995 4105 10 145 0
58 -17 0 6698 10 499 0
59 -13 0 6626 10 5 0
60 4 2687 2815 10 0 43
61 -9 4210 4384 10 597 0
62 -15 3555 3701 10 328 0
63 12 3111 3199 10 0 568
64 -19 1431 1610 10 120 0
65 11 0 6593 10 0 333
66 28 1038 1156 10 0 132
67 9 0 6531 10 0 687
68 35 345 436 10 0 562
69 -27 0 6638 10 620 0
70 -19 4511 4742 10 666 0
71 27 3619 3718 10 0 129
72 -22 0 6699 10 724 0
73 29 2512 2665 10 0 288
74 -3 0 6504 10 191 0
75 -23 4682 4828 10 448 0
76 11 3532 3587 10 0 442
77 3 0 6650 10 0 217
78 -24 0 6476 10 406 0
79 22 1944 2073 10 0 168
80 -21 0 6628 10 563 0
81 20 0 6662 10 0 180
82 -28 0 6583 10 566 0
83 -16 0 6656 10 126 0
84 -10 0 6570 10 253 0
85 -16 0 6515 10 679 0
86 -24 4600 4777 10 139 0
87 22 2363 2480 10 0 222
88 14 667 778 10 0 351
89 26 0 6560 10 0 255
90 -16 3449 3512 10 251 0
91 18 3146 3341 10 0 434
92 30 3998 4108 10 0 716
93 -7 1014 1044 10 592 0
94 14 2235 2396 10 0 792
95 20 0 6670 10 0 25
96 -13 0 6657 10 537 0
97 -20 3601 3701 10 364 0
98 -13 0 6565 10 239 0
99 2 0 6543 10 0 763
100 -13 0 6541 10 591 0
101 1 608 757 10 0 170
102 -30 0 6625 10 284 0
103 -2 2492 2547 10 280 0
104 -27 5336 5389 10 525 0
105 18 0 6552 10 0 726
106 -24 0 6621 10 484 0
107 4 1578 1728 10 0 185
108 -12 1801 1939 10 124 0
109 8 1343 1484 10 0 322
110 -29 2036 2167 10 453 0
111 -35 2731 2814 10 154 0
112 -20 1254 1355 10 560 0
113 8 0 6545 10 0 604
114 -10 4686 4902 10 490 0
115 15 0 6556 0 0 808
116 18 0 6530 10 0 350
117 -20 0 6538 10 370 0
118 36 747 916 10 0 784
119 33 0 6615 10 0 386
120 19 1226 1355 10 0 64
121 37 0 6553 10 0 156
122 -14 3373 3482 10 614 0
123 -24 3509 3542 10 789 0
124 12 0 6535 10 0 108
125 -23 0 6573 10 389 0
126 16 0 6535 10 0 83
127 21 0 6593 10 0 486
128 -20 0 6704 10 429 0
129 -27 4277 4427 10 71 0
130 -16 0 6623 10 169 0
131 -18 1437 1621 10 188 0
132 -28 4097 4198 10 66 0
133 -44 3967 4100 10 155 0
134 -12 0 6603 10 361 0
135 19 0 6564 10 0 44
136 -17 4328 4451 10 587 0
137 20 0 6658 10 0 445
138 2 3862 3919 10 0 593
139 24 3915 4046 10 0 86
140 9 217 278 10 0 38
141 9 0 6568 10 0 480
142 -13 0 6610 10 500 0
143 -10 0 6480 10 276 0
144 24 0 6656 10 0 643
145 34 0 6632 10 0 57
146 -36 4413 4555 10 695 0
147 7 0 6555 10 0 229
148 5 0 6481 10 0 743
149 -19 0 6586 10 285 0
150 -22 2984 3063 10 234 0
151 30 1429 1562 10 0 433
152 -18 0 6584 10 195 0
153 -7 5033 5128 10 279 0
154 35 857 1037 10 0 111
155 44 0 6494 10 0 133
156 -37 2948 3023 10 121 0
157 12 3204 3330 10 0 327
158 14 4841 4963 10 0 233
159 26 3173 3265 10 0 205
160 -16 0 6650 10 400 0
161 25 1804 1992 10 0 31
162 -28 5336 5443 10 326 0
163 -20 3153 3321 10 561 0
164 -4 3322 3431 10 317 0
165 -11 4429 4534 10 294 0
166 -15 4023 4159 10 336 0
167 11 0 6557 10 0 508
168 -22 0 6527 10 79 0
169 16 1189 1366 10 0 130
170 -1 0 6576 10 101 0
171 -22 2612 2697 10 649 0
172 -31 4796 4966 10 331 0
173 8 0 6585 10 0 358
174 7 0 6545 10 0 428
175 26 2726 2886 10 0 590
176 -15 0 6619 10 585 0
177 21 0 6566 10 0 532
178 -12 0 6592 10 3 0
179 -19 4207 4328 10 757 0
180 -20 5238 5380 10 81 0
181 -11 0 6662 10 517 0
182 -19 1843 1980 10 567 0
183 -15 0 6585 10 342 0
184 23 3497 3591 10 0 661
185 -4 3681 3830 10 107 0
186 -26 0 6572 10 580 0
187 13 0 6495 10 0 194
188 18 0 6537 10 0 131
189 -20 0 6553 10 795 0
190 9 1656 1757 10 0 557
191 3 4567 4636 10 0 74
192 -24 3412 3579 10 760 0
193 43 308 449 10 0 721
194 -13 2164 2367 10 187 0
195 18 116 171 10 0 152
196 9 0 6515 10 0 629
197 -11 0 6497 10 548 0
198 20 2941 3089 10 0 605
199 -12 3812 3920 10 521 0
200 -16 4523 4616 10 54 0
201 -13 4042 4129 10 282 0
202 -26 5815 5921 10 324 0
203 19 627 750 10 0 338
204 -1 0 6513 10 262 0
205 -26 4136 4231 10 159 0
206 -20 0 6583 10 708 0
207 -8 0 6564 10 388 0
208 -24 0 6569 10 765 0
209 5 0 6659 10 0 356
210 9 0 6572 10 0 46
211 -19 681 756 10 382 0
212 -32 1455 1615 10 417 0
213 20 4496 4710 10 0 461
214 19 0 6571 10 0 495
215 32 3499 3625 10 0 581
216 -16 5187 5285 10 710 0
217 -3 0 6658 10 77 0
218 -37 0 6666 10 232 0
219 33 316 447 10 0 518
220 -26 0 6661 10 390 0
221 -14 0 6614 10 513 0
222 -22 5350 5404 10 87 0
223 -22 0 6657 10 27 0
224 -18 4400 4431 10 482 0
225 -15 2784 2841 10 549 0
226 11 0 6629 10 0 533
227 -21 2552 2748 10 420 0
228 2 0 6569 10 0 552
229 -7 3638 3814 10 147 0
230 -18 4764 4864 10 319 0
231 -20 4884 4976 10 705 0
232 37 1050 1151 10 0 218
233 -14 0 6506 10 158 0
234 22 0 6733 10 0 150
235 -30 0 6623 10 268 0
236 15 0 6557 10 0 616
237 12 310 454 10 0 577
238 -28 6578 6643 10 308 0
239 13 4620 4782 10 0 98
240 -26 0 6617 10 435 0
241 -21 3758 3912 10 449 0
242 22 0 6560 10 0 646
243 9 0 6596 10 0 323
244 14 3006 3124 10 0 295
245 -23 0 6655 10 474 0
246 -23 0 6546 10 709 0
247 26 0 6558 10 0 655
248 19 3818 3951 10 0 363
249 33 123 293 10 0 583
250 -12 2833 2930 10 777 0
251 16 0 6563 10 0 90
252 30 0 6654 0 0 809
253 10 0 6546 10 0 84
254 30 2393 2499 10 0 40
255 -26 0 6610 10 89 0
256 24 0 6580 10 0 528
257 25 2417 2531 10 0 647
258 -19 3470 3657 10 298 0
259 -15 0 6535 10 527 0
260 13 0 6551 10 0 755
261 -21 4221 4335 10 642 0
262 1 0 6474 10 0 204
263 -18 1201 1395 10 427 0
264 -18 3142 3274 10 515 0
265 -24 3263 3368 10 541 0
266 -22 3296 3424 10 606 0
267 -13 4178 4268 10 387 0
268 30 1513 1607 10 0 235
269 14 0 6669 10 0 289
270 23 1120 1218 10 0 701
271 10 2763 2810 10 0 283
272 21 1912 2019 10 0 300
273 -16 5378 5544 10 711 0
274 12 0 6699 10 0 394
275 1 0 6555 10 0 599
276 10 432 560 10 0 143
277 24 0 6485 10 0 531
278 -26 5246 5415 10 339 0
279 7 0 6571 10 0 153
280 2 0 6709 10 0 103
281 20 0 6589 10 0 675
282 13 2229 2365 10 0 201
283 -10 0 6669 10 271 0
284 30 2011 2160 10 0 102
285 19 0 6587 10 0 149
286 -39 4002 4114 10 640 0
287 -23 0 6585 10 479 0
288 -29 3071 3177 10 73 0
289 -14 547 666 10 269 0
290 18 1082 1199 10 0 797
291 18 151 252 10 0 353
292 10 310 446 10 0 485
293 18 0 6539 10 0 786
294 11 0 6627 10 0 165
295 -14 3305 3470 10 244 0
296 -10 2029 2160 10 662 0
297 -14 4574 4633 10 456 0
298 19 374 453 10 0 258
299 -36 2673 2804 10 310 0
300 -21 0 6575 10 272 0
301 -29 5199 5388 10 782 0
302 -13 2233 2343 10 320 0
303 -29 2711 2757 10 603 0
304 -2 5027 5120 10 692 0
305 33 0 6540 10 0 565
306 28 0 6593 10 0 698
307 -13 0 6547 10 13 0
308 28 5441 5586 10 0 238
309 23 2842 3000 10 0 558
310 36 1798 1885 10 0 299
311 -18 0 6525 10 512 0
312 -31 0 6506 10 546 0
313 -16 0 6599 10 770 0
314 -27 2313 2370 10 357 0
315 11 3435 3532 10 0 466
316 23 0 6688 10 0 535
317 4 0 6624 10 0 164
318 12 0 6631 10 0 391
319 18 3400 3504 10 0 230
320 13 1544 1686 10 0 302
321 39 0 6575 10 0 610
322 -8 0 6632 10 109 0
323 -9 0 6609 10 243 0
324 26 4686 4773 10 0 202
325 18 4479 4607 10 0 745
326 28 4872 4972 10 0 162
327 -12 0 6549 10 157 0
328 15 941 1182 10 0 62
329 -15 5535 5594 10 748 0
330 -23 0 6595 10 50 0
331 31 3276 3428 10 0 172
332 -4 0 6724 10 747 0
333 -11 2101 2190 10 65 0
334 -14 836 1005 10 602 0
335 -8 0 6590 10 56 0
336 15 0 6589 10 0 166
337 -24 1833 1917 10 759 0
338 -19 0 6501 10 203 0
339 26 1868 2068 10 0 278
340 14 0 6518 10 0 691
341 3 1129 1306 10 0 503
342 15 954 1132 10 0 183
343 -26 2513 2610 10 22 0
344 28 0 6584 10 0 367
345 7 121 244 10 0 422
346 -20 0 6605 10 8 0
347 23 4009 4244 10 0 15
348 16 2142 2195 10 0 738
349 31 0 6609 10 0 732
350 -18 1969 2048 10 116 0
351 -14 1049 1164 10 88 0
352 20 3001 3083 10 0 509
353 -18 591 651 10 291 0
354 -18 4606 4734 10 728 0
355 -23 0 6550 10 634 0
356 -5 3006 3087 10 209 0
357 27 0 6477 10 0 314
358 -8 0 6609 10 173 0
359 17 0 6595 10 0 707
360 -5 0 6628 10 438 0
361 12 0 6566 10 0 134
362 -12 1478 1583 10 492 0
363 -19 4137 4259 10 248 0
364 20 0 6572 10 0 97
365 8 1361 1458 10 0 502
366 14 2153 2324 10 0 673
367 -28 0 6585 10 344 0
368 21 0 6554 10 0 768
369 -17 3675 3748 10 542 0
370 20 1043 1121 10 0 117
371 -15 915 1062 10 12 0
372 -13 0 6672 10 459 0
373 41 2036 2181 10 0 794
374 13 0 6614 10 0 378
375 17 2607 2794 10 0 704
376 -26 0 6650 10 18 0
377 15 3997 4152 10 0 632
378 -13 0 6668 10 374 0
379 25 0 6582 10 0 736
380 -9 3245 3353 10 733 0
381 34 0 6627 0 0 803
382 19 112 182 10 0 211
383 -14 5099 5199 10 636 0
384 -17 0 6656 10 498 0
385 -28 0 6664 10 723 0
386 -33 0 6592 10 119 0
387 13 0 6578 10 0 267
388 8 0 6573 10 0 207
389 23 0 6583 10 0 125
390 26 2278 2458 10 0 220
391 -12 0 6569 10 318 0
392 24 0 6586 10 0 412
393 10 0 6517 10 0 7
394 -12 399 470 10 274 0
395 -21 0 6539 10 441 0
396 -15 3453 3608 10 24 0
397 -21 5158 5265 10 600 0
398 -25 2567 2702 10 423 0
399 -29 0 6503 10 488 0
400 16 237 324 10 0 160
401 -18 5354 5456 10 774 0
402 21 0 6554 10 0 437
403 19 2185 2342 10 0 801
404 15 248 323 10 0 749
405 20 5609 5759 10 0 475
406 24 384 472 10 0 78
407 -16 0 6509 10 432 0
408 -19 0 6643 10 719 0
409 -15 0 6541 10 780 0
410 4 0 6618 10 0 660
411 39 3518 3637 10 0 555
412 -24 0 6609 10 392 0
413 33 2462 2573 10 0 615
414 -16 0 6550 10 712 0
415 8 0 6610 10 0 440
416 -29 1332 1423 10 713 0
417 32 781 865 10 0 212
418 -18 0 6699 10 547 0
419 19 340 464 10 0 37
420 21 521 664 10 0 227
421 -41 0 6591 10 426 0
422 -7 0 6622 10 345 0
423 25 2353 2454 10 0 398
424 22 0 6620 10 0 574
425 37 0 6634 10 0 539
426 41 0 6530 10 0 421
427 18 0 6510 10 0 263
428 -7 0 6552 10 174 0
429 20 0 6590 10 0 128
430 -21 0 6603 10 36 0
431 -5 1768 1834 10 650 0
432 16 3792 3980 10 0 407
433 -30 5108 5253 10 151 0
434 -18 0 6580 10 91 0
435 26 2555 2631 10 0 240
436 -24 0 6495 10 53 0
437 -21 4731 4832 10 402 0
438 5 2429 2502 10 0 360
439 21 0 6511 10 0 469
440 -8 0 6564 10 415 0
441 21 0 6678 10 0 395
442 -11 3504 3634 10 76 0
443 4 0 6618 10 0 588
444 -28 0 6564 10 799 0
445 -20 1799 1916 10 137 0
446 -21 0 6548 10 553 0
447 -8 0 6562 10 564 0
448 23 0 6489 10 0 75
449 21 1685 1800 10 0 241
450 15 2648 2795 10 0 735
451 9 0 6541 10 0 746
452 35 132 243 10 0 28
453 29 0 6716 10 0 110
454 -2 4279 4361 10 731 0
455 -15 0 6617 10 653 0
456 14 0 6586 10 0 297
457 -24 1689 1796 10 785 0
458 -9 0 6559 10 496 0
459 13 4026 4151 10 0 372
460 25 469 615 10 0 752
461 -20 0 6549 10 213 0
462 11 0 6489 10 0 559
463 -3 0 6545 10 651 0
464 -12 0 6561 10 729 0
465 12 4566 4705 10 0 48
466 -11 0 6558 10 315 0
467 14 0 6608 10 0 671
468 3 3708 3782 10 0 714
469 -21 4312 4380 10 439 0
470 22 2695 2835 10 0 504
471 -9 0 6515 10 773 0
472 16 0 6557 10 0 32
473 -26 0 6500 10 790 0
474 23 2520 2719 10 0 245
475 -20 0 6593 10 405 0
476 32 0 6605 10 0 505
477 19 2309 2422 10 0 775
478 -24 0 6692 10 571 0
479 23 2653 2732 10 0 287
480 -9 3692 3826 10 141 0
481 14 3184 3299 10 0 668
482 18 3363 3561 10 0 224
483 26 257 334 10 0 734
484 24 1967 2073 10 0 106
485 -10 0 6631 10 292 0
486 -21 0 6729 10 127 0
487 21 1278 1367 10 0 530
488 29 2625 2721 10 0 399
489 5 0 6548 10 0 543
490 10 0 6642 10 0 114
491 -11 2007 2116 10 776 0
492 12 1012 1107 10 0 362
493 -4 0 6535 10 17 0
494 9 20 157 10 0 619
495 -19 0 6568 10 214 0
496 9 2224 2316 10 0 458
497 -9 4255 4380 10 657 0
498 17 409 536 10 0 384
499 17 0 6593 10 0 58
500 13 1599 1732 10 0 142
501 -29 2740 2793 10 689 0
502 -8 0 6685 10 365 0
503 -3 0 6539 10 341 0
504 -22 3804 3948 10 470 0
505 -32 0 6513 10 476 0
506 29 488 579 10 0 598
507 19 2131 2227 10 0 638
508 -11 0 6729 10 167 0
509 -20 0 6639 10 352 0
510 -24 0 6501 10 630 0
511 -27 0 6537 10 778 0
512 18 2661 2747 10 0 311
513 14 218 353 10 0 221
514 10 0 6519 0 0 802
515 18 0 6623 10 0 264
516 21 0 6609 10 0 696
517 11 3040 3130 10 0 181
518 -33 0 6620 10 219 0
519 -20 2597 2737 10 779 0
520 -22 0 6561 10 663 0
521 12 5 110 10 0 199
522 23 0 6682 10 0 665
523 27 1114 1239 10 0 684
524 -6 0 6597 10 6 0
525 27 4079 4161 10 0 104
526 -17 0 6563 10 725 0
527 15 129 287 10 0 259
528 -24 0 6611 10 256 0
529 11 1889 2019 10 0 16
530 -21 0 6541 10 487 0
531 -24 2147 2279 10 277 0
532 -21 5070 5124 10 177 0
533 -11 0 6614 10 226 0
534 -3 0 6595 10 23 0
535 -23 2384 2503 10 316 0
536 33 0 6621 10 0 787
537 13 417 580 10 0 96
538 -11 3280 3448 10 575 0
539 -37 0 6484 10 425 0
540 4 0 6600 10 0 573
541 24 3073 3202 10 0 265
542 17 2258 2348 10 0 369
543 -5 2113 2236 10 489 0
544 36 1633 1757 10 0 618
545 -20 0 6703 10 51 0
546 31 0 6502 10 0 312
547 18 0 6542 10 0 418
548 11 0 6569 10 0 197
549 15 1147 1304 10 0 225
550 -11 0 6530 10 781 0
551 -21 0 6630 10 34 0
552 -2 4032 4189 10 228 0
553 21 549 635 10 0 446
554 -10 0 6671 10 621 0
555 -39 0 6532 10 411 0
556 -17 3688 3789 10 637 0
557 -9 0 6529 10 190 0
558 -23 0 6547 10 309 0
559 -11 0 6507 10 462 0
560 20 0 6705 10 0 112
561 20 0 6471 10 0 163
562 -35 2680 2814 10 68 0
563 21 0 6606 10 0 80
564 8 2386 2447 10 0 447
565 -33 4037 4153 10 305 0
566 28 3088 3208 10 0 82
567 19 0 6623 10 0 182
568 -12 3222 3231 10 63 0
569 -9 0 6652 10 608 0
570 -7 4834 4992 10 39 0
571 24 0 6593 10 0 478
572 -8 0 6676 10 658 0
573 -4 0 6543 10 540 0
574 -22 0 6552 10 424 0
575 11 0 6577 10 0 538
576 15 458 551 10 0 680
577 -12 0 6610 10 237 0
578 20 0 6556 10 0 730
579 -31 0 6566 10 29 0
580 26 0 6667 10 0 186
581 -32 0 6703 10 215 0
582 16 0 6617 10 0 627
583 -33 638 809 10 249 0
584 3 0 6603 10 0 626
585 15 0 6738 10 0 176
586 18 0 6679 10 0 623
587 17 1949 2132 10 0 136
588 -4 0 6576 10 443 0
589 23 0 6522 10 0 758
590 -26 4008 4137 10 175 0
591 13 0 6701 10 0 100
592 7 0 6619 10 0 93
593 -2 0 6695 10 138 0
594 23 0 6515 10 0 681
595 14 0 6611 10 0 631
596 -21 0 6527 10 617 0
597 9 3814 3923 10 0 61
598 -29 777 961 10 506 0
599 -1 0 6591 10 275 0
600 21 1697 1810 10 0 397
601 8 1470 1594 10 0 739
602 14 0 6536 10 0 334
603 29 0 6558 10 0 303
604 -8 0 6613 10 113 0
605 -20 0 6646 10 198 0
606 22 0 6558 10 0 266
607 23 0 6589 10 0 35
608 9 3870 3960 10 0 569
609 22 3510 3608 10 0 42
610 -39 6240 6369 10 321 0
611 37 2227 2382 10 0 33
612 19 0 6678 0 0 806
613 1 0 6591 10 0 625
614 14 3316 3408 10 0 122
615 -33 0 6686 10 413 0
616 -15 3006 3199 10 236 0
617 21 385 502 10 0 596
618 -36 3416 3526 10 544 0
619 -9 156 298 10 494 0
620 27 0 6569 10 0 69
621 10 0 6644 10 0 554
622 26 0 6538 10 0 641
623 -18 1705 1876 10 586 0
624 -17 692 807 10 654 0
625 -1 0 6546 10 613 0
626 -3 1395 1519 10 584 0
627 -16 3926 4131 10 582 0
628 -24 4536 4565 10 751 0
629 -9 0 6536 10 196 0
630 24 0 6569 10 0 510
631 -14 0 6609 10 595 0
632 -15 4656 4815 10 377 0
633 -4 1695 1780 10 700 0
634 23 0 6570 10 0 355
635 -19 0 6591 10 19 0
636 14 0 6591 10 0 383
637 17 2882 3000 10 0 556
638 -19 0 6578 10 507 0
639 -5 5146 5261 10 702 0
640 39 1084 1231 10 0 286
641 -26 0 6647 10 622 0
642 21 1014 1152 10 0 261
643 -24 0 6640 10 144 0
644 26 649 813 10 0 26
645 15 2281 2383 10 0 697
646 -22 3273 3483 10 242 0
647 -25 3792 3876 10 257 0
648 -21 2677 2873 10 21 0
649 22 1677 1824 10 0 171
650 5 1437 1549 10 0 431
651 3 719 769 10 0 463
652 22 1675 1762 10 0 791
653 15 0 6618 10 0 455
654 17 98 198 10 0 624
655 -26 0 6563 10 247 0
656 8 1869 2019 10 0 14
657 9 0 6531 10 0 497
658 8 3265 3378 10 0 572
659 31 0 6640 10 0 769
660 -4 0 6616 10 410 0
661 -23 0 6623 10 184 0
662 10 1183 1281 10 0 296
663 22 0 6619 10 0 520
664 12 0 6632 0 0 805
665 -23 2259 2377 10 522 0
666 19 0 6528 10 0 70
667 16 2614 2767 10 0 754
668 -14 5424 5500 10 481 0
669 -1 0 6561 10 772 0
670 11 0 6598 0 0 807
671 -14 1715 1753 10 467 0
672 -16 0 6526 10 9 0
673 -14 5196 5307 10 366 0
674 -19 832 995 10 750 0
675 -20 2299 2461 10 281 0
676 -26 0 6524 10 737 0
677 34 3159 3284 10 0 717
678 -31 0 6567 10 690 0
679 16 823 1030 10 0 85
680 -15 813 955 10 576 0
681 -23 0 6514 10 594 0
682 -6 0 6660 10 740 0
683 -18 0 6536 10 753 0
684 -27 5228 5358 10 523 0
685 17 83 190 10 0 706
686 22 927 1025 10 0 715
687 -9 0 6532 10 67 0
688 -14 0 6617 10 756 0
689 29 0 6501 10 0 501
690 31 1518 1704 10 0 678
691 -14 1934 2055 10 340 0
692 2 4387 4569 10 0 304
693 19 0 6591 10 0 11
694 -3 0 6593 10 699 0
695 36 0 6663 10 0 146
696 -21 0 6550 10 516 0
697 -15 3510 3643 10 645 0
698 -28 2332 2413 10 306 0
699 3 0 6590 10 0 694
700 4 1330 1455 10 0 633
701 -23 0 6555 10 270 0
702 5 0 6582 10 0 639
703 -12 0 6536 10 800 0
704 -17 0 6673 10 375 0
705 20 0 6563 10 0 231
706 -17 1876 1948 10 685 0
707 -17 0 6565 10 359 0
708 20 0 6546 10 0 206
709 23 1873 1985 10 0 246
710 16 4599 4694 10 0 216
711 16 0 6575 10 0 273
712 16 1534 1675 10 0 414
713 29 0 6660 10 0 416
714 -3 0 6550 10 468 0
715 -22 1032 1179 10 686 0
716 -30 0 6569 10 92 0
717 -34 4057 4139 10 677 0
718 14 0 6539 10 0 793
719 19 0 6652 10 0 408
720 9 778 862 10 0 761
721 -43 586 659 10 193 0
722 -10 728 847 10 45 0
723 28 0 6637 10 0 385
724 22 0 6585 10 0 72
725 17 0 6553 10 0 526
726 -18 4248 4364 10 105 0
727 11 0 6533 10 0 771
728 18 0 6532 10 0 354
729 12 0 6555 10 0 464
730 -20 0 6577 10 578 0
731 2 0 6576 10 0 454
732 -31 0 6570 10 349 0
733 9 2354 2406 10 0 380
734 -26 504 595 10 483 0
735 -15 0 6602 10 450 0
736 -25 0 6567 10 379 0
737 26 0 6528 10 0 676
738 -16 2313 2419 10 348 0
739 -8 0 6472 10 601 0
740 6 2465 2630 10 0 682
741 -13 0 6588 10 742 0
742 13 4054 4205 10 0 741
743 -5 3697 3839 10 148 0
744 16 3039 3225 10 0 52
745 -18 0 6616 10 325 0
746 -9 0 6504 10 451 0
747 4 2534 2613 10 0 332
748 15 0 6689 10 0 329
749 -15 1066 1209 10 404 0
750 19 0 6702 10 0 674
751 24 3333 3451 10 0 628
752 -25 2965 3084 10 460 0
753 18 818 996 10 0 683
754 -16 0 6575 10 667 0
755 -13 2335 2510 10 260 0
756 14 327 456 10 0 688
757 19 4143 4284 10 0 179
758 -23 0 6610 10 589 0
759 24 1305 1402 10 0 337
760 24 0 6606 10 0 192
761 -9 3592 3695 10 720 0
762 -25 0 6543 10 41 0
763 -2 0 6536 10 99 0
764 -14 5895 6032 10 47 0
765 24 2689 2827 10 0 208
766 -11 0 6556 10 796 0
767 15 0 6574 0 0 804
768 -21 0 6673 10 368 0
769 -31 2111 2220 10 659 0
770 16 0 6524 10 0 313
771 -11 2320 2482 10 727 0
772 1 289 413 10 0 669
773 9 907 1047 10 0 471
774 18 1850 1934 10 0 401
775 -19 0 6503 10 477 0
776 11 0 6699 10 0 491
777 12 2561 2761 10 0 250
778 27 1133 1269 10 0 511
779 20 0 6625 10 0 519
780 15 2884 3048 10 0 409
781 11 0 6553 10 0 550
782 29 0 6567 10 0 301
783 -30 0 6536 10 49 0
784 -36 5161 5263 10 118 0
785 24 0 6671 10 0 457
786 -18 0 6556 10 293 0
787 -33 2039 2149 10 536 0
788 -16 0 6524 10 2 0
789 24 125 275 10 0 123
790 26 0 6529 10 0 473
791 -22 0 6500 10 652 0
792 -14 0 6611 10 94 0
793 -14 0 6592 10 718 0
794 -41 2461 2597 10 373 0
795 20 877 1005 10 0 189
796 11 2663 2751 10 0 766
797 -18 0 6522 10 290 0
798 16 0 6595 10 0 55
799 28 0 6579 10 0 444
800 12 3123 3169 10 0 703
801 -19 0 6545 10 403 0
802 -10 0 6519 10 514 0
803 -34 0 6627 10 381 0
804 -15 0 6574 10 767 0
805 -12 0 6632 10 664 0
806 -19 0 6678 10 612 0
807 -11 0 6598 10 670 0
808 -15 0 6556 10 115 0
809 -30 0 6654 10 252 0
DEPOT_SECTION
1
-1
EOF
