NAME: lr2_8_10
TYPE: PDPTW
COMMENT: Li & Lim PDPTW benchmark converted from SINTEF format
DIMENSION: 811
VEHICLES: 200
CAPACITY: 1000
EDGE_WEIGHT_TYPE: EUC_2D
NODE_COORD_SECTION
1 200 200
2 221 225
3 279 247
4 355 41
5 93 283
6 163 207
7 364 55
8 329 208
9 102 377
10 356 299
11 10 202
12 40 153
13 145 165
14 278 265
15 338 14
16 13 167
17 179 125
18 194 43
19 358 261
20 299 399
21 246 247
22 343 359
23 101 8
24 302 274
25 131 275
26 191 167
27 332 124
28 106 302
29 380 145
30 334 100
31 180 359
32 142 238
33 138 306
34 16 294
35 206 7
36 299 308
37 343 335
38 135 384
39 161 346
40 206 286
41 156 4
42 326 335
43 82 78
44 37 21
45 177 174
46 84 221
47 171 168
48 207 185
49 92 255
50 220 337
51 137 132
52 342 154
53 353 65
54 70 231
55 79 95
56 352 303
57 136 226
58 243 209
59 145 301
60 254 0
61 310 363
62 387 267
63 236 44
64 94 268
65 84 293
66 11 135
67 280 5
68 265 127
69 259 285
70 52 94
71 278 221
72 231 229
73 168 100
74 14 53
75 237 259
76 69 82
77 192 291
78 8 384
79 367 361
80 91 233
81 125 175
82 304 319
83 241 275
84 193 29
85 80 392
86 300 64
87 327 11
88 299 351
89 311 344
90 229 105
91 362 207
92 344 154
93 39 34
94 68 250
95 268 223
96 116 195
97 352 156
98 313 64
99 375 294
100 391 260
101 334 186
102 84 206
103 12 40
104 195 148
105 381 144
106 320 211
107 308 178
108 376 205
109 257 98
110 111 4
111 330 310
112 305 255
113 140 387
114 164 80
115 271 371
116 4 280
117 347 59
118 147 376
119 74 213
120 54 341
121 303 358
122 21 82
123 379 126
124 398 258
125 152 361
126 397 261
127 250 340
128 166 185
129 294 184
130 303 258
131 87 378
132 250 183
133 384 72
134 98 107
135 56 97
136 225 53
137 280 224
138 208 86
139 395 167
140 215 260
141 44 277
142 174 329
143 380 390
144 120 170
145 273 118
146 103 154
147 180 15
148 371 396
149 169 352
150 78 85
151 226 378
152 357 202
153 68 143
154 384 248
155 391 42
156 267 295
157 350 131
158 5 345
159 199 45
160 166 115
161 103 361
162 239 252
163 2 3
164 335 202
165 158 121
166 320 24
167 166 19
168 326 374
169 317 240
170 357 147
171 32 78
172 40 336
173 52 251
174 40 314
175 233 100
176 78 194
177 110 351
178 321 287
179 369 118
180 101 99
181 232 127
182 390 376
183 73 292
184 195 121
185 175 192
186 33 226
187 390 357
188 80 365
189 344 321
190 397 283
191 66 5
192 160 313
193 210 294
194 320 373
195 231 182
196 30 349
197 26 372
198 154 68
199 338 106
200 49 222
201 17 99
202 279 148
203 309 279
204 384 64
205 231 36
206 279 337
207 187 23
208 32 163
209 214 119
210 74 87
211 134 320
212 42 197
213 350 18
214 92 68
215 48 358
216 160 222
217 184 282
218 168 268
219 289 234
220 123 176
221 231 76
222 196 107
223 138 143
224 285 136
225 194 166
226 162 94
227 165 335
228 205 372
229 168 87
230 159 11
231 143 20
232 297 240
233 17 348
234 192 200
235 303 142
236 48 304
237 200 144
238 185 180
239 317 68
240 324 194
241 274 247
242 337 81
243 345 195
244 129 53
245 285 184
246 378 118
247 309 53
248 246 298
249 153 222
250 306 361
251 46 110
252 123 159
253 234 7
254 162 316
255 309 274
256 57 124
257 46 102
258 382 49
259 96 22
260 292 33
261 359 389
262 392 14
263 68 386
264 163 364
265 116 102
266 37 397
267 264 341
268 269 203
269 230 266
270 31 360
271 68 378
272 262 390
273 236 119
274 220 238
275 36 288
276 276 298
277 362 399
278 244 285
279 32 229
280 179 175
281 200 48
282 13 59
283 165 264
284 56 292
285 178 353
286 210 1
287 306 85
288 196 129
289 243 287
290 396 106
291 151 188
292 151 231
293 11 274
294 92 238
295 108 48
296 38 291
297 232 131
298 217 98
299 340 79
300 308 327
301 279 91
302 384 294
303 90 311
304 359 31
305 391 136
306 344 236
307 202 6
308 2 29
309 366 340
310 328 8
311 316 383
312 384 53
313 302 300
314 29 86
315 358 309
316 147 210
317 287 279
318 102 149
319 115 51
320 393 256
321 340 290
322 271 116
323 332 216
324 319 113
325 246 47
326 247 377
327 371 111
328 397 362
329 157 220
330 322 281
331 50 385
332 193 216
333 80 282
334 91 388
335 351 199
336 327 115
337 23 317
338 362 378
339 337 248
340 4 307
341 379 254
342 67 318
343 372 382
344 356 223
345 243 215
346 336 201
347 338 5
348 142 385
349 192 332
350 18 294
351 400 373
352 287 225
353 66 144
354 19 61
355 389 171
356 377 29
357 6 20
358 68 215
359 177 55
360 118 122
361 43 121
362 13 322
363 193 390
364 369 211
365 92 73
366 163 270
367 349 249
368 133 375
369 266 234
370 353 3
371 18 102
372 236 260
373 142 262
374 314 257
375 161 124
376 170 114
377 85 256
378 243 140
379 41 183
380 359 157
381 146 301
382 184 233
383 194 121
384 277 163
385 125 182
386 51 205
387 260 352
388 55 115
389 102 324
390 238 124
391 54 108
392 108 75
393 359 42
394 248 286
395 98 375
396 340 276
397 85 128
398 277 143
399 6 62
400 143 159
401 159 164
402 343 322
403 223 41
404 155 159
405 73 4
406 175 304
407 40 31
408 110 241
409 399 179
410 196 77
411 8 363
412 126 90
413 136 373
414 339 69
415 234 73
416 65 335
417 35 238
418 201 242
419 279 262
420 111 286
421 350 207
422 305 257
423 320 166
424 285 287
425 228 96
426 296 388
427 38 366
428 26 275
429 49 187
430 291 304
431 81 156
432 3 2
433 354 199
434 361 194
435 267 321
436 378 30
437 217 211
438 246 152
439 336 386
440 348 102
441 162 251
442 70 81
443 231 320
444 374 163
445 367 300
446 45 85
447 330 76
448 371 386
449 253 316
450 264 69
451 330 353
452 169 235
453 186 179
454 13 220
455 323 218
456 300 319
457 356 315
458 193 18
459 228 341
460 324 184
461 344 72
462 376 19
463 74 351
464 262 30
465 256 145
466 361 287
467 188 67
468 26 70
469 381 375
470 220 71
471 371 349
472 26 260
473 339 3
474 308 314
475 113 80
476 78 261
477 85 333
478 192 151
479 382 169
480 52 301
481 51 64
482 273 182
483 163 264
484 213 305
485 96 162
486 209 208
487 100 15
488 8 68
489 256 385
490 178 103
491 285 107
492 1 335
493 274 7
494 213 216
495 190 27
496 73 124
497 321 144
498 296 156
499 348 189
500 117 395
501 2 52
502 186 145
503 381 290
504 244 50
505 11 328
506 317 183
507 196 51
508 212 197
509 299 227
510 395 340
511 259 4
512 292 392
513 211 153
514 370 57
515 119 286
516 213 332
517 328 39
518 312 247
519 248 126
520 208 20
521 201 195
522 146 174
523 341 33
524 86 112
525 140 40
526 310 340
527 176 154
528 131 89
529 74 231
530 93 31
531 349 324
532 5 344
533 159 79
534 137 68
535 103 95
536 315 237
537 294 118
538 75 89
539 369 6
540 63 166
541 59 89
542 138 326
543 304 395
544 59 49
545 170 176
546 384 47
547 117 381
548 72 315
549 326 156
550 41 340
551 94 165
552 229 371
553 107 98
554 262 233
555 41 337
556 243 275
557 384 307
558 365 303
559 397 73
560 234 214
561 3 15
562 244 135
563 303 112
564 325 45
565 343 134
566 307 396
567 278 289
568 203 40
569 238 119
570 166 357
571 290 82
572 177 139
573 2 200
574 348 319
575 36 203
576 125 122
577 184 69
578 368 278
579 374 175
580 126 208
581 184 235
582 153 315
583 48 278
584 286 308
585 197 200
586 196 138
587 226 52
588 256 356
589 108 399
590 124 221
591 240 201
592 122 105
593 236 171
594 348 371
595 183 71
596 26 326
597 338 315
598 380 126
599 74 283
600 46 197
601 30 39
602 88 372
603 60 319
604 174 326
605 172 109
606 157 378
607 219 49
608 316 112
609 398 325
610 230 234
611 97 387
612 262 212
613 349 181
614 29 9
615 201 255
616 21 255
617 102 252
618 9 47
619 237 243
620 330 313
621 282 252
622 16 114
623 236 38
624 247 212
625 366 97
626 284 311
627 308 217
628 343 184
629 55 346
630 316 327
631 255 80
632 102 118
633 73 126
634 369 171
635 350 214
636 244 56
637 287 343
638 220 38
639 154 41
640 173 72
641 206 106
642 362 383
643 107 159
644 319 160
645 88 121
646 341 78
647 97 105
648 246 244
649 35 79
650 37 106
651 173 384
652 368 63
653 300 272
654 237 200
655 286 44
656 294 249
657 388 106
658 148 71
659 100 218
660 177 77
661 148 94
662 16 311
663 158 85
664 105 254
665 66 118
666 13 96
667 348 41
668 135 161
669 85 61
670 160 62
671 234 20
672 108 395
673 230 139
674 45 291
675 266 8
676 95 391
677 156 32
678 58 98
679 79 344
680 59 51
681 380 339
682 165 126
683 43 67
684 377 72
685 209 167
686 57 381
687 294 13
688 87 147
689 4 60
690 26 247
691 44 296
692 357 38
693 56 156
694 52 194
695 124 179
696 311 356
697 140 131
698 364 213
699 102 84
700 7 143
701 105 360
702 150 49
703 52 343
704 218 134
705 199 22
706 381 27
707 75 76
708 377 282
709 377 144
710 59 285
711 321 85
712 194 65
713 213 280
714 41 93
715 41 399
716 334 92
717 76 72
718 55 341
719 248 124
720 0 155
721 186 355
722 102 42
723 96 209
724 325 294
725 251 381
726 362 115
727 8 119
728 53 51
729 123 30
730 361 236
731 76 90
732 77 319
733 395 113
734 110 290
735 251 70
736 26 199
737 92 384
738 122 397
739 15 4
740 168 15
741 47 190
742 35 160
743 388 275
744 338 150
745 186 75
746 352 383
747 50 315
748 153 224
749 2 17
750 168 223
751 299 270
752 397 133
753 24 57
754 234 37
755 381 12
756 117 148
757 325 130
758 146 320
759 8 285
760 146 324
761 131 82
762 266 13
763 348 343
764 91 61
765 114 88
766 36 286
767 325 311
768 192 268
769 37 119
770 291 398
771 201 6
772 162 121
773 302 345
774 297 137
775 34 371
776 202 158
777 338 290
778 100 10
779 310 163
780 368 215
781 142 379
782 326 79
783 5 266
784 140 344
785 267 221
786 18 235
787 393 246
788 394 299
789 244 176
790 309 18
791 364 23
792 75 238
793 81 290
794 209 283
795 353 357
796 87 164
797 400 109
798 319 115
799 349 135
800 12 368
801 231 6
802 52 94
803 350 18
804 68 250
805 348 371
806 194 121
807 84 221
808 91 233
809 357 147
810 202 158
811 135 161
PICKUP_AND_DELIVERY_SECTION
1 0 0 6751 0 0 0
2 16 32 508 10 0 168
3 12 124 611 10 0 503
4 9 3190 3642 10 0 347
5 -32 1145 1624 10 476 0
6 -12 4365 4754 10 664 0
7 -15 1135 1707 10 559 0
8 -18 5071 5583 10 129 0
9 -26 3805 4189 10 550 0
10 31 3996 4529 10 0 278
11 -35 1122 1608 10 573 0
12 15 447 887 10 0 371
13 13 65 499 10 0 135
14 -23 2448 2861 10 519 0
15 -18 4671 5059 10 290 0
16 42 531 1070 10 0 431
17 4 82 542 10 0 226
18 26 2728 3189 10 0 797
19 -12 2855 3263 10 246 0
20 -22 2897 3411 10 79 0
21 21 2590 2961 10 0 352
22 -17 1626 2143 10 338 0
23 3 1374 1846 10 0 265
24 -37 931 1525 10 232 0
25 30 1957 2393 10 0 192
26 17 3643 4089 10 0 185
27 22 1109 1681 10 0 52
28 3 314 795 10 0 686
29 -17 1926 2375 10 223 0
30 -18 4338 4881 10 655 0
31 -21 3583 4068 10 363 0
32 -33 4553 4986 10 413 0
33 -22 3302 3728 10 758 0
34 -16 1354 1790 10 582 0
35 8 3011 3459 10 0 97
36 -23 2074 2552 10 50 0
37 18 3243 3701 10 0 630
38 13 763 1309 10 0 331
39 -8 4029 4542 10 113 0
40 -23 1708 2302 10 255 0
41 -20 700 1103 10 51 0
42 -13 3717 4252 10 187 0
43 20 4559 5047 10 0 682
44 24 3463 3927 10 0 399
45 10 34 419 10 0 397
46 22 4254 4690 0 0 807
47 -27 5244 5701 10 590 0
48 -8 4688 5194 10 415 0
49 -18 1495 2017 10 674 0
50 23 1045 1572 10 0 36
51 20 660 1189 10 0 41
52 -22 1433 1886 10 27 0
53 24 1095 1471 10 0 684
54 -26 4177 4720 10 736 0
55 22 4708 5218 10 0 160
56 8 4116 4581 10 0 459
57 7 3798 4302 10 0 401
58 -17 5400 5752 10 628 0
59 -10 247 673 10 292 0
60 4 2519 2982 10 0 801
61 20 4042 4551 10 0 72
62 -5 3371 3884 10 380 0
63 12 2911 3400 10 0 757
64 25 1285 1756 10 0 529
65 -9 2000 2568 10 141 0
66 28 858 1336 10 0 396
67 9 3895 4354 10 0 297
68 35 132 650 10 0 460
69 14 131 696 10 0 311
70 14 4421 4832 0 0 802
71 27 3418 3918 10 0 205
72 -20 4607 5134 10 61 0
73 -21 2297 2879 10 553 0
74 -8 2986 3572 10 601 0
75 -17 4504 5006 10 313 0
76 11 3341 3778 10 0 186
77 3 291 661 10 0 131
78 -12 3881 4324 10 800 0
79 22 1803 2213 10 0 20
80 25 1662 2188 0 0 808
81 -22 525 887 10 234 0
82 14 3294 3716 10 0 162
83 18 2585 3104 10 0 704
84 16 2888 3288 10 0 568
85 -7 2002 2400 10 149 0
86 -10 4406 4971 10 235 0
87 -19 2192 2651 10 403 0
88 14 484 961 10 0 795
89 26 552 1067 10 0 696
90 -20 3246 3715 10 156 0
91 -4 3028 3459 10 335 0
92 -26 3788 4318 10 687 0
93 -29 823 1235 10 689 0
94 14 2113 2518 0 0 804
95 20 71 505 10 0 152
96 -20 4157 4494 10 137 0
97 -8 3407 3895 10 35 0
98 29 1450 1887 10 0 304
99 -20 2258 2686 10 708 0
100 -16 2230 2722 10 126 0
101 1 452 913 10 0 262
102 22 2132 2607 10 0 541
103 -18 2314 2725 10 753 0
104 -17 5119 5606 10 587 0
105 -15 1706 2331 10 576 0
106 6 186 778 10 0 523
107 4 1420 1886 10 0 661
108 4 1634 2106 10 0 643
109 -7 1185 1643 10 592 0
110 12 1860 2343 10 0 520
111 11 2514 3031 10 0 248
112 -24 1034 1574 10 789 0
113 8 581 1086 10 0 39
114 -27 4523 5065 10 525 0
115 15 2853 3280 10 0 451
116 18 805 1219 10 0 516
117 -9 1653 2237 10 657 0
118 36 548 1115 10 0 602
119 -19 1572 2025 10 120 0
120 19 1064 1517 10 0 119
121 37 1169 1680 10 0 387
122 26 3140 3714 10 0 481
123 8 3318 3734 10 0 608
124 12 2271 2632 10 0 698
125 -12 3885 4465 10 672 0
126 16 2113 2684 10 0 100
127 -16 571 1069 10 615 0
128 17 37 447 10 0 432
129 18 4102 4602 10 0 8
130 -23 3714 4312 10 309 0
131 -3 1317 1741 10 77 0
132 -13 3846 4449 10 591 0
133 -33 3832 4235 10 305 0
134 -18 3525 4069 10 579 0
135 -13 3619 4032 10 13 0
136 -19 4137 4641 10 719 0
137 20 766 1167 10 0 96
138 -13 3635 4147 10 537 0
139 -32 3690 4271 10 638 0
140 9 61 614 10 0 151
141 9 1930 2461 10 0 65
142 -14 2648 3071 10 366 0
143 -15 813 1362 10 328 0
144 -38 1651 2129 10 633 0
145 34 258 707 10 0 390
146 22 4224 4743 10 0 238
147 -15 3322 3797 10 533 0
148 -27 2235 2697 10 620 0
149 7 809 1303 10 0 85
150 -31 2795 3252 10 659 0
151 -9 1248 1744 10 140 0
152 -20 1834 2279 10 95 0
153 -26 4815 5346 10 386 0
154 -19 716 1178 10 419 0
155 44 3712 4121 10 0 791
156 20 2778 3192 10 0 90
157 12 3016 3519 10 0 179
158 14 4650 5155 10 0 580
159 -12 3015 3422 10 754 0
160 -22 4774 5336 10 55 0
161 -13 1591 2205 10 629 0
162 -14 5151 5628 10 82 0
163 -23 3001 3472 10 522 0
164 -9 3087 3667 10 733 0
165 -22 4214 4748 10 424 0
166 -13 3867 4315 10 260 0
167 -7 4641 5071 10 230 0
168 -16 2142 2599 10 2 0
169 16 1029 1525 10 0 536
170 23 1949 2418 0 0 809
171 -5 2413 2895 10 650 0
172 -30 4649 5114 10 284 0
173 8 473 921 10 0 741
174 -21 2775 3139 10 420 0
175 26 2571 3040 10 0 688
176 -4 3603 4023 10 540 0
177 21 402 1004 10 0 715
178 -29 2216 2629 10 713 0
179 -12 4001 4535 10 157 0
180 -22 5072 5546 10 632 0
181 -17 101 537 10 685 0
182 2 1656 2168 10 0 469
183 8 558 965 10 0 342
184 -31 3301 3787 10 768 0
185 -17 3515 3996 10 26 0
186 -11 4576 5084 10 76 0
187 13 4017 4434 10 0 42
188 18 1652 2064 10 0 266
189 2 854 1295 10 0 637
190 9 1499 1915 10 0 299
191 -14 4354 4849 10 756 0
192 -30 3252 3738 10 25 0
193 43 114 643 10 0 725
194 -24 2078 2453 10 484 0
195 18 35 581 10 0 663
196 9 2560 2981 10 0 766
197 14 737 1221 10 0 350
198 -21 2716 3314 10 487 0
199 8 3649 4083 10 0 287
200 -13 4299 4841 10 742 0
201 -36 3878 4293 10 544 0
202 -2 5600 6136 10 692 0
203 19 413 963 10 0 744
204 -10 4085 4561 10 447 0
205 -27 3931 4435 10 71 0
206 -41 2234 2711 10 426 0
207 -23 3791 4353 10 504 0
208 -18 692 1182 10 291 0
209 -17 3912 4325 10 491 0
210 -16 5211 5748 10 354 0
211 39 463 973 10 0 294
212 26 1271 1799 10 0 496
213 20 4324 4881 0 0 803
214 -28 2667 3215 10 723 0
215 32 3295 3829 10 0 606
216 -29 4953 5518 10 395 0
217 19 102 566 10 0 547
218 -2 3999 4549 10 228 0
219 33 157 606 10 0 430
220 -7 4474 5004 10 279 0
221 -8 3070 3580 10 564 0
222 -22 5159 5596 10 639 0
223 17 127 648 10 0 29
224 -26 4172 4658 10 511 0
225 7 2566 3059 10 0 306
226 -4 242 658 10 17 0
227 3 2385 2916 10 0 515
228 2 3424 3810 10 0 218
229 5 3453 3999 10 0 545
230 7 4548 5080 10 0 167
231 -5 4684 5176 10 702 0
232 37 937 1263 10 0 24
233 22 1596 2028 10 0 691
234 22 8 536 10 0 81
235 10 4163 4576 10 0 86
236 15 747 1211 10 0 362
237 12 175 590 10 0 298
238 -22 6256 6716 10 146 0
239 -26 4468 4933 10 324 0
240 18 4064 4584 10 0 433
241 -21 3676 3993 10 272 0
242 -16 2629 3198 10 445 0
243 -20 3564 4011 10 429 0
244 14 2818 3312 10 0 658
245 -28 3929 4430 10 344 0
246 12 2735 3202 10 0 19
247 26 1154 1578 10 0 336
248 -11 3687 4082 10 111 0
249 33 51 500 10 0 781
250 -28 2694 3068 10 566 0
251 16 2084 2538 10 0 405
252 -12 5078 5559 10 323 0
253 10 4227 4822 10 0 465
254 -4 2179 2712 10 416 0
255 23 1170 1674 10 0 40
256 24 451 844 10 0 561
257 25 2186 2762 10 0 764
258 -15 3327 3799 10 624 0
259 23 3103 3548 10 0 412
260 13 3571 4097 10 0 166
261 -7 4069 4487 10 351 0
262 -1 3930 4395 10 101 0
263 16 1113 1483 10 0 599
264 -17 2924 3492 10 542 0
265 -3 3077 3554 10 23 0
266 -18 3139 3581 10 188 0
267 -20 3973 4473 10 302 0
268 30 1342 1777 10 0 421
269 -29 3213 3694 10 506 0
270 23 953 1386 10 0 505
271 -25 2583 2990 10 721 0
272 21 1733 2197 10 0 241
273 30 5211 5711 10 0 378
274 12 42 532 10 0 471
275 -19 3685 4087 10 477 0
276 10 230 763 10 0 574
277 -21 3409 3834 10 439 0
278 -31 5122 5538 10 10 0
279 7 4019 4537 10 0 220
280 2 32 568 10 0 423
281 20 696 1182 10 0 409
282 -29 2072 2522 10 488 0
283 20 77 507 10 0 676
284 30 1813 2357 10 0 172
285 -13 3693 4090 10 500 0
286 11 3830 4286 10 0 673
287 -8 4351 4924 10 199 0
288 -16 2862 3386 10 508 0
289 8 383 830 10 0 448
290 18 926 1355 10 0 15
291 18 50 609 10 0 208
292 10 191 564 10 0 59
293 18 2947 3575 10 0 411
294 -39 4688 5145 10 211 0
295 -34 3124 3650 10 677 0
296 8 1862 2328 10 0 548
297 -9 4381 4825 10 67 0
298 -12 193 634 10 237 0
299 -9 2499 2978 10 190 0
300 -4 1366 1860 10 443 0
301 -8 5064 5523 10 461 0
302 20 2069 2507 10 0 267
303 -19 2444 3024 10 750 0
304 -29 4848 5300 10 98 0
305 33 649 1175 10 0 133
306 -7 3402 3792 10 225 0
307 20 2356 2849 10 0 319
308 -10 5332 5694 10 446 0
309 23 2682 3159 10 0 130
310 -3 1589 2094 10 327 0
311 -14 3049 3599 10 69 0
312 13 3637 4080 10 0 514
313 17 3167 3610 10 0 75
314 28 2080 2602 10 0 501
315 -14 3219 3749 10 788 0
316 23 53 473 10 0 600
317 -16 4589 5103 10 746 0
318 12 1782 2395 10 0 478
319 -20 3195 3709 10 307 0
320 -13 1389 1841 10 466 0
321 -20 1608 2120 10 560 0
322 -12 3430 3960 10 398 0
323 12 1631 2069 10 0 252
324 26 4434 5025 10 0 239
325 18 4277 4810 10 0 467
326 -7 4719 5125 10 552 0
327 3 791 1324 10 0 310
328 15 790 1333 10 0 143
329 -12 5311 5818 10 732 0
330 9 361 891 10 0 635
331 -13 3112 3593 10 38 0
332 -24 4742 5225 10 581 0
333 -3 1889 2401 10 734 0
334 -21 663 1177 10 441 0
335 4 2962 3494 10 0 91
336 -26 983 1565 10 247 0
337 10 1630 2119 10 0 480
338 17 1594 2306 10 0 22
339 -12 1710 2227 10 434 0
340 14 4105 4635 10 0 532
341 3 991 1444 10 0 578
342 -8 814 1272 10 183 0
343 7 2351 2772 10 0 437
344 28 3710 4153 10 0 245
345 7 45 511 10 0 730
346 -23 3076 3604 10 625 0
347 -9 3921 4331 10 4 0
348 -24 1869 2469 10 759 0
349 31 1578 2048 10 0 381
350 -14 1775 2243 10 197 0
351 7 855 1359 10 0 261
352 -21 2821 3264 10 21 0
353 29 380 861 10 0 769
354 16 4393 4947 10 0 210
355 -17 1634 2097 10 722 0
356 -16 2838 3255 10 711 0
357 27 839 1384 10 0 649
358 -15 3703 4188 10 645 0
359 -6 2894 3271 10 740 0
360 -28 3636 4088 10 799 0
361 12 3749 4250 10 0 792
362 -15 1293 1768 10 236 0
363 21 3924 4472 10 0 31
364 -1 1686 2136 10 613 0
365 8 1207 1612 10 0 778
366 14 2010 2467 10 0 142
367 -34 3252 3829 10 455 0
368 -9 2434 2887 10 408 0
369 -11 3456 3967 10 631 0
370 -31 853 1312 10 598 0
371 -15 715 1263 10 12 0
372 -5 4318 4752 10 489 0
373 -14 1852 2365 10 793 0
374 13 252 768 10 0 479
375 -17 2451 2950 10 569 0
376 -26 2364 2848 10 440 0
377 -24 3875 4274 10 786 0
378 -30 4933 5374 10 273 0
379 -9 4488 5050 10 442 0
380 5 3043 3555 10 0 62
381 -31 1204 1741 10 349 0
382 19 36 507 10 0 651
383 21 4968 5329 0 0 806
384 29 2247 2602 10 0 438
385 -15 77 584 10 585 0
386 26 4696 5151 10 0 153
387 -37 1436 1841 10 121 0
388 -9 2912 3470 10 694 0
389 23 1773 2273 10 0 718
390 -34 2101 2635 10 145 0
391 -16 849 1406 10 400 0
392 24 376 865 10 0 669
393 -11 3179 3675 10 517 0
394 35 179 690 10 0 526
395 29 629 991 10 0 216
396 -28 3299 3762 10 66 0
397 -10 4962 5460 10 45 0
398 12 2410 2858 10 0 322
399 -24 3428 3868 10 44 0
400 16 98 463 10 0 391
401 -7 5160 5650 10 57 0
402 21 3030 3582 10 0 751
403 19 2055 2472 10 0 87
404 15 67 504 10 0 699
405 -16 5397 5971 10 251 0
406 24 252 604 10 0 738
407 -11 2148 2576 10 749 0
408 9 164 628 10 0 368
409 -20 1586 2114 10 281 0
410 -11 3133 3611 10 670 0
411 -18 3288 3866 10 293 0
412 -23 3300 3744 10 259 0
413 33 2268 2767 10 0 32
414 -8 3705 4141 10 473 0
415 8 452 908 10 0 48
416 4 1173 1582 10 0 254
417 32 568 1078 10 0 727
418 -8 2897 3387 10 656 0
419 19 195 609 10 0 154
420 21 384 801 10 0 174
421 -30 1341 1801 10 268 0
422 3 2269 2803 10 0 482
423 -2 2174 2633 10 280 0
424 22 2812 3272 10 0 165
425 37 1148 1549 10 0 572
426 41 868 1346 10 0 206
427 18 818 1368 10 0 555
428 -29 4356 4817 10 616 0
429 20 628 1022 10 0 243
430 -33 3974 4452 10 219 0
431 -42 1576 2027 10 16 0
432 -17 3641 4130 10 128 0
433 -18 4892 5469 10 240 0
434 12 1458 1900 10 0 339
435 26 2367 2818 10 0 610
436 -26 4224 4692 10 790 0
437 -7 4566 4997 10 343 0
438 -29 2227 2703 10 384 0
439 21 2686 3251 10 0 277
440 26 1404 1850 10 0 376
441 21 63 569 10 0 334
442 9 3343 3795 10 0 379
443 4 477 924 10 0 300
444 29 1079 1564 10 0 709
445 16 1640 2075 10 0 242
446 10 3505 3936 10 0 308
447 10 3506 4038 10 0 204
448 -8 1119 1600 10 289 0
449 -19 1518 1966 10 626 0
450 -14 2471 2973 10 636 0
451 -15 4553 5058 10 115 0
452 35 46 617 10 0 611
453 29 25 560 10 0 528
454 -16 4057 4583 10 472 0
455 34 3084 3594 10 0 367
456 14 404 929 10 0 512
457 -12 1488 1997 10 763 0
458 22 1542 2066 10 0 563
459 -8 3833 4345 10 56 0
460 -35 262 822 10 68 0
461 8 4077 4562 10 0 301
462 -31 4963 5402 10 546 0
463 -26 3664 4134 10 483 0
464 -17 447 1000 10 498 0
465 -10 4382 4888 10 253 0
466 13 910 1255 10 0 320
467 -18 4012 4504 10 325 0
468 -14 3497 3992 10 680 0
469 -2 4106 4585 10 182 0
470 22 2522 3008 10 0 595
471 -12 859 1363 10 274 0
472 16 2251 2903 10 0 454
473 8 3040 3501 10 0 414
474 -18 2349 2889 10 543 0
475 19 507 942 10 0 761
476 32 264 828 10 0 5
477 19 2102 2630 10 0 275
478 -12 2140 2649 10 318 0
479 -13 2448 2936 10 374 0
480 -10 3495 4023 10 337 0
481 -26 3046 3436 10 122 0
482 -3 3236 3687 10 422 0
483 26 73 583 10 0 463
484 24 1781 2258 10 0 194
485 -36 3467 3950 10 695 0
486 8 12 485 10 0 567
487 21 1043 1601 10 0 198
488 29 2414 2932 10 0 282
489 5 2218 2668 10 0 372
490 -8 2247 2812 10 562 0
491 17 1797 2327 10 0 209
492 -21 772 1347 10 617 0
493 21 1149 1607 10 0 779
494 9 20 407 10 0 773
495 10 1522 1930 10 0 565
496 -26 2017 2523 10 212 0
497 -16 4004 4631 10 712 0
498 17 212 733 10 0 464
499 -17 870 1399 10 654 0
500 13 1370 1960 10 0 285
501 -28 2491 3042 10 314 0
502 -33 5761 6281 10 647 0
503 -12 1727 2147 10 3 0
504 23 3614 4139 10 0 207
505 -23 2872 3387 10 270 0
506 29 306 762 10 0 269
507 19 1921 2438 10 0 660
508 16 3271 3678 10 0 288
509 25 198 707 10 0 557
510 24 684 1237 10 0 554
511 26 2238 2729 10 0 224
512 -14 2464 2944 10 456 0
513 14 48 546 10 0 774
514 -13 4323 4744 10 312 0
515 -3 3163 3586 10 227 0
516 -18 2686 3175 10 116 0
517 11 2832 3338 10 0 393
518 -4 3404 3772 10 700 0
519 23 2470 2864 10 0 14
520 -12 2251 2678 10 110 0
521 12 5 444 10 0 653
522 23 59 454 10 0 163
523 -6 937 1416 10 106 0
524 -27 2682 3139 10 665 0
525 27 3896 4345 10 0 114
526 -35 517 989 10 394 0
527 15 51 674 10 0 607
528 -29 454 789 10 453 0
529 -25 1713 2195 10 64 0
530 21 2458 2924 10 0 745
531 -21 1995 2431 10 642 0
532 -14 4855 5338 10 340 0
533 15 2991 3465 10 0 147
534 -13 392 877 10 605 0
535 26 2204 2684 10 0 538
536 -16 1865 2411 10 169 0
537 13 277 720 10 0 138
538 -26 3135 3593 10 535 0
539 -15 2007 2493 10 755 0
540 4 3808 4280 10 0 176
541 -22 2940 3335 10 102 0
542 17 2062 2544 10 0 264
543 18 1905 2445 10 0 474
544 36 1458 1932 10 0 201
545 -5 3923 4323 10 229 0
546 31 4214 4637 10 0 462
547 -19 2319 2781 10 217 0
548 -8 2571 3001 10 296 0
549 -27 944 1507 10 593 0
550 26 3221 3799 10 0 9
551 5 2382 2932 10 0 796
552 7 3854 4368 10 0 326
553 21 408 777 10 0 73
554 -24 4251 4745 10 510 0
555 -18 2468 3004 10 427 0
556 -10 3469 4007 10 621 0
557 -25 1336 1823 10 509 0
558 4 3494 3840 10 0 597
559 15 730 1145 10 0 7
560 20 36 481 10 0 321
561 -24 4259 4674 10 256 0
562 8 2443 3051 10 0 490
563 -22 3352 3752 10 458 0
564 8 2198 2634 10 0 221
565 -10 3828 4362 10 495 0
566 28 2886 3411 10 0 250
567 -8 239 707 10 486 0
568 -16 2962 3491 10 84 0
569 17 2498 3006 10 0 375
570 -16 4632 5194 10 679 0
571 -29 3453 3854 10 782 0
572 -37 6181 6580 10 425 0
573 35 1185 1666 10 0 11
574 -10 1141 1629 10 276 0
575 11 1318 1845 10 0 783
576 15 262 747 10 0 105
577 1 1811 2335 10 0 675
578 -3 769 1281 10 341 0
579 18 1209 1662 10 0 134
580 -14 5324 5752 10 158 0
581 24 4292 4818 10 0 332
582 16 215 779 10 0 34
583 -29 476 971 10 603 0
584 3 2373 2766 10 0 777
585 15 3 436 10 0 385
586 18 108 592 10 0 705
587 17 1787 2294 10 0 104
588 19 502 923 10 0 681
589 23 606 1148 10 0 760
590 27 3862 4283 10 0 47
591 13 2866 3286 10 0 132
592 7 570 971 10 0 109
593 27 46 479 10 0 549
594 23 2421 2915 0 0 805
595 -22 2907 3331 10 470 0
596 21 2390 2792 10 0 747
597 -4 3625 4112 10 558 0
598 31 644 1095 10 0 370
599 -16 4096 4712 10 263 0
600 -23 1503 2003 10 316 0
601 8 1294 1770 10 0 74
602 -36 1240 1715 10 118 0
603 29 826 1335 10 0 583
604 -26 3619 4139 10 737 0
605 13 124 719 10 0 534
606 -32 3494 3956 10 215 0
607 -15 1677 2131 10 527 0
608 -8 3679 4151 10 123 0
609 -21 3392 3726 10 743 0
610 -26 6086 6523 10 435 0
611 -35 2048 2562 10 452 0
612 -12 4318 4805 10 627 0
613 1 977 1455 10 0 364
614 -15 3165 3558 10 683 0
615 16 55 649 10 0 127
616 29 2784 3421 10 0 428
617 21 198 690 10 0 492
618 -18 3264 3679 10 739 0
619 9 56 597 10 0 724
620 27 428 950 10 0 148
621 10 3269 3793 10 0 556
622 -24 2673 3232 10 765 0
623 -15 1528 2053 10 671 0
624 15 496 1002 10 0 258
625 23 2846 3450 10 0 346
626 19 1258 1657 10 0 449
627 12 3813 4244 10 0 612
628 17 4321 4780 10 0 58
629 13 1577 2084 10 0 161
630 -18 2876 3352 10 37 0
631 11 1922 2356 10 0 369
632 22 4504 4966 10 0 180
633 38 1526 1950 10 0 144
634 23 459 912 10 0 646
635 -9 3108 3571 10 330 0
636 14 2455 2961 10 0 450
637 -2 2722 3160 10 189 0
638 32 2099 2661 10 0 139
639 22 4961 5445 10 0 222
640 -33 900 1414 10 641 0
641 33 918 1507 10 0 640
642 21 833 1332 10 0 531
643 -4 3932 4442 10 108 0
644 26 478 985 10 0 735
645 15 2065 2599 10 0 358
646 -23 3194 3563 10 634 0
647 33 3588 4080 10 0 502
648 -9 2540 3010 10 720 0
649 -27 1531 1970 10 357 0
650 5 1227 1760 10 0 171
651 -19 527 960 10 382 0
652 -29 1467 1970 10 716 0
653 -12 2599 3065 10 521 0
654 17 37 513 10 0 499
655 18 2114 2532 10 0 30
656 8 1682 2206 10 0 418
657 9 882 1347 10 0 117
658 -14 3066 3577 10 244 0
659 31 241 700 10 0 150
660 -19 3015 3496 10 507 0
661 -4 3182 3646 10 107 0
662 10 1014 1450 10 0 703
663 -18 3600 3984 10 195 0
664 12 1483 1907 10 0 6
665 27 2138 2498 10 0 524
666 -19 2818 3313 10 693 0
667 -27 2436 2945 10 706 0
668 15 5183 5740 0 0 811
669 -24 538 906 10 392 0
670 11 2652 3139 10 0 410
671 15 1503 1964 10 0 623
672 12 2158 2542 10 0 125
673 -11 5014 5489 10 286 0
674 18 635 1193 10 0 49
675 -1 2138 2622 10 577 0
676 -20 1670 2231 10 283 0
677 34 3000 3442 10 0 295
678 15 923 1302 10 0 714
679 16 696 1157 10 0 570
680 14 637 1131 10 0 468
681 -19 2754 3297 10 588 0
682 -20 4790 5269 10 43 0
683 15 1478 1904 10 0 614
684 -24 5081 5504 10 53 0
685 17 34 542 10 0 181
686 -3 786 1166 10 28 0
687 26 2154 2660 10 0 92
688 -26 3308 3807 10 175 0
689 29 769 1271 10 0 93
690 31 1336 1887 10 0 731
691 -22 1762 2228 10 233 0
692 2 4271 4685 10 0 202
693 19 2603 2980 10 0 666
694 9 2068 2442 10 0 388
695 36 2704 3163 10 0 485
696 -26 511 1020 10 89 0
697 -24 3330 3823 10 794 0
698 -12 2172 2573 10 124 0
699 -15 510 933 10 404 0
700 4 1133 1652 10 0 518
701 10 2986 3419 10 0 784
702 5 3197 3704 10 0 231
703 -10 1453 2081 10 662 0
704 -18 4895 5424 10 83 0
705 -18 1622 2122 10 586 0
706 27 1625 2198 10 0 667
707 -1 1108 1643 10 772 0
708 20 1384 1841 10 0 99
709 -29 1671 2188 10 444 0
710 -18 4457 4837 10 775 0
711 16 1550 2038 10 0 356
712 16 1376 1834 10 0 497
713 29 113 535 10 0 178
714 -15 3814 4254 10 678 0
715 -21 868 1343 10 177 0
716 29 1583 2086 10 0 652
717 -18 3871 4326 10 728 0
718 -23 2478 3045 10 389 0
719 19 2496 2938 10 0 136
720 9 560 1080 10 0 648
721 25 410 836 10 0 271
722 17 534 1040 10 0 355
723 28 329 774 10 0 214
724 -9 4377 4908 10 619 0
725 -43 872 1389 10 193 0
726 -17 4100 4511 10 762 0
727 -32 3174 3654 10 417 0
728 18 737 1260 10 0 717
729 -25 2630 3072 10 771 0
730 -7 510 908 10 345 0
731 -31 2819 3275 10 690 0
732 12 4823 5209 10 0 329
733 9 2083 2676 10 0 164
734 3 376 724 10 0 333
735 -26 1638 2144 10 644 0
736 26 3096 3484 10 0 54
737 26 1466 1877 10 0 604
738 -24 2086 2645 10 406 0
739 18 2637 3078 10 0 618
740 6 2339 2756 10 0 359
741 -8 2339 2829 10 173 0
742 13 3849 4411 10 0 200
743 21 3492 4044 10 0 609
744 -19 2905 3360 10 203 0
745 -21 2874 3484 10 530 0
746 16 3032 3470 10 0 317
747 -21 2346 2801 10 596 0
748 -24 2948 3450 10 785 0
749 11 952 1323 10 0 407
750 19 39 516 10 0 303
751 -21 3163 3620 10 402 0
752 -14 2769 3280 10 787 0
753 18 611 1203 10 0 103
754 12 1861 2356 10 0 159
755 15 2190 2655 10 0 539
756 14 171 612 10 0 191
757 -12 3967 4459 10 63 0
758 22 1810 2283 10 0 33
759 24 1126 1581 10 0 348
760 -23 5435 5977 10 589 0
761 -19 3378 3909 10 475 0
762 17 2556 2997 10 0 726
763 12 1137 1700 10 0 457
764 -25 5706 6222 10 257 0
765 24 2559 2956 10 0 622
766 -9 2895 3324 10 196 0
767 -16 2227 2793 10 770 0
768 31 1924 2386 10 0 184
769 -29 1977 2353 10 353 0
770 16 1947 2422 10 0 767
771 25 2155 2646 10 0 729
772 1 137 564 10 0 707
773 -9 709 1246 10 494 0
774 -14 1661 2123 10 513 0
775 18 1320 1839 10 0 710
776 11 4448 4939 0 0 810
777 -3 2432 2889 10 584 0
778 -8 953 1448 10 365 0
779 -21 2600 3057 10 493 0
780 -16 2726 3206 10 798 0
781 -33 2938 3425 10 249 0
782 29 3009 3562 10 0 571
783 -11 1294 1769 10 575 0
784 -10 4971 5453 10 701 0
785 24 2194 2619 10 0 748
786 24 655 1209 10 0 377
787 14 1822 2365 10 0 752
788 14 2939 3532 10 0 315
789 24 50 367 10 0 112
790 26 1359 1933 10 0 436
791 -44 4095 4546 10 155 0
792 -12 3787 4377 10 361 0
793 14 1442 1882 10 0 373
794 24 2274 2784 10 0 697
795 -14 661 1221 10 88 0
796 -5 2495 2919 10 551 0
797 -26 3213 3686 10 18 0
798 16 2459 2980 10 0 780
799 28 2008 2495 10 0 360
800 12 2914 3378 10 0 78
801 -4 2605 3123 10 60 0
802 -14 4421 4832 10 70 0
803 -20 4324 4881 10 213 0
804 -14 2113 2518 10 94 0
805 -23 2421 2915 10 594 0
806 -21 4968 5329 10 383 0
807 -22 4254 4690 10 46 0
808 -25 1662 2188 10 80 0
809 -23 1949 2418 10 170 0
810 -11 4448 4939 10 776 0
811 -15 5183 5740 10 668 0
DEPOT_SECTION
1
-1
EOF
