NAME: lr2_8_1
TYPE: PDPTW
COMMENT: Li & Lim PDPTW benchmark converted from SINTEF format
DIMENSION: 811
VEHICLES: 200
CAPACITY: 1000
EDGE_WEIGHT_TYPE: EUC_2D
NODE_COORD_SECTION
1 200 200
2 221 225
3 279 247
4 355 41
5 93 283
6 163 207
7 364 55
8 329 208
9 102 377
10 356 299
11 10 202
12 40 153
13 145 165
14 278 265
15 338 14
16 13 167
17 179 125
18 194 43
19 358 261
20 299 399
21 246 247
22 343 359
23 101 8
24 302 274
25 131 275
26 191 167
27 332 124
28 106 302
29 380 145
30 334 100
31 180 359
32 142 238
33 138 306
34 16 294
35 206 7
36 299 308
37 343 335
38 135 384
39 161 346
40 206 286
41 156 4
42 326 335
43 82 78
44 37 21
45 177 174
46 84 221
47 171 168
48 207 185
49 92 255
50 220 337
51 137 132
52 342 154
53 353 65
54 70 231
55 79 95
56 352 303
57 136 226
58 243 209
59 145 301
60 254 0
61 310 363
62 387 267
63 236 44
64 94 268
65 84 293
66 11 135
67 280 5
68 265 127
69 259 285
70 52 94
71 278 221
72 231 229
73 168 100
74 14 53
75 237 259
76 69 82
77 192 291
78 8 384
79 367 361
80 91 233
81 125 175
82 304 319
83 241 275
84 193 29
85 80 392
86 300 64
87 327 11
88 299 351
89 311 344
90 229 105
91 362 207
92 344 154
93 39 34
94 68 250
95 268 223
96 116 195
97 352 156
98 313 64
99 375 294
100 391 260
101 334 186
102 84 206
103 12 40
104 195 148
105 381 144
106 320 211
107 308 178
108 376 205
109 257 98
110 111 4
111 330 310
112 305 255
113 140 387
114 164 80
115 271 371
116 4 280
117 347 59
118 147 376
119 74 213
120 54 341
121 303 358
122 21 82
123 379 126
124 398 258
125 152 361
126 397 261
127 250 340
128 166 185
129 294 184
130 303 258
131 87 378
132 250 183
133 384 72
134 98 107
135 56 97
136 225 53
137 280 224
138 208 86
139 395 167
140 215 260
141 44 277
142 174 329
143 380 390
144 120 170
145 273 118
146 103 154
147 180 15
148 371 396
149 169 352
150 78 85
151 226 378
152 357 202
153 68 143
154 384 248
155 391 42
156 267 295
157 350 131
158 5 345
159 199 45
160 166 115
161 103 361
162 239 252
163 2 3
164 335 202
165 158 121
166 320 24
167 166 19
168 326 374
169 317 240
170 357 147
171 32 78
172 40 336
173 52 251
174 40 314
175 233 100
176 78 194
177 110 351
178 321 287
179 369 118
180 101 99
181 232 127
182 390 376
183 73 292
184 195 121
185 175 192
186 33 226
187 390 357
188 80 365
189 344 321
190 397 283
191 66 5
192 160 313
193 210 294
194 320 373
195 231 182
196 30 349
197 26 372
198 154 68
199 338 106
200 49 222
201 17 99
202 279 148
203 309 279
204 384 64
205 231 36
206 279 337
207 187 23
208 32 163
209 214 119
210 74 87
211 134 320
212 42 197
213 350 18
214 92 68
215 48 358
216 160 222
217 184 282
218 168 268
219 289 234
220 123 176
221 231 76
222 196 107
223 138 143
224 285 136
225 194 166
226 162 94
227 165 335
228 205 372
229 168 87
230 159 11
231 143 20
232 297 240
233 17 348
234 192 200
235 303 142
236 48 304
237 200 144
238 185 180
239 317 68
240 324 194
241 274 247
242 337 81
243 345 195
244 129 53
245 285 184
246 378 118
247 309 53
248 246 298
249 153 222
250 306 361
251 46 110
252 123 159
253 234 7
254 162 316
255 309 274
256 57 124
257 46 102
258 382 49
259 96 22
260 292 33
261 359 389
262 392 14
263 68 386
264 163 364
265 116 102
266 37 397
267 264 341
268 269 203
269 230 266
270 31 360
271 68 378
272 262 390
273 236 119
274 220 238
275 36 288
276 276 298
277 362 399
278 244 285
279 32 229
280 179 175
281 200 48
282 13 59
283 165 264
284 56 292
285 178 353
286 210 1
287 306 85
288 196 129
289 243 287
290 396 106
291 151 188
292 151 231
293 11 274
294 92 238
295 108 48
296 38 291
297 232 131
298 217 98
299 340 79
300 308 327
301 279 91
302 384 294
303 90 311
304 359 31
305 391 136
306 344 236
307 202 6
308 2 29
309 366 340
310 328 8
311 316 383
312 384 53
313 302 300
314 29 86
315 358 309
316 147 210
317 287 279
318 102 149
319 115 51
320 393 256
321 340 290
322 271 116
323 332 216
324 319 113
325 246 47
326 247 377
327 371 111
328 397 362
329 157 220
330 322 281
331 50 385
332 193 216
333 80 282
334 91 388
335 351 199
336 327 115
337 23 317
338 362 378
339 337 248
340 4 307
341 379 254
342 67 318
343 372 382
344 356 223
345 243 215
346 336 201
347 338 5
348 142 385
349 192 332
350 18 294
351 400 373
352 287 225
353 66 144
354 19 61
355 389 171
356 377 29
357 6 20
358 68 215
359 177 55
360 118 122
361 43 121
362 13 322
363 193 390
364 369 211
365 92 73
366 163 270
367 349 249
368 133 375
369 266 234
370 353 3
371 18 102
372 236 260
373 142 262
374 314 257
375 161 124
376 170 114
377 85 256
378 243 140
379 41 183
380 359 157
381 146 301
382 184 233
383 194 121
384 277 163
385 125 182
386 51 205
387 260 352
388 55 115
389 102 324
390 238 124
391 54 108
392 108 75
393 359 42
394 248 286
395 98 375
396 340 276
397 85 128
398 277 143
399 6 62
400 143 159
401 159 164
402 343 322
403 223 41
404 155 159
405 73 4
406 175 304
407 40 31
408 110 241
409 399 179
410 196 77
411 8 363
412 126 90
413 136 373
414 339 69
415 234 73
416 65 335
417 35 238
418 201 242
419 279 262
420 111 286
421 350 207
422 305 257
423 320 166
424 285 287
425 228 96
426 296 388
427 38 366
428 26 275
429 49 187
430 291 304
431 81 156
432 3 2
433 354 199
434 361 194
435 267 321
436 378 30
437 217 211
438 246 152
439 336 386
440 348 102
441 162 251
442 70 81
443 231 320
444 374 163
445 367 300
446 45 85
447 330 76
448 371 386
449 253 316
450 264 69
451 330 353
452 169 235
453 186 179
454 13 220
455 323 218
456 300 319
457 356 315
458 193 18
459 228 341
460 324 184
461 344 72
462 376 19
463 74 351
464 262 30
465 256 145
466 361 287
467 188 67
468 26 70
469 381 375
470 220 71
471 371 349
472 26 260
473 339 3
474 308 314
475 113 80
476 78 261
477 85 333
478 192 151
479 382 169
480 52 301
481 51 64
482 273 182
483 163 264
484 213 305
485 96 162
486 209 208
487 100 15
488 8 68
489 256 385
490 178 103
491 285 107
492 1 335
493 274 7
494 213 216
495 190 27
496 73 124
497 321 144
498 296 156
499 348 189
500 117 395
501 2 52
502 186 145
503 381 290
504 244 50
505 11 328
506 317 183
507 196 51
508 212 197
509 299 227
510 395 340
511 259 4
512 292 392
513 211 153
514 370 57
515 119 286
516 213 332
517 328 39
518 312 247
519 248 126
520 208 20
521 201 195
522 146 174
523 341 33
524 86 112
525 140 40
526 310 340
527 176 154
528 131 89
529 74 231
530 93 31
531 349 324
532 5 344
533 159 79
534 137 68
535 103 95
536 315 237
537 294 118
538 75 89
539 369 6
540 63 166
541 59 89
542 138 326
543 304 395
544 59 49
545 170 176
546 384 47
547 117 381
548 72 315
549 326 156
550 41 340
551 94 165
552 229 371
553 107 98
554 262 233
555 41 337
556 243 275
557 384 307
558 365 303
559 397 73
560 234 214
561 3 15
562 244 135
563 303 112
564 325 45
565 343 134
566 307 396
567 278 289
568 203 40
569 238 119
570 166 357
571 290 82
572 177 139
573 2 200
574 348 319
575 36 203
576 125 122
577 184 69
578 368 278
579 374 175
580 126 208
581 184 235
582 153 315
583 48 278
584 286 308
585 197 200
586 196 138
587 226 52
588 256 356
589 108 399
590 124 221
591 240 201
592 122 105
593 236 171
594 348 371
595 183 71
596 26 326
597 338 315
598 380 126
599 74 283
600 46 197
601 30 39
602 88 372
603 60 319
604 174 326
605 172 109
606 157 378
607 219 49
608 316 112
609 398 325
610 230 234
611 97 387
612 262 212
613 349 181
614 29 9
615 201 255
616 21 255
617 102 252
618 9 47
619 237 243
620 330 313
621 282 252
622 16 114
623 236 38
624 247 212
625 366 97
626 284 311
627 308 217
628 343 184
629 55 346
630 316 327
631 255 80
632 102 118
633 73 126
634 369 171
635 350 214
636 244 56
637 287 343
638 220 38
639 154 41
640 173 72
641 206 106
642 362 383
643 107 159
644 319 160
645 88 121
646 341 78
647 97 105
648 246 244
649 35 79
650 37 106
651 173 384
652 368 63
653 300 272
654 237 200
655 286 44
656 294 249
657 388 106
658 148 71
659 100 218
660 177 77
661 148 94
662 16 311
663 158 85
664 105 254
665 66 118
666 13 96
667 348 41
668 135 161
669 85 61
670 160 62
671 234 20
672 108 395
673 230 139
674 45 291
675 266 8
676 95 391
677 156 32
678 58 98
679 79 344
680 59 51
681 380 339
682 165 126
683 43 67
684 377 72
685 209 167
686 57 381
687 294 13
688 87 147
689 4 60
690 26 247
691 44 296
692 357 38
693 56 156
694 52 194
695 124 179
696 311 356
697 140 131
698 364 213
699 102 84
700 7 143
701 105 360
702 150 49
703 52 343
704 218 134
705 199 22
706 381 27
707 75 76
708 377 282
709 377 144
710 59 285
711 321 85
712 194 65
713 213 280
714 41 93
715 41 399
716 334 92
717 76 72
718 55 341
719 248 124
720 0 155
721 186 355
722 102 42
723 96 209
724 325 294
725 251 381
726 362 115
727 8 119
728 53 51
729 123 30
730 361 236
731 76 90
732 77 319
733 395 113
734 110 290
735 251 70
736 26 199
737 92 384
738 122 397
739 15 4
740 168 15
741 47 190
742 35 160
743 388 275
744 338 150
745 186 75
746 352 383
747 50 315
748 153 224
749 2 17
750 168 223
751 299 270
752 397 133
753 24 57
754 234 37
755 381 12
756 117 148
757 325 130
758 146 320
759 8 285
760 146 324
761 131 82
762 266 13
763 348 343
764 91 61
765 114 88
766 36 286
767 325 311
768 192 268
769 37 119
770 291 398
771 201 6
772 162 121
773 302 345
774 297 137
775 34 371
776 202 158
777 338 290
778 100 10
779 310 163
780 368 215
781 142 379
782 326 79
783 5 266
784 140 344
785 267 221
786 18 235
787 393 246
788 394 299
789 244 176
790 309 18
791 364 23
792 75 238
793 81 290
794 209 283
795 353 357
796 87 164
797 400 109
798 319 115
799 349 135
800 12 368
801 231 6
802 2 29
803 40 314
804 341 78
805 84 206
806 187 23
807 336 201
808 230 139
809 285 287
810 325 130
811 158 85
PICKUP_AND_DELIVERY_SECTION
1 0 0 6751 0 0 0
2 16 90 172 10 0 692
3 12 312 423 10 0 708
4 9 3343 3489 10 0 258
5 13 1335 1434 10 0 515
6 -13 4480 4640 10 185 0
7 -29 1344 1498 10 506 0
8 20 5276 5379 10 0 58
9 -16 3933 4062 10 348 0
10 -21 4216 4309 10 127 0
11 3 1298 1433 10 0 694
12 -23 590 745 10 522 0
13 13 188 333 10 0 728
14 23 2584 2725 10 0 508
15 -26 4814 4916 10 22 0
16 42 717 884 10 0 296
17 4 251 372 10 0 371
18 -20 2862 3055 10 95 0
19 -21 2983 3134 10 36 0
20 -15 3086 3222 10 115 0
21 -2 2688 2862 10 99 0
22 26 1796 1972 10 0 15
23 3 1550 1669 10 0 110
24 15 1208 1249 10 0 152
25 30 2104 2247 10 0 423
26 -13 3787 3946 10 591 0
27 -24 1337 1453 10 53 0
28 3 501 609 10 0 555
29 -18 2092 2210 10 105 0
30 21 4562 4657 10 0 239
31 -14 3741 3910 10 94 0
32 3 4686 4854 10 0 329
33 1 3460 3571 10 0 397
34 21 1501 1643 10 0 358
35 8 3168 3303 10 0 677
36 21 2234 2391 10 0 19
37 18 3441 3502 10 0 558
38 13 957 1114 10 0 451
39 -8 4272 4298 10 192 0
40 -15 1929 2082 10 585 0
41 -2 864 940 10 280 0
42 -5 3946 4023 10 148 0
43 -23 4750 4856 10 399 0
44 -23 3642 3748 10 117 0
45 10 50 228 10 0 665
46 -11 4432 4511 10 781 0
47 -24 5413 5533 10 256 0
48 -17 4888 4995 10 587 0
49 -36 1688 1824 10 583 0
50 23 1228 1388 10 0 311
51 20 847 1003 10 0 584
52 25 1617 1703 10 0 687
53 24 1238 1328 10 0 27
54 -19 4391 4505 10 285 0
55 22 4887 5038 10 0 401
56 8 4258 4440 10 0 72
57 -33 3995 4105 10 249 0
58 -20 5522 5630 10 8 0
59 8 380 540 10 0 395
60 -22 2687 2815 10 652 0
61 -21 4210 4384 10 449 0
62 -18 3555 3701 10 512 0
63 -14 3111 3199 10 602 0
64 25 1431 1610 10 0 65
65 -25 2213 2355 10 64 0
66 -9 1038 1156 10 720 0
67 -17 4075 4173 10 338 0
68 35 345 436 10 0 499
69 14 337 491 10 0 88
70 -14 4511 4742 10 163 0
71 -24 3619 3718 10 484 0
72 -8 4826 4916 10 56 0
73 -15 2512 2665 10 671 0
74 -15 3243 3315 10 769 0
75 -26 4682 4828 10 675 0
76 -23 3532 3587 10 259 0
77 3 402 551 10 0 594
78 -32 4055 4150 10 463 0
79 22 1944 2073 10 0 436
80 -15 1857 1992 10 236 0
81 20 657 756 10 0 516
82 -17 3431 3579 10 313 0
83 18 2794 2895 10 0 748
84 -9 3007 3168 10 657 0
85 16 2107 2295 10 0 738
86 -5 4600 4777 10 489 0
87 -20 2363 2480 10 560 0
88 -14 667 778 10 69 0
89 -9 743 875 10 494 0
90 -23 3449 3512 10 389 0
91 18 3146 3341 10 0 199
92 -22 3998 4108 10 242 0
93 10 1014 1044 10 0 778
94 14 2235 2396 10 0 31
95 20 218 357 10 0 18
96 -33 4290 4362 10 643 0
97 6 3601 3701 10 0 791
98 29 1634 1703 10 0 133
99 2 2439 2505 10 0 21
100 -12 2403 2549 10 124 0
101 1 608 757 10 0 327
102 22 2329 2411 0 0 805
103 20 2492 2547 10 0 481
104 -13 5336 5389 10 160 0
105 18 1933 2103 10 0 29
106 6 402 563 10 0 440
107 -41 1578 1728 10 426 0
108 -16 1801 1939 10 421 0
109 8 1343 1484 10 0 257
110 -3 2036 2167 10 23 0
111 11 2731 2814 10 0 514
112 -17 1254 1355 10 654 0
113 8 749 918 10 0 151
114 -23 4686 4902 10 504 0
115 15 3010 3123 10 0 20
116 18 972 1053 10 0 161
117 23 1862 2028 10 0 44
118 36 747 916 10 0 637
119 33 1721 1876 10 0 668
120 19 1226 1355 10 0 201
121 37 1365 1484 10 0 372
122 26 3373 3482 10 0 632
123 -15 3509 3542 10 780 0
124 12 2376 2527 10 0 100
125 -8 4137 4214 10 183 0
126 -13 2341 2457 10 730 0
127 21 758 881 10 0 10
128 17 127 170 10 0 191
129 18 4277 4427 10 0 628
130 -19 3960 4066 10 248 0
131 25 1437 1621 10 0 568
132 -14 4097 4198 10 518 0
133 -29 3967 4100 10 98 0
134 -14 3734 3861 10 366 0
135 19 3768 3883 10 0 717
136 23 4328 4451 10 0 253
137 20 925 1009 10 0 364
138 -13 3862 3919 10 260 0
139 24 3915 4046 10 0 287
140 9 217 278 10 0 636
141 -18 2137 2254 10 691 0
142 30 2812 2908 10 0 241
143 36 1027 1148 10 0 653
144 -21 1810 1970 10 553 0
145 34 426 539 10 0 165
146 -34 4413 4555 10 697 0
147 -11 3517 3601 10 670 0
148 5 2372 2559 10 0 42
149 -16 986 1126 10 615 0
150 21 2984 3063 10 0 541
151 -8 1429 1562 10 113 0
152 -15 1985 2129 10 24 0
153 16 5033 5128 10 0 252
154 35 857 1037 10 0 320
155 -17 3848 3984 10 685 0
156 20 2948 3023 10 0 627
157 -9 3204 3330 10 696 0
158 -14 4841 4963 10 718 0
159 -8 3173 3265 10 562 0
160 13 5024 5086 10 0 104
161 -18 1804 1992 10 116 0
162 -16 5336 5443 10 770 0
163 14 3153 3321 10 0 70
164 -28 3322 3431 10 635 0
165 -34 4429 4534 10 145 0
166 -5 4023 4159 10 380 0
167 -18 4811 4901 10 325 0
168 17 2321 2421 10 0 746
169 16 1189 1366 10 0 787
170 23 2085 2281 10 0 209
171 23 2612 2697 10 0 525
172 -19 4796 4966 10 362 0
173 8 649 745 10 0 184
174 7 2879 3034 0 0 803
175 26 2726 2886 10 0 430
176 -7 3762 3864 10 688 0
177 21 676 731 10 0 233
178 12 2364 2481 10 0 206
179 -43 4207 4328 10 396 0
180 12 5238 5380 10 0 238
181 13 272 366 10 0 393
182 -21 1843 1980 10 642 0
183 8 715 808 10 0 125
184 -8 3497 3591 10 173 0
185 13 3681 3830 10 0 6
186 -11 4783 4877 10 200 0
187 -16 4151 4299 10 582 0
188 18 1781 1935 10 0 547
189 -19 989 1160 10 419 0
190 9 1656 1757 10 0 656
191 -17 4567 4636 10 128 0
192 8 3412 3579 10 0 39
193 -29 308 449 10 713 0
194 22 2164 2367 10 0 566
195 18 116 171 10 0 355
196 -16 2728 2813 10 679 0
197 14 905 1052 10 0 550
198 -25 2941 3089 10 534 0
199 -18 3812 3920 10 91 0
200 11 4523 4616 10 0 186
201 -19 4042 4129 10 120 0
202 -22 5815 5921 10 301 0
203 19 627 750 10 0 352
204 -24 4228 4419 10 510 0
205 -12 4136 4231 10 729 0
206 -12 2431 2515 10 178 0
207 22 4016 4129 0 0 806
208 9 882 991 10 0 693
209 -23 4059 4178 10 170 0
210 -8 5393 5565 10 564 0
211 39 681 756 10 0 662
212 26 1455 1615 10 0 792
213 20 4496 4710 10 0 304
214 -16 2881 3001 10 712 0
215 -31 3499 3625 10 331 0
216 -20 5187 5285 10 360 0
217 19 270 399 10 0 543
218 -18 4200 4348 10 293 0
219 33 316 447 10 0 310
220 -12 4670 4807 10 318 0
221 31 3244 3405 10 0 428
222 -5 5350 5404 10 702 0
223 17 368 407 10 0 495
224 -26 4400 4431 10 790 0
225 -31 2784 2841 10 768 0
226 11 385 515 10 0 595
227 -24 2552 2748 10 385 0
228 -20 3567 3667 10 779 0
229 -19 3638 3814 10 719 0
230 -15 4764 4864 10 533 0
231 -8 4884 4976 10 658 0
232 -15 1050 1151 10 624 0
233 -21 1723 1901 10 177 0
234 22 8 146 10 0 758
235 -38 4303 4436 10 623 0
236 15 869 1088 10 0 80
237 12 310 454 10 0 577
238 -12 6578 6643 10 180 0
239 -21 4620 4782 10 30 0
240 -9 4242 4406 10 245 0
241 -30 3758 3912 10 142 0
242 22 2892 2935 10 0 92
243 9 3724 3852 10 0 344
244 -26 3006 3124 10 528 0
245 9 4105 4254 10 0 240
246 -17 2909 3028 10 498 0
247 -8 1317 1416 10 464 0
248 19 3818 3951 10 0 130
249 33 123 293 10 0 57
250 4 2833 2930 10 0 469
251 -15 2276 2346 10 404 0
252 -16 5262 5376 10 153 0
253 -23 4457 4593 10 136 0
254 30 2393 2499 10 0 794
255 23 1346 1498 10 0 491
256 24 588 708 10 0 47
257 -8 2417 2531 10 109 0
258 -9 3470 3657 10 4 0
259 23 3234 3417 10 0 76
260 13 3793 3876 10 0 138
261 13 4221 4335 10 0 724
262 1 4089 4236 10 0 684
263 16 1201 1395 10 0 737
264 21 3142 3274 10 0 604
265 -9 3263 3368 10 496 0
266 50 3296 3424 10 0 532
267 -8 4178 4268 10 289 0
268 30 1513 1607 10 0 470
269 -4 3393 3514 10 335 0
270 23 1120 1218 10 0 368
271 10 2763 2810 10 0 701
272 21 1912 2019 10 0 402
273 -26 5378 5544 10 324 0
274 12 128 216 10 0 655
275 -22 3848 3925 10 686 0
276 -9 432 560 10 619 0
277 24 3553 3690 10 0 597
278 -4 5246 5415 10 317 0
279 -33 4179 4376 10 647 0
280 2 51 211 10 0 41
281 20 892 987 10 0 538
282 13 2229 2365 10 0 501
283 20 216 368 10 0 629
284 -31 2011 2160 10 690 0
285 19 3825 3958 10 0 54
286 -20 4002 4114 10 669 0
287 -24 4582 4693 10 139 0
288 -23 3071 3177 10 519 0
289 8 547 666 10 0 267
290 -7 1082 1199 10 345 0
291 18 151 252 10 0 542
292 10 310 446 10 0 417
293 18 3185 3336 10 0 218
294 -3 4848 4985 10 734 0
295 18 3305 3470 10 0 572
296 -42 2029 2160 10 16 0
297 20 4574 4633 10 0 776
298 19 374 453 10 0 478
299 -27 2673 2804 10 523 0
300 13 1568 1658 10 0 609
301 22 5199 5388 10 0 202
302 20 2233 2343 10 0 306
303 -13 2711 2757 10 715 0
304 -20 5027 5120 10 213 0
305 -23 841 982 10 634 0
306 -20 3553 3641 10 302 0
307 -3 2522 2683 10 699 0
308 28 5441 5586 0 0 802
309 -21 2842 3000 10 439 0
310 -33 1798 1885 10 219 0
311 -23 3276 3372 10 50 0
312 -22 3779 3937 10 356 0
313 17 3322 3454 10 0 82
314 -38 2313 2370 10 633 0
315 -10 3435 3532 10 681 0
316 23 190 241 10 0 727
317 4 4763 4929 10 0 278
318 12 2058 2118 10 0 220
319 18 3400 3504 10 0 442
320 -35 1544 1686 10 154 0
321 39 1780 1948 10 0 545
322 -12 3634 3756 10 777 0
323 -12 1764 1936 10 434 0
324 26 4686 4773 10 0 273
325 18 4479 4607 10 0 167
326 -24 4872 4972 10 406 0
327 -1 956 1158 10 101 0
328 15 941 1182 10 0 351
329 -3 5535 5594 10 32 0
330 9 530 722 10 0 698
331 31 3276 3428 10 0 215
332 -33 4923 5044 10 648 0
333 -20 2101 2190 10 429 0
334 2 836 1005 10 0 759
335 4 3172 3284 10 0 269
336 15 1229 1319 10 0 716
337 -11 1833 1917 10 575 0
338 17 1876 2023 10 0 67
339 26 1868 2068 10 0 422
340 -18 4279 4460 10 775 0
341 3 1129 1306 10 0 445
342 15 954 1132 10 0 379
343 7 2513 2610 10 0 610
344 -9 3873 3991 10 243 0
345 7 121 244 10 0 290
346 17 3287 3394 0 0 807
347 -11 4009 4244 10 526 0
348 16 2142 2195 10 0 9
349 31 1740 1886 10 0 369
350 -35 1969 2048 10 573 0
351 -15 1049 1164 10 328 0
352 -19 3001 3083 10 203 0
353 -16 591 651 10 400 0
354 -9 4606 4734 10 407 0
355 -18 1811 1921 10 195 0
356 22 3006 3087 10 0 312
357 27 1072 1152 10 0 649
358 -21 3868 4024 10 34 0
359 -24 3035 3130 10 392 0
360 20 3803 3920 10 0 216
361 12 3960 4039 10 0 784
362 19 1478 1583 10 0 172
363 -16 4137 4259 10 472 0
364 -20 1854 1967 10 137 0
365 8 1361 1458 10 0 739
366 14 2153 2324 10 0 134
367 5 3461 3619 10 0 461
368 -23 2612 2710 10 270 0
369 -31 3675 3748 10 349 0
370 20 1043 1121 10 0 493
371 -4 915 1062 10 17 0
372 -37 4472 4597 10 121 0
373 -13 2036 2181 10 500 0
374 13 458 562 10 0 578
375 17 2607 2794 10 0 765
376 9 2537 2676 10 0 524
377 -5 3997 4152 10 551 0
378 15 5119 5189 10 0 704
379 -15 4677 4860 10 342 0
380 5 3245 3353 10 0 166
381 34 1412 1533 10 0 556
382 19 112 182 10 0 664
383 -4 5099 5199 10 682 0
384 -32 2367 2482 10 476 0
385 24 253 365 10 0 227
386 -5 4870 4978 10 599 0
387 13 1579 1699 10 0 743
388 8 3156 3226 10 0 540
389 23 1960 2086 10 0 90
390 26 2278 2458 10 0 473
391 17 1082 1173 10 0 530
392 24 549 693 10 0 359
393 -13 3407 3447 10 181 0
394 35 399 470 10 0 511
395 -8 752 868 10 59 0
396 43 3453 3608 10 0 179
397 -1 5158 5265 10 33 0
398 -20 2567 2702 10 705 0
399 23 3586 3709 10 0 43
400 16 237 324 10 0 353
401 -22 5354 5456 10 55 0
402 -21 3253 3358 10 272 0
403 19 2185 2342 10 0 740
404 15 248 323 10 0 251
405 20 5609 5759 10 0 764
406 24 384 472 10 0 326
407 9 2302 2422 10 0 354
408 9 338 454 10 0 785
409 -29 1779 1921 10 444 0
410 -24 3300 3445 10 786 0
411 -11 3518 3637 10 548 0
412 -10 3474 3570 10 490 0
413 -12 2462 2573 10 672 0
414 -29 3870 3975 10 574 0
415 8 591 769 10 0 565
416 4 1332 1423 10 0 676
417 -10 781 865 10 292 0
418 -33 3072 3211 10 536 0
419 19 340 464 10 0 189
420 21 521 664 10 0 603
421 16 1487 1656 10 0 108
422 -26 2453 2619 10 339 0
423 -30 2353 2454 10 25 0
424 22 2987 3097 0 0 809
425 37 1323 1375 10 0 731
426 41 1060 1154 10 0 107
427 -23 1004 1181 10 589 0
428 -31 4504 4669 10 221 0
429 20 749 901 10 0 333
430 -26 4142 4283 10 175 0
431 -14 1768 1834 10 756 0
432 -17 3792 3980 10 762 0
433 -26 5108 5253 10 435 0
434 12 1618 1740 10 0 323
435 26 2555 2631 10 0 433
436 -22 4396 4520 10 79 0
437 -15 4731 4832 10 485 0
438 5 2429 2502 10 0 497
439 21 2904 3033 10 0 309
440 -6 1586 1668 10 106 0
441 21 211 298 10 0 529
442 -18 3504 3634 10 319 0
443 4 636 766 10 0 744
444 29 1254 1388 10 0 409
445 -3 1799 1916 10 341 0
446 -19 3638 3804 10 666 0
447 -1 3727 3816 10 613 0
448 -19 1279 1440 10 567 0
449 21 1685 1800 10 0 61
450 -19 2648 2795 10 588 0
451 -13 4752 4860 10 38 0
452 35 132 243 10 0 477
453 29 25 189 10 0 641
454 -45 4279 4361 10 714 0
455 -17 3277 3401 10 569 0
456 14 584 750 10 0 763
457 18 1689 1796 10 0 474
458 22 1745 1862 10 0 645
459 13 4026 4151 10 0 554
460 -25 469 615 10 509 0
461 -5 4247 4393 10 367 0
462 -27 5133 5233 10 620 0
463 32 3843 3954 10 0 78
464 8 697 751 10 0 247
465 -11 4566 4705 10 517 0
466 13 1006 1159 10 0 471
467 -24 4223 4293 10 752 0
468 -26 3708 3782 10 622 0
469 -4 4312 4380 10 250 0
470 -30 2695 2835 10 268 0
471 -13 1073 1148 10 466 0
472 16 2520 2634 10 0 363
473 -26 3219 3323 10 390 0
474 -18 2520 2719 10 457 0
475 -7 651 798 10 592 0
476 32 476 616 10 0 384
477 -35 2309 2422 10 452 0
478 -19 2329 2460 10 298 0
479 -28 2653 2732 10 799 0
480 -37 3692 3826 10 611 0
481 -20 3184 3299 10 103 0
482 18 3363 3561 10 0 571
483 26 257 334 10 0 596
484 24 1967 2073 10 0 71
485 15 3652 3765 10 0 437
486 8 12 132 10 0 557
487 21 1278 1367 10 0 707
488 -36 2625 2721 10 544 0
489 5 2361 2525 10 0 86
490 10 2451 2608 10 0 412
491 -23 2007 2116 10 255 0
492 12 1012 1107 10 0 710
493 -20 1321 1434 10 370 0
494 9 20 157 10 0 89
495 -17 1655 1797 10 223 0
496 9 2224 2316 10 0 265
497 -5 4255 4380 10 438 0
498 17 409 536 10 0 246
499 -35 1090 1179 10 68 0
500 13 1599 1732 10 0 373
501 -13 2740 2793 10 282 0
502 -22 5981 6061 10 639 0
503 36 1856 2018 10 0 563
504 23 3804 3948 10 0 114
505 12 3072 3187 10 0 732
506 29 488 579 10 0 7
507 19 2131 2227 10 0 745
508 -23 3431 3518 10 14 0
509 25 401 503 10 0 460
510 24 919 1001 10 0 204
511 -35 2413 2554 10 394 0
512 18 2661 2747 10 0 62
513 14 218 353 10 0 607
514 -11 4452 4615 10 111 0
515 -13 3280 3468 10 5 0
516 -20 2895 2966 10 81 0
517 11 3040 3130 10 0 465
518 14 3534 3642 10 0 132
519 23 2597 2737 10 0 288
520 -5 2375 2554 10 650 0
521 12 5 110 10 0 798
522 23 185 294 10 0 12
523 27 1114 1239 10 0 299
524 -9 2844 2976 10 376 0
525 -23 4079 4161 10 171 0
526 11 710 795 10 0 347
527 15 129 287 10 0 576
528 26 543 700 10 0 244
529 -21 1889 2019 10 441 0
530 -17 2641 2740 10 391 0
531 -20 2147 2279 10 795 0
532 -50 5070 5124 10 266 0
533 15 3162 3293 10 0 230
534 25 601 668 10 0 198
535 26 2384 2503 10 0 761
536 33 2073 2203 10 0 418
537 -27 417 580 10 593 0
538 -20 3280 3448 10 281 0
539 -31 2212 2287 10 598 0
540 -8 3995 4093 10 388 0
541 -21 3073 3202 10 150 0
542 -18 2258 2348 10 291 0
543 -19 2113 2236 10 217 0
544 36 1633 1757 10 0 488
545 -39 4050 4196 10 321 0
546 -15 4349 4502 10 767 0
547 -18 2490 2609 10 188 0
548 11 2698 2874 10 0 411
549 -26 1147 1304 10 644 0
550 -14 3470 3550 10 197 0
551 5 2605 2709 10 0 377
552 -22 4032 4189 10 606 0
553 21 549 635 10 0 144
554 -13 4444 4552 10 459 0
555 -3 2692 2779 10 28 0
556 -34 3688 3789 10 381 0
557 -8 1476 1683 10 486 0
558 -18 3609 3725 10 37 0
559 15 864 1011 10 0 801
560 20 66 229 10 0 87
561 -15 4436 4497 10 755 0
562 8 2680 2814 10 0 159
563 -36 3488 3615 10 503 0
564 8 2386 2447 10 0 210
565 -8 4037 4153 10 415 0
566 -22 3088 3208 10 194 0
567 19 420 527 10 0 448
568 -25 3222 3231 10 131 0
569 17 2702 2803 10 0 455
570 21 4834 4992 10 0 760
571 -18 3575 3732 10 482 0
572 -18 6320 6441 10 295 0
573 35 1368 1483 10 0 350
574 29 1342 1427 10 0 414
575 11 1494 1668 10 0 337
576 -15 458 551 10 527 0
577 -12 1997 2149 10 237 0
578 -13 964 1086 10 374 0
579 18 1388 1484 10 0 625
580 -18 5446 5630 10 703 0
581 -11 4493 4618 10 796 0
582 16 473 521 10 0 187
583 36 638 809 10 0 49
584 -20 2504 2635 10 51 0
585 15 3 123 10 0 40
586 18 298 402 10 0 772
587 17 1949 2132 10 0 48
588 19 673 752 10 0 450
589 23 834 920 10 0 427
590 -26 4008 4137 10 736 0
591 13 3013 3138 10 0 26
592 7 726 816 10 0 475
593 27 152 218 10 0 537
594 -3 2603 2734 10 77 0
595 -11 3074 3163 10 226 0
596 -26 2537 2646 10 483 0
597 -24 3814 3923 10 277 0
598 31 777 961 10 0 539
599 5 4336 4471 10 0 386
600 -14 1697 1810 10 793 0
601 8 1470 1594 10 0 660
602 14 1415 1539 10 0 63
603 -21 1014 1148 10 420 0
604 -21 3795 3963 10 264 0
605 13 328 514 10 0 678
606 22 3713 3737 10 0 552
607 -14 1852 1957 10 513 0
608 -20 3870 3960 10 797 0
609 -13 3510 3608 10 300 0
610 -7 6240 6369 10 343 0
611 37 2227 2382 10 0 480
612 -17 4518 4606 10 725 0
613 1 1181 1251 10 0 447
614 14 3316 3408 10 0 618
615 16 208 232 10 0 149
616 -23 3006 3199 10 741 0
617 21 385 502 10 0 742
618 -14 3416 3526 10 614 0
619 9 156 298 10 0 276
620 27 590 787 10 0 462
621 -24 3487 3575 10 630 0
622 26 2891 3014 10 0 468
623 38 1705 1876 10 0 235
624 15 692 807 10 0 232
625 -18 3079 3217 10 579 0
626 19 1395 1519 10 0 751
627 -20 3926 4131 10 156 0
628 -18 4536 4565 10 129 0
629 -20 1784 1878 10 283 0
630 24 3044 3183 10 0 621
631 -12 2080 2197 10 754 0
632 -26 4656 4815 10 122 0
633 38 1695 1780 10 0 314
634 23 610 762 10 0 305
635 28 3280 3399 10 0 164
636 -9 2659 2756 10 140 0
637 -36 2882 3000 10 118 0
638 32 2318 2442 10 0 661
639 22 5146 5261 10 0 502
640 -17 1084 1231 10 722 0
641 -29 1124 1300 10 453 0
642 21 1014 1152 10 0 182
643 33 4083 4290 10 0 96
644 26 649 813 10 0 549
645 -22 2281 2383 10 458 0
646 16 3273 3483 0 0 804
647 33 3792 3876 10 0 279
648 33 2677 2873 10 0 332
649 -27 1677 1824 10 357 0
650 5 1437 1549 10 0 520
651 -25 719 769 10 721 0
652 22 1675 1762 10 0 60
653 -36 2815 2849 10 143 0
654 17 98 198 10 0 112
655 -12 2273 2373 10 274 0
656 -9 1869 2019 10 190 0
657 9 1051 1177 10 0 84
658 8 3265 3378 10 0 231
659 31 418 523 10 0 700
660 -8 3167 3344 10 601 0
661 -32 3338 3490 10 638 0
662 -39 1183 1281 10 211 0
663 22 3720 3864 0 0 811
664 -19 1650 1740 10 382 0
665 -10 2259 2377 10 45 0
666 19 2983 3147 10 0 446
667 -27 2614 2767 10 706 0
668 -33 5424 5500 10 119 0
669 20 659 785 10 0 286
670 11 2858 2933 10 0 147
671 15 1715 1753 10 0 73
672 12 2251 2450 10 0 413
673 14 5196 5307 0 0 808
674 18 832 995 10 0 747
675 26 2299 2461 10 0 75
676 -4 1856 2046 10 416 0
677 -8 3159 3284 10 35 0
678 -13 1020 1205 10 605 0
679 16 823 1030 10 0 196
680 14 813 955 10 0 771
681 10 2961 3091 10 0 315
682 4 4949 5109 10 0 383
683 -11 1641 1742 10 749 0
684 -1 5228 5358 10 262 0
685 17 83 190 10 0 155
686 22 927 1025 10 0 275
687 -25 2367 2447 10 52 0
688 7 3481 3635 10 0 176
689 -18 956 1084 10 753 0
690 31 1518 1704 10 0 284
691 18 1934 2055 10 0 141
692 -16 4387 4569 10 2 0
693 -9 2701 2882 10 208 0
694 -3 2221 2289 10 11 0
695 -28 2810 3056 10 723 0
696 9 709 822 10 0 157
697 34 3510 3643 10 0 146
698 -9 2332 2413 10 330 0
699 3 667 777 10 0 307
700 -31 1330 1455 10 659 0
701 -10 3121 3283 10 271 0
702 5 3426 3475 10 0 222
703 18 1708 1827 10 0 580
704 -15 5109 5209 10 378 0
705 20 1796 1948 10 0 398
706 27 1876 1948 10 0 667
707 -21 1288 1463 10 487 0
708 -12 1565 1660 10 3 0
709 23 1873 1985 10 0 782
710 -12 4599 4694 10 492 0
711 16 1718 1870 10 0 735
712 16 1534 1675 10 0 214
713 29 258 390 10 0 193
714 45 3960 4108 10 0 454
715 13 1032 1179 10 0 303
716 -15 1719 1950 10 336 0
717 -19 4057 4139 10 135 0
718 14 2727 2796 10 0 158
719 19 2651 2783 10 0 229
720 9 778 862 10 0 66
721 25 586 659 10 0 651
722 17 728 847 10 0 640
723 28 521 582 10 0 695
724 -13 4604 4682 10 261 0
725 17 1059 1202 10 0 612
726 -14 4248 4364 10 788 0
727 -23 3374 3454 10 316 0
728 -13 942 1054 10 13 0
729 12 2792 2910 10 0 205
730 13 659 760 10 0 126
731 -37 2976 3118 10 425 0
732 -12 4941 5090 10 505 0
733 -24 2354 2406 10 789 0
734 3 504 595 10 0 294
735 -16 1817 1964 10 711 0
736 26 3215 3366 10 0 590
737 -16 1561 1782 10 263 0
738 -16 2313 2419 10 85 0
739 -8 2803 2912 10 365 0
740 -19 2465 2630 10 403 0
741 23 2567 2602 10 0 616
742 -21 4054 4205 10 617 0
743 -13 3697 3839 10 387 0
744 -4 3039 3225 10 443 0
745 -19 3099 3259 10 507 0
746 -17 3216 3286 10 168 0
747 -18 2534 2613 10 674 0
748 -18 3124 3273 10 83 0
749 11 1066 1209 10 0 683
750 19 118 198 10 0 766
751 -19 3333 3451 10 626 0
752 24 2965 3084 10 0 467
753 18 818 996 10 0 689
754 12 2014 2203 10 0 631
755 15 2335 2510 10 0 561
756 14 327 456 10 0 431
757 19 4143 4284 0 0 810
758 -22 1996 2097 10 234 0
759 -2 1305 1402 10 334 0
760 -21 5629 5783 10 570 0
761 -26 3592 3695 10 535 0
762 17 2709 2843 10 0 432
763 -14 1355 1482 10 456 0
764 -20 5895 6032 10 405 0
765 -17 2689 2827 10 375 0
766 -19 3064 3156 10 750 0
767 15 2472 2548 10 0 546
768 31 2069 2241 10 0 225
769 15 2111 2220 10 0 74
770 16 2120 2248 10 0 162
771 -14 2320 2482 10 680 0
772 -18 289 413 10 586 0
773 9 907 1047 10 0 774
774 -9 1850 1934 10 773 0
775 18 1510 1648 10 0 340
776 -20 4605 4782 10 297 0
777 12 2561 2761 10 0 322
778 -10 1133 1269 10 93 0
779 20 2722 2936 10 0 228
780 15 2884 3048 10 0 123
781 11 3123 3239 10 0 46
782 -23 3240 3331 10 709 0
783 32 1503 1560 10 0 800
784 -12 5161 5263 10 361 0
785 -9 2342 2471 10 408 0
786 24 896 967 10 0 410
787 -16 2039 2149 10 169 0
788 14 3153 3317 10 0 726
789 24 125 275 10 0 733
790 26 1616 1675 10 0 224
791 -6 4234 4406 10 97 0
792 -26 4008 4155 10 212 0
793 14 1619 1706 10 0 600
794 -30 2461 2597 10 254 0
795 20 877 1005 10 0 531
796 11 2663 2751 10 0 581
797 20 3351 3548 10 0 608
798 -12 2644 2795 10 521 0
799 28 2184 2318 10 0 479
800 -32 3123 3169 10 783 0
801 -15 2806 2922 10 559 0
802 -28 5441 5586 10 308 0
803 -7 2879 3034 10 174 0
804 -16 3273 3483 10 646 0
805 -22 2329 2411 10 102 0
806 -22 4016 4129 10 207 0
807 -17 3287 3394 10 346 0
808 -14 5196 5307 10 673 0
809 -22 2987 3097 10 424 0
810 -19 4143 4284 10 757 0
811 -22 3720 3864 10 663 0
DEPOT_SECTION
1
-1
EOF
