NAME: lr2_8_7
TYPE: PDPTW
COMMENT: Li & Lim PDPTW benchmark converted from SINTEF format
DIMENSION: 809
VEHICLES: 200
CAPACITY: 1000
EDGE_WEIGHT_TYPE: EUC_2D
NODE_COORD_SECTION
1 200 200
2 221 225
3 279 247
4 355 41
5 93 283
6 163 207
7 364 55
8 329 208
9 102 377
10 356 299
11 10 202
12 40 153
13 145 165
14 278 265
15 338 14
16 13 167
17 179 125
18 194 43
19 358 261
20 299 399
21 246 247
22 343 359
23 101 8
24 302 274
25 131 275
26 191 167
27 332 124
28 106 302
29 380 145
30 334 100
31 180 359
32 142 238
33 138 306
34 16 294
35 206 7
36 299 308
37 343 335
38 135 384
39 161 346
40 206 286
41 156 4
42 326 335
43 82 78
44 37 21
45 177 174
46 84 221
47 171 168
48 207 185
49 92 255
50 220 337
51 137 132
52 342 154
53 353 65
54 70 231
55 79 95
56 352 303
57 136 226
58 243 209
59 145 301
60 254 0
61 310 363
62 387 267
63 236 44
64 94 268
65 84 293
66 11 135
67 280 5
68 265 127
69 259 285
70 52 94
71 278 221
72 231 229
73 168 100
74 14 53
75 237 259
76 69 82
77 192 291
78 8 384
79 367 361
80 91 233
81 125 175
82 304 319
83 241 275
84 193 29
85 80 392
86 300 64
87 327 11
88 299 351
89 311 344
90 229 105
91 362 207
92 344 154
93 39 34
94 68 250
95 268 223
96 116 195
97 352 156
98 313 64
99 375 294
100 391 260
101 334 186
102 84 206
103 12 40
104 195 148
105 381 144
106 320 211
107 308 178
108 376 205
109 257 98
110 111 4
111 330 310
112 305 255
113 140 387
114 164 80
115 271 371
116 4 280
117 347 59
118 147 376
119 74 213
120 54 341
121 303 358
122 21 82
123 379 126
124 398 258
125 152 361
126 397 261
127 250 340
128 166 185
129 294 184
130 303 258
131 87 378
132 250 183
133 384 72
134 98 107
135 56 97
136 225 53
137 280 224
138 208 86
139 395 167
140 215 260
141 44 277
142 174 329
143 380 390
144 120 170
145 273 118
146 103 154
147 180 15
148 371 396
149 169 352
150 78 85
151 226 378
152 357 202
153 68 143
154 384 248
155 391 42
156 267 295
157 350 131
158 5 345
159 199 45
160 166 115
161 103 361
162 239 252
163 2 3
164 335 202
165 158 121
166 320 24
167 166 19
168 326 374
169 317 240
170 357 147
171 32 78
172 40 336
173 52 251
174 40 314
175 233 100
176 78 194
177 110 351
178 321 287
179 369 118
180 101 99
181 232 127
182 390 376
183 73 292
184 195 121
185 175 192
186 33 226
187 390 357
188 80 365
189 344 321
190 397 283
191 66 5
192 160 313
193 210 294
194 320 373
195 231 182
196 30 349
197 26 372
198 154 68
199 338 106
200 49 222
201 17 99
202 279 148
203 309 279
204 384 64
205 231 36
206 279 337
207 187 23
208 32 163
209 214 119
210 74 87
211 134 320
212 42 197
213 350 18
214 92 68
215 48 358
216 160 222
217 184 282
218 168 268
219 289 234
220 123 176
221 231 76
222 196 107
223 138 143
224 285 136
225 194 166
226 162 94
227 165 335
228 205 372
229 168 87
230 159 11
231 143 20
232 297 240
233 17 348
234 192 200
235 303 142
236 48 304
237 200 144
238 185 180
239 317 68
240 324 194
241 274 247
242 337 81
243 345 195
244 129 53
245 285 184
246 378 118
247 309 53
248 246 298
249 153 222
250 306 361
251 46 110
252 123 159
253 234 7
254 162 316
255 309 274
256 57 124
257 46 102
258 382 49
259 96 22
260 292 33
261 359 389
262 392 14
263 68 386
264 163 364
265 116 102
266 37 397
267 264 341
268 269 203
269 230 266
270 31 360
271 68 378
272 262 390
273 236 119
274 220 238
275 36 288
276 276 298
277 362 399
278 244 285
279 32 229
280 179 175
281 200 48
282 13 59
283 165 264
284 56 292
285 178 353
286 210 1
287 306 85
288 196 129
289 243 287
290 396 106
291 151 188
292 151 231
293 11 274
294 92 238
295 108 48
296 38 291
297 232 131
298 217 98
299 340 79
300 308 327
301 279 91
302 384 294
303 90 311
304 359 31
305 391 136
306 344 236
307 202 6
308 2 29
309 366 340
310 328 8
311 316 383
312 384 53
313 302 300
314 29 86
315 358 309
316 147 210
317 287 279
318 102 149
319 115 51
320 393 256
321 340 290
322 271 116
323 332 216
324 319 113
325 246 47
326 247 377
327 371 111
328 397 362
329 157 220
330 322 281
331 50 385
332 193 216
333 80 282
334 91 388
335 351 199
336 327 115
337 23 317
338 362 378
339 337 248
340 4 307
341 379 254
342 67 318
343 372 382
344 356 223
345 243 215
346 336 201
347 338 5
348 142 385
349 192 332
350 18 294
351 400 373
352 287 225
353 66 144
354 19 61
355 389 171
356 377 29
357 6 20
358 68 215
359 177 55
360 118 122
361 43 121
362 13 322
363 193 390
364 369 211
365 92 73
366 163 270
367 349 249
368 133 375
369 266 234
370 353 3
371 18 102
372 236 260
373 142 262
374 314 257
375 161 124
376 170 114
377 85 256
378 243 140
379 41 183
380 359 157
381 146 301
382 184 233
383 194 121
384 277 163
385 125 182
386 51 205
387 260 352
388 55 115
389 102 324
390 238 124
391 54 108
392 108 75
393 359 42
394 248 286
395 98 375
396 340 276
397 85 128
398 277 143
399 6 62
400 143 159
401 159 164
402 343 322
403 223 41
404 155 159
405 73 4
406 175 304
407 40 31
408 110 241
409 399 179
410 196 77
411 8 363
412 126 90
413 136 373
414 339 69
415 234 73
416 65 335
417 35 238
418 201 242
419 279 262
420 111 286
421 350 207
422 305 257
423 320 166
424 285 287
425 228 96
426 296 388
427 38 366
428 26 275
429 49 187
430 291 304
431 81 156
432 3 2
433 354 199
434 361 194
435 267 321
436 378 30
437 217 211
438 246 152
439 336 386
440 348 102
441 162 251
442 70 81
443 231 320
444 374 163
445 367 300
446 45 85
447 330 76
448 371 386
449 253 316
450 264 69
451 330 353
452 169 235
453 186 179
454 13 220
455 323 218
456 300 319
457 356 315
458 193 18
459 228 341
460 324 184
461 344 72
462 376 19
463 74 351
464 262 30
465 256 145
466 361 287
467 188 67
468 26 70
469 381 375
470 220 71
471 371 349
472 26 260
473 339 3
474 308 314
475 113 80
476 78 261
477 85 333
478 192 151
479 382 169
480 52 301
481 51 64
482 273 182
483 163 264
484 213 305
485 96 162
486 209 208
487 100 15
488 8 68
489 256 385
490 178 103
491 285 107
492 1 335
493 274 7
494 213 216
495 190 27
496 73 124
497 321 144
498 296 156
499 348 189
500 117 395
501 2 52
502 186 145
503 381 290
504 244 50
505 11 328
506 317 183
507 196 51
508 212 197
509 299 227
510 395 340
511 259 4
512 292 392
513 211 153
514 370 57
515 119 286
516 213 332
517 328 39
518 312 247
519 248 126
520 208 20
521 201 195
522 146 174
523 341 33
524 86 112
525 140 40
526 310 340
527 176 154
528 131 89
529 74 231
530 93 31
531 349 324
532 5 344
533 159 79
534 137 68
535 103 95
536 315 237
537 294 118
538 75 89
539 369 6
540 63 166
541 59 89
542 138 326
543 304 395
544 59 49
545 170 176
546 384 47
547 117 381
548 72 315
549 326 156
550 41 340
551 94 165
552 229 371
553 107 98
554 262 233
555 41 337
556 243 275
557 384 307
558 365 303
559 397 73
560 234 214
561 3 15
562 244 135
563 303 112
564 325 45
565 343 134
566 307 396
567 278 289
568 203 40
569 238 119
570 166 357
571 290 82
572 177 139
573 2 200
574 348 319
575 36 203
576 125 122
577 184 69
578 368 278
579 374 175
580 126 208
581 184 235
582 153 315
583 48 278
584 286 308
585 197 200
586 196 138
587 226 52
588 256 356
589 108 399
590 124 221
591 240 201
592 122 105
593 236 171
594 348 371
595 183 71
596 26 326
597 338 315
598 380 126
599 74 283
600 46 197
601 30 39
602 88 372
603 60 319
604 174 326
605 172 109
606 157 378
607 219 49
608 316 112
609 398 325
610 230 234
611 97 387
612 262 212
613 349 181
614 29 9
615 201 255
616 21 255
617 102 252
618 9 47
619 237 243
620 330 313
621 282 252
622 16 114
623 236 38
624 247 212
625 366 97
626 284 311
627 308 217
628 343 184
629 55 346
630 316 327
631 255 80
632 102 118
633 73 126
634 369 171
635 350 214
636 244 56
637 287 343
638 220 38
639 154 41
640 173 72
641 206 106
642 362 383
643 107 159
644 319 160
645 88 121
646 341 78
647 97 105
648 246 244
649 35 79
650 37 106
651 173 384
652 368 63
653 300 272
654 237 200
655 286 44
656 294 249
657 388 106
658 148 71
659 100 218
660 177 77
661 148 94
662 16 311
663 158 85
664 105 254
665 66 118
666 13 96
667 348 41
668 135 161
669 85 61
670 160 62
671 234 20
672 108 395
673 230 139
674 45 291
675 266 8
676 95 391
677 156 32
678 58 98
679 79 344
680 59 51
681 380 339
682 165 126
683 43 67
684 377 72
685 209 167
686 57 381
687 294 13
688 87 147
689 4 60
690 26 247
691 44 296
692 357 38
693 56 156
694 52 194
695 124 179
696 311 356
697 140 131
698 364 213
699 102 84
700 7 143
701 105 360
702 150 49
703 52 343
704 218 134
705 199 22
706 381 27
707 75 76
708 377 282
709 377 144
710 59 285
711 321 85
712 194 65
713 213 280
714 41 93
715 41 399
716 334 92
717 76 72
718 55 341
719 248 124
720 0 155
721 186 355
722 102 42
723 96 209
724 325 294
725 251 381
726 362 115
727 8 119
728 53 51
729 123 30
730 361 236
731 76 90
732 77 319
733 395 113
734 110 290
735 251 70
736 26 199
737 92 384
738 122 397
739 15 4
740 168 15
741 47 190
742 35 160
743 388 275
744 338 150
745 186 75
746 352 383
747 50 315
748 153 224
749 2 17
750 168 223
751 299 270
752 397 133
753 24 57
754 234 37
755 381 12
756 117 148
757 325 130
758 146 320
759 8 285
760 146 324
761 131 82
762 266 13
763 348 343
764 91 61
765 114 88
766 36 286
767 325 311
768 192 268
769 37 119
770 291 398
771 201 6
772 162 121
773 302 345
774 297 137
775 34 371
776 202 158
777 338 290
778 100 10
779 310 163
780 368 215
781 142 379
782 326 79
783 5 266
784 140 344
785 267 221
786 18 235
787 393 246
788 394 299
789 244 176
790 309 18
791 364 23
792 75 238
793 81 290
794 209 283
795 353 357
796 87 164
797 400 109
798 319 115
799 349 135
800 12 368
801 231 6
802 362 378
803 236 171
804 30 349
805 193 216
806 336 201
807 207 185
808 364 213
809 170 176
PICKUP_AND_DELIVERY_SECTION
1 0 0 6751 0 0 0
2 16 32 272 10 0 194
3 -12 248 488 10 72 0
4 -29 3296 3536 10 506 0
5 -9 0 6606 10 172 0
6 -16 0 6704 10 766 0
7 -8 0 6523 10 473 0
8 20 0 6612 10 0 178
9 -18 0 6539 10 427 0
10 -19 0 6557 10 626 0
11 -36 0 6551 10 583 0
12 -13 547 787 10 13 0
13 13 141 381 10 0 12
14 -33 2534 2774 10 249 0
15 -23 4745 4985 10 347 0
16 -10 0 6552 10 45 0
17 4 192 432 10 0 640
18 26 2838 3078 10 0 636
19 19 0 6572 10 0 86
20 11 0 6519 10 0 367
21 21 2655 2895 10 0 478
22 26 0 6528 10 0 457
23 3 0 6525 10 0 286
24 15 0 6615 10 0 448
25 30 2055 2295 10 0 428
26 -15 3746 3986 10 678 0
27 22 1275 1515 10 0 774
28 -20 435 675 10 283 0
29 -17 2031 2271 10 685 0
30 -21 0 6574 10 743 0
31 -24 3706 3946 10 760 0
32 -43 4650 4890 10 396 0
33 1 3395 3635 10 0 581
34 -4 1452 1692 10 416 0
35 8 3115 3355 10 0 415
36 21 0 6595 10 0 187
37 -21 0 6545 10 449 0
38 13 916 1156 10 0 737
39 -7 4165 4405 10 149 0
40 19 0 6655 10 0 647
41 25 782 1022 10 0 355
42 -5 3864 4104 10 152 0
43 -15 0 6572 10 404 0
44 -1 0 6499 10 201 0
45 10 34 274 10 0 16
46 -15 4352 4592 10 454 0
47 -13 0 6698 10 742 0
48 1 0 6725 0 0 807
49 30 0 6620 10 0 792
50 23 1188 1428 10 0 643
51 -10 0 6649 10 764 0
52 25 0 6592 10 0 199
53 24 1163 1403 10 0 565
54 16 4328 4568 10 0 585
55 -2 4843 5083 10 731 0
56 8 4229 4469 10 0 287
57 -12 3930 4170 10 323 0
58 11 0 6698 10 0 189
59 8 0 6626 10 0 784
60 -26 2631 2871 10 511 0
61 -19 4177 4417 10 203 0
62 -5 3508 3748 10 489 0
63 -26 3035 3275 10 644 0
64 25 1400 1640 10 0 65
65 -25 0 6593 10 64 0
66 -14 977 1217 10 756 0
67 -32 0 6531 10 801 0
68 35 271 511 10 0 537
69 -24 0 6638 10 277 0
70 -11 4507 4747 10 776 0
71 27 3548 3788 10 0 724
72 12 0 6699 10 0 3
73 -32 2468 2708 10 783 0
74 -21 0 6504 10 553 0
75 -9 4635 4875 10 773 0
76 -18 3440 3680 10 538 0
77 -29 0 6650 10 713 0
78 24 0 6476 10 0 476
79 22 1888 2128 10 0 343
80 25 0 6628 10 0 542
81 20 0 6662 10 0 385
82 -16 0 6583 10 554 0
83 -28 0 6656 10 326 0
84 16 0 6570 10 0 530
85 16 0 6515 10 0 270
86 -19 4568 4808 10 19 0
87 -25 2302 2542 10 460 0
88 14 602 842 10 0 610
89 -10 0 6560 10 681 0
90 -31 3361 3601 10 690 0
91 18 3123 3363 10 0 497
92 30 3933 4173 10 0 179
93 -18 909 1149 10 371 0
94 -11 2195 2435 10 294 0
95 20 0 6670 10 0 344
96 20 0 6657 10 0 234
97 -12 3531 3771 10 157 0
98 -21 0 6565 10 563 0
99 -14 0 6543 10 788 0
100 -3 0 6541 10 341 0
101 1 563 803 10 0 290
102 22 0 6625 10 0 397
103 20 2400 2640 10 0 207
104 -2 5243 5483 10 138 0
105 -21 0 6552 10 493 0
106 -12 0 6621 10 398 0
107 4 1533 1773 10 0 423
108 4 1750 1990 10 0 409
109 8 1294 1534 10 0 754
110 -29 1982 2222 10 453 0
111 -27 2652 2892 10 620 0
112 11 1184 1424 10 0 422
113 8 0 6545 10 0 758
114 -8 4674 4914 10 658 0
115 15 0 6556 10 0 637
116 -14 0 6530 10 340 0
117 -16 0 6538 10 539 0
118 36 712 952 10 0 500
119 33 0 6615 10 0 358
120 19 1170 1410 10 0 703
121 37 0 6553 10 0 628
122 -15 3307 3547 10 769 0
123 -26 3406 3646 10 687 0
124 12 0 6535 10 0 248
125 18 0 6573 10 0 602
126 -13 0 6535 10 730 0
127 -24 0 6593 10 630 0
128 17 0 6704 10 0 386
129 -32 4232 4472 10 417 0
130 21 0 6623 10 0 164
131 -19 1409 1649 10 382 0
132 24 4028 4268 10 0 437
133 21 3913 4153 10 0 213
134 -19 0 6603 10 572 0
135 -20 0 6564 10 669 0
136 -18 4269 4509 10 325 0
137 20 0 6658 10 0 562
138 2 3771 4011 10 0 104
139 -23 3860 4100 10 709 0
140 9 127 367 10 0 228
141 -28 0 6568 10 723 0
142 -8 0 6610 10 604 0
143 36 0 6480 10 0 261
144 -24 0 6656 10 484 0
145 34 0 6632 10 0 450
146 22 4364 4604 10 0 695
147 -10 0 6555 10 490 0
148 5 0 6481 10 0 594
149 7 0 6586 10 0 39
150 21 2903 3143 10 0 475
151 30 1376 1616 10 0 472
152 5 0 6584 10 0 42
153 -29 4961 5201 10 603 0
154 35 827 1067 10 0 574
155 44 0 6494 10 0 370
156 -18 2865 3105 10 543 0
157 12 3147 3387 10 0 97
158 14 4782 5022 10 0 329
159 -17 3099 3339 10 491 0
160 -25 0 6650 10 431 0
161 25 1778 2018 10 0 368
162 20 5270 5510 10 0 486
163 14 3117 3357 10 0 388
164 -21 3257 3497 10 130 0
165 17 4361 4601 10 0 231
166 -19 3971 4211 10 204 0
167 11 0 6557 10 0 379
168 17 0 6527 10 0 510
169 16 1157 1397 10 0 369
170 -27 0 6576 10 523 0
171 -29 2534 2774 10 689 0
172 9 4761 5001 10 0 5
173 -26 0 6585 10 580 0
174 -35 0 6545 10 452 0
175 -26 2686 2926 10 247 0
176 2 0 6619 10 0 245
177 -13 0 6566 10 715 0
178 -20 0 6592 10 8 0
179 -30 4148 4388 10 92 0
180 -22 5189 5429 10 663 0
181 13 0 6662 10 0 297
182 -7 1792 2032 10 351 0
183 -8 0 6585 10 296 0
184 23 3424 3664 10 0 591
185 -9 3636 3876 10 720 0
186 -31 0 6572 10 659 0
187 -21 0 6495 10 36 0
188 18 0 6537 10 0 611
189 -11 0 6553 10 58 0
190 -19 1587 1827 10 419 0
191 -17 4482 4722 10 587 0
192 8 3375 3615 10 0 363
193 43 258 498 10 0 616
194 -16 2146 2386 10 2 0
195 18 35 275 10 0 281
196 9 0 6515 0 0 804
197 -19 0 6497 10 362 0
198 -24 2895 3135 10 794 0
199 -25 3746 3986 10 52 0
200 -25 4450 4690 10 721 0
201 1 3966 4206 10 0 44
202 -2 5748 5988 10 692 0
203 19 568 808 10 0 61
204 19 0 6513 10 0 166
205 -31 4063 4303 10 412 0
206 -33 0 6583 10 536 0
207 -20 0 6564 10 103 0
208 9 0 6569 10 0 727
209 -14 0 6659 10 513 0
210 9 0 6572 10 0 607
211 39 598 838 10 0 284
212 -12 1415 1655 10 505 0
213 -21 4483 4723 10 133 0
214 -20 0 6571 10 561 0
215 32 3442 3682 10 0 710
216 -34 5116 5356 10 455 0
217 19 0 6658 10 0 676
218 -19 0 6666 10 285 0
219 33 261 501 10 0 519
220 -5 0 6661 10 551 0
221 -10 0 6614 10 520 0
222 -5 5257 5497 10 229 0
223 -16 0 6657 10 354 0
224 -26 4295 4535 10 440 0
225 7 2692 2932 10 0 502
226 -18 0 6629 10 728 0
227 -21 2530 2770 10 617 0
228 -9 0 6569 10 140 0
229 5 3606 3846 10 0 222
230 -15 4694 4934 10 527 0
231 -17 4810 5050 10 165 0
232 37 980 1220 10 0 438
233 -12 0 6506 10 732 0
234 -20 0 6733 10 96 0
235 -23 0 6623 10 479 0
236 -19 0 6557 10 418 0
237 12 262 502 10 0 712
238 -2 6476 6716 10 280 0
239 -16 4581 4821 10 421 0
240 -14 0 6617 10 311 0
241 22 3715 3955 10 0 372
242 -10 0 6560 10 447 0
243 -21 0 6596 10 272 0
244 14 2945 3185 10 0 668
245 -2 0 6655 10 176 0
246 12 0 6546 10 0 514
247 26 0 6558 10 0 175
248 -12 3764 4004 10 124 0
249 33 88 328 10 0 14
250 4 2761 3001 10 0 315
251 16 0 6563 10 0 442
252 30 0 6654 10 0 365
253 10 0 6546 10 0 625
254 -15 2326 2566 10 748 0
255 23 0 6610 10 0 751
256 -10 0 6580 10 495 0
257 -22 2354 2594 10 649 0
258 -16 3443 3683 10 646 0
259 23 0 6535 10 0 525
260 13 0 6551 10 0 470
261 -36 4158 4398 10 143 0
262 -27 0 6474 10 706 0
263 16 1178 1418 10 0 738
264 -10 3088 3328 10 701 0
265 10 3195 3435 10 0 717
266 -32 3240 3480 10 463 0
267 9 4103 4343 10 0 459
268 30 1440 1680 10 0 779
269 -39 0 6669 10 321 0
270 -16 1049 1289 10 85 0
271 -10 2666 2906 10 337 0
272 21 1845 2085 10 0 243
273 30 5341 5581 10 0 704
274 -6 0 6699 10 278 0
275 1 0 6555 10 0 316
276 10 376 616 10 0 770
277 24 0 6485 10 0 69
278 6 5210 5450 10 0 274
279 7 0 6571 10 0 288
280 2 0 6709 10 0 238
281 -18 0 6589 10 195 0
282 -15 2177 2417 10 576 0
283 20 0 6669 10 0 28
284 -39 1965 2205 10 211 0
285 19 0 6587 10 0 218
286 -3 3938 4178 10 23 0
287 -8 0 6585 10 56 0
288 -7 3004 3244 10 279 0
289 8 486 726 10 0 725
290 -1 1021 1261 10 101 0
291 18 82 322 10 0 375
292 10 258 498 10 0 408
293 -24 0 6539 10 759 0
294 11 0 6627 10 0 94
295 18 3267 3507 10 0 360
296 8 1975 2215 10 0 183
297 -13 4483 4723 10 181 0
298 19 294 534 10 0 410
299 -8 2618 2858 10 564 0
300 -11 0 6575 10 526 0
301 -11 5173 5413 10 517 0
302 20 2168 2408 10 0 474
303 -41 2614 2854 10 373 0
304 -26 4954 5194 10 414 0
305 -20 0 6540 10 307 0
306 -13 0 6593 10 374 0
307 20 0 6547 10 0 305
308 -18 5393 5633 10 739 0
309 -20 2801 3041 10 795 0
310 -9 1722 1962 10 657 0
311 14 0 6525 10 0 240
312 13 0 6506 10 0 711
313 17 0 6599 10 0 609
314 28 2221 2461 10 0 496
315 -4 3364 3604 10 250 0
316 -1 0 6688 10 275 0
317 4 0 6624 10 0 615
318 12 0 6631 10 0 632
319 -9 3332 3572 10 376 0
320 13 1495 1735 10 0 330
321 39 0 6575 10 0 269
322 -15 0 6632 10 549 0
323 12 0 6609 10 0 57
324 26 4609 4849 10 0 335
325 18 4423 4663 10 0 136
326 28 4802 5042 10 0 83
327 3 0 6549 10 0 364
328 15 941 1181 10 0 430
329 -14 5445 5685 10 158 0
330 -13 0 6595 10 320 0
331 -45 3232 3472 10 350 0
332 1 0 6724 0 0 805
333 10 2025 2265 10 0 508
334 2 800 1040 10 0 672
335 -26 0 6590 10 324 0
336 15 0 6589 10 0 798
337 10 1755 1995 10 0 271
338 17 0 6501 0 0 802
339 26 1848 2088 10 0 621
340 14 0 6518 10 0 116
341 3 1097 1337 10 0 100
342 -21 923 1163 10 420 0
343 -22 2442 2682 10 79 0
344 -20 0 6584 10 95 0
345 7 62 302 10 0 384
346 17 0 6605 0 0 806
347 23 4006 4246 10 0 15
348 -11 2049 2289 10 781 0
349 31 0 6609 10 0 516
350 45 1889 2129 10 0 331
351 7 987 1227 10 0 182
352 -15 2922 3162 10 378 0
353 29 501 741 10 0 665
354 16 4550 4790 10 0 223
355 -25 0 6550 10 41 0
356 22 2926 3166 10 0 546
357 27 0 6477 10 0 429
358 -33 0 6609 10 119 0
359 -35 0 6595 10 745 0
360 -18 0 6628 10 295 0
361 -45 0 6566 10 714 0
362 19 1410 1650 10 0 197
363 -8 4078 4318 10 192 0
364 -3 0 6572 10 327 0
365 -30 1289 1529 10 252 0
366 -3 2118 2358 10 651 0
367 -11 0 6585 10 20 0
368 -25 0 6554 10 161 0
369 -16 3592 3832 10 169 0
370 -44 962 1202 10 155 0
371 18 869 1109 10 0 93
372 -22 0 6672 10 241 0
373 41 1988 2228 10 0 303
374 13 0 6614 10 0 306
375 -18 2580 2820 10 291 0
376 9 0 6650 10 0 319
377 -7 3955 4195 10 480 0
378 15 0 6668 10 0 352
379 -11 0 6582 10 167 0
380 -29 3179 3419 10 444 0
381 34 0 6627 10 0 582
382 19 36 276 10 0 131
383 -5 5029 5269 10 702 0
384 -7 0 6656 10 345 0
385 -20 0 6664 10 81 0
386 -17 0 6592 10 128 0
387 -35 0 6578 10 394 0
388 -14 0 6573 10 163 0
389 23 0 6583 10 0 599
390 26 2248 2488 10 0 719
391 17 0 6569 10 0 699
392 24 0 6586 10 0 707
393 10 0 6517 10 0 652
394 35 314 554 10 0 387
395 -22 0 6539 10 686 0
396 43 3411 3651 10 0 32
397 -22 5091 5331 10 102 0
398 12 2514 2754 10 0 106
399 23 0 6503 10 0 700
400 16 161 401 10 0 541
401 -23 5285 5525 10 522 0
402 -15 0 6554 10 624 0
403 19 2144 2384 10 0 507
404 15 166 406 10 0 43
405 -6 5564 5804 10 740 0
406 24 308 548 10 0 547
407 -32 0 6509 10 638 0
408 -10 0 6643 10 292 0
409 -4 0 6541 10 108 0
410 -19 0 6618 10 298 0
411 39 3457 3697 10 0 629
412 31 0 6609 10 0 205
413 -23 2397 2637 10 589 0
414 26 0 6550 10 0 304
415 -8 0 6610 10 35 0
416 4 1258 1498 10 0 34
417 32 703 943 10 0 129
418 19 0 6699 10 0 236
419 19 282 522 10 0 190
420 21 472 712 10 0 342
421 16 0 6591 10 0 239
422 -11 0 6622 10 112 0
423 -4 2284 2524 10 107 0
424 -15 0 6620 10 767 0
425 37 0 6634 10 0 673
426 -3 0 6530 10 584 0
427 18 0 6510 10 0 9
428 -30 0 6552 10 25 0
429 -27 0 6590 10 357 0
430 -15 0 6603 10 328 0
431 25 1681 1921 10 0 160
432 -5 3766 4006 10 618 0
433 -1 5061 5301 10 613 0
434 12 0 6580 10 0 757
435 26 2473 2713 10 0 716
436 -31 0 6495 10 598 0
437 -24 4662 4902 10 132 0
438 -37 2345 2585 10 232 0
439 -36 0 6511 10 503 0
440 26 0 6564 10 0 224
441 21 0 6678 10 0 550
442 -16 3449 3689 10 251 0
443 -9 0 6618 10 597 0
444 29 0 6564 10 0 380
445 -14 1737 1977 10 456 0
446 -23 0 6548 10 741 0
447 10 0 6562 10 0 242
448 -15 0 6489 10 24 0
449 21 1622 1862 10 0 37
450 -34 2602 2842 10 145 0
451 -15 0 6541 10 653 0
452 35 67 307 10 0 174
453 29 0 6716 10 0 110
454 15 4200 4440 10 0 46
455 34 0 6617 10 0 216
456 14 0 6586 10 0 445
457 -26 1623 1863 10 22 0
458 22 0 6559 10 0 534
459 -9 3969 4209 10 267 0
460 25 422 662 10 0 87
461 8 0 6549 10 0 571
462 -15 0 6489 10 559 0
463 32 0 6545 10 0 266
464 8 0 6561 10 0 568
465 -11 4515 4755 10 726 0
466 13 0 6558 10 0 635
467 14 0 6608 10 0 729
468 3 3625 3865 10 0 693
469 -8 4226 4466 10 471 0
470 -13 2645 2885 10 260 0
471 8 0 6515 10 0 469
472 -30 0 6557 10 151 0
473 8 0 6500 10 0 7
474 -20 2499 2739 10 302 0
475 -21 0 6593 10 150 0
476 -24 0 6605 10 78 0
477 -16 2246 2486 10 679 0
478 -21 0 6692 10 21 0
479 23 2572 2812 10 0 235
480 7 3639 3879 10 0 377
481 14 3121 3361 10 0 528
482 -18 3342 3582 10 674 0
483 26 176 416 10 0 718
484 24 1900 2140 10 0 144
485 -24 0 6631 10 786 0
486 -20 0 6729 10 162 0
487 21 1202 1442 10 0 778
488 -17 2553 2793 10 722 0
489 5 0 6548 10 0 62
490 10 0 6642 10 0 147
491 17 1942 2182 10 0 159
492 12 939 1179 10 0 573
493 21 0 6535 10 0 105
494 9 20 260 10 0 557
495 10 0 6568 10 0 256
496 -28 2150 2390 10 314 0
497 -18 4197 4437 10 91 0
498 17 352 592 10 0 655
499 -18 0 6593 10 512 0
500 -36 1545 1785 10 118 0
501 11 2646 2886 10 0 661
502 -7 0 6685 10 225 0
503 36 0 6539 10 0 439
504 -11 3756 3996 10 631 0
505 12 0 6513 10 0 212
506 29 414 654 10 0 4
507 -19 2059 2299 10 403 0
508 -10 0 6729 10 333 0
509 -20 0 6639 10 560 0
510 -17 0 6501 10 168 0
511 26 0 6537 10 0 60
512 18 2584 2824 10 0 499
513 14 165 405 10 0 209
514 -12 0 6519 10 246 0
515 18 0 6623 10 0 548
516 -31 0 6609 10 349 0
517 11 2965 3205 10 0 301
518 14 0 6620 10 0 552
519 -33 2547 2787 10 219 0
520 10 0 6561 10 0 221
521 12 5 245 10 0 577
522 23 0 6682 10 0 401
523 27 1057 1297 10 0 170
524 17 0 6597 10 0 535
525 -23 4000 4240 10 259 0
526 11 0 6563 10 0 300
527 15 88 328 10 0 230
528 -14 0 6611 10 481 0
529 -12 1834 2074 10 664 0
530 -16 0 6541 10 84 0
531 -14 2093 2333 10 787 0
532 -12 4977 5217 10 800 0
533 -4 0 6614 10 682 0
534 -22 0 6595 10 458 0
535 -17 2324 2564 10 524 0
536 33 0 6621 10 0 206
537 -35 379 619 10 68 0
538 18 3244 3484 10 0 76
539 16 0 6484 10 0 117
540 4 0 6600 10 0 627
541 -16 3018 3258 10 400 0
542 -25 2183 2423 10 80 0
543 18 2055 2295 10 0 156
544 -26 1575 1815 10 622 0
545 19 0 6703 0 0 809
546 -22 0 6502 10 356 0
547 -24 0 6542 10 406 0
548 -18 0 6569 10 515 0
549 15 1105 1345 10 0 322
550 -21 0 6530 10 441 0
551 5 0 6630 10 0 220
552 -14 3991 4231 10 518 0
553 21 472 712 10 0 74
554 16 0 6671 10 0 82
555 -18 0 6532 10 691 0
556 -19 3618 3858 10 567 0
557 -9 0 6529 10 494 0
558 -21 0 6547 10 642 0
559 15 0 6507 10 0 462
560 20 0 6705 10 0 509
561 20 0 6471 10 0 214
562 -20 2627 2867 10 137 0
563 21 0 6606 10 0 98
564 8 2296 2536 10 0 299
565 -24 3975 4215 10 53 0
566 -19 3028 3268 10 588 0
567 19 0 6623 10 0 556
568 -8 3107 3347 10 464 0
569 -11 0 6652 10 575 0
570 -31 4793 5033 10 768 0
571 -8 0 6593 10 461 0
572 19 0 6676 10 0 134
573 -12 0 6543 10 492 0
574 -35 0 6552 10 154 0
575 11 0 6577 10 0 569
576 15 384 624 10 0 282
577 -12 0 6610 10 521 0
578 20 0 6556 10 0 799
579 18 0 6566 10 0 752
580 26 0 6667 10 0 173
581 -1 0 6703 10 33 0
582 -34 0 6617 10 381 0
583 36 604 844 10 0 11
584 3 0 6603 10 0 426
585 -16 0 6738 10 54 0
586 18 0 6679 10 0 595
587 17 1921 2161 10 0 191
588 19 0 6576 10 0 566
589 23 0 6522 10 0 413
590 27 3952 4192 10 0 750
591 -23 0 6701 10 184 0
592 -25 0 6619 10 771 0
593 27 0 6695 0 0 803
594 -5 0 6515 10 148 0
595 -18 0 6611 10 586 0
596 21 0 6527 10 0 793
597 9 3749 3989 10 0 443
598 31 749 989 10 0 436
599 -23 0 6591 10 389 0
600 -26 1633 1873 10 736 0
601 -5 1412 1652 10 650 0
602 -18 0 6536 10 125 0
603 29 0 6558 10 0 153
604 8 0 6613 10 0 142
605 -33 0 6646 10 648 0
606 22 0 6558 10 0 747
607 -9 0 6589 10 210 0
608 -9 3795 4035 10 733 0
609 -17 3439 3679 10 313 0
610 -14 6184 6424 10 88 0
611 -18 2185 2425 10 188 0
612 19 0 6678 10 0 777
613 1 0 6591 10 0 433
614 -38 3242 3482 10 623 0
615 -4 0 6686 10 317 0
616 -43 2982 3222 10 193 0
617 21 324 564 10 0 227
618 5 3351 3591 10 0 432
619 9 107 347 10 0 782
620 27 0 6569 10 0 111
621 -26 0 6644 10 339 0
622 26 0 6538 10 0 544
623 38 1671 1911 10 0 614
624 15 629 869 10 0 402
625 -10 0 6546 10 253 0
626 19 1337 1577 10 0 10
627 -4 3909 4149 10 540 0
628 -37 4430 4670 10 121 0
629 -39 0 6536 10 411 0
630 24 0 6569 10 0 127
631 11 0 6609 10 0 504
632 -12 4615 4855 10 318 0
633 38 1618 1858 10 0 796
634 -26 0 6570 10 790 0
635 -13 0 6591 10 466 0
636 -26 0 6591 10 18 0
637 -15 2821 3061 10 115 0
638 32 0 6578 10 0 407
639 22 5083 5323 10 0 670
640 -4 1037 1277 10 17 0
641 -24 0 6647 10 765 0
642 21 963 1203 10 0 558
643 -23 0 6640 10 50 0
644 26 611 851 10 0 63
645 -19 2212 2452 10 666 0
646 16 3258 3498 10 0 258
647 -19 3714 3954 10 40 0
648 33 2655 2895 10 0 605
649 22 1630 1870 10 0 257
650 5 1373 1613 10 0 601
651 3 624 864 10 0 366
652 -10 1599 1839 10 393 0
653 15 0 6618 10 0 451
654 17 37 277 10 0 667
655 -17 0 6563 10 498 0
656 -24 1824 2064 10 785 0
657 9 0 6531 10 0 310
658 8 3202 3442 10 0 114
659 31 0 6640 10 0 186
660 13 0 6616 10 0 671
661 -11 0 6623 10 501 0
662 10 1112 1352 10 0 694
663 22 0 6619 10 0 180
664 12 0 6632 10 0 529
665 -29 2198 2438 10 353 0
666 19 0 6528 10 0 645
667 -17 2571 2811 10 654 0
668 -14 5342 5582 10 244 0
669 20 0 6561 10 0 135
670 -22 0 6598 10 639 0
671 -13 1614 1854 10 660 0
672 -2 0 6526 10 334 0
673 -37 5131 5371 10 425 0
674 18 794 1034 10 0 482
675 -24 2260 2500 10 789 0
676 -19 0 6524 10 217 0
677 -20 3101 3341 10 705 0
678 15 0 6567 10 0 26
679 16 807 1047 10 0 477
680 -1 764 1004 10 772 0
681 10 0 6514 10 0 89
682 4 0 6660 10 0 533
683 15 0 6536 10 0 753
684 -20 5173 5413 10 797 0
685 17 34 274 10 0 29
686 22 856 1096 10 0 395
687 26 0 6532 10 0 123
688 7 0 6617 10 0 749
689 29 0 6501 10 0 171
690 31 1491 1731 10 0 90
691 18 1875 2115 10 0 555
692 2 4358 4598 10 0 202
693 -3 0 6591 10 468 0
694 -10 0 6593 10 662 0
695 -22 0 6663 10 146 0
696 -16 0 6550 10 746 0
697 -15 3457 3697 10 761 0
698 11 2253 2493 0 0 808
699 -17 0 6590 10 391 0
700 -23 1272 1512 10 399 0
701 10 0 6555 10 0 264
702 5 0 6582 10 0 383
703 -19 0 6536 10 120 0
704 -30 0 6673 10 273 0
705 20 0 6563 10 0 677
706 27 1792 2032 10 0 262
707 -24 0 6565 10 392 0
708 -12 0 6546 10 763 0
709 23 1809 2049 10 0 139
710 -32 4527 4767 10 215 0
711 -13 0 6575 10 312 0
712 -12 1485 1725 10 237 0
713 29 0 6660 10 0 77
714 45 0 6550 10 0 361
715 13 986 1226 10 0 177
716 -26 0 6569 10 435 0
717 -10 3978 4218 10 265 0
718 -26 0 6539 10 483 0
719 -26 0 6652 10 390 0
720 9 700 940 10 0 185
721 25 503 743 10 0 200
722 17 667 907 10 0 488
723 28 0 6637 10 0 141
724 -27 0 6585 10 71 0
725 -8 0 6553 10 289 0
726 11 4186 4426 10 0 465
727 -9 0 6533 10 208 0
728 18 0 6532 10 0 226
729 -14 0 6555 10 467 0
730 13 0 6577 10 0 126
731 2 0 6576 10 0 55
732 12 0 6570 10 0 233
733 9 2260 2500 10 0 608
734 3 430 670 10 0 775
735 -17 0 6602 10 762 0
736 26 0 6567 10 0 600
737 -13 0 6528 10 38 0
738 -16 2246 2486 10 263 0
739 18 0 6472 10 0 308
740 6 2427 2667 10 0 405
741 23 0 6588 10 0 446
742 13 4010 4250 10 0 47
743 21 3648 3888 10 0 30
744 -15 3012 3252 10 780 0
745 35 0 6616 10 0 359
746 16 0 6504 10 0 696
747 -22 2453 2693 10 606 0
748 15 0 6689 10 0 254
749 -7 1017 1257 10 688 0
750 -27 0 6702 10 590 0
751 -23 3272 3512 10 255 0
752 -18 2904 3144 10 579 0
753 -15 787 1027 10 683 0
754 -8 0 6575 10 109 0
755 15 2302 2542 10 0 791
756 14 272 512 10 0 66
757 -12 4093 4333 10 434 0
758 -8 0 6610 10 113 0
759 24 1233 1473 10 0 293
760 24 0 6606 10 0 31
761 15 3523 3763 10 0 697
762 17 0 6543 10 0 735
763 12 0 6536 10 0 708
764 10 5844 6084 10 0 51
765 24 2638 2878 10 0 641
766 16 0 6556 10 0 6
767 15 0 6574 10 0 424
768 31 0 6673 10 0 570
769 15 2045 2285 10 0 122
770 -10 0 6524 10 276 0
771 25 2281 2521 10 0 592
772 1 231 471 10 0 680
773 9 857 1097 10 0 75
774 -22 1772 2012 10 27 0
775 -3 0 6503 10 734 0
776 11 0 6699 10 0 70
777 -19 2541 2781 10 612 0
778 -21 1081 1321 10 487 0
779 -30 0 6625 10 268 0
780 15 2846 3086 10 0 744
781 11 0 6553 10 0 348
782 -9 0 6567 10 619 0
783 32 0 6536 10 0 73
784 -8 5092 5332 10 59 0
785 24 0 6671 10 0 656
786 24 0 6556 10 0 485
787 14 1974 2214 10 0 531
788 14 0 6524 10 0 99
789 24 80 320 10 0 675
790 26 0 6529 10 0 634
791 -15 0 6500 10 755 0
792 -30 0 6611 10 49 0
793 -21 0 6592 10 596 0
794 24 2409 2649 10 0 198
795 20 821 1061 10 0 309
796 -38 2587 2827 10 633 0
797 20 0 6522 10 0 684
798 -15 0 6595 10 336 0
799 -20 0 6579 10 578 0
800 12 3026 3266 10 0 532
801 32 0 6545 10 0 67
802 -17 0 6501 10 338 0
803 -27 0 6695 10 593 0
804 -9 0 6515 10 196 0
805 -1 0 6724 10 332 0
806 -17 0 6605 10 346 0
807 -1 0 6725 10 48 0
808 -11 2253 2493 10 698 0
809 -19 0 6703 10 545 0
DEPOT_SECTION
1
-1
EOF
