NAME: lr2_8_2
TYPE: PDPTW
COMMENT: Li & Lim PDPTW benchmark converted from SINTEF format
DIMENSION: 809
VEHICLES: 200
CAPACITY: 1000
EDGE_WEIGHT_TYPE: EUC_2D
NODE_COORD_SECTION
1 200 200
2 221 225
3 279 247
4 355 41
5 93 283
6 163 207
7 364 55
8 329 208
9 102 377
10 356 299
11 10 202
12 40 153
13 145 165
14 278 265
15 338 14
16 13 167
17 179 125
18 194 43
19 358 261
20 299 399
21 246 247
22 343 359
23 101 8
24 302 274
25 131 275
26 191 167
27 332 124
28 106 302
29 380 145
30 334 100
31 180 359
32 142 238
33 138 306
34 16 294
35 206 7
36 299 308
37 343 335
38 135 384
39 161 346
40 206 286
41 156 4
42 326 335
43 82 78
44 37 21
45 177 174
46 84 221
47 171 168
48 207 185
49 92 255
50 220 337
51 137 132
52 342 154
53 353 65
54 70 231
55 79 95
56 352 303
57 136 226
58 243 209
59 145 301
60 254 0
61 310 363
62 387 267
63 236 44
64 94 268
65 84 293
66 11 135
67 280 5
68 265 127
69 259 285
70 52 94
71 278 221
72 231 229
73 168 100
74 14 53
75 237 259
76 69 82
77 192 291
78 8 384
79 367 361
80 91 233
81 125 175
82 304 319
83 241 275
84 193 29
85 80 392
86 300 64
87 327 11
88 299 351
89 311 344
90 229 105
91 362 207
92 344 154
93 39 34
94 68 250
95 268 223
96 116 195
97 352 156
98 313 64
99 375 294
100 391 260
101 334 186
102 84 206
103 12 40
104 195 148
105 381 144
106 320 211
107 308 178
108 376 205
109 257 98
110 111 4
111 330 310
112 305 255
113 140 387
114 164 80
115 271 371
116 4 280
117 347 59
118 147 376
119 74 213
120 54 341
121 303 358
122 21 82
123 379 126
124 398 258
125 152 361
126 397 261
127 250 340
128 166 185
129 294 184
130 303 258
131 87 378
132 250 183
133 384 72
134 98 107
135 56 97
136 225 53
137 280 224
138 208 86
139 395 167
140 215 260
141 44 277
142 174 329
143 380 390
144 120 170
145 273 118
146 103 154
147 180 15
148 371 396
149 169 352
150 78 85
151 226 378
152 357 202
153 68 143
154 384 248
155 391 42
156 267 295
157 350 131
158 5 345
159 199 45
160 166 115
161 103 361
162 239 252
163 2 3
164 335 202
165 158 121
166 320 24
167 166 19
168 326 374
169 317 240
170 357 147
171 32 78
172 40 336
173 52 251
174 40 314
175 233 100
176 78 194
177 110 351
178 321 287
179 369 118
180 101 99
181 232 127
182 390 376
183 73 292
184 195 121
185 175 192
186 33 226
187 390 357
188 80 365
189 344 321
190 397 283
191 66 5
192 160 313
193 210 294
194 320 373
195 231 182
196 30 349
197 26 372
198 154 68
199 338 106
200 49 222
201 17 99
202 279 148
203 309 279
204 384 64
205 231 36
206 279 337
207 187 23
208 32 163
209 214 119
210 74 87
211 134 320
212 42 197
213 350 18
214 92 68
215 48 358
216 160 222
217 184 282
218 168 268
219 289 234
220 123 176
221 231 76
222 196 107
223 138 143
224 285 136
225 194 166
226 162 94
227 165 335
228 205 372
229 168 87
230 159 11
231 143 20
232 297 240
233 17 348
234 192 200
235 303 142
236 48 304
237 200 144
238 185 180
239 317 68
240 324 194
241 274 247
242 337 81
243 345 195
244 129 53
245 285 184
246 378 118
247 309 53
248 246 298
249 153 222
250 306 361
251 46 110
252 123 159
253 234 7
254 162 316
255 309 274
256 57 124
257 46 102
258 382 49
259 96 22
260 292 33
261 359 389
262 392 14
263 68 386
264 163 364
265 116 102
266 37 397
267 264 341
268 269 203
269 230 266
270 31 360
271 68 378
272 262 390
273 236 119
274 220 238
275 36 288
276 276 298
277 362 399
278 244 285
279 32 229
280 179 175
281 200 48
282 13 59
283 165 264
284 56 292
285 178 353
286 210 1
287 306 85
288 196 129
289 243 287
290 396 106
291 151 188
292 151 231
293 11 274
294 92 238
295 108 48
296 38 291
297 232 131
298 217 98
299 340 79
300 308 327
301 279 91
302 384 294
303 90 311
304 359 31
305 391 136
306 344 236
307 202 6
308 2 29
309 366 340
310 328 8
311 316 383
312 384 53
313 302 300
314 29 86
315 358 309
316 147 210
317 287 279
318 102 149
319 115 51
320 393 256
321 340 290
322 271 116
323 332 216
324 319 113
325 246 47
326 247 377
327 371 111
328 397 362
329 157 220
330 322 281
331 50 385
332 193 216
333 80 282
334 91 388
335 351 199
336 327 115
337 23 317
338 362 378
339 337 248
340 4 307
341 379 254
342 67 318
343 372 382
344 356 223
345 243 215
346 336 201
347 338 5
348 142 385
349 192 332
350 18 294
351 400 373
352 287 225
353 66 144
354 19 61
355 389 171
356 377 29
357 6 20
358 68 215
359 177 55
360 118 122
361 43 121
362 13 322
363 193 390
364 369 211
365 92 73
366 163 270
367 349 249
368 133 375
369 266 234
370 353 3
371 18 102
372 236 260
373 142 262
374 314 257
375 161 124
376 170 114
377 85 256
378 243 140
379 41 183
380 359 157
381 146 301
382 184 233
383 194 121
384 277 163
385 125 182
386 51 205
387 260 352
388 55 115
389 102 324
390 238 124
391 54 108
392 108 75
393 359 42
394 248 286
395 98 375
396 340 276
397 85 128
398 277 143
399 6 62
400 143 159
401 159 164
402 343 322
403 223 41
404 155 159
405 73 4
406 175 304
407 40 31
408 110 241
409 399 179
410 196 77
411 8 363
412 126 90
413 136 373
414 339 69
415 234 73
416 65 335
417 35 238
418 201 242
419 279 262
420 111 286
421 350 207
422 305 257
423 320 166
424 285 287
425 228 96
426 296 388
427 38 366
428 26 275
429 49 187
430 291 304
431 81 156
432 3 2
433 354 199
434 361 194
435 267 321
436 378 30
437 217 211
438 246 152
439 336 386
440 348 102
441 162 251
442 70 81
443 231 320
444 374 163
445 367 300
446 45 85
447 330 76
448 371 386
449 253 316
450 264 69
451 330 353
452 169 235
453 186 179
454 13 220
455 323 218
456 300 319
457 356 315
458 193 18
459 228 341
460 324 184
461 344 72
462 376 19
463 74 351
464 262 30
465 256 145
466 361 287
467 188 67
468 26 70
469 381 375
470 220 71
471 371 349
472 26 260
473 339 3
474 308 314
475 113 80
476 78 261
477 85 333
478 192 151
479 382 169
480 52 301
481 51 64
482 273 182
483 163 264
484 213 305
485 96 162
486 209 208
487 100 15
488 8 68
489 256 385
490 178 103
491 285 107
492 1 335
493 274 7
494 213 216
495 190 27
496 73 124
497 321 144
498 296 156
499 348 189
500 117 395
501 2 52
502 186 145
503 381 290
504 244 50
505 11 328
506 317 183
507 196 51
508 212 197
509 299 227
510 395 340
511 259 4
512 292 392
513 211 153
514 370 57
515 119 286
516 213 332
517 328 39
518 312 247
519 248 126
520 208 20
521 201 195
522 146 174
523 341 33
524 86 112
525 140 40
526 310 340
527 176 154
528 131 89
529 74 231
530 93 31
531 349 324
532 5 344
533 159 79
534 137 68
535 103 95
536 315 237
537 294 118
538 75 89
539 369 6
540 63 166
541 59 89
542 138 326
543 304 395
544 59 49
545 170 176
546 384 47
547 117 381
548 72 315
549 326 156
550 41 340
551 94 165
552 229 371
553 107 98
554 262 233
555 41 337
556 243 275
557 384 307
558 365 303
559 397 73
560 234 214
561 3 15
562 244 135
563 303 112
564 325 45
565 343 134
566 307 396
567 278 289
568 203 40
569 238 119
570 166 357
571 290 82
572 177 139
573 2 200
574 348 319
575 36 203
576 125 122
577 184 69
578 368 278
579 374 175
580 126 208
581 184 235
582 153 315
583 48 278
584 286 308
585 197 200
586 196 138
587 226 52
588 256 356
589 108 399
590 124 221
591 240 201
592 122 105
593 236 171
594 348 371
595 183 71
596 26 326
597 338 315
598 380 126
599 74 283
600 46 197
601 30 39
602 88 372
603 60 319
604 174 326
605 172 109
606 157 378
607 219 49
608 316 112
609 398 325
610 230 234
611 97 387
612 262 212
613 349 181
614 29 9
615 201 255
616 21 255
617 102 252
618 9 47
619 237 243
620 330 313
621 282 252
622 16 114
623 236 38
624 247 212
625 366 97
626 284 311
627 308 217
628 343 184
629 55 346
630 316 327
631 255 80
632 102 118
633 73 126
634 369 171
635 350 214
636 244 56
637 287 343
638 220 38
639 154 41
640 173 72
641 206 106
642 362 383
643 107 159
644 319 160
645 88 121
646 341 78
647 97 105
648 246 244
649 35 79
650 37 106
651 173 384
652 368 63
653 300 272
654 237 200
655 286 44
656 294 249
657 388 106
658 148 71
659 100 218
660 177 77
661 148 94
662 16 311
663 158 85
664 105 254
665 66 118
666 13 96
667 348 41
668 135 161
669 85 61
670 160 62
671 234 20
672 108 395
673 230 139
674 45 291
675 266 8
676 95 391
677 156 32
678 58 98
679 79 344
680 59 51
681 380 339
682 165 126
683 43 67
684 377 72
685 209 167
686 57 381
687 294 13
688 87 147
689 4 60
690 26 247
691 44 296
692 357 38
693 56 156
694 52 194
695 124 179
696 311 356
697 140 131
698 364 213
699 102 84
700 7 143
701 105 360
702 150 49
703 52 343
704 218 134
705 199 22
706 381 27
707 75 76
708 377 282
709 377 144
710 59 285
711 321 85
712 194 65
713 213 280
714 41 93
715 41 399
716 334 92
717 76 72
718 55 341
719 248 124
720 0 155
721 186 355
722 102 42
723 96 209
724 325 294
725 251 381
726 362 115
727 8 119
728 53 51
729 123 30
730 361 236
731 76 90
732 77 319
733 395 113
734 110 290
735 251 70
736 26 199
737 92 384
738 122 397
739 15 4
740 168 15
741 47 190
742 35 160
743 388 275
744 338 150
745 186 75
746 352 383
747 50 315
748 153 224
749 2 17
750 168 223
751 299 270
752 397 133
753 24 57
754 234 37
755 381 12
756 117 148
757 325 130
758 146 320
759 8 285
760 146 324
761 131 82
762 266 13
763 348 343
764 91 61
765 114 88
766 36 286
767 325 311
768 192 268
769 37 119
770 291 398
771 201 6
772 162 121
773 302 345
774 297 137
775 34 371
776 202 158
777 338 290
778 100 10
779 310 163
780 368 215
781 142 379
782 326 79
783 5 266
784 140 344
785 267 221
786 18 235
787 393 246
788 394 299
789 244 176
790 309 18
791 364 23
792 75 238
793 81 290
794 209 283
795 353 357
796 87 164
797 400 109
798 319 115
799 349 135
800 12 368
801 231 6
802 178 353
803 350 131
804 26 199
805 207 185
806 230 234
807 124 221
808 217 211
809 388 275
PICKUP_AND_DELIVERY_SECTION
1 0 0 6751 0 0 0
2 16 90 172 10 0 330
3 12 312 423 10 0 244
4 -29 3343 3489 10 98 0
5 13 0 6606 10 0 254
6 -8 4480 4640 10 56 0
7 17 0 6523 10 0 692
8 -17 5276 5379 10 628 0
9 -19 3933 4062 10 477 0
10 31 4216 4309 10 0 216
11 3 1298 1433 10 0 275
12 15 590 745 10 0 399
13 13 188 333 10 0 318
14 23 2584 2725 10 0 72
15 -18 4814 4916 10 295 0
16 42 717 884 10 0 643
17 4 251 372 10 0 678
18 -5 2862 3055 10 152 0
19 -9 0 6572 10 190 0
20 -18 3086 3222 10 543 0
21 21 2688 2862 10 0 482
22 26 0 6528 10 0 277
23 3 0 6525 10 0 253
24 15 0 6615 10 0 384
25 -25 2104 2247 10 80 0
26 -13 3787 3946 10 466 0
27 -17 1337 1453 10 498 0
28 -10 501 609 10 292 0
29 31 2092 2210 10 0 170
30 -24 0 6574 10 53 0
31 -11 3741 3910 10 781 0
32 -28 4686 4854 10 723 0
33 -21 3460 3571 10 420 0
34 -16 1501 1643 10 679 0
35 8 3168 3303 10 0 136
36 -36 2234 2391 10 118 0
37 -9 3441 3502 10 773 0
38 -3 957 1114 10 77 0
39 -8 4272 4298 10 173 0
40 19 0 6655 10 0 248
41 -19 864 940 10 475 0
42 11 3946 4023 10 0 130
43 20 0 6572 10 0 618
44 -45 3642 3748 10 714 0
45 10 50 228 10 0 669
46 -15 4432 4511 10 454 0
47 14 0 6698 10 0 749
48 1 4888 4995 0 0 805
49 30 0 6620 10 0 555
50 -21 1228 1388 10 441 0
51 20 0 6649 10 0 57
52 25 1617 1703 10 0 246
53 24 1238 1328 10 0 30
54 -33 4391 4505 10 249 0
55 -15 4887 5038 10 769 0
56 8 4258 4440 10 0 6
57 -20 3995 4105 10 51 0
58 -7 0 6698 10 225 0
59 8 0 6626 10 0 340
60 -21 2687 2815 10 553 0
61 -9 4210 4384 10 267 0
62 -2 3555 3701 10 228 0
63 -14 3111 3199 10 513 0
64 25 1431 1610 10 0 372
65 11 0 6593 10 0 542
66 -7 1038 1156 10 592 0
67 -17 4075 4173 10 685 0
68 35 345 436 10 0 549
69 -29 337 491 10 713 0
70 -28 4511 4742 10 314 0
71 -12 3619 3718 10 664 0
72 -23 0 6699 10 14 0
73 -25 2512 2665 10 460 0
74 -2 3243 3315 10 731 0
75 -15 4682 4828 10 585 0
76 11 3532 3587 10 0 308
77 3 402 551 10 0 38
78 -5 4055 4150 10 599 0
79 -19 1944 2073 10 626 0
80 25 1857 1992 10 0 25
81 -22 657 756 10 234 0
82 -10 3431 3579 10 681 0
83 -24 0 6656 10 510 0
84 16 0 6570 10 0 705
85 16 2107 2295 10 0 606
86 -19 4600 4777 10 204 0
87 -15 2363 2480 10 755 0
88 14 667 778 10 0 99
89 26 743 875 10 0 124
90 -14 3449 3512 10 787 0
91 18 3146 3341 10 0 146
92 -30 3998 4108 10 268 0
93 10 1014 1044 10 0 403
94 14 2235 2396 10 0 710
95 20 218 357 10 0 219
96 -24 4290 4362 10 385 0
97 -24 3601 3701 10 785 0
98 29 1634 1703 10 0 4
99 -14 0 6543 10 88 0
100 -26 2403 2549 10 339 0
101 1 608 757 10 0 290
102 -6 0 6625 10 220 0
103 -38 2492 2547 10 633 0
104 -18 5336 5389 10 586 0
105 18 0 6552 10 0 797
106 6 402 563 10 0 554
107 -3 1578 1728 10 422 0
108 4 1801 1939 10 0 465
109 -13 1343 1484 10 605 0
110 -20 2036 2167 10 281 0
111 -21 2731 2814 10 272 0
112 11 1254 1355 10 0 799
113 8 749 918 10 0 396
114 25 4686 4902 10 0 670
115 15 3010 3123 10 0 746
116 18 972 1053 10 0 515
117 -11 0 6538 10 517 0
118 36 747 916 10 0 36
119 -5 0 6615 10 551 0
120 -19 1226 1355 10 358 0
121 37 1365 1484 10 0 143
122 26 3373 3482 10 0 533
123 -24 3509 3542 10 752 0
124 -26 0 6535 10 89 0
125 -23 4137 4214 10 589 0
126 16 0 6535 10 0 160
127 21 758 881 10 0 448
128 -1 0 6704 10 772 0
129 -24 4277 4427 10 139 0
130 -11 3960 4066 10 42 0
131 -18 1437 1621 10 674 0
132 24 4097 4198 10 0 508
133 21 3967 4100 10 0 546
134 17 0 6603 10 0 668
135 19 3768 3883 10 0 231
136 -8 4328 4451 10 35 0
137 -17 925 1009 10 654 0
138 -19 3862 3919 10 507 0
139 24 3915 4046 10 0 129
140 9 217 278 10 0 451
141 9 2137 2254 10 0 783
142 30 0 6610 10 0 352
143 -37 0 6480 10 121 0
144 -5 1810 1970 10 650 0
145 34 0 6632 10 0 711
146 -18 4413 4555 10 91 0
147 -23 0 6555 10 707 0
148 -22 2372 2559 10 194 0
149 -21 0 6586 10 363 0
150 -26 2984 3063 10 535 0
151 30 1429 1562 10 0 708
152 5 1985 2129 10 0 18
153 -13 5033 5128 10 792 0
154 -9 857 1037 10 696 0
155 44 0 6494 10 0 684
156 -12 2948 3023 10 777 0
157 12 3204 3330 0 0 803
158 -10 4841 4963 10 337 0
159 -32 3173 3265 10 801 0
160 -16 5024 5086 10 126 0
161 -7 1804 1992 10 174 0
162 -28 5336 5443 10 326 0
163 -19 3153 3321 10 214 0
164 -7 3322 3431 10 557 0
165 -10 4429 4534 10 621 0
166 -31 4023 4159 10 412 0
167 -33 4811 4901 10 647 0
168 17 2321 2421 10 0 439
169 16 1189 1366 10 0 499
170 -31 0 6576 10 29 0
171 -14 2612 2697 10 756 0
172 -34 4796 4966 10 381 0
173 8 649 745 10 0 39
174 7 0 6545 10 0 161
175 -26 2726 2886 10 409 0
176 2 3762 3864 10 0 329
177 21 676 731 10 0 732
178 12 2364 2481 10 0 751
179 -10 4207 4328 10 447 0
180 -13 5238 5380 10 742 0
181 13 272 366 10 0 319
182 -29 1843 1980 10 574 0
183 8 0 6585 10 0 472
184 -31 3497 3591 10 598 0
185 -14 3681 3830 10 788 0
186 -4 0 6572 10 700 0
187 -17 4151 4299 10 637 0
188 18 0 6537 10 0 192
189 2 0 6553 10 0 567
190 9 1656 1757 10 0 19
191 3 4567 4636 10 0 572
192 -18 3412 3579 10 188 0
193 43 308 449 10 0 656
194 22 2164 2367 10 0 148
195 18 116 171 10 0 336
196 -21 2728 2813 10 617 0
197 -22 905 1052 10 686 0
198 -19 2941 3089 10 203 0
199 -10 3812 3920 10 265 0
200 -8 4523 4616 10 604 0
201 1 4042 4129 10 0 405
202 -13 5815 5921 10 239 0
203 19 627 750 10 0 198
204 19 0 6513 10 0 86
205 -25 4136 4231 10 534 0
206 5 0 6583 10 0 343
207 22 4016 4129 10 0 286
208 9 882 991 10 0 361
209 5 0 6659 10 0 375
210 -17 5393 5565 10 524 0
211 -19 681 756 10 750 0
212 26 1455 1615 10 0 800
213 -1 4496 4710 10 262 0
214 19 2881 3001 10 0 163
215 32 3499 3625 10 0 693
216 -31 5187 5285 10 10 0
217 19 270 399 10 0 349
218 22 0 6666 10 0 283
219 -20 316 447 10 95 0
220 6 0 6661 10 0 102
221 31 0 6614 10 0 415
222 -39 5350 5404 10 640 0
223 17 0 6657 10 0 365
224 11 4400 4431 10 0 776
225 7 2784 2841 10 0 58
226 -9 0 6629 10 619 0
227 3 2552 2748 10 0 648
228 2 0 6569 10 0 62
229 5 3638 3814 10 0 791
230 7 4764 4864 10 0 502
231 -19 4884 4976 10 135 0
232 -15 1050 1151 10 624 0
233 22 0 6506 10 0 386
234 22 8 146 10 0 81
235 -11 0 6623 10 726 0
236 -21 0 6557 10 596 0
237 12 310 454 10 0 425
238 -12 6578 6643 10 505 0
239 13 4620 4782 10 0 202
240 -16 4242 4406 10 744 0
241 -19 3758 3912 10 418 0
242 22 0 6560 10 0 273
243 9 0 6596 10 0 757
244 -12 3006 3124 10 3 0
245 -23 0 6655 10 255 0
246 -25 0 6546 10 52 0
247 26 1317 1416 10 0 504
248 -19 3818 3951 10 40 0
249 33 123 293 10 0 54
250 4 2833 2930 10 0 469
251 16 2276 2346 10 0 432
252 -11 5262 5376 10 727 0
253 -3 4457 4593 10 23 0
254 -13 2393 2499 10 5 0
255 23 1346 1498 10 0 245
256 24 588 708 10 0 683
257 25 2417 2531 10 0 739
258 -8 3470 3657 10 461 0
259 -18 3234 3417 10 655 0
260 13 3793 3876 10 0 462
261 -21 4221 4335 10 402 0
262 1 4089 4236 10 0 213
263 16 1201 1395 10 0 271
264 -5 3142 3274 10 676 0
265 10 3263 3368 10 0 199
266 -9 3296 3424 10 694 0
267 9 4178 4268 10 0 61
268 30 1513 1607 10 0 92
269 -26 0 6669 10 390 0
270 23 1120 1218 10 0 703
271 -16 2763 2810 10 263 0
272 21 1912 2019 10 0 111
273 -22 5378 5544 10 242 0
274 12 128 216 10 0 394
275 -3 3848 3925 10 11 0
276 10 432 560 10 0 320
277 -26 3553 3690 10 22 0
278 -4 5246 5415 10 317 0
279 -24 0 6571 10 786 0
280 -7 0 6709 10 532 0
281 20 892 987 10 0 110
282 13 2229 2365 10 0 501
283 -22 0 6669 10 218 0
284 30 2011 2160 10 0 303
285 19 3825 3958 0 0 802
286 -22 4002 4114 10 207 0
287 -30 4582 4693 10 299 0
288 -10 3071 3177 10 490 0
289 8 547 666 10 0 328
290 -1 1082 1199 10 101 0
291 18 151 252 10 0 417
292 10 310 446 10 0 28
293 18 0 6539 10 0 529
294 11 0 6627 10 0 760
295 18 3305 3470 10 0 15
296 8 2029 2160 10 0 428
297 -11 4574 4633 10 631 0
298 19 374 453 10 0 754
299 30 2673 2804 10 0 287
300 13 1568 1658 10 0 512
301 -26 5199 5388 10 790 0
302 20 2233 2343 10 0 369
303 -30 2711 2757 10 284 0
304 -17 5027 5120 10 762 0
305 -29 841 982 10 506 0
306 -19 0 6593 10 382 0
307 20 0 6547 10 0 735
308 -11 5441 5586 10 76 0
309 23 2842 3000 10 0 627
310 36 1798 1885 10 0 564
311 -18 0 6525 10 457 0
312 13 0 6506 10 0 514
313 -13 0 6599 10 387 0
314 28 2313 2370 10 0 70
315 11 3435 3532 10 0 558
316 23 0 6688 10 0 583
317 4 4763 4929 10 0 278
318 -13 0 6631 10 13 0
319 -13 3400 3504 10 181 0
320 -10 1544 1686 10 276 0
321 39 1780 1948 10 0 367
322 28 3634 3756 10 0 497
323 -27 0 6609 10 433 0
324 -24 4686 4773 10 789 0
325 -17 4479 4607 10 722 0
326 28 4872 4972 10 0 162
327 -23 956 1158 10 634 0
328 -8 941 1182 10 289 0
329 -2 5535 5594 10 176 0
330 -16 530 722 10 2 0
331 -20 3276 3428 10 429 0
332 -31 4923 5044 10 556 0
333 -2 2101 2190 10 334 0
334 2 836 1005 10 0 333
335 4 0 6590 10 0 423
336 -18 0 6589 10 195 0
337 10 1833 1917 10 0 158
338 -23 0 6501 10 594 0
339 26 1868 2068 10 0 100
340 -8 0 6518 10 59 0
341 3 1129 1306 10 0 536
342 15 954 1132 10 0 794
343 -5 2513 2610 10 206 0
344 -13 0 6584 10 730 0
345 -20 121 244 10 560 0
346 17 3287 3394 10 0 545
347 -15 4009 4244 10 450 0
348 -9 2142 2195 10 408 0
349 -19 1740 1886 10 217 0
350 -10 1969 2048 10 662 0
351 7 1049 1164 10 0 630
352 -30 3001 3083 10 142 0
353 29 591 651 10 0 649
354 -20 4606 4734 10 561 0
355 3 0 6550 10 0 455
356 22 3006 3087 10 0 782
357 27 0 6477 10 0 453
358 19 0 6609 10 0 120
359 -17 0 6595 10 391 0
360 20 0 6628 10 0 771
361 -9 0 6566 10 208 0
362 -24 1478 1583 10 759 0
363 21 4137 4259 10 0 149
364 20 0 6572 10 0 702
365 -17 1361 1458 10 223 0
366 -4 2153 2324 10 416 0
367 -39 3461 3619 10 321 0
368 -33 2612 2710 10 413 0
369 -20 3675 3748 10 302 0
370 20 1043 1121 10 0 671
371 18 915 1062 10 0 573
372 -25 4472 4597 10 64 0
373 -29 2036 2181 10 603 0
374 13 0 6614 10 0 612
375 -5 2607 2794 10 209 0
376 -29 0 6650 10 716 0
377 15 3997 4152 10 0 379
378 -18 0 6668 10 774 0
379 -15 4677 4860 10 377 0
380 -23 3245 3353 10 709 0
381 34 0 6627 10 0 172
382 19 112 182 10 0 306
383 -14 5099 5199 10 518 0
384 -15 2367 2482 10 24 0
385 24 0 6664 10 0 96
386 -22 0 6592 10 233 0
387 13 1579 1699 10 0 313
388 8 3156 3226 10 0 442
389 -11 0 6583 10 548 0
390 26 2278 2458 10 0 269
391 17 0 6569 10 0 359
392 24 549 693 10 0 778
393 -16 0 6517 10 539 0
394 -12 399 470 10 274 0
395 -13 0 6539 10 500 0
396 -8 3453 3608 10 113 0
397 -31 5158 5265 10 690 0
398 -18 2567 2702 10 579 0
399 -15 0 6503 10 12 0
400 16 237 324 10 0 601
401 -23 5354 5456 10 522 0
402 21 3253 3358 10 0 261
403 -10 2185 2342 10 93 0
404 15 248 323 10 0 487
405 -1 5609 5759 10 201 0
406 24 384 472 10 0 474
407 9 0 6509 10 0 632
408 9 338 454 10 0 348
409 26 1779 1921 10 0 175
410 -6 3300 3445 10 740 0
411 39 3518 3637 10 0 575
412 31 3474 3570 10 0 166
413 33 2462 2573 10 0 368
414 -1 3870 3975 10 613 0
415 -31 0 6610 10 221 0
416 4 1332 1423 10 0 366
417 -18 781 865 10 291 0
418 19 3072 3211 10 0 241
419 -9 340 464 10 494 0
420 21 521 664 10 0 33
421 -33 0 6591 10 531 0
422 3 0 6622 10 0 107
423 -4 2353 2454 10 335 0
424 -26 2987 3097 10 435 0
425 -12 1323 1375 10 237 0
426 41 1060 1154 10 0 584
427 18 0 6510 10 0 701
428 -8 4504 4669 10 296 0
429 20 0 6590 10 0 331
430 -4 0 6603 10 443 0
431 -9 1768 1834 10 720 0
432 -16 3792 3980 10 251 0
433 27 5108 5253 10 0 323
434 12 0 6580 10 0 661
435 26 2555 2631 10 0 424
436 -27 0 6495 10 523 0
437 12 4731 4832 0 0 808
438 5 2429 2502 10 0 682
439 -17 0 6511 10 168 0
440 -23 0 6564 10 625 0
441 21 211 298 10 0 50
442 -8 3504 3634 10 388 0
443 4 0 6618 10 0 430
444 29 1254 1388 10 0 698
445 16 1799 1916 10 0 635
446 10 3638 3804 10 0 525
447 10 3727 3816 10 0 179
448 -21 1279 1440 10 127 0
449 -17 1685 1800 10 725 0
450 15 2648 2795 10 0 347
451 -9 0 6541 10 140 0
452 35 132 243 10 0 516
453 -27 0 6716 10 357 0
454 15 4279 4361 10 0 46
455 -3 0 6617 10 355 0
456 14 584 750 10 0 503
457 18 1689 1796 10 0 311
458 -23 0 6559 10 607 0
459 -14 4026 4151 10 793 0
460 25 469 615 10 0 73
461 8 0 6549 10 0 258
462 -13 5133 5233 10 260 0
463 -26 0 6545 10 737 0
464 8 697 751 10 0 636
465 -4 4566 4705 10 108 0
466 13 0 6558 10 0 26
467 -3 4223 4293 10 468 0
468 3 3708 3782 10 0 467
469 -4 4312 4380 10 250 0
470 -15 2695 2835 10 653 0
471 8 0 6515 10 0 620
472 -8 2520 2634 10 183 0
473 8 0 6500 10 0 687
474 -24 2520 2719 10 406 0
475 19 651 798 10 0 41
476 32 476 616 10 0 547
477 19 2309 2422 10 0 9
478 -15 0 6692 10 559 0
479 23 2653 2732 10 0 565
480 -4 3692 3826 10 540 0
481 -16 3184 3299 10 712 0
482 -21 3363 3561 10 21 0
483 26 257 334 10 0 484
484 -26 1967 2073 10 483 0
485 15 0 6631 10 0 622
486 8 12 132 10 0 519
487 -15 1278 1367 10 404 0
488 29 2625 2721 10 0 666
489 -25 0 6548 10 721 0
490 10 2451 2608 10 0 288
491 -9 2007 2116 10 657 0
492 12 1012 1107 10 0 747
493 21 0 6535 10 0 623
494 9 20 157 10 0 419
495 -32 0 6568 10 638 0
496 9 2224 2316 10 0 595
497 -28 4255 4380 10 322 0
498 17 409 536 10 0 27
499 -16 0 6593 10 169 0
500 13 1599 1732 10 0 395
501 -13 2740 2793 10 282 0
502 -7 5981 6061 10 230 0
503 -14 1856 2018 10 456 0
504 -26 3804 3948 10 247 0
505 12 0 6513 10 0 238
506 29 488 579 10 0 305
507 19 2131 2227 10 0 138
508 -24 0 6729 10 132 0
509 25 0 6639 10 0 724
510 24 0 6501 10 0 83
511 -26 2413 2554 10 675 0
512 -13 2661 2747 10 300 0
513 14 218 353 10 0 63
514 -13 4452 4615 10 312 0
515 -18 0 6623 10 116 0
516 -35 0 6609 10 452 0
517 11 3040 3130 10 0 117
518 14 3534 3642 10 0 383
519 -8 2597 2737 10 486 0
520 -17 0 6561 10 587 0
521 12 5 110 10 0 761
522 23 0 6682 10 0 401
523 27 1114 1239 10 0 436
524 17 0 6597 10 0 210
525 -10 4079 4161 10 446 0
526 11 710 795 10 0 780
527 15 129 287 10 0 741
528 26 543 700 10 0 680
529 -18 1889 2019 10 293 0
530 -29 0 6541 10 689 0
531 33 2147 2279 10 0 421
532 7 5070 5124 10 0 280
533 -26 0 6614 10 122 0
534 25 0 6595 10 0 205
535 26 2384 2503 10 0 150
536 -3 2073 2203 10 341 0
537 13 417 580 10 0 646
538 -7 3280 3448 10 688 0
539 16 2212 2287 10 0 393
540 4 0 6600 10 0 480
541 -24 3073 3202 10 765 0
542 -11 2258 2348 10 65 0
543 18 2113 2236 10 0 20
544 36 1633 1757 10 0 764
545 -17 4050 4196 10 346 0
546 -21 4349 4502 10 133 0
547 -32 2490 2609 10 476 0
548 11 2698 2874 10 0 389
549 -35 1147 1304 10 68 0
550 -3 3470 3550 10 699 0
551 5 2605 2709 10 0 119
552 -15 4032 4189 10 748 0
553 21 549 635 10 0 60
554 -6 4444 4552 10 106 0
555 -30 2692 2779 10 49 0
556 31 3688 3789 10 0 332
557 7 1476 1683 10 0 164
558 -11 3609 3725 10 315 0
559 15 864 1011 10 0 478
560 20 66 229 10 0 345
561 20 4436 4497 10 0 354
562 8 2680 2814 10 0 719
563 -20 0 6606 10 779 0
564 -36 2386 2447 10 310 0
565 -23 4037 4153 10 479 0
566 -16 3088 3208 10 770 0
567 -2 0 6623 10 189 0
568 -15 3222 3231 10 576 0
569 -24 0 6652 10 571 0
570 21 4834 4992 10 0 581
571 24 0 6593 10 0 569
572 -3 6320 6441 10 191 0
573 -18 0 6543 10 371 0
574 29 0 6552 10 0 182
575 -39 0 6577 10 411 0
576 15 458 551 10 0 568
577 -33 1997 2149 10 641 0
578 -31 964 1086 10 768 0
579 18 1388 1484 10 0 398
580 -18 0 6667 10 691 0
581 -21 0 6703 10 570 0
582 -18 0 6617 10 775 0
583 -23 638 809 10 316 0
584 -41 2504 2635 10 426 0
585 15 0 6738 10 0 75
586 18 0 6679 10 0 104
587 17 1949 2132 10 0 520
588 19 0 6576 10 0 767
589 23 0 6522 10 0 125
590 27 4008 4137 0 0 807
591 -9 0 6701 10 733 0
592 7 726 816 10 0 66
593 27 152 218 10 0 706
594 23 0 6515 10 0 338
595 -9 0 6611 10 496 0
596 21 0 6527 10 0 236
597 -3 3814 3923 10 651 0
598 31 777 961 10 0 184
599 5 0 6591 10 0 78
600 -18 1697 1810 10 753 0
601 -16 1470 1594 10 400 0
602 14 1415 1539 10 0 738
603 29 0 6558 10 0 373
604 8 3795 3963 10 0 200
605 13 328 514 10 0 109
606 -16 0 6558 10 85 0
607 23 1852 1957 10 0 458
608 -8 3870 3960 10 658 0
609 -20 3510 3608 10 795 0
610 11 6240 6369 0 0 806
611 -13 2227 2382 10 629 0
612 -13 4518 4606 10 374 0
613 1 1181 1251 10 0 414
614 14 3316 3408 10 0 717
615 -16 0 6686 10 798 0
616 -36 3006 3199 10 695 0
617 21 385 502 10 0 196
618 -20 3416 3526 10 43 0
619 9 156 298 10 0 226
620 -8 0 6569 10 471 0
621 10 3487 3575 10 0 165
622 -15 2891 3014 10 485 0
623 -21 1705 1876 10 493 0
624 15 692 807 10 0 232
625 23 3079 3217 10 0 440
626 19 1395 1519 10 0 79
627 -23 3926 4131 10 309 0
628 17 4536 4565 10 0 8
629 13 1784 1878 10 0 611
630 -7 0 6569 10 351 0
631 11 0 6609 10 0 297
632 -9 4656 4815 10 407 0
633 38 1695 1780 10 0 103
634 23 610 762 10 0 327
635 -16 3280 3399 10 445 0
636 -8 2659 2756 10 464 0
637 17 2882 3000 10 0 187
638 32 0 6578 10 0 495
639 -27 5146 5261 10 665 0
640 39 1084 1231 10 0 222
641 33 1124 1300 10 0 577
642 21 1014 1152 10 0 763
643 -42 0 6640 10 16 0
644 26 649 813 10 0 667
645 15 2281 2383 10 0 729
646 -13 3273 3483 10 537 0
647 33 3792 3876 10 0 167
648 -3 2677 2873 10 227 0
649 -29 1677 1824 10 353 0
650 5 1437 1549 10 0 144
651 3 719 769 10 0 597
652 22 1675 1762 10 0 697
653 15 0 6618 10 0 470
654 17 98 198 10 0 137
655 18 2273 2373 10 0 259
656 -43 1869 2019 10 193 0
657 9 0 6531 10 0 491
658 8 3265 3378 10 0 608
659 31 418 523 10 0 715
660 -35 3167 3344 10 745 0
661 -12 3338 3490 10 434 0
662 10 1183 1281 10 0 350
663 -34 0 6619 10 677 0
664 12 0 6632 10 0 71
665 27 2259 2377 10 0 639
666 -29 2983 3147 10 488 0
667 -26 2614 2767 10 644 0
668 -17 5424 5500 10 134 0
669 -10 659 785 10 45 0
670 -25 0 6598 10 114 0
671 -20 1715 1753 10 370 0
672 12 0 6526 10 0 784
673 -24 5196 5307 10 704 0
674 18 832 995 10 0 131
675 26 2299 2461 10 0 511
676 5 0 6524 10 0 264
677 34 3159 3284 10 0 663
678 -4 0 6567 10 17 0
679 16 823 1030 10 0 34
680 -26 813 955 10 528 0
681 10 0 6514 10 0 82
682 -5 0 6660 10 438 0
683 -24 1641 1742 10 256 0
684 -44 5228 5358 10 155 0
685 17 83 190 10 0 67
686 22 927 1025 10 0 197
687 -8 0 6532 10 473 0
688 7 0 6617 10 0 538
689 29 956 1084 10 0 530
690 31 1518 1704 10 0 397
691 18 1934 2055 10 0 580
692 -17 4387 4569 10 7 0
693 -32 0 6591 10 215 0
694 9 2221 2289 10 0 266
695 36 2810 3056 10 0 616
696 9 709 822 10 0 154
697 -22 3510 3643 10 652 0
698 -29 2332 2413 10 444 0
699 3 0 6590 10 0 550
700 4 1330 1455 10 0 186
701 -18 0 6555 10 427 0
702 -20 0 6582 10 364 0
703 -23 1708 1827 10 270 0
704 24 5109 5209 10 0 673
705 -16 1796 1948 10 84 0
706 -27 1876 1948 10 593 0
707 23 1288 1463 10 0 147
708 -30 0 6546 10 151 0
709 23 1873 1985 10 0 380
710 -14 4599 4694 10 94 0
711 -34 0 6575 10 145 0
712 16 1534 1675 10 0 481
713 29 258 390 10 0 69
714 45 0 6550 10 0 44
715 -31 1032 1179 10 659 0
716 29 1719 1950 10 0 376
717 -14 4057 4139 10 614 0
718 14 0 6539 10 0 758
719 -8 0 6652 10 562 0
720 9 778 862 10 0 431
721 25 586 659 10 0 489
722 17 728 847 10 0 325
723 28 0 6637 10 0 32
724 -25 0 6585 10 509 0
725 17 1059 1202 10 0 449
726 11 4248 4364 10 0 235
727 11 0 6533 10 0 252
728 18 942 1054 10 0 796
729 -15 2792 2910 10 645 0
730 13 659 760 10 0 344
731 2 2976 3118 10 0 74
732 -21 4941 5090 10 177 0
733 9 2354 2406 10 0 591
734 3 504 595 10 0 766
735 -20 0 6602 10 307 0
736 26 0 6567 0 0 804
737 26 0 6528 10 0 463
738 -14 2313 2419 10 602 0
739 -25 0 6472 10 257 0
740 6 2465 2630 10 0 410
741 -15 2567 2602 10 527 0
742 13 4054 4205 10 0 180
743 21 3697 3839 0 0 809
744 16 3039 3225 10 0 240
745 35 3099 3259 10 0 660
746 -15 3216 3286 10 115 0
747 -12 2534 2613 10 492 0
748 15 3124 3273 10 0 552
749 -14 1066 1209 10 47 0
750 19 118 198 10 0 211
751 -12 3333 3451 10 178 0
752 24 2965 3084 10 0 123
753 18 818 996 10 0 600
754 -19 2014 2203 10 298 0
755 15 2335 2510 10 0 87
756 14 327 456 10 0 171
757 -9 4143 4284 10 243 0
758 -14 1996 2097 10 718 0
759 24 1305 1402 10 0 362
760 -11 0 6606 10 294 0
761 -12 3592 3695 10 521 0
762 17 0 6543 10 0 304
763 -21 1355 1482 10 642 0
764 -36 5895 6032 10 544 0
765 24 2689 2827 10 0 541
766 -3 0 6556 10 734 0
767 -19 2472 2548 10 588 0
768 31 0 6673 10 0 578
769 15 2111 2220 10 0 55
770 16 0 6524 10 0 566
771 -20 2320 2482 10 360 0
772 1 289 413 10 0 128
773 9 907 1047 10 0 37
774 18 1850 1934 10 0 378
775 18 1510 1648 10 0 582
776 -11 4605 4782 10 224 0
777 12 2561 2761 10 0 156
778 -24 1133 1269 10 392 0
779 20 0 6625 10 0 563
780 -11 2884 3048 10 526 0
781 11 3123 3239 10 0 31
782 -22 3240 3331 10 356 0
783 -9 0 6536 10 141 0
784 -12 5161 5263 10 672 0
785 24 0 6671 10 0 97
786 24 0 6556 10 0 279
787 14 2039 2149 10 0 90
788 14 0 6524 10 0 185
789 24 125 275 10 0 324
790 26 1616 1675 10 0 301
791 -5 4234 4406 10 229 0
792 13 4008 4155 10 0 153
793 14 1619 1706 10 0 459
794 -15 2461 2597 10 342 0
795 20 877 1005 10 0 609
796 -18 2663 2751 10 728 0
797 -18 0 6522 10 105 0
798 16 0 6595 10 0 615
799 -11 2184 2318 10 112 0
800 -26 3123 3169 10 212 0
801 32 0 6545 10 0 159
802 -19 3825 3958 10 285 0
803 -12 3204 3330 10 157 0
804 -26 0 6567 10 736 0
805 -1 4888 4995 10 48 0
806 -11 6240 6369 10 610 0
807 -27 4008 4137 10 590 0
808 -12 4731 4832 10 437 0
809 -21 3697 3839 10 743 0
DEPOT_SECTION
1
-1
EOF
