NAME: lr2_8_8
TYPE: PDPTW
COMMENT: Li & Lim PDPTW benchmark converted from SINTEF format
DIMENSION: 807
VEHICLES: 200
CAPACITY: 1000
EDGE_WEIGHT_TYPE: EUC_2D
NODE_COORD_SECTION
1 200 200
2 221 225
3 279 247
4 355 41
5 93 283
6 163 207
7 364 55
8 329 208
9 102 377
10 356 299
11 10 202
12 40 153
13 145 165
14 278 265
15 338 14
16 13 167
17 179 125
18 194 43
19 358 261
20 299 399
21 246 247
22 343 359
23 101 8
24 302 274
25 131 275
26 191 167
27 332 124
28 106 302
29 380 145
30 334 100
31 180 359
32 142 238
33 138 306
34 16 294
35 206 7
36 299 308
37 343 335
38 135 384
39 161 346
40 206 286
41 156 4
42 326 335
43 82 78
44 37 21
45 177 174
46 84 221
47 171 168
48 207 185
49 92 255
50 220 337
51 137 132
52 342 154
53 353 65
54 70 231
55 79 95
56 352 303
57 136 226
58 243 209
59 145 301
60 254 0
61 310 363
62 387 267
63 236 44
64 94 268
65 84 293
66 11 135
67 280 5
68 265 127
69 259 285
70 52 94
71 278 221
72 231 229
73 168 100
74 14 53
75 237 259
76 69 82
77 192 291
78 8 384
79 367 361
80 91 233
81 125 175
82 304 319
83 241 275
84 193 29
85 80 392
86 300 64
87 327 11
88 299 351
89 311 344
90 229 105
91 362 207
92 344 154
93 39 34
94 68 250
95 268 223
96 116 195
97 352 156
98 313 64
99 375 294
100 391 260
101 334 186
102 84 206
103 12 40
104 195 148
105 381 144
106 320 211
107 308 178
108 376 205
109 257 98
110 111 4
111 330 310
112 305 255
113 140 387
114 164 80
115 271 371
116 4 280
117 347 59
118 147 376
119 74 213
120 54 341
121 303 358
122 21 82
123 379 126
124 398 258
125 152 361
126 397 261
127 250 340
128 166 185
129 294 184
130 303 258
131 87 378
132 250 183
133 384 72
134 98 107
135 56 97
136 225 53
137 280 224
138 208 86
139 395 167
140 215 260
141 44 277
142 174 329
143 380 390
144 120 170
145 273 118
146 103 154
147 180 15
148 371 396
149 169 352
150 78 85
151 226 378
152 357 202
153 68 143
154 384 248
155 391 42
156 267 295
157 350 131
158 5 345
159 199 45
160 166 115
161 103 361
162 239 252
163 2 3
164 335 202
165 158 121
166 320 24
167 166 19
168 326 374
169 317 240
170 357 147
171 32 78
172 40 336
173 52 251
174 40 314
175 233 100
176 78 194
177 110 351
178 321 287
179 369 118
180 101 99
181 232 127
182 390 376
183 73 292
184 195 121
185 175 192
186 33 226
187 390 357
188 80 365
189 344 321
190 397 283
191 66 5
192 160 313
193 210 294
194 320 373
195 231 182
196 30 349
197 26 372
198 154 68
199 338 106
200 49 222
201 17 99
202 279 148
203 309 279
204 384 64
205 231 36
206 279 337
207 187 23
208 32 163
209 214 119
210 74 87
211 134 320
212 42 197
213 350 18
214 92 68
215 48 358
216 160 222
217 184 282
218 168 268
219 289 234
220 123 176
221 231 76
222 196 107
223 138 143
224 285 136
225 194 166
226 162 94
227 165 335
228 205 372
229 168 87
230 159 11
231 143 20
232 297 240
233 17 348
234 192 200
235 303 142
236 48 304
237 200 144
238 185 180
239 317 68
240 324 194
241 274 247
242 337 81
243 345 195
244 129 53
245 285 184
246 378 118
247 309 53
248 246 298
249 153 222
250 306 361
251 46 110
252 123 159
253 234 7
254 162 316
255 309 274
256 57 124
257 46 102
258 382 49
259 96 22
260 292 33
261 359 389
262 392 14
263 68 386
264 163 364
265 116 102
266 37 397
267 264 341
268 269 203
269 230 266
270 31 360
271 68 378
272 262 390
273 236 119
274 220 238
275 36 288
276 276 298
277 362 399
278 244 285
279 32 229
280 179 175
281 200 48
282 13 59
283 165 264
284 56 292
285 178 353
286 210 1
287 306 85
288 196 129
289 243 287
290 396 106
291 151 188
292 151 231
293 11 274
294 92 238
295 108 48
296 38 291
297 232 131
298 217 98
299 340 79
300 308 327
301 279 91
302 384 294
303 90 311
304 359 31
305 391 136
306 344 236
307 202 6
308 2 29
309 366 340
310 328 8
311 316 383
312 384 53
313 302 300
314 29 86
315 358 309
316 147 210
317 287 279
318 102 149
319 115 51
320 393 256
321 340 290
322 271 116
323 332 216
324 319 113
325 246 47
326 247 377
327 371 111
328 397 362
329 157 220
330 322 281
331 50 385
332 193 216
333 80 282
334 91 388
335 351 199
336 327 115
337 23 317
338 362 378
339 337 248
340 4 307
341 379 254
342 67 318
343 372 382
344 356 223
345 243 215
346 336 201
347 338 5
348 142 385
349 192 332
350 18 294
351 400 373
352 287 225
353 66 144
354 19 61
355 389 171
356 377 29
357 6 20
358 68 215
359 177 55
360 118 122
361 43 121
362 13 322
363 193 390
364 369 211
365 92 73
366 163 270
367 349 249
368 133 375
369 266 234
370 353 3
371 18 102
372 236 260
373 142 262
374 314 257
375 161 124
376 170 114
377 85 256
378 243 140
379 41 183
380 359 157
381 146 301
382 184 233
383 194 121
384 277 163
385 125 182
386 51 205
387 260 352
388 55 115
389 102 324
390 238 124
391 54 108
392 108 75
393 359 42
394 248 286
395 98 375
396 340 276
397 85 128
398 277 143
399 6 62
400 143 159
401 159 164
402 343 322
403 223 41
404 155 159
405 73 4
406 175 304
407 40 31
408 110 241
409 399 179
410 196 77
411 8 363
412 126 90
413 136 373
414 339 69
415 234 73
416 65 335
417 35 238
418 201 242
419 279 262
420 111 286
421 350 207
422 305 257
423 320 166
424 285 287
425 228 96
426 296 388
427 38 366
428 26 275
429 49 187
430 291 304
431 81 156
432 3 2
433 354 199
434 361 194
435 267 321
436 378 30
437 217 211
438 246 152
439 336 386
440 348 102
441 162 251
442 70 81
443 231 320
444 374 163
445 367 300
446 45 85
447 330 76
448 371 386
449 253 316
450 264 69
451 330 353
452 169 235
453 186 179
454 13 220
455 323 218
456 300 319
457 356 315
458 193 18
459 228 341
460 324 184
461 344 72
462 376 19
463 74 351
464 262 30
465 256 145
466 361 287
467 188 67
468 26 70
469 381 375
470 220 71
471 371 349
472 26 260
473 339 3
474 308 314
475 113 80
476 78 261
477 85 333
478 192 151
479 382 169
480 52 301
481 51 64
482 273 182
483 163 264
484 213 305
485 96 162
486 209 208
487 100 15
488 8 68
489 256 385
490 178 103
491 285 107
492 1 335
493 274 7
494 213 216
495 190 27
496 73 124
497 321 144
498 296 156
499 348 189
500 117 395
501 2 52
502 186 145
503 381 290
504 244 50
505 11 328
506 317 183
507 196 51
508 212 197
509 299 227
510 395 340
511 259 4
512 292 392
513 211 153
514 370 57
515 119 286
516 213 332
517 328 39
518 312 247
519 248 126
520 208 20
521 201 195
522 146 174
523 341 33
524 86 112
525 140 40
526 310 340
527 176 154
528 131 89
529 74 231
530 93 31
531 349 324
532 5 344
533 159 79
534 137 68
535 103 95
536 315 237
537 294 118
538 75 89
539 369 6
540 63 166
541 59 89
542 138 326
543 304 395
544 59 49
545 170 176
546 384 47
547 117 381
548 72 315
549 326 156
550 41 340
551 94 165
552 229 371
553 107 98
554 262 233
555 41 337
556 243 275
557 384 307
558 365 303
559 397 73
560 234 214
561 3 15
562 244 135
563 303 112
564 325 45
565 343 134
566 307 396
567 278 289
568 203 40
569 238 119
570 166 357
571 290 82
572 177 139
573 2 200
574 348 319
575 36 203
576 125 122
577 184 69
578 368 278
579 374 175
580 126 208
581 184 235
582 153 315
583 48 278
584 286 308
585 197 200
586 196 138
587 226 52
588 256 356
589 108 399
590 124 221
591 240 201
592 122 105
593 236 171
594 348 371
595 183 71
596 26 326
597 338 315
598 380 126
599 74 283
600 46 197
601 30 39
602 88 372
603 60 319
604 174 326
605 172 109
606 157 378
607 219 49
608 316 112
609 398 325
610 230 234
611 97 387
612 262 212
613 349 181
614 29 9
615 201 255
616 21 255
617 102 252
618 9 47
619 237 243
620 330 313
621 282 252
622 16 114
623 236 38
624 247 212
625 366 97
626 284 311
627 308 217
628 343 184
629 55 346
630 316 327
631 255 80
632 102 118
633 73 126
634 369 171
635 350 214
636 244 56
637 287 343
638 220 38
639 154 41
640 173 72
641 206 106
642 362 383
643 107 159
644 319 160
645 88 121
646 341 78
647 97 105
648 246 244
649 35 79
650 37 106
651 173 384
652 368 63
653 300 272
654 237 200
655 286 44
656 294 249
657 388 106
658 148 71
659 100 218
660 177 77
661 148 94
662 16 311
663 158 85
664 105 254
665 66 118
666 13 96
667 348 41
668 135 161
669 85 61
670 160 62
671 234 20
672 108 395
673 230 139
674 45 291
675 266 8
676 95 391
677 156 32
678 58 98
679 79 344
680 59 51
681 380 339
682 165 126
683 43 67
684 377 72
685 209 167
686 57 381
687 294 13
688 87 147
689 4 60
690 26 247
691 44 296
692 357 38
693 56 156
694 52 194
695 124 179
696 311 356
697 140 131
698 364 213
699 102 84
700 7 143
701 105 360
702 150 49
703 52 343
704 218 134
705 199 22
706 381 27
707 75 76
708 377 282
709 377 144
710 59 285
711 321 85
712 194 65
713 213 280
714 41 93
715 41 399
716 334 92
717 76 72
718 55 341
719 248 124
720 0 155
721 186 355
722 102 42
723 96 209
724 325 294
725 251 381
726 362 115
727 8 119
728 53 51
729 123 30
730 361 236
731 76 90
732 77 319
733 395 113
734 110 290
735 251 70
736 26 199
737 92 384
738 122 397
739 15 4
740 168 15
741 47 190
742 35 160
743 388 275
744 338 150
745 186 75
746 352 383
747 50 315
748 153 224
749 2 17
750 168 223
751 299 270
752 397 133
753 24 57
754 234 37
755 381 12
756 117 148
757 325 130
758 146 320
759 8 285
760 146 324
761 131 82
762 266 13
763 348 343
764 91 61
765 114 88
766 36 286
767 325 311
768 192 268
769 37 119
770 291 398
771 201 6
772 162 121
773 302 345
774 297 137
775 34 371
776 202 158
777 338 290
778 100 10
779 310 163
780 368 215
781 142 379
782 326 79
783 5 266
784 140 344
785 267 221
786 18 235
787 393 246
788 394 299
789 244 176
790 309 18
791 364 23
792 75 238
793 81 290
794 209 283
795 353 357
796 87 164
797 400 109
798 319 115
799 349 135
800 12 368
801 231 6
802 382 49
803 247 377
804 177 139
805 38 291
806 78 194
807 246 244
PICKUP_AND_DELIVERY_SECTION
1 0 0 6751 0 0 0
2 16 32 272 10 0 626
3 12 248 488 10 0 681
4 9 3296 3536 10 0 347
5 -23 0 6606 10 589 0
6 -11 0 6704 10 501 0
7 -31 0 6523 10 546 0
8 -4 0 6612 10 107 0
9 16 0 6539 10 0 592
10 -21 0 6557 10 402 0
11 -7 0 6551 10 279 0
12 15 0 6575 10 0 688
13 13 141 381 10 0 761
14 23 0 6640 10 0 484
15 -21 4745 4985 10 133 0
16 42 0 6552 10 0 119
17 4 192 432 10 0 623
18 -5 2838 3078 10 209 0
19 -20 0 6572 10 302 0
20 -23 0 6519 10 50 0
21 21 0 6676 10 0 31
22 -14 0 6528 10 82 0
23 -18 0 6525 10 739 0
24 -9 0 6615 10 330 0
25 -21 0 6640 10 596 0
26 -14 3746 3986 10 756 0
27 -9 0 6589 10 608 0
28 -3 435 675 10 734 0
29 -22 0 6553 10 242 0
30 -29 0 6574 10 782 0
31 -21 0 6581 10 21 0
32 3 0 6672 10 0 266
33 -9 3395 3635 10 494 0
34 -18 1452 1692 10 116 0
35 8 0 6548 10 0 495
36 -9 0 6595 10 430 0
37 18 0 6545 10 0 443
38 13 916 1156 10 0 223
39 7 0 6590 10 0 142
40 19 0 6655 10 0 219
41 25 782 1022 10 0 84
42 11 0 6557 10 0 396
43 20 0 6572 10 0 210
44 24 0 6499 10 0 475
45 -14 0 6707 10 47 0
46 -14 4352 4592 10 69 0
47 14 0 6698 10 0 45
48 -12 0 6725 10 465 0
49 -16 0 6620 10 710 0
50 23 1188 1428 10 0 20
51 -15 0 6649 10 527 0
52 25 0 6592 10 0 324
53 24 1163 1403 10 0 304
54 -9 4328 4568 10 208 0
55 22 0 6581 10 0 280
56 8 0 6558 10 0 433
57 -25 3930 4170 10 64 0
58 -12 0 6698 10 777 0
59 8 0 6626 10 0 599
60 -20 2631 2871 10 370 0
61 20 0 6545 10 0 111
62 -2 3508 3748 10 189 0
63 12 3035 3275 10 0 136
64 25 1400 1640 10 0 57
65 11 0 6593 10 0 793
66 28 0 6542 10 0 707
67 9 0 6531 10 0 652
68 35 271 511 10 0 414
69 14 0 6638 10 0 46
70 14 0 6559 10 0 73
71 -20 0 6661 10 137 0
72 12 0 6699 10 0 435
73 -14 0 6637 10 70 0
74 -18 0 6504 10 728 0
75 -14 0 6672 10 366 0
76 11 0 6565 10 0 605
77 3 0 6650 10 0 254
78 24 0 6476 10 0 505
79 -13 0 6510 10 300 0
80 25 0 6628 10 0 284
81 20 0 6662 10 0 376
82 14 0 6583 10 0 22
83 18 0 6656 10 0 456
84 -25 0 6570 10 41 0
85 16 0 6515 10 0 718
86 -19 0 6573 10 507 0
87 -23 0 6514 10 117 0
88 -19 0 6561 10 418 0
89 26 0 6560 10 0 328
90 26 3361 3601 10 0 453
91 -9 3123 3363 10 245 0
92 -27 0 6590 10 593 0
93 -25 0 6510 10 431 0
94 14 0 6600 10 0 236
95 -24 0 6670 10 751 0
96 -38 0 6657 10 633 0
97 6 3531 3771 10 0 297
98 29 0 6565 10 0 716
99 -3 0 6543 10 422 0
100 -9 0 6541 10 190 0
101 1 0 6607 10 0 445
102 22 0 6625 10 0 252
103 20 2400 2640 10 0 308
104 19 0 6689 10 0 185
105 18 0 6552 10 0 170
106 -17 0 6621 10 685 0
107 4 1533 1773 10 0 8
108 -17 0 6565 10 499 0
109 8 1294 1534 10 0 240
110 12 1982 2222 10 0 772
111 -20 0 6571 10 61 0
112 -12 1184 1424 10 434 0
113 -18 0 6545 10 293 0
114 -18 4674 4914 10 295 0
115 15 0 6556 10 0 387
116 18 0 6530 10 0 34
117 23 0 6538 10 0 87
118 -22 0 6558 10 758 0
119 -42 0 6615 10 16 0
120 19 0 6539 10 0 492
121 37 0 6553 10 0 321
122 -9 3307 3547 10 442 0
123 -23 0 6548 10 709 0
124 -4 0 6535 10 558 0
125 -24 0 6573 10 406 0
126 -18 0 6535 10 129 0
127 -17 0 6593 10 168 0
128 -12 0 6704 10 318 0
129 18 0 6646 10 0 126
130 -28 0 6623 10 344 0
131 -4 1409 1649 10 416 0
132 -20 0 6689 10 779 0
133 21 3913 4153 10 0 15
134 -26 0 6603 10 737 0
135 19 0 6564 10 0 150
136 -12 4269 4509 10 63 0
137 20 0 6658 10 0 71
138 2 0 6627 10 0 677
139 -26 0 6544 10 440 0
140 9 0 6680 10 0 486
141 -31 0 6568 10 659 0
142 -7 0 6610 10 39 0
143 -20 0 6480 10 560 0
144 24 0 6656 10 0 481
145 34 0 6632 10 0 721
146 -31 0 6634 10 556 0
147 -19 0 6555 10 298 0
148 5 0 6481 10 0 743
149 -24 0 6586 10 704 0
150 -19 0 6574 10 135 0
151 -43 1376 1616 10 193 0
152 5 0 6584 10 0 164
153 -24 0 6598 10 760 0
154 35 827 1067 10 0 306
155 -26 0 6494 10 687 0
156 -8 2865 3105 10 656 0
157 12 0 6576 10 0 179
158 -16 4782 5022 10 263 0
159 26 0 6586 10 0 231
160 -16 0 6650 10 400 0
161 -13 0 6554 10 500 0
162 20 0 6676 10 0 349
163 -20 3117 3357 10 360 0
164 -5 3257 3497 10 152 0
165 17 0 6652 10 0 383
166 -2 3971 4211 10 692 0
167 11 0 6557 10 0 415
168 17 0 6527 10 0 127
169 16 1157 1397 10 0 635
170 -18 0 6576 10 105 0
171 23 0 6534 10 0 778
172 9 4761 5001 10 0 441
173 8 0 6585 10 0 337
174 7 0 6545 10 0 664
175 26 0 6636 10 0 181
176 2 0 6619 0 0 806
177 -14 0 6566 10 340 0
178 12 0 6592 10 0 787
179 -12 4148 4388 10 157 0
180 -5 0 6600 10 676 0
181 -26 0 6662 10 175 0
182 2 0 6483 10 0 466
183 8 0 6585 10 0 583
184 -24 3424 3664 10 392 0
185 -19 3636 3876 10 104 0
186 24 0 6572 10 0 551
187 -29 0 6495 10 574 0
188 18 0 6537 10 0 342
189 2 0 6553 10 0 62
190 9 1587 1827 10 0 100
191 -15 4482 4722 10 645 0
192 8 0 6622 10 0 334
193 43 0 6647 10 0 151
194 -7 0 6531 10 557 0
195 18 35 275 10 0 625
196 -26 0 6515 10 550 0
197 14 0 6497 10 0 581
198 20 0 6602 10 0 670
199 -26 3746 3986 10 390 0
200 -35 4450 4690 10 394 0
201 1 0 6532 10 0 412
202 -11 0 6647 10 726 0
203 19 568 808 10 0 309
204 -35 0 6513 10 436 0
205 -7 0 6575 10 225 0
206 -17 0 6583 10 637 0
207 22 0 6564 10 0 229
208 9 0 6569 10 0 54
209 5 0 6659 10 0 18
210 -20 0 6572 10 43 0
211 -31 598 838 10 768 0
212 26 1415 1655 10 0 697
213 20 0 6506 10 0 755
214 19 0 6571 10 0 358
215 32 0 6522 10 0 362
216 -18 0 6696 10 691 0
217 -21 0 6658 10 570 0
218 22 0 6666 10 0 449
219 -19 0 6646 10 40 0
220 -12 0 6661 10 672 0
221 31 0 6614 10 0 735
222 18 0 6648 10 0 586
223 -13 0 6657 10 38 0
224 -15 4295 4535 10 336 0
225 7 0 6707 10 0 205
226 -2 0 6629 10 731 0
227 3 2530 2770 10 0 381
228 -4 0 6569 10 317 0
229 -22 3606 3846 10 207 0
230 -4 0 6548 10 410 0
231 -26 4810 5050 10 159 0
232 37 0 6637 10 0 285
233 -19 0 6506 10 750 0
234 -15 0 6733 10 576 0
235 10 0 6623 10 0 378
236 -14 0 6557 10 94 0
237 -11 262 502 10 776 0
238 -22 0 6716 10 478 0
239 -26 4581 4821 10 675 0
240 -8 0 6617 10 109 0
241 -14 3715 3955 10 311 0
242 22 0 6560 10 0 29
243 -20 0 6596 10 708 0
244 -33 0 6578 10 643 0
245 9 0 6655 10 0 91
246 -21 0 6546 10 287 0
247 26 0 6558 10 0 634
248 19 3764 4004 10 0 604
249 33 88 328 10 0 294
250 -16 2761 3001 10 770 0
251 -19 0 6563 10 693 0
252 -22 0 6654 10 102 0
253 10 0 6546 10 0 286
254 -3 2326 2566 10 77 0
255 -27 0 6610 10 620 0
256 -13 0 6580 10 401 0
257 -18 2354 2594 10 291 0
258 9 3443 3683 0 0 802
259 -12 0 6535 10 361 0
260 13 0 6551 10 0 762
261 -20 4158 4398 10 578 0
262 -16 0 6474 10 539 0
263 16 1178 1418 10 0 158
264 21 0 6573 10 0 647
265 -13 3195 3435 10 792 0
266 -3 0 6486 10 32 0
267 -6 4103 4343 10 278 0
268 30 0 6672 10 0 591
269 -20 0 6669 10 283 0
270 23 0 6509 10 0 331
271 10 2666 2906 10 0 603
272 21 0 6542 10 0 512
273 -37 5341 5581 10 425 0
274 12 0 6699 10 0 610
275 -18 0 6555 10 674 0
276 -8 376 616 10 289 0
277 24 0 6485 10 0 510
278 6 0 6646 10 0 267
279 7 0 6571 10 0 11
280 -22 0 6709 10 55 0
281 20 0 6589 10 0 655
282 13 2177 2417 10 0 575
283 20 0 6669 10 0 269
284 -25 1965 2205 10 80 0
285 -37 0 6587 10 232 0
286 -10 3938 4178 10 253 0
287 21 0 6585 10 0 246
288 -21 0 6670 10 487 0
289 8 486 726 10 0 276
290 18 0 6524 10 0 797
291 18 82 322 10 0 257
292 10 0 6684 10 0 555
293 18 0 6539 10 0 113
294 -33 0 6627 10 249 0
295 18 0 6564 10 0 114
296 8 0 6556 0 0 805
297 -6 4483 4723 10 97 0
298 19 294 534 10 0 147
299 30 0 6556 10 0 598
300 13 0 6575 10 0 79
301 22 5173 5413 10 0 631
302 20 2168 2408 10 0 19
303 -32 2614 2854 10 783 0
304 -24 4954 5194 10 53 0
305 -26 0 6540 10 644 0
306 -35 0 6593 10 154 0
307 -22 0 6547 10 458 0
308 -20 5393 5633 10 103 0
309 -19 2801 3041 10 203 0
310 36 0 6511 10 0 473
311 14 0 6525 10 0 241
312 13 0 6506 10 0 514
313 17 0 6599 10 0 351
314 28 0 6536 10 0 765
315 -7 3364 3604 10 343 0
316 -20 0 6688 10 561 0
317 4 0 6624 10 0 228
318 12 0 6631 10 0 128
319 -15 0 6570 10 769 0
320 13 0 6541 10 0 346
321 -37 0 6575 10 121 0
322 -14 0 6632 10 513 0
323 -17 0 6609 10 628 0
324 -25 0 6594 10 52 0
325 -17 4423 4663 10 587 0
326 28 0 6558 0 0 803
327 3 0 6549 10 0 565
328 -26 941 1181 10 89 0
329 -27 5445 5685 10 590 0
330 9 0 6595 10 0 24
331 -23 0 6503 10 270 0
332 -35 0 6724 10 452 0
333 10 2025 2265 10 0 547
334 -8 800 1040 10 192 0
335 -26 0 6590 10 339 0
336 15 0 6589 10 0 224
337 -8 1755 1995 10 173 0
338 17 0 6501 10 0 642
339 26 0 6596 10 0 335
340 14 0 6518 10 0 177
341 3 1097 1337 10 0 724
342 -18 0 6564 10 188 0
343 7 2442 2682 10 0 315
344 28 0 6584 10 0 130
345 7 62 302 10 0 554
346 -13 0 6605 10 320 0
347 -9 4006 4246 10 4 0
348 16 2049 2289 10 0 368
349 -20 0 6609 10 162 0
350 45 0 6537 10 0 662
351 -17 987 1227 10 313 0
352 -24 2922 3162 10 794 0
353 -21 0 6596 10 600 0
354 16 0 6513 10 0 432
355 -32 0 6550 10 638 0
356 22 0 6495 10 0 667
357 27 0 6477 10 0 614
358 -19 0 6609 10 214 0
359 -27 0 6595 10 525 0
360 20 0 6628 10 0 163
361 12 0 6566 10 0 259
362 -32 0 6518 10 215 0
363 -19 0 6551 10 419 0
364 20 0 6572 10 0 374
365 8 1289 1529 10 0 669
366 14 2118 2358 10 0 75
367 -15 0 6585 10 780 0
368 -16 0 6554 10 348 0
369 -5 3592 3832 10 489 0
370 20 0 6492 10 0 60
371 18 869 1109 10 0 375
372 -25 0 6672 10 509 0
373 -18 0 6657 10 515 0
374 -20 0 6614 10 364 0
375 -18 2580 2820 10 371 0
376 -20 0 6650 10 81 0
377 15 0 6614 10 0 535
378 -10 0 6668 10 235 0
379 25 0 6582 10 0 668
380 5 0 6577 10 0 752
381 -3 0 6627 10 227 0
382 -22 0 6705 10 686 0
383 -17 0 6662 10 165 0
384 29 0 6656 10 0 774
385 -36 0 6664 10 695 0
386 -23 0 6592 10 741 0
387 -15 0 6578 10 115 0
388 8 0 6573 10 0 678
389 -10 0 6583 10 701 0
390 26 2248 2488 10 0 199
391 17 0 6569 10 0 407
392 24 0 6586 10 0 184
393 -16 0 6517 10 646 0
394 35 314 554 10 0 200
395 -3 0 6539 10 651 0
396 -11 3411 3651 10 42 0
397 -15 5091 5331 10 454 0
398 12 0 6646 10 0 438
399 23 0 6503 10 0 720
400 16 0 6671 10 0 160
401 13 0 6687 10 0 256
402 21 0 6554 10 0 10
403 19 2144 2384 10 0 464
404 15 166 406 10 0 749
405 -9 0 6508 10 496 0
406 24 308 548 10 0 125
407 -17 0 6509 10 391 0
408 -32 0 6643 10 476 0
409 -39 0 6541 10 640 0
410 4 0 6618 10 0 230
411 -12 0 6490 10 732 0
412 -1 0 6609 10 201 0
413 -7 2397 2637 10 480 0
414 -35 0 6550 10 68 0
415 -11 0 6610 10 167 0
416 4 0 6551 10 0 131
417 32 0 6572 10 0 786
418 19 0 6699 10 0 88
419 19 0 6641 10 0 363
420 21 472 712 10 0 602
421 16 0 6591 10 0 627
422 3 0 6622 10 0 99
423 -1 0 6617 10 613 0
424 -26 0 6620 10 483 0
425 37 0 6634 10 0 273
426 41 0 6530 10 0 767
427 18 0 6510 10 0 775
428 -31 0 6552 10 690 0
429 -37 0 6590 10 611 0
430 9 0 6603 10 0 36
431 25 0 6615 10 0 93
432 -16 3766 4006 10 354 0
433 -8 5061 5301 10 56 0
434 12 0 6580 10 0 112
435 -12 2473 2713 10 72 0
436 35 0 6495 10 0 204
437 12 0 6721 10 0 773
438 -12 2345 2585 10 398 0
439 -11 0 6511 10 469 0
440 26 0 6564 10 0 139
441 -9 0 6678 10 172 0
442 9 3449 3689 10 0 122
443 -18 0 6618 10 37 0
444 -1 0 6564 10 577 0
445 -1 1737 1977 10 101 0
446 10 0 6548 10 0 658
447 -14 0 6562 10 636 0
448 -22 0 6489 10 609 0
449 -22 0 6614 10 218 0
450 -12 0 6596 10 521 0
451 -10 0 6541 10 621 0
452 35 0 6695 10 0 332
453 -26 0 6716 10 90 0
454 15 0 6553 10 0 397
455 -25 0 6617 10 460 0
456 -18 0 6586 10 83 0
457 -8 0 6548 10 471 0
458 22 0 6559 10 0 307
459 13 0 6598 10 0 624
460 25 0 6616 10 0 455
461 -21 0 6549 10 563 0
462 11 0 6489 10 0 564
463 -12 0 6545 10 800 0
464 -19 0 6561 10 403 0
465 12 4515 4755 10 0 48
466 -2 0 6558 10 182 0
467 -25 0 6608 10 771 0
468 -11 3625 3865 10 796 0
469 11 4226 4466 10 0 439
470 -20 0 6611 10 705 0
471 8 0 6515 10 0 457
472 -29 0 6557 10 616 0
473 -36 0 6500 10 310 0
474 -9 2499 2739 10 619 0
475 -24 0 6593 10 44 0
476 32 0 6605 10 0 408
477 19 2246 2486 10 0 747
478 22 0 6692 10 0 238
479 23 0 6557 10 0 579
480 7 0 6562 10 0 413
481 -24 3121 3361 10 144 0
482 -17 0 6666 10 654 0
483 26 0 6668 10 0 424
484 -23 1900 2140 10 14 0
485 -16 0 6631 10 582 0
486 -9 0 6729 10 140 0
487 21 1202 1442 10 0 288
488 29 0 6509 10 0 622
489 5 0 6548 10 0 369
490 -18 0 6642 10 502 0
491 -16 0 6616 10 497 0
492 -19 0 6501 10 120 0
493 -13 0 6535 10 537 0
494 9 20 260 10 0 33
495 -8 0 6568 10 35 0
496 9 0 6593 10 0 405
497 16 0 6608 10 0 491
498 17 352 592 10 0 549
499 17 0 6593 10 0 108
500 13 0 6530 10 0 161
501 11 2646 2886 10 0 6
502 18 0 6685 10 0 490
503 -33 0 6539 10 536 0
504 -10 0 6585 10 520 0
505 -24 0 6513 10 78 0
506 29 414 654 10 0 518
507 19 0 6592 10 0 86
508 16 0 6729 10 0 789
509 25 0 6639 10 0 372
510 -24 0 6501 10 277 0
511 26 0 6537 10 0 790
512 -21 0 6529 10 272 0
513 14 0 6693 10 0 322
514 -13 0 6519 10 312 0
515 18 0 6623 10 0 373
516 -3 0 6609 10 584 0
517 -11 2965 3205 10 791 0
518 -29 0 6620 10 506 0
519 23 0 6653 10 0 673
520 10 0 6561 10 0 504
521 12 0 6736 10 0 450
522 -13 0 6682 10 742 0
523 27 1057 1297 10 0 706
524 -4 0 6597 10 700 0
525 27 4000 4240 10 0 359
526 -18 0 6563 10 543 0
527 15 88 328 10 0 51
528 26 0 6611 10 0 661
529 11 0 6612 10 0 632
530 -24 0 6541 10 541 0
531 33 0 6548 10 0 788
532 -13 4977 5217 10 629 0
533 -17 0 6614 10 722 0
534 -22 0 6595 10 649 0
535 -15 2324 2564 10 377 0
536 33 0 6621 10 0 503
537 13 379 619 10 0 493
538 -8 3244 3484 10 717 0
539 16 0 6484 10 0 262
540 -22 0 6600 10 606 0
541 24 3018 3258 10 0 530
542 17 2183 2423 10 0 738
543 18 2055 2295 10 0 526
544 36 0 6535 10 0 666
545 19 0 6703 10 0 753
546 31 0 6502 10 0 7
547 -10 0 6542 10 333 0
548 -13 0 6569 10 715 0
549 -17 1105 1345 10 498 0
550 26 0 6530 10 0 196
551 -24 0 6630 10 186 0
552 7 0 6568 10 0 725
553 21 472 712 10 0 727
554 -7 0 6671 10 345 0
555 -10 0 6532 10 292 0
556 31 0 6655 10 0 146
557 7 0 6529 10 0 194
558 4 0 6547 10 0 124
559 -5 0 6507 10 684 0
560 20 0 6705 10 0 143
561 20 0 6471 10 0 316
562 -16 0 6663 10 798 0
563 21 0 6606 10 0 461
564 -11 0 6542 10 462 0
565 -3 3975 4215 10 327 0
566 28 3028 3268 10 0 597
567 19 0 6623 10 0 588
568 11 3107 3347 10 0 702
569 17 0 6652 10 0 713
570 21 4793 5033 10 0 217
571 -19 0 6593 10 719 0
572 19 0 6676 0 0 804
573 35 0 6543 10 0 694
574 29 0 6552 10 0 187
575 -13 0 6577 10 282 0
576 15 384 624 10 0 234
577 1 0 6610 10 0 444
578 20 0 6556 10 0 261
579 -23 0 6566 10 479 0
580 -29 0 6667 10 689 0
581 -14 0 6703 10 197 0
582 16 0 6617 10 0 485
583 -8 0 6571 10 183 0
584 3 0 6603 10 0 516
585 -26 0 6738 10 736 0
586 -18 0 6679 10 222 0
587 17 0 6591 10 0 325
588 -19 0 6576 10 567 0
589 23 0 6522 10 0 5
590 27 3952 4192 10 0 329
591 -30 0 6701 10 268 0
592 -16 0 6619 10 9 0
593 27 0 6695 10 0 92
594 23 0 6515 10 0 746
595 -35 0 6611 10 745 0
596 21 0 6527 10 0 25
597 -28 0 6562 10 566 0
598 -30 0 6547 10 299 0
599 -8 0 6591 10 59 0
600 21 0 6587 10 0 353
601 -14 1412 1652 10 680 0
602 -21 0 6536 10 420 0
603 -10 0 6558 10 271 0
604 -19 0 6613 10 248 0
605 -11 0 6646 10 76 0
606 22 0 6558 10 0 540
607 -13 0 6589 10 660 0
608 9 3795 4035 10 0 27
609 22 3439 3679 10 0 448
610 -12 6184 6424 10 274 0
611 37 0 6528 10 0 429
612 -9 0 6678 10 696 0
613 1 0 6591 10 0 423
614 -27 0 6485 10 357 0
615 16 0 6686 10 0 630
616 29 0 6554 10 0 472
617 21 0 6631 10 0 748
618 5 0 6497 10 0 723
619 9 0 6685 10 0 474
620 27 0 6569 10 0 255
621 10 0 6644 10 0 451
622 -29 0 6538 10 488 0
623 -4 1671 1911 10 17 0
624 -13 0 6693 10 459 0
625 -18 0 6546 10 195 0
626 -16 1337 1577 10 2 0
627 -16 0 6632 10 421 0
628 17 4430 4670 10 0 323
629 13 0 6536 10 0 532
630 -16 0 6569 10 615 0
631 -22 0 6609 10 301 0
632 -11 4615 4855 10 529 0
633 38 1618 1858 10 0 96
634 -26 0 6570 10 247 0
635 -16 0 6591 10 169 0
636 14 0 6591 10 0 447
637 17 0 6574 10 0 206
638 32 0 6578 10 0 355
639 -6 0 6576 10 740 0
640 39 1037 1277 10 0 409
641 -12 0 6647 10 729 0
642 -17 963 1203 10 338 0
643 33 0 6640 10 0 244
644 26 0 6616 10 0 305
645 15 0 6604 10 0 191
646 16 3258 3498 10 0 393
647 -21 0 6601 10 264 0
648 33 0 6678 0 0 807
649 22 0 6537 10 0 534
650 5 1373 1613 10 0 663
651 3 624 864 10 0 395
652 -9 0 6525 10 67 0
653 15 0 6618 10 0 785
654 17 37 277 10 0 482
655 -20 0 6563 10 281 0
656 8 1824 2064 10 0 156
657 -9 0 6531 10 733 0
658 -10 0 6602 10 446 0
659 31 0 6640 10 0 141
660 13 0 6616 10 0 607
661 -26 0 6623 10 528 0
662 -45 0 6527 10 350 0
663 -5 0 6619 10 650 0
664 -7 0 6632 10 174 0
665 -45 2198 2438 10 714 0
666 -36 0 6528 10 544 0
667 -22 2571 2811 10 356 0
668 -25 5342 5582 10 379 0
669 -8 0 6561 10 365 0
670 -20 0 6598 10 198 0
671 -16 0 6558 10 712 0
672 12 0 6526 10 0 220
673 -23 0 6674 10 519 0
674 18 0 6562 10 0 275
675 26 0 6538 10 0 239
676 5 0 6524 10 0 180
677 -2 3101 3341 10 138 0
678 -8 0 6567 10 388 0
679 16 0 6553 10 0 703
680 14 0 6536 10 0 601
681 -12 0 6514 10 3 0
682 -15 0 6660 10 683 0
683 15 0 6536 10 0 682
684 5 0 6523 10 0 559
685 17 0 6707 10 0 106
686 22 0 6511 10 0 382
687 26 0 6532 10 0 155
688 -15 0 6617 10 12 0
689 29 0 6501 10 0 580
690 31 0 6561 10 0 428
691 18 0 6558 10 0 216
692 2 0 6516 10 0 166
693 19 0 6591 10 0 251
694 -35 0 6593 10 573 0
695 36 0 6663 10 0 385
696 9 0 6550 10 0 612
697 -26 3457 3697 10 212 0
698 11 0 6577 10 0 730
699 3 0 6590 10 0 764
700 4 1272 1512 10 0 524
701 10 0 6555 10 0 389
702 -11 0 6582 10 568 0
703 -16 0 6536 10 679 0
704 24 0 6673 10 0 149
705 20 0 6563 10 0 470
706 -27 1792 2032 10 523 0
707 -28 0 6565 10 66 0
708 20 0 6546 10 0 243
709 23 1809 2049 10 0 123
710 16 4527 4767 10 0 49
711 16 0 6575 10 0 744
712 16 1485 1725 10 0 671
713 -17 0 6660 10 569 0
714 45 0 6550 10 0 665
715 13 986 1226 10 0 548
716 -29 0 6569 10 98 0
717 8 0 6563 10 0 538
718 -16 0 6539 10 85 0
719 19 0 6652 10 0 571
720 -23 0 6536 10 399 0
721 -34 0 6586 10 145 0
722 17 0 6556 10 0 533
723 -5 0 6637 10 618 0
724 -3 0 6585 10 341 0
725 -7 0 6553 10 552 0
726 11 0 6559 10 0 202
727 -21 0 6533 10 553 0
728 18 0 6532 10 0 74
729 12 0 6555 10 0 641
730 -11 0 6577 10 698 0
731 2 0 6576 10 0 226
732 12 0 6570 10 0 411
733 9 0 6528 10 0 657
734 3 0 6614 10 0 28
735 -31 0 6602 10 221 0
736 26 0 6567 10 0 585
737 26 0 6528 10 0 134
738 -17 2246 2486 10 542 0
739 18 0 6472 10 0 23
740 6 2427 2667 10 0 639
741 23 0 6588 10 0 386
742 13 4010 4250 10 0 522
743 -5 0 6539 10 148 0
744 -16 3012 3252 10 711 0
745 35 0 6616 10 0 595
746 -23 0 6504 10 594 0
747 -19 2453 2693 10 477 0
748 -21 0 6689 10 617 0
749 -15 1017 1257 10 404 0
750 19 0 6702 10 0 233
751 24 3272 3512 10 0 95
752 -5 2904 3144 10 380 0
753 -19 787 1027 10 545 0
754 12 0 6575 10 0 801
755 -20 0 6481 10 213 0
756 14 272 512 10 0 26
757 -28 4093 4333 10 799 0
758 22 0 6610 10 0 118
759 24 0 6532 10 0 784
760 24 0 6606 10 0 153
761 -13 0 6605 10 13 0
762 -13 0 6543 10 260 0
763 -20 0 6536 10 795 0
764 -3 0 6565 10 699 0
765 -28 2638 2878 10 314 0
766 -11 0 6556 10 781 0
767 -41 0 6574 10 426 0
768 31 0 6673 10 0 211
769 15 0 6559 10 0 319
770 16 0 6524 10 0 250
771 25 2281 2521 10 0 467
772 -12 0 6654 10 110 0
773 -12 857 1097 10 437 0
774 -29 1772 2012 10 384 0
775 -18 0 6503 10 427 0
776 11 0 6699 10 0 237
777 12 0 6577 10 0 58
778 -23 0 6527 10 171 0
779 20 0 6625 10 0 132
780 15 0 6573 10 0 367
781 11 0 6553 10 0 766
782 29 0 6567 10 0 30
783 32 0 6536 10 0 303
784 -24 0 6585 10 759 0
785 -15 0 6671 10 653 0
786 -32 0 6556 10 417 0
787 -12 1974 2214 10 178 0
788 -33 0 6524 10 531 0
789 -16 0 6691 10 508 0
790 -26 0 6529 10 511 0
791 11 0 6500 10 0 517
792 13 0 6611 10 0 265
793 -11 0 6592 10 65 0
794 24 2409 2649 10 0 352
795 20 821 1061 10 0 763
796 11 2587 2827 10 0 468
797 -18 0 6522 10 290 0
798 16 0 6595 10 0 562
799 28 0 6579 10 0 757
800 12 0 6489 10 0 463
801 -12 0 6545 10 754 0
802 -9 3443 3683 10 258 0
803 -28 0 6558 10 326 0
804 -19 0 6676 10 572 0
805 -8 0 6556 10 296 0
806 -2 0 6619 10 176 0
807 -33 0 6678 10 648 0
DEPOT_SECTION
1
-1
EOF
