NAME: lrc1_8_10
TYPE: PDPTW
COMMENT: Li & Lim PDPTW benchmark converted from SINTEF format
DIMENSION: 841
VEHICLES: 200
CAPACITY: 200
EDGE_WEIGHT_TYPE: EUC_2D
NODE_COORD_SECTION
1 200 200
2 244 56
3 245 106
4 233 214
5 395 340
6 229 371
7 384 248
8 277 163
9 52 94
10 89 152
11 218 284
12 340 276
13 206 106
14 375 247
15 113 179
16 348 280
17 223 372
18 361 287
19 6 62
20 37 397
21 364 27
22 14 201
23 325 294
24 41 382
25 325 130
26 384 47
27 116 181
28 346 155
29 359 30
30 222 284
31 91 150
32 140 387
33 176 154
34 352 383
35 213 332
36 133 68
37 151 188
38 105 250
39 94 70
40 287 307
41 267 321
42 220 71
43 244 106
44 338 290
45 5 345
46 145 301
47 393 301
48 359 23
49 196 107
50 348 41
51 59 51
52 126 91
53 234 214
54 108 395
55 186 306
56 125 122
57 12 368
58 348 279
59 26 247
60 393 306
61 268 114
62 2 17
63 62 258
64 186 145
65 338 315
66 66 118
67 68 378
68 294 136
69 73 126
70 68 263
71 302 136
72 234 203
73 127 94
74 233 208
75 210 1
76 102 252
77 152 237
78 2 3
79 92 162
80 177 55
81 193 29
82 105 360
83 193 216
84 338 150
85 68 143
86 180 15
87 182 378
88 39 384
89 43 386
90 291 301
91 32 251
92 246 298
93 32 229
94 116 252
95 198 295
96 63 262
97 119 179
98 174 375
99 199 45
100 150 236
101 363 24
102 393 307
103 331 251
104 293 306
105 18 102
106 196 293
107 299 141
108 364 25
109 41 183
110 342 385
111 302 203
112 212 197
113 384 294
114 381 290
115 110 254
116 196 51
117 264 341
118 23 98
119 278 265
120 23 97
121 281 155
122 352 162
123 209 85
124 15 4
125 177 379
126 18 208
127 343 322
128 369 107
129 31 360
130 263 110
131 240 246
132 380 339
133 111 286
134 213 271
135 251 381
136 322 242
137 390 52
138 26 70
139 300 132
140 342 384
141 357 160
142 204 87
143 197 293
144 98 107
145 400 109
146 231 243
147 84 221
148 230 290
149 397 261
150 222 283
151 247 377
152 60 319
153 79 154
154 256 385
155 140 40
156 8 119
157 208 274
158 84 293
159 74 351
160 95 64
161 329 236
162 248 286
163 234 243
164 244 109
165 340 388
166 161 233
167 125 95
168 351 199
169 61 333
170 146 324
171 372 104
172 381 144
173 394 299
174 363 30
175 358 23
176 220 238
177 97 105
178 186 355
179 391 42
180 48 326
181 74 87
182 264 69
183 341 394
184 128 95
185 362 383
186 41 340
187 13 220
188 85 61
189 340 290
190 396 106
191 79 344
192 201 195
193 90 311
194 207 185
195 92 255
196 385 56
197 396 59
198 51 326
199 169 352
200 230 139
201 286 44
202 286 308
203 339 69
204 206 296
205 142 385
206 370 57
207 35 79
208 17 209
209 128 68
210 145 165
211 237 259
212 89 154
213 72 257
214 158 121
215 323 243
216 367 361
217 165 126
218 45 85
219 137 68
220 310 143
221 18 100
222 201 6
223 297 135
224 86 154
225 374 175
226 91 70
227 166 357
228 113 183
229 347 395
230 243 244
231 243 140
232 14 100
233 393 312
234 92 384
235 294 249
236 195 91
237 235 212
238 350 271
239 353 164
240 262 233
241 200 48
242 214 119
243 234 37
244 93 62
245 234 73
246 157 378
247 194 43
248 268 223
249 355 156
250 248 124
251 364 213
252 371 253
253 31 353
254 41 337
255 209 167
256 352 303
257 53 326
258 388 106
259 21 104
260 381 12
261 221 379
262 46 380
263 192 332
264 343 359
265 320 211
266 34 355
267 338 106
268 397 283
269 267 161
270 124 221
271 310 340
272 270 106
273 243 104
274 68 250
275 213 305
276 214 378
277 287 279
278 313 64
279 244 285
280 154 68
281 14 53
282 298 137
283 371 111
284 393 246
285 118 122
286 9 47
287 171 168
288 321 212
289 115 185
290 336 387
291 357 202
292 374 104
293 271 371
294 291 398
295 353 3
296 74 213
297 17 99
298 253 316
299 369 118
300 11 328
301 126 70
302 165 264
303 377 282
304 73 292
305 174 326
306 135 161
307 85 155
308 360 23
309 20 91
310 72 253
311 87 155
312 134 63
313 349 275
314 325 45
315 182 300
316 328 239
317 138 143
318 372 256
319 57 381
320 162 251
321 183 301
322 381 375
323 389 171
324 179 305
325 14 210
326 290 311
327 345 158
328 200 83
329 342 154
330 18 294
331 156 4
332 247 212
333 93 149
334 299 399
335 369 171
336 246 247
337 356 223
338 266 116
339 39 34
340 51 205
341 180 387
342 203 88
343 173 72
344 129 85
345 45 291
346 294 311
347 305 198
348 338 391
349 349 135
350 237 213
351 82 360
352 102 84
353 300 144
354 236 38
355 278 159
356 344 280
357 149 234
358 320 373
359 109 252
360 218 134
361 184 282
362 32 78
363 395 310
364 19 206
365 243 275
366 175 192
367 299 227
368 159 164
369 215 260
370 163 364
371 208 20
372 97 387
373 294 13
374 108 250
375 389 306
376 262 30
377 334 92
378 279 337
379 3 15
380 210 271
381 256 145
382 387 267
383 8 285
384 83 357
385 267 295
386 279 262
387 238 101
388 219 377
389 126 90
390 129 67
391 166 115
392 238 250
393 246 244
394 131 95
395 115 257
396 243 106
397 202 158
398 389 307
399 237 109
400 117 148
401 180 375
402 276 157
403 303 358
404 17 96
405 173 381
406 70 81
407 46 197
408 206 81
409 348 343
410 95 63
411 324 216
412 265 127
413 196 138
414 26 260
415 384 307
416 23 317
417 204 292
418 321 287
419 56 97
420 70 264
421 152 240
422 0 155
423 317 68
424 395 167
425 289 306
426 75 367
427 353 276
428 183 71
429 312 200
430 49 222
431 297 137
432 200 89
433 242 113
434 341 33
435 55 341
436 99 67
437 236 243
438 229 209
439 93 59
440 143 159
441 267 112
442 196 295
443 334 100
444 122 183
445 225 53
446 28 353
447 158 239
448 392 307
449 13 59
450 127 90
451 221 281
452 326 374
453 178 103
454 376 251
455 293 310
456 386 60
457 300 272
458 243 209
459 102 67
460 285 107
461 82 365
462 5 344
463 366 97
464 220 283
465 79 95
466 369 100
467 371 244
468 366 340
469 85 128
470 231 6
471 330 313
472 202 85
473 236 204
474 220 381
475 206 286
476 274 7
477 369 211
478 126 208
479 134 62
480 67 318
481 232 127
482 96 209
483 146 301
484 308 178
485 294 118
486 280 224
487 241 275
488 82 65
489 159 11
490 300 64
491 22 96
492 334 186
493 310 200
494 52 331
495 25 256
496 210 268
497 310 196
498 183 375
499 194 65
500 366 251
501 285 184
502 160 313
503 349 324
504 225 288
505 124 69
506 349 272
507 87 365
508 240 210
509 40 380
510 276 116
511 280 5
512 20 204
513 301 139
514 195 294
515 377 144
516 34 242
517 324 217
518 348 371
519 70 256
520 48 304
521 41 378
522 114 254
523 264 112
524 244 176
525 349 181
526 346 163
527 52 334
528 53 51
529 177 174
530 114 178
531 367 255
532 19 61
533 273 118
534 84 359
535 244 114
536 321 144
537 384 53
538 29 250
539 172 383
540 84 360
541 28 246
542 107 159
543 319 160
544 230 241
545 32 352
546 32 357
547 237 108
548 162 94
549 185 299
550 110 188
551 259 4
552 34 385
553 156 32
554 201 297
555 311 344
556 174 329
557 119 286
558 179 383
559 26 250
560 84 363
561 6 20
562 373 253
563 184 233
564 177 300
565 88 121
566 22 205
567 306 361
568 87 164
569 123 176
570 131 275
571 315 237
572 85 67
573 197 300
574 308 196
575 114 88
576 87 153
577 21 201
578 137 64
579 361 194
580 115 51
581 24 96
582 2 200
583 211 274
584 102 149
585 307 196
586 127 87
587 302 274
588 383 53
589 376 254
590 15 100
591 111 179
592 308 204
593 85 358
594 391 54
595 385 55
596 65 335
597 46 378
598 310 363
599 217 286
600 33 247
601 88 150
602 397 73
603 70 231
604 72 315
605 131 67
606 117 381
607 31 357
608 299 351
609 393 297
610 102 118
611 273 160
612 350 131
613 364 55
614 47 328
615 109 186
616 143 20
617 134 98
618 42 384
619 255 80
620 52 194
621 128 93
622 50 385
623 386 57
624 86 112
625 26 275
626 40 336
627 135 384
628 52 301
629 68 261
630 36 288
631 375 294
632 220 288
633 186 304
634 369 106
635 96 69
636 321 217
637 177 77
638 320 216
639 246 47
640 350 207
641 279 247
642 153 315
643 68 386
644 399 179
645 297 240
646 199 290
647 21 204
648 362 28
649 353 65
650 24 57
651 75 368
652 393 305
653 239 254
654 146 320
655 369 6
656 277 154
657 304 141
658 205 372
659 339 3
660 254 0
661 321 209
662 114 250
663 318 219
664 209 283
665 48 358
666 339 384
667 351 153
668 377 29
669 317 183
670 183 303
671 299 308
672 197 292
673 370 98
674 188 67
675 207 87
676 295 307
677 325 311
678 228 96
679 368 215
680 208 86
681 75 76
682 27 251
683 308 314
684 217 289
685 337 388
686 133 94
687 91 388
688 87 147
689 389 54
690 185 386
691 234 212
692 53 330
693 237 247
694 369 19
695 346 385
696 397 313
697 355 41
698 211 266
699 8 363
700 59 89
701 344 391
702 242 105
703 327 242
704 55 324
705 114 252
706 29 355
707 102 377
708 345 382
709 313 194
710 285 136
711 272 154
712 379 254
713 22 210
714 117 187
715 157 220
716 21 96
717 182 379
718 298 138
719 28 356
720 130 70
721 111 184
722 319 113
723 347 385
724 220 337
725 344 283
726 217 98
727 76 90
728 175 299
729 270 151
730 398 258
731 344 321
732 266 234
733 49 187
734 92 155
735 344 236
736 226 52
737 183 294
738 237 243
739 184 69
740 222 383
741 21 255
742 390 357
743 272 161
744 371 349
745 220 296
746 184 235
747 113 184
748 370 104
749 273 182
750 382 54
751 379 126
752 327 241
753 189 306
754 26 326
755 367 104
756 271 154
757 67 258
758 86 357
759 107 98
760 66 254
761 374 253
762 228 341
763 60 328
764 268 160
765 201 255
766 397 362
767 236 210
768 349 157
769 348 319
770 186 75
771 327 115
772 77 319
773 147 210
774 195 148
775 108 186
776 26 199
777 305 255
778 368 102
779 146 174
780 319 217
781 335 202
782 128 94
783 82 78
784 92 68
785 231 219
786 309 274
787 336 386
788 324 194
789 174 387
790 24 93
791 107 247
792 291 308
793 13 322
794 68 254
795 142 379
796 43 121
797 329 241
798 260 352
799 328 243
800 384 64
801 80 365
802 74 351
803 343 359
804 28 353
805 326 374
806 386 57
807 368 102
808 384 53
809 336 386
810 395 310
811 256 385
812 381 290
813 105 360
814 14 100
815 126 208
816 35 79
817 374 253
818 87 365
819 137 68
820 22 210
821 315 237
822 217 289
823 174 387
824 349 324
825 325 130
826 126 70
827 193 216
828 299 308
829 338 315
830 118 122
831 206 81
832 310 196
833 350 207
834 285 107
835 89 154
836 262 233
837 217 98
838 272 154
839 256 145
840 236 204
841 108 395
PICKUP_AND_DELIVERY_SECTION
1 0 0 1573 0 0 0
2 -20 602 752 10 702 0
3 20 104 254 10 0 412
4 10 35 185 10 0 53
5 -8 240 390 10 744 0
6 -15 953 1103 10 293 0
7 35 190 340 10 0 730
8 10 106 256 10 0 251
9 -20 1082 1232 10 459 0
10 -20 120 270 10 333 0
11 20 140 290 10 0 798
12 -15 808 958 10 457 0
13 -15 228 378 10 33 0
14 -20 181 331 10 467 0
15 10 136 286 10 0 591
16 10 168 318 10 0 631
17 30 176 326 10 0 276
18 -20 196 346 10 506 0
19 -12 837 987 10 281 0
20 50 765 915 10 0 622
21 20 245 395 10 0 48
22 10 186 336 10 0 187
23 -11 1086 1236 10 777 0
24 20 241 391 10 0 89
25 19 978 1128 0 0 825
26 -18 1031 1181 10 190 0
27 -30 161 311 10 228 0
28 20 177 327 10 0 644
29 -17 284 434 10 613 0
30 -20 86 236 10 380 0
31 10 119 269 10 0 307
32 -19 196 346 10 563 0
33 15 51 201 10 0 13
34 -20 738 888 10 183 0
35 -19 658 808 10 475 0
36 20 148 298 10 0 209
37 18 50 200 10 0 289
38 -20 120 270 10 791 0
39 -3 220 370 10 352 0
40 10 165 315 10 0 346
41 -10 573 723 10 417 0
42 22 616 766 10 0 397
43 40 103 253 10 0 130
44 -19 590 740 10 386 0
45 -12 1151 1301 10 300 0
46 -10 115 265 10 315 0
47 10 217 367 10 0 398
48 -20 237 387 10 21 0
49 -14 1269 1419 10 400 0
50 -10 598 748 10 174 0
51 14 205 355 10 0 528
52 30 131 281 10 0 177
53 -10 50 200 10 4 0
54 12 513 663 0 0 841
55 10 112 262 10 0 263
56 15 108 258 10 0 184
57 -30 711 861 10 527 0
58 10 167 317 10 0 427
59 10 180 330 10 0 495
60 20 220 370 10 0 448
61 30 115 265 10 0 510
62 11 269 419 10 0 124
63 -30 149 299 10 420 0
64 -4 1357 1507 10 217 0
65 9 892 1042 0 0 829
66 -10 505 655 10 404 0
67 -20 622 772 10 560 0
68 10 113 263 10 0 314
69 38 359 509 10 0 144
70 10 146 296 10 0 193
71 20 120 270 10 0 771
72 10 107 257 10 0 112
73 -13 156 306 10 210 0
74 30 33 183 10 0 237
75 11 940 1090 10 0 490
76 10 110 260 10 0 757
77 10 60 210 10 0 304
78 -10 734 884 10 572 0
79 -10 193 343 10 530 0
80 -1 696 846 10 739 0
81 -20 697 847 10 241 0
82 10 726 876 0 0 813
83 1 1171 1321 0 0 827
84 16 708 858 10 0 612
85 -28 1195 1345 10 482 0
86 7 815 965 10 0 423
87 10 178 328 10 0 558
88 40 244 394 10 0 715
89 -20 243 393 10 24 0
90 20 135 285 10 0 677
91 -18 196 346 10 345 0
92 19 896 1046 10 0 732
93 -26 994 1144 10 776 0
94 20 98 248 10 0 662
95 -30 95 245 10 143 0
96 20 150 300 10 0 430
97 -23 175 325 10 779 0
98 30 257 407 10 0 205
99 26 730 880 10 0 445
100 -30 61 211 10 166 0
101 20 239 389 10 0 175
102 10 220 370 10 0 233
103 -20 140 290 10 799 0
104 -30 141 291 10 792 0
105 -9 206 356 10 422 0
106 -20 93 243 10 672 0
107 -10 169 319 10 121 0
108 40 239 389 10 0 694
109 -16 1117 1267 10 603 0
110 -12 296 446 10 409 0
111 30 138 288 10 0 592
112 -10 794 944 10 72 0
113 -9 497 647 10 268 0
114 36 409 559 0 0 812
115 -20 104 254 10 447 0
116 -10 470 620 10 123 0
117 9 981 1131 10 0 598
118 -10 272 422 10 590 0
119 -20 589 739 10 486 0
120 20 261 411 10 0 449
121 10 92 242 10 0 107
122 10 156 306 10 0 172
123 10 115 265 10 0 116
124 -11 639 789 10 62 0
125 10 242 392 10 0 246
126 20 199 349 10 0 407
127 -10 751 901 10 425 0
128 20 219 369 10 0 456
129 23 232 382 10 0 521
130 -40 109 259 10 43 0
131 20 60 210 10 0 230
132 -22 681 831 10 358 0
133 21 123 273 10 0 758
134 10 72 222 10 0 150
135 -10 208 358 10 554 0
136 10 173 323 10 0 769
137 -40 240 390 10 750 0
138 -10 861 1011 10 581 0
139 10 120 270 10 0 657
140 10 307 457 10 0 165
141 -30 162 312 10 526 0
142 -10 113 263 10 399 0
143 30 93 243 10 0 95
144 -38 874 1024 10 69 0
145 -8 787 937 10 751 0
146 10 85 235 10 0 693
147 -23 1043 1193 10 773 0
148 -20 94 244 10 632 0
149 -14 525 675 10 284 0
150 -10 85 235 10 134 0
151 -10 1155 1305 10 324 0
152 29 195 345 10 0 198
153 10 129 279 10 0 311
154 5 536 686 0 0 811
155 -34 955 1105 10 553 0
156 11 779 929 10 0 297
157 -12 74 224 10 176 0
158 -20 496 646 10 629 0
159 32 900 1050 0 0 802
160 20 171 321 10 0 244
161 10 133 283 10 0 454
162 -20 98 248 10 451 0
163 -20 72 222 10 437 0
164 20 101 251 10 0 736
165 -10 283 433 10 140 0
166 30 57 207 10 0 100
167 -16 144 294 10 440 0
168 -20 732 882 10 743 0
169 -20 226 376 10 257 0
170 -10 1278 1428 10 405 0
171 -10 196 346 10 292 0
172 -10 430 580 10 122 0
173 14 734 884 10 0 256
174 10 270 420 10 0 50
175 -20 237 387 10 101 0
176 12 42 192 10 0 157
177 -30 884 1034 10 52 0
178 25 155 305 10 0 401
179 -10 904 1054 10 196 0
180 20 197 347 10 0 416
181 -2 1244 1394 10 727 0
182 15 605 755 10 0 250
183 20 239 389 10 0 34
184 -15 190 340 10 56 0
185 21 244 394 10 0 216
186 -10 803 953 10 494 0
187 -10 1005 1155 10 22 0
188 20 180 330 10 0 650
189 -10 391 541 10 653 0
190 18 217 367 10 0 26
191 16 188 338 10 0 266
192 12 5 155 10 0 255
193 -10 609 759 10 70 0
194 -29 1160 1310 10 278 0
195 30 364 514 10 0 270
196 10 234 384 10 0 179
197 20 261 411 10 0 206
198 -29 195 345 10 152 0
199 7 189 339 10 0 539
200 -13 1238 1388 10 391 0
201 -20 506 656 10 220 0
202 10 177 327 10 0 455
203 -30 906 1056 10 689 0
204 30 130 280 10 0 275
205 -30 467 617 10 98 0
206 -20 1058 1208 10 197 0
207 22 363 513 0 0 816
208 -20 188 338 10 364 0
209 -20 150 300 10 36 0
210 13 65 215 10 0 73
211 -31 1114 1264 10 365 0
212 10 162 312 0 0 835
213 -10 199 349 10 519 0
214 -10 1045 1195 10 617 0
215 20 162 312 10 0 725
216 -21 427 577 10 185 0
217 4 1182 1332 10 0 64
218 -10 855 1005 10 410 0
219 25 146 296 0 0 819
220 20 126 276 10 0 201
221 20 207 357 10 0 565
222 25 525 675 10 0 660
223 30 116 266 10 0 377
224 -10 139 289 10 601 0
225 -20 284 434 10 249 0
226 -10 207 357 10 635 0
227 -11 1153 1303 10 795 0
228 30 110 260 10 0 27
229 -14 244 394 10 608 0
230 -20 61 211 10 131 0
231 -24 1213 1363 10 360 0
232 30 211 361 0 0 814
233 -10 244 394 10 102 0
234 26 343 493 10 0 370
235 -25 411 561 10 367 0
236 20 148 298 10 0 511
237 -30 37 187 10 74 0
238 10 165 315 10 0 313
239 -20 157 307 10 764 0
240 16 1050 1200 0 0 836
241 20 160 310 10 0 81
242 -10 955 1105 10 453 0
243 12 452 602 10 0 373
244 -20 174 324 10 160 0
245 8 131 281 10 0 551
246 -10 856 1006 10 125 0
247 -10 665 815 10 371 0
248 20 71 221 10 0 393
249 20 161 311 10 0 225
250 -15 604 754 10 182 0
251 -10 518 668 10 8 0
252 30 179 329 10 0 562
253 20 227 377 10 0 719
254 -30 609 759 10 692 0
255 -12 34 184 10 192 0
256 -14 1012 1162 10 173 0
257 20 193 343 10 0 169
258 9 210 360 10 0 308
259 -20 203 353 10 733 0
260 15 531 681 10 0 655
261 -20 180 330 10 388 0
262 10 263 413 10 0 801
263 -10 378 528 10 55 0
264 26 396 546 0 0 803
265 6 120 270 10 0 318
266 -16 237 387 10 191 0
267 -23 891 1041 10 463 0
268 9 352 502 10 0 113
269 10 158 308 10 0 525
270 -30 943 1093 10 195 0
271 11 178 328 10 0 334
272 30 117 267 10 0 648
273 -10 106 256 10 396 0
274 -20 504 654 10 760 0
275 -30 430 580 10 204 0
276 -30 178 328 10 17 0
277 -13 1137 1287 10 742 0
278 29 342 492 10 0 194
279 -9 1258 1408 10 369 0
280 -39 679 829 10 343 0
281 12 745 895 10 0 19
282 -20 116 266 10 718 0
283 3 192 342 10 0 594
284 14 448 598 10 0 149
285 20 890 1040 0 0 830
286 5 793 943 10 0 532
287 -15 1293 1443 10 306 0
288 30 121 271 10 0 517
289 -18 86 236 10 37 0
290 10 268 418 10 0 685
291 5 439 589 10 0 679
292 10 198 348 10 0 171
293 15 692 842 10 0 6
294 -30 471 621 10 740 0
295 20 249 399 10 0 668
296 33 375 525 10 0 340
297 -11 946 1096 10 156 0
298 -16 361 511 10 765 0
299 -10 992 1142 10 353 0
300 12 707 857 10 0 45
301 10 177 327 0 0 826
302 20 72 222 10 0 618
303 20 328 478 10 0 415
304 -10 156 306 10 77 0
305 -30 895 1045 10 556 0
306 15 1290 1440 10 0 287
307 -10 127 277 10 31 0
308 -9 238 388 10 258 0
309 -10 223 373 10 790 0
310 -10 138 288 10 357 0
311 -10 150 300 10 153 0
312 10 152 302 10 0 479
313 -10 166 316 10 238 0
314 -10 529 679 10 68 0
315 10 101 251 10 0 46
316 10 133 283 10 0 500
317 17 84 234 10 0 759
318 -6 192 342 10 265 0
319 -10 230 380 10 351 0
320 21 63 213 10 0 534
321 -20 102 252 10 670 0
322 -23 1011 1161 10 518 0
323 3 391 541 10 0 424
324 10 129 279 10 0 151
325 10 186 336 10 0 620
326 30 142 292 10 0 683
327 20 190 340 10 0 335
328 -30 117 267 10 432 0
329 25 340 490 10 0 515
330 45 427 577 10 0 628
331 -30 200 350 10 578 0
332 -10 112 262 10 508 0
333 20 118 268 10 0 10
334 -11 714 864 10 271 0
335 -20 171 321 10 327 0
336 -12 619 769 10 641 0
337 -10 908 1058 10 756 0
338 -10 128 278 10 433 0
339 -10 231 381 10 436 0
340 -33 1156 1306 10 296 0
341 -10 188 338 10 690 0
342 30 112 262 10 0 675
343 39 214 364 10 0 280
344 -20 135 285 10 450 0
345 18 179 329 10 0 91
346 -10 145 295 10 40 0
347 -10 105 255 10 574 0
348 -37 244 394 10 403 0
349 -30 488 638 10 667 0
350 -20 63 213 10 438 0
351 10 200 350 10 0 319
352 3 151 301 10 0 39
353 10 182 332 10 0 299
354 -8 373 523 10 376 0
355 -10 92 242 10 611 0
356 20 185 335 10 0 471
357 10 61 211 10 0 310
358 22 491 641 10 0 132
359 30 104 254 10 0 374
360 24 1215 1365 10 0 231
361 19 83 233 10 0 483
362 23 589 739 10 0 379
363 10 223 373 0 0 810
364 20 211 361 10 0 208
365 31 860 1010 10 0 211
366 -20 864 1014 10 444 0
367 25 102 252 10 0 235
368 -12 1276 1426 10 584 0
369 9 61 211 10 0 279
370 -26 727 877 10 234 0
371 10 541 691 10 0 247
372 37 501 651 10 0 606
373 -12 527 677 10 243 0
374 -30 146 296 10 359 0
375 -20 271 421 10 652 0
376 8 180 330 10 0 354
377 -30 384 534 10 223 0
378 -20 543 693 10 745 0
379 -23 1042 1192 10 362 0
380 20 71 221 10 0 30
381 12 1084 1234 0 0 839
382 -20 832 982 10 589 0
383 -30 263 413 10 516 0
384 -10 235 385 10 593 0
385 20 671 821 10 0 458
386 19 100 250 10 0 44
387 20 122 272 10 0 619
388 20 178 328 10 0 261
389 -20 806 956 10 586 0
390 -30 150 300 10 605 0
391 13 1189 1339 10 0 200
392 20 62 212 10 0 738
393 -20 619 769 10 248 0
394 20 125 275 10 0 505
395 -10 102 252 10 522 0
396 10 103 253 10 0 273
397 -22 1098 1248 10 42 0
398 -10 260 410 10 47 0
399 10 150 300 10 0 142
400 14 97 247 10 0 49
401 -25 176 326 10 178 0
402 20 87 237 10 0 788
403 37 281 431 10 0 348
404 10 210 360 10 0 66
405 10 228 378 10 0 170
406 9 817 967 10 0 783
407 -20 363 513 10 126 0
408 20 119 269 0 0 831
409 12 280 430 10 0 110
410 10 172 322 10 0 218
411 20 125 275 10 0 638
412 -20 97 247 10 3 0
413 -10 62 212 10 529 0
414 -30 569 719 10 538 0
415 -20 320 470 10 303 0
416 -20 394 544 10 180 0
417 10 144 294 10 0 41
418 -23 531 681 10 786 0
419 -19 881 1031 10 784 0
420 30 147 297 10 0 63
421 30 62 212 10 0 705
422 9 205 355 10 0 105
423 -7 1100 1250 10 86 0
424 -3 920 1070 10 323 0
425 10 153 303 10 0 127
426 10 208 358 10 0 643
427 -10 170 320 10 58 0
428 14 705 855 10 0 674
429 30 112 262 10 0 585
430 -20 1067 1217 10 96 0
431 -30 398 548 10 513 0
432 30 133 283 10 0 328
433 10 96 246 10 0 338
434 27 219 369 10 0 649
435 14 615 765 10 0 772
436 10 167 317 10 0 339
437 20 60 210 10 0 163
438 20 30 180 10 0 350
439 20 177 327 10 0 681
440 16 70 220 10 0 167
441 30 110 260 10 0 533
442 20 95 245 10 0 633
443 -20 1077 1227 10 755 0
444 20 79 229 10 0 366
445 -26 1022 1172 10 99 0
446 20 230 380 0 0 804
447 20 57 207 10 0 115
448 -20 219 369 10 60 0
449 -20 499 649 10 120 0
450 20 132 282 10 0 344
451 20 83 233 10 0 162
452 17 518 668 0 0 805
453 10 557 707 10 0 242
454 -10 183 333 10 161 0
455 -10 144 294 10 202 0
456 -20 281 431 10 128 0
457 15 633 783 10 0 12
458 -20 1319 1469 10 385 0
459 20 165 315 10 0 9
460 17 440 590 0 0 834
461 30 202 352 10 0 651
462 -19 1171 1321 10 793 0
463 23 712 862 10 0 267
464 10 153 303 10 0 724
465 -24 1166 1316 10 575 0
466 -10 196 346 10 634 0
467 20 176 326 10 0 14
468 -20 655 805 10 666 0
469 -7 1228 1378 10 688 0
470 32 641 791 10 0 639
471 -20 172 322 10 356 0
472 10 118 268 10 0 499
473 10 94 244 0 0 840
474 20 182 332 10 0 658
475 19 426 576 10 0 35
476 -13 269 419 10 481 0
477 -12 403 553 10 579 0
478 26 1310 1460 0 0 815
479 -10 152 302 10 312 0
480 15 186 336 10 0 704
481 13 79 229 10 0 476
482 28 104 254 10 0 85
483 -19 293 443 10 361 0
484 4 338 488 10 0 536
485 13 124 274 10 0 722
486 20 167 317 10 0 119
487 -20 636 786 10 504 0
488 30 179 329 10 0 561
489 -15 1128 1278 10 616 0
490 -11 1097 1247 10 75 0
491 10 207 357 10 0 716
492 1 134 284 10 0 768
493 30 110 260 10 0 709
494 10 197 347 10 0 186
495 -10 183 333 10 59 0
496 -10 68 218 10 698 0
497 20 110 260 0 0 832
498 30 175 325 10 0 717
499 -10 326 476 10 472 0
500 -10 221 371 10 316 0
501 -20 970 1120 10 663 0
502 -40 799 949 10 540 0
503 33 478 628 0 0 824
504 20 91 241 10 0 487
505 -20 164 314 10 394 0
506 20 165 315 10 0 18
507 20 199 349 0 0 818
508 10 77 227 10 0 332
509 -20 240 390 10 607 0
510 -30 113 263 10 61 0
511 -20 956 1106 10 236 0
512 -20 180 330 10 566 0
513 30 156 306 10 0 431
514 10 94 244 10 0 737
515 -25 407 557 10 329 0
516 30 171 321 10 0 383
517 -30 125 275 10 288 0
518 23 592 742 10 0 322
519 10 187 337 10 0 213
520 15 184 334 10 0 625
521 -23 238 388 10 129 0
522 10 101 251 10 0 395
523 20 108 258 10 0 710
524 24 50 200 10 0 535
525 -10 229 379 10 269 0
526 30 150 300 10 0 141
527 30 207 357 10 0 57
528 -14 209 359 10 51 0
529 10 34 184 10 0 413
530 10 147 297 10 0 79
531 -10 207 357 10 780 0
532 -5 1092 1242 10 286 0
533 -30 109 259 10 441 0
534 -21 223 373 10 320 0
535 -24 96 246 10 524 0
536 -4 1004 1154 10 484 0
537 13 890 1040 0 0 808
538 30 182 332 10 0 414
539 -7 216 366 10 199 0
540 40 212 362 10 0 502
541 -10 178 328 10 600 0
542 -20 972 1122 10 734 0
543 26 125 275 10 0 781
544 -10 97 247 10 785 0
545 30 226 376 10 0 706
546 20 229 379 10 0 597
547 20 139 289 10 0 678
548 11 112 262 10 0 700
549 10 100 250 10 0 728
550 -30 90 240 10 714 0
551 -8 546 696 10 245 0
552 -4 248 398 10 596 0
553 34 730 880 10 0 155
554 10 115 265 10 0 135
555 26 181 331 10 0 695
556 30 640 790 10 0 305
557 -30 769 919 10 570 0
558 -10 184 334 10 87 0
559 30 181 331 10 0 630
560 20 200 350 10 0 67
561 -30 264 414 10 488 0
562 -30 180 330 10 252 0
563 19 36 186 10 0 32
564 30 145 295 10 0 654
565 -20 508 658 10 221 0
566 20 178 328 10 0 512
567 -20 645 795 10 723 0
568 -20 602 752 10 576 0
569 -30 1110 1260 10 647 0
570 30 469 619 10 0 557
571 33 460 610 0 0 821
572 10 191 341 10 0 78
573 10 100 250 10 0 753
574 10 108 258 10 0 347
575 24 614 764 10 0 465
576 20 122 272 10 0 568
577 -35 179 329 10 582 0
578 30 149 299 10 0 331
579 12 345 495 10 0 477
580 -30 788 938 10 720 0
581 10 250 400 10 0 138
582 35 281 431 10 0 577
583 20 74 224 10 0 746
584 12 447 597 10 0 368
585 -30 107 257 10 429 0
586 20 134 284 10 0 389
587 -20 232 382 10 676 0
588 10 234 384 10 0 595
589 20 184 334 10 0 382
590 10 210 360 10 0 118
591 -10 124 274 10 15 0
592 -30 122 272 10 111 0
593 10 247 397 10 0 384
594 -3 244 394 10 283 0
595 -10 235 385 10 588 0
596 4 269 419 10 0 552
597 -20 275 425 10 546 0
598 -9 999 1149 10 117 0
599 10 128 278 10 0 762
600 10 210 360 10 0 541
601 10 122 272 10 0 224
602 15 234 384 10 0 800
603 16 1037 1187 10 0 109
604 -20 621 771 10 794 0
605 30 149 299 10 0 390
606 -37 562 712 10 372 0
607 20 230 380 10 0 509
608 14 180 330 10 0 229
609 20 216 366 10 0 696
610 -17 1109 1259 10 624 0
611 10 121 271 10 0 355
612 -16 742 892 10 84 0
613 17 280 430 10 0 29
614 50 199 349 10 0 754
615 10 92 242 10 0 747
616 15 1157 1307 10 0 489
617 10 121 271 10 0 214
618 -20 247 397 10 302 0
619 -20 460 610 10 387 0
620 -10 489 639 10 325 0
621 -10 168 318 10 782 0
622 -50 763 913 10 20 0
623 10 234 384 0 0 806
624 17 653 803 10 0 610
625 -15 1072 1222 10 520 0
626 -39 1145 1295 10 699 0
627 13 195 345 10 0 687
628 -45 865 1015 10 330 0
629 20 160 310 10 0 158
630 -30 897 1047 10 559 0
631 -10 543 693 10 16 0
632 20 102 252 10 0 148
633 -20 104 254 10 442 0
634 10 208 358 10 0 466
635 10 233 383 10 0 226
636 20 122 272 10 0 749
637 13 739 889 10 0 770
638 -20 121 271 10 411 0
639 -32 1061 1211 10 470 0
640 16 318 468 0 0 833
641 12 91 241 10 0 336
642 16 124 274 10 0 707
643 -10 249 399 10 426 0
644 -20 388 538 10 28 0
645 37 200 350 10 0 735
646 10 90 240 10 0 664
647 30 179 329 10 0 569
648 -30 257 407 10 272 0
649 -27 246 396 10 434 0
650 -20 226 376 10 188 0
651 -30 209 359 10 461 0
652 20 219 369 10 0 375
653 10 66 216 10 0 189
654 -30 437 587 10 564 0
655 -15 487 637 10 260 0
656 -20 89 239 10 729 0
657 -10 142 292 10 139 0
658 -20 829 979 10 474 0
659 8 743 893 10 0 697
660 -25 613 763 10 222 0
661 -29 121 271 10 669 0
662 -20 162 312 10 94 0
663 20 133 283 10 0 501
664 -10 557 707 10 646 0
665 -10 816 966 10 763 0
666 20 320 470 10 0 468
667 30 158 308 10 0 349
668 -20 687 837 10 295 0
669 29 118 268 10 0 661
670 20 104 254 10 0 321
671 21 503 653 0 0 828
672 20 92 242 10 0 106
673 -10 198 348 10 748 0
674 -14 989 1139 10 428 0
675 -30 113 263 10 342 0
676 20 143 293 10 0 587
677 -20 553 703 10 90 0
678 -20 262 412 10 547 0
679 -5 667 817 10 291 0
680 2 898 1048 10 0 774
681 -20 269 419 10 439 0
682 10 180 330 10 0 741
683 -30 580 730 10 326 0
684 20 115 265 0 0 822
685 -10 257 407 10 290 0
686 10 125 275 10 0 796
687 -13 217 367 10 627 0
688 7 814 964 10 0 469
689 30 238 388 10 0 203
690 10 186 336 10 0 341
691 10 36 186 10 0 767
692 30 196 346 10 0 254
693 -10 59 209 10 146 0
694 -40 247 397 10 108 0
695 -26 235 385 10 555 0
696 -20 230 380 10 609 0
697 -8 779 929 10 659 0
698 10 66 216 10 0 496
699 39 819 969 10 0 626
700 -11 709 859 10 548 0
701 -2 239 389 10 731 0
702 20 103 253 10 0 2
703 -20 148 298 10 752 0
704 -15 190 340 10 480 0
705 -30 100 250 10 421 0
706 -30 230 380 10 545 0
707 -16 924 1074 10 642 0
708 20 232 382 10 0 766
709 -30 113 263 10 493 0
710 -20 1029 1179 10 523 0
711 20 85 235 0 0 838
712 -20 229 379 10 797 0
713 20 226 376 0 0 820
714 30 84 234 10 0 550
715 -40 1316 1466 10 88 0
716 -10 207 357 10 491 0
717 -30 179 329 10 498 0
718 20 115 265 10 0 282
719 -20 232 382 10 253 0
720 30 191 341 10 0 580
721 -10 90 240 10 775 0
722 -13 1107 1257 10 485 0
723 20 236 386 10 0 567
724 -10 252 402 10 464 0
725 -20 172 322 10 215 0
726 19 103 253 0 0 837
727 2 687 837 10 0 181
728 -10 157 307 10 549 0
729 20 85 235 10 0 656
730 -35 538 688 10 7 0
731 2 194 344 10 0 701
732 -19 853 1003 10 92 0
733 20 151 301 10 0 259
734 20 176 326 10 0 542
735 -37 824 974 10 645 0
736 -20 435 585 10 164 0
737 -10 95 245 10 514 0
738 -20 56 206 10 392 0
739 1 443 593 10 0 80
740 30 184 334 10 0 294
741 -10 701 851 10 682 0
742 13 981 1131 10 0 277
743 20 132 282 10 0 168
744 8 226 376 10 0 5
745 20 98 248 10 0 378
746 -20 1064 1214 10 583 0
747 -10 99 249 10 615 0
748 10 196 346 10 0 673
749 -20 790 940 10 636 0
750 40 233 383 10 0 137
751 8 806 956 10 0 145
752 20 137 287 10 0 703
753 -10 106 256 10 573 0
754 -50 573 723 10 614 0
755 20 192 342 10 0 443
756 10 84 234 10 0 337
757 -10 174 324 10 76 0
758 -21 259 409 10 133 0
759 -17 138 288 10 317 0
760 20 144 294 10 0 274
761 20 181 331 0 0 817
762 -10 947 1097 10 599 0
763 10 241 391 10 0 665
764 20 147 297 10 0 239
765 16 55 205 10 0 298
766 -20 255 405 10 708 0
767 -10 37 187 10 691 0
768 -1 164 314 10 492 0
769 -10 271 421 10 136 0
770 -13 720 870 10 637 0
771 -20 243 393 10 71 0
772 -14 1179 1329 10 435 0
773 23 53 203 10 0 147
774 -2 1266 1416 10 680 0
775 10 93 243 10 0 721
776 26 748 898 10 0 93
777 11 251 401 10 0 23
778 20 194 344 0 0 807
779 23 59 209 10 0 97
780 10 121 271 10 0 531
781 -26 769 919 10 543 0
782 10 179 329 10 0 621
783 -9 1126 1276 10 406 0
784 19 660 810 10 0 419
785 10 36 186 10 0 544
786 23 281 431 10 0 418
787 21 667 817 0 0 809
788 -20 1006 1156 10 402 0
789 20 201 351 0 0 823
790 10 237 387 10 0 309
791 20 133 283 10 0 38
792 30 141 291 10 0 104
793 19 308 458 10 0 462
794 20 142 292 10 0 604
795 11 720 870 10 0 227
796 -10 925 1075 10 686 0
797 20 135 285 10 0 712
798 -20 335 485 10 11 0
799 20 135 285 10 0 103
800 -15 1006 1156 10 602 0
801 -10 389 539 10 262 0
802 -32 900 1050 10 159 0
803 -26 396 546 10 264 0
804 -20 230 380 10 446 0
805 -17 518 668 10 452 0
806 -10 234 384 10 623 0
807 -20 194 344 10 778 0
808 -13 890 1040 10 537 0
809 -21 667 817 10 787 0
810 -10 223 373 10 363 0
811 -5 536 686 10 154 0
812 -36 409 559 10 114 0
813 -10 726 876 10 82 0
814 -30 211 361 10 232 0
815 -26 1310 1460 10 478 0
816 -22 363 513 10 207 0
817 -20 181 331 10 761 0
818 -20 199 349 10 507 0
819 -25 146 296 10 219 0
820 -20 226 376 10 713 0
821 -33 460 610 10 571 0
822 -20 115 265 10 684 0
823 -20 201 351 10 789 0
824 -33 478 628 10 503 0
825 -19 978 1128 10 25 0
826 -10 177 327 10 301 0
827 -1 1171 1321 10 83 0
828 -21 503 653 10 671 0
829 -9 892 1042 10 65 0
830 -20 890 1040 10 285 0
831 -20 119 269 10 408 0
832 -20 110 260 10 497 0
833 -16 318 468 10 640 0
834 -17 440 590 10 460 0
835 -10 162 312 10 212 0
836 -16 1050 1200 10 240 0
837 -19 103 253 10 726 0
838 -20 85 235 10 711 0
839 -12 1084 1234 10 381 0
840 -10 94 244 10 473 0
841 -12 513 663 10 54 0
DEPOT_SECTION
1
-1
EOF
