NAME: lrc1_8_2
TYPE: PDPTW
COMMENT: Li & Lim PDPTW benchmark converted from SINTEF format
DIMENSION: 831
VEHICLES: 200
CAPACITY: 200
EDGE_WEIGHT_TYPE: EUC_2D
NODE_COORD_SECTION
1 200 200
2 244 56
3 245 106
4 233 214
5 395 340
6 229 371
7 384 248
8 277 163
9 52 94
10 89 152
11 218 284
12 340 276
13 206 106
14 375 247
15 113 179
16 348 280
17 223 372
18 361 287
19 6 62
20 37 397
21 364 27
22 14 201
23 325 294
24 41 382
25 325 130
26 384 47
27 116 181
28 346 155
29 359 30
30 222 284
31 91 150
32 140 387
33 176 154
34 352 383
35 213 332
36 133 68
37 151 188
38 105 250
39 94 70
40 287 307
41 267 321
42 220 71
43 244 106
44 338 290
45 5 345
46 145 301
47 393 301
48 359 23
49 196 107
50 348 41
51 59 51
52 126 91
53 234 214
54 108 395
55 186 306
56 125 122
57 12 368
58 348 279
59 26 247
60 393 306
61 268 114
62 2 17
63 62 258
64 186 145
65 338 315
66 66 118
67 68 378
68 294 136
69 73 126
70 68 263
71 302 136
72 234 203
73 127 94
74 233 208
75 210 1
76 102 252
77 152 237
78 2 3
79 92 162
80 177 55
81 193 29
82 105 360
83 193 216
84 338 150
85 68 143
86 180 15
87 182 378
88 39 384
89 43 386
90 291 301
91 32 251
92 246 298
93 32 229
94 116 252
95 198 295
96 63 262
97 119 179
98 174 375
99 199 45
100 150 236
101 363 24
102 393 307
103 331 251
104 293 306
105 18 102
106 196 293
107 299 141
108 364 25
109 41 183
110 342 385
111 302 203
112 212 197
113 384 294
114 381 290
115 110 254
116 196 51
117 264 341
118 23 98
119 278 265
120 23 97
121 281 155
122 352 162
123 209 85
124 15 4
125 177 379
126 18 208
127 343 322
128 369 107
129 31 360
130 263 110
131 240 246
132 380 339
133 111 286
134 213 271
135 251 381
136 322 242
137 390 52
138 26 70
139 300 132
140 342 384
141 357 160
142 204 87
143 197 293
144 98 107
145 400 109
146 231 243
147 84 221
148 230 290
149 397 261
150 222 283
151 247 377
152 60 319
153 79 154
154 256 385
155 140 40
156 8 119
157 208 274
158 84 293
159 74 351
160 95 64
161 329 236
162 248 286
163 234 243
164 244 109
165 340 388
166 161 233
167 125 95
168 351 199
169 61 333
170 146 324
171 372 104
172 381 144
173 394 299
174 363 30
175 358 23
176 220 238
177 97 105
178 186 355
179 391 42
180 48 326
181 74 87
182 264 69
183 341 394
184 128 95
185 362 383
186 41 340
187 13 220
188 85 61
189 340 290
190 396 106
191 79 344
192 201 195
193 90 311
194 207 185
195 92 255
196 385 56
197 396 59
198 51 326
199 169 352
200 230 139
201 286 44
202 286 308
203 339 69
204 206 296
205 142 385
206 370 57
207 35 79
208 17 209
209 128 68
210 145 165
211 237 259
212 89 154
213 72 257
214 158 121
215 323 243
216 367 361
217 165 126
218 45 85
219 137 68
220 310 143
221 18 100
222 201 6
223 297 135
224 86 154
225 374 175
226 91 70
227 166 357
228 113 183
229 347 395
230 243 244
231 243 140
232 14 100
233 393 312
234 92 384
235 294 249
236 195 91
237 235 212
238 350 271
239 353 164
240 262 233
241 200 48
242 214 119
243 234 37
244 93 62
245 234 73
246 157 378
247 194 43
248 268 223
249 355 156
250 248 124
251 364 213
252 371 253
253 31 353
254 41 337
255 209 167
256 352 303
257 53 326
258 388 106
259 21 104
260 381 12
261 221 379
262 46 380
263 192 332
264 343 359
265 320 211
266 34 355
267 338 106
268 397 283
269 267 161
270 124 221
271 310 340
272 270 106
273 243 104
274 68 250
275 213 305
276 214 378
277 287 279
278 313 64
279 244 285
280 154 68
281 14 53
282 298 137
283 371 111
284 393 246
285 118 122
286 9 47
287 171 168
288 321 212
289 115 185
290 336 387
291 357 202
292 374 104
293 271 371
294 291 398
295 353 3
296 74 213
297 17 99
298 253 316
299 369 118
300 11 328
301 126 70
302 165 264
303 377 282
304 73 292
305 174 326
306 135 161
307 85 155
308 360 23
309 20 91
310 72 253
311 87 155
312 134 63
313 349 275
314 325 45
315 182 300
316 328 239
317 138 143
318 372 256
319 57 381
320 162 251
321 183 301
322 381 375
323 389 171
324 179 305
325 14 210
326 290 311
327 345 158
328 200 83
329 342 154
330 18 294
331 156 4
332 247 212
333 93 149
334 299 399
335 369 171
336 246 247
337 356 223
338 266 116
339 39 34
340 51 205
341 180 387
342 203 88
343 173 72
344 129 85
345 45 291
346 294 311
347 305 198
348 338 391
349 349 135
350 237 213
351 82 360
352 102 84
353 300 144
354 236 38
355 278 159
356 344 280
357 149 234
358 320 373
359 109 252
360 218 134
361 184 282
362 32 78
363 395 310
364 19 206
365 243 275
366 175 192
367 299 227
368 159 164
369 215 260
370 163 364
371 208 20
372 97 387
373 294 13
374 108 250
375 389 306
376 262 30
377 334 92
378 279 337
379 3 15
380 210 271
381 256 145
382 387 267
383 8 285
384 83 357
385 267 295
386 279 262
387 238 101
388 219 377
389 126 90
390 129 67
391 166 115
392 238 250
393 246 244
394 131 95
395 115 257
396 243 106
397 202 158
398 389 307
399 237 109
400 117 148
401 180 375
402 276 157
403 303 358
404 17 96
405 173 381
406 70 81
407 46 197
408 206 81
409 348 343
410 95 63
411 324 216
412 265 127
413 196 138
414 26 260
415 384 307
416 23 317
417 204 292
418 321 287
419 56 97
420 70 264
421 152 240
422 0 155
423 317 68
424 395 167
425 289 306
426 75 367
427 353 276
428 183 71
429 312 200
430 49 222
431 297 137
432 200 89
433 242 113
434 341 33
435 55 341
436 99 67
437 236 243
438 229 209
439 93 59
440 143 159
441 267 112
442 196 295
443 334 100
444 122 183
445 225 53
446 28 353
447 158 239
448 392 307
449 13 59
450 127 90
451 221 281
452 326 374
453 178 103
454 376 251
455 293 310
456 386 60
457 300 272
458 243 209
459 102 67
460 285 107
461 82 365
462 5 344
463 366 97
464 220 283
465 79 95
466 369 100
467 371 244
468 366 340
469 85 128
470 231 6
471 330 313
472 202 85
473 236 204
474 220 381
475 206 286
476 274 7
477 369 211
478 126 208
479 134 62
480 67 318
481 232 127
482 96 209
483 146 301
484 308 178
485 294 118
486 280 224
487 241 275
488 82 65
489 159 11
490 300 64
491 22 96
492 334 186
493 310 200
494 52 331
495 25 256
496 210 268
497 310 196
498 183 375
499 194 65
500 366 251
501 285 184
502 160 313
503 349 324
504 225 288
505 124 69
506 349 272
507 87 365
508 240 210
509 40 380
510 276 116
511 280 5
512 20 204
513 301 139
514 195 294
515 377 144
516 34 242
517 324 217
518 348 371
519 70 256
520 48 304
521 41 378
522 114 254
523 264 112
524 244 176
525 349 181
526 346 163
527 52 334
528 53 51
529 177 174
530 114 178
531 367 255
532 19 61
533 273 118
534 84 359
535 244 114
536 321 144
537 384 53
538 29 250
539 172 383
540 84 360
541 28 246
542 107 159
543 319 160
544 230 241
545 32 352
546 32 357
547 237 108
548 162 94
549 185 299
550 110 188
551 259 4
552 34 385
553 156 32
554 201 297
555 311 344
556 174 329
557 119 286
558 179 383
559 26 250
560 84 363
561 6 20
562 373 253
563 184 233
564 177 300
565 88 121
566 22 205
567 306 361
568 87 164
569 123 176
570 131 275
571 315 237
572 85 67
573 197 300
574 308 196
575 114 88
576 87 153
577 21 201
578 137 64
579 361 194
580 115 51
581 24 96
582 2 200
583 211 274
584 102 149
585 307 196
586 127 87
587 302 274
588 383 53
589 376 254
590 15 100
591 111 179
592 308 204
593 85 358
594 391 54
595 385 55
596 65 335
597 46 378
598 310 363
599 217 286
600 33 247
601 88 150
602 397 73
603 70 231
604 72 315
605 131 67
606 117 381
607 31 357
608 299 351
609 393 297
610 102 118
611 273 160
612 350 131
613 364 55
614 47 328
615 109 186
616 143 20
617 134 98
618 42 384
619 255 80
620 52 194
621 128 93
622 50 385
623 386 57
624 86 112
625 26 275
626 40 336
627 135 384
628 52 301
629 68 261
630 36 288
631 375 294
632 220 288
633 186 304
634 369 106
635 96 69
636 321 217
637 177 77
638 320 216
639 246 47
640 350 207
641 279 247
642 153 315
643 68 386
644 399 179
645 297 240
646 199 290
647 21 204
648 362 28
649 353 65
650 24 57
651 75 368
652 393 305
653 239 254
654 146 320
655 369 6
656 277 154
657 304 141
658 205 372
659 339 3
660 254 0
661 321 209
662 114 250
663 318 219
664 209 283
665 48 358
666 339 384
667 351 153
668 377 29
669 317 183
670 183 303
671 299 308
672 197 292
673 370 98
674 188 67
675 207 87
676 295 307
677 325 311
678 228 96
679 368 215
680 208 86
681 75 76
682 27 251
683 308 314
684 217 289
685 337 388
686 133 94
687 91 388
688 87 147
689 389 54
690 185 386
691 234 212
692 53 330
693 237 247
694 369 19
695 346 385
696 397 313
697 355 41
698 211 266
699 8 363
700 59 89
701 344 391
702 242 105
703 327 242
704 55 324
705 114 252
706 29 355
707 102 377
708 345 382
709 313 194
710 285 136
711 272 154
712 379 254
713 22 210
714 117 187
715 157 220
716 21 96
717 182 379
718 298 138
719 28 356
720 130 70
721 111 184
722 319 113
723 347 385
724 220 337
725 344 283
726 217 98
727 76 90
728 175 299
729 270 151
730 398 258
731 344 321
732 266 234
733 49 187
734 92 155
735 344 236
736 226 52
737 183 294
738 237 243
739 184 69
740 222 383
741 21 255
742 390 357
743 272 161
744 371 349
745 220 296
746 184 235
747 113 184
748 370 104
749 273 182
750 382 54
751 379 126
752 327 241
753 189 306
754 26 326
755 367 104
756 271 154
757 67 258
758 86 357
759 107 98
760 66 254
761 374 253
762 228 341
763 60 328
764 268 160
765 201 255
766 397 362
767 236 210
768 349 157
769 348 319
770 186 75
771 327 115
772 77 319
773 147 210
774 195 148
775 108 186
776 26 199
777 305 255
778 368 102
779 146 174
780 319 217
781 335 202
782 128 94
783 82 78
784 92 68
785 231 219
786 309 274
787 336 386
788 324 194
789 174 387
790 24 93
791 107 247
792 291 308
793 13 322
794 68 254
795 142 379
796 43 121
797 329 241
798 260 352
799 328 243
800 384 64
801 80 365
802 45 85
803 129 85
804 319 113
805 119 286
806 381 12
807 322 242
808 318 219
809 90 311
810 107 159
811 124 221
812 102 118
813 300 272
814 123 176
815 234 73
816 234 243
817 220 381
818 324 216
819 163 364
820 278 265
821 108 250
822 357 202
823 94 70
824 47 328
825 389 54
826 126 90
827 325 130
828 186 145
829 272 161
830 102 377
831 215 260
PICKUP_AND_DELIVERY_SECTION
1 0 0 1573 0 0 0
2 14 662 692 10 0 674
3 -1 121 151 10 194 0
4 10 0 1528 10 0 350
5 24 0 1323 10 0 766
6 -30 1013 1043 10 261 0
7 -20 222 252 10 467 0
8 10 166 196 10 0 250
9 -30 0 1381 10 259 0
10 -12 0 1443 10 584 0
11 -20 0 1478 10 150 0
12 -20 868 898 10 506 0
13 33 0 1469 10 0 142
14 10 181 211 10 0 454
15 -10 196 226 10 591 0
16 10 217 247 10 0 131
17 30 236 266 10 0 724
18 13 256 286 10 0 415
19 -18 0 1325 10 124 0
20 -10 825 855 10 618 0
21 -20 305 335 10 29 0
22 -20 216 246 10 577 0
23 -10 1146 1176 10 698 0
24 20 248 278 10 0 552
25 19 1038 1068 0 0 827
26 31 1091 1121 10 0 200
27 20 221 251 10 0 478
28 -20 237 267 10 327 0
29 20 0 1331 10 0 21
30 10 92 122 10 0 504
31 10 119 149 10 0 576
32 8 196 226 10 0 658
33 15 51 81 10 0 155
34 16 798 828 10 0 322
35 21 718 748 10 0 762
36 20 175 205 10 0 720
37 -7 0 1513 10 93 0
38 30 180 210 10 0 366
39 30 280 310 0 0 823
40 -30 225 255 10 455 0
41 -19 633 663 10 361 0
42 22 676 706 10 0 241
43 40 0 1460 10 0 273
44 -36 650 680 10 114 0
45 -10 1211 1241 10 67 0
46 8 115 145 10 0 627
47 -10 217 247 10 427 0
48 -20 237 267 10 175 0
49 -10 1329 1359 10 328 0
50 -26 658 688 10 373 0
51 -20 206 236 10 188 0
52 -10 190 220 10 617 0
53 10 110 140 10 0 72
54 -37 573 603 10 372 0
55 10 172 202 10 0 385
56 -10 111 141 10 529 0
57 -10 0 1311 10 262 0
58 10 206 236 10 0 786
59 -22 0 1383 10 147 0
60 -10 240 270 10 238 0
61 30 175 205 10 0 201
62 11 269 299 10 0 138
63 -16 0 1414 10 625 0
64 18 1477 1507 0 0 828
65 -20 952 982 10 183 0
66 -30 565 595 10 714 0
67 10 682 712 10 0 45
68 10 113 143 10 0 349
69 38 419 449 10 0 287
70 -20 195 225 10 94 0
71 20 165 195 10 0 190
72 -10 167 197 10 53 0
73 -20 216 246 10 586 0
74 30 33 63 10 0 237
75 -17 0 1364 10 736 0
76 10 166 196 10 0 794
77 10 71 101 10 0 186
78 14 794 824 10 0 379
79 20 253 283 10 0 568
80 -26 756 786 10 247 0
81 16 757 787 10 0 280
82 -20 786 816 10 560 0
83 -30 1231 1261 10 556 0
84 -20 768 798 10 249 0
85 -25 1255 1285 10 109 0
86 -8 0 1377 10 376 0
87 10 187 217 10 0 341
88 40 261 291 10 0 89
89 -40 295 325 10 88 0
90 20 135 165 10 0 676
91 20 0 1388 10 0 538
92 -29 956 986 10 769 0
93 7 1054 1084 10 0 37
94 20 98 128 10 0 70
95 -20 145 175 10 672 0
96 -20 179 209 10 100 0
97 -20 235 265 10 444 0
98 -10 0 1387 10 573 0
99 26 790 820 10 0 397
100 20 61 91 10 0 96
101 20 257 287 10 0 659
102 10 262 292 10 0 398
103 20 140 170 10 0 679
104 -10 141 171 10 653 0
105 18 232 262 10 0 118
106 -30 0 1470 10 157 0
107 -30 229 259 10 513 0
108 -29 293 323 10 377 0
109 25 1177 1207 10 0 85
110 -10 356 386 10 685 0
111 -10 0 1461 10 709 0
112 -30 854 884 10 767 0
113 -20 557 587 10 609 0
114 36 0 1361 10 0 44
115 20 137 167 10 0 305
116 19 530 560 10 0 312
117 -13 1041 1071 10 798 0
118 -18 332 362 10 105 0
119 23 649 679 0 0 820
120 20 321 351 10 0 406
121 10 137 167 10 0 735
122 10 0 1407 10 0 141
123 10 134 164 10 0 453
124 18 699 729 10 0 19
125 -21 302 332 10 227 0
126 20 259 289 10 0 364
127 -2 811 841 10 731 0
128 20 279 309 10 0 612
129 23 277 307 10 0 665
130 10 138 168 10 0 243
131 -10 0 1503 10 16 0
132 10 741 771 10 0 256
133 21 133 163 10 0 152
134 -10 0 1491 10 599 0
135 -5 0 1375 10 154 0
136 10 233 263 0 0 807
137 -20 291 321 10 594 0
138 -11 921 951 10 62 0
139 10 151 181 10 0 283
140 -10 367 397 10 165 0
141 -10 180 210 10 122 0
142 -33 113 143 10 13 0
143 -10 99 129 10 646 0
144 -15 0 1425 10 565 0
145 -20 847 877 10 171 0
146 -12 145 175 10 176 0
147 22 0 1446 10 0 59
148 -20 122 152 10 451 0
149 16 585 615 10 0 382
150 20 85 115 10 0 11
151 -10 1215 1245 10 401 0
152 -21 255 285 10 133 0
153 10 171 201 10 0 368
154 5 596 626 10 0 135
155 -15 1015 1045 10 33 0
156 -17 0 1355 10 317 0
157 30 80 110 10 0 106
158 -16 556 586 10 765 0
159 -8 960 990 10 304 0
160 20 178 208 10 0 783
161 10 171 201 10 0 703
162 35 98 128 10 0 378
163 20 0 1509 0 0 816
164 20 108 138 10 0 387
165 10 343 373 10 0 140
166 30 117 147 10 0 662
167 -20 204 234 10 450 0
168 -6 792 822 10 265 0
169 -9 0 1371 10 254 0
170 -2 1398 1428 10 687 0
171 20 0 1367 10 0 145
172 18 0 1374 10 0 536
173 -22 794 824 10 216 0
174 10 330 360 10 0 423
175 20 0 1326 10 0 48
176 12 42 72 10 0 146
177 -10 944 974 10 339 0
178 -10 0 1408 10 324 0
179 -19 964 994 10 800 0
180 20 214 244 10 0 763
181 -18 0 1394 10 528 0
182 15 665 695 10 0 396
183 20 290 320 10 0 65
184 -10 250 280 10 782 0
185 -4 0 1319 10 277 0
186 -10 0 1352 10 77 0
187 -9 1065 1095 10 620 0
188 20 180 210 10 0 51
189 -19 0 1397 10 386 0
190 -20 0 1346 10 71 0
191 16 217 247 10 0 604
192 12 5 35 10 0 458
193 12 669 699 0 0 809
194 1 0 1547 10 0 3
195 -20 424 454 10 757 0
196 -20 254 284 10 595 0
197 -8 321 351 10 267 0
198 10 201 231 10 0 494
199 -20 249 279 10 737 0
200 -31 1298 1328 10 26 0
201 -30 566 596 10 61 0
202 -10 237 267 10 425 0
203 -30 966 996 10 272 0
204 30 190 220 10 0 275
205 16 0 1370 10 0 246
206 -13 1118 1148 10 537 0
207 22 423 453 10 0 362
208 -16 248 278 10 603 0
209 -30 210 240 10 605 0
210 13 0 1498 10 0 419
211 -18 0 1494 10 487 0
212 -30 222 252 10 224 0
213 10 0 1423 10 0 274
214 -10 1105 1135 10 686 0
215 -10 222 252 10 780 0
216 22 487 517 10 0 173
217 -30 1242 1272 10 390 0
218 10 0 1370 0 0 802
219 -11 146 176 10 548 0
220 -26 0 1440 10 644 0
221 20 207 237 10 0 404
222 25 0 1369 10 0 616
223 -18 136 166 10 431 0
224 30 199 229 10 0 212
225 -23 0 1388 10 335 0
226 -21 267 297 10 759 0
227 21 0 1403 10 0 125
228 30 170 200 10 0 530
229 -11 274 304 10 271 0
230 -9 61 91 10 738 0
231 15 0 1490 10 0 460
232 30 0 1352 10 0 281
233 -30 0 1340 10 375 0
234 -10 403 433 10 351 0
235 -20 471 501 10 486 0
236 -30 208 238 10 432 0
237 -30 0 1526 10 74 0
238 10 165 195 10 0 60
239 -20 0 1406 10 711 0
240 -7 1110 1140 10 732 0
241 -22 0 1411 10 42 0
242 -17 0 1481 10 255 0
243 -10 512 542 10 130 0
244 20 201 231 10 0 400
245 8 0 1432 0 0 815
246 -16 0 1380 10 205 0
247 26 725 755 10 0 80
248 20 0 1492 10 0 367
249 20 194 224 10 0 84
250 -10 0 1474 10 8 0
251 -20 578 608 10 477 0
252 30 239 269 10 0 712
253 20 227 257 10 0 446
254 9 669 699 10 0 169
255 17 34 64 10 0 242
256 -10 1072 1102 10 132 0
257 20 0 1370 10 0 607
258 9 264 294 10 0 299
259 30 0 1360 10 0 9
260 15 591 621 0 0 806
261 30 0 1383 10 0 6
262 10 323 353 10 0 57
263 31 0 1431 10 0 558
264 -8 456 486 10 744 0
265 6 120 150 10 0 168
266 30 0 1336 10 0 754
267 8 0 1397 10 0 197
268 9 0 1350 10 0 303
269 -10 218 248 10 355 0
270 27 1003 1033 0 0 811
271 11 178 208 10 0 229
272 30 120 150 10 0 203
273 -40 166 196 10 43 0
274 -10 564 594 10 213 0
275 -30 490 520 10 204 0
276 -19 178 208 10 475 0
277 4 0 1446 10 0 185
278 29 0 1387 10 0 535
279 -15 1318 1348 10 293 0
280 -16 0 1424 10 81 0
281 -30 805 835 10 232 0
282 -20 124 154 10 729 0
283 -10 249 279 10 139 0
284 -20 508 538 10 589 0
285 -10 950 980 10 721 0
286 5 853 883 10 0 297
287 -38 1353 1383 10 69 0
288 30 121 151 10 0 640
289 10 94 124 10 0 688
290 -10 328 358 10 701 0
291 5 499 529 0 0 822
292 -20 232 262 10 778 0
293 15 752 782 10 0 279
294 -14 531 561 10 608 0
295 -16 0 1314 10 655 0
296 -20 435 465 10 713 0
297 -5 1006 1036 10 286 0
298 -20 0 1436 10 598 0
299 -9 1052 1082 10 258 0
300 -19 767 797 10 793 0
301 -30 237 267 10 578 0
302 -18 0 1491 10 606 0
303 -9 388 418 10 268 0
304 8 175 205 10 0 159
305 -20 955 985 10 115 0
306 -28 1350 1380 10 482 0
307 20 187 217 10 0 311
308 20 0 1325 10 0 694
309 10 0 1353 10 0 532
310 -10 0 1425 10 519 0
311 -20 210 240 10 307 0
312 -19 0 1411 10 116 0
313 -20 192 222 10 752 0
314 -17 589 619 10 613 0
315 10 109 139 10 0 321
316 10 185 215 10 0 781
317 17 84 114 10 0 156
318 -2 0 1383 10 631 0
319 22 230 260 10 0 643
320 -19 63 93 10 563 0
321 -10 120 150 10 315 0
322 -16 0 1312 10 34 0
323 3 451 481 10 0 424
324 10 189 219 10 0 178
325 -30 235 265 10 647 0
326 30 187 217 10 0 792
327 20 250 280 10 0 28
328 10 0 1446 10 0 49
329 -30 0 1414 10 592 0
330 45 0 1359 10 0 626
331 -34 0 1363 10 553 0
332 -10 172 202 10 785 0
333 -16 118 148 10 440 0
334 -4 774 804 10 567 0
335 23 171 201 10 0 225
336 -10 679 709 10 544 0
337 28 968 998 10 0 517
338 -50 188 218 10 510 0
339 10 242 272 10 0 177
340 -20 1216 1246 10 566 0
341 -10 245 275 10 87 0
342 30 112 142 10 0 472
343 39 274 304 10 0 505
344 20 0 1428 0 0 803
345 -10 213 243 10 395 0
346 10 163 193 10 0 683
347 20 105 135 10 0 638
348 -10 304 334 10 695 0
349 -10 548 578 10 68 0
350 -10 123 153 10 4 0
351 10 260 290 10 0 234
352 3 165 195 10 0 488
353 10 242 272 10 0 501
354 -20 433 463 10 523 0
355 10 152 182 10 0 269
356 -20 0 1399 10 799 0
357 10 61 91 10 0 705
358 22 551 581 10 0 666
359 -20 0 1459 10 447 0
360 -35 1275 1305 10 490 0
361 19 83 113 10 0 41
362 -22 649 679 10 207 0
363 -20 276 306 10 652 0
364 -20 271 301 10 126 0
365 31 0 1477 10 0 587
366 -30 924 954 10 38 0
367 -20 0 1461 10 248 0
368 -10 1336 1366 10 153 0
369 9 61 91 0 0 831
370 21 787 817 0 0 819
371 10 601 631 10 0 489
372 37 561 591 10 0 54
373 26 587 617 10 0 50
374 10 0 1459 0 0 821
375 30 331 361 10 0 233
376 8 180 210 10 0 86
377 29 0 1391 10 0 108
378 -35 603 633 10 162 0
379 -14 1102 1132 10 78 0
380 20 71 101 10 0 554
381 -10 1144 1174 10 611 0
382 -16 892 922 10 149 0
383 -10 0 1354 10 682 0
384 10 295 325 10 0 593
385 -10 731 761 10 55 0
386 19 100 130 10 0 189
387 -20 182 212 10 164 0
388 -30 220 250 10 740 0
389 31 866 896 0 0 826
390 30 199 229 10 0 217
391 -20 1249 1279 10 479 0
392 20 92 122 10 0 437
393 -30 679 709 10 693 0
394 -10 0 1438 10 621 0
395 10 121 151 10 0 345
396 -15 0 1460 10 182 0
397 -26 1158 1188 10 99 0
398 -10 320 350 10 102 0
399 10 0 1465 10 0 445
400 -20 0 1466 10 244 0
401 10 0 1387 10 0 151
402 20 110 140 10 0 764
403 -26 341 371 10 555 0
404 -20 242 272 10 221 0
405 10 288 318 10 0 498
406 -20 877 907 10 120 0
407 -20 423 453 10 512 0
408 20 149 179 10 0 499
409 12 340 370 10 0 468
410 -20 189 219 10 459 0
411 20 0 1438 0 0 818
412 35 0 1466 10 0 441
413 -13 0 1501 10 637 0
414 16 0 1379 10 0 715
415 -13 0 1351 10 18 0
416 10 454 484 10 0 435
417 10 204 234 10 0 664
418 -12 0 1414 10 641 0
419 -13 941 971 10 210 0
420 30 207 237 10 0 570
421 30 84 114 10 0 791
422 -10 205 235 10 775 0
423 -10 0 1387 10 174 0
424 -3 0 1366 10 323 0
425 10 213 243 10 0 202
426 10 0 1355 10 0 622
427 10 0 1393 10 0 47
428 -1 765 795 10 739 0
429 -10 156 186 10 574 0
430 -30 1127 1157 10 559 0
431 18 0 1448 10 0 223
432 30 0 1452 10 0 236
433 10 96 126 10 0 619
434 -21 279 309 10 443 0
435 -10 675 705 10 416 0
436 -24 0 1396 10 575 0
437 -20 120 150 10 392 0
438 20 30 60 10 0 691
439 -10 0 1386 10 572 0
440 16 70 100 10 0 333
441 -35 0 1453 10 412 0
442 -10 133 163 10 514 0
443 21 0 1396 10 0 434
444 20 79 109 10 0 97
445 -10 0 1414 10 399 0
446 -20 0 1333 10 253 0
447 20 100 130 10 0 359
448 20 251 281 10 0 696
449 -27 559 589 10 561 0
450 20 179 209 10 0 167
451 20 83 113 10 0 148
452 -21 0 1349 10 671 0
453 -10 0 1464 10 123 0
454 -10 191 221 10 14 0
455 30 174 204 10 0 40
456 -10 341 371 10 623 0
457 15 693 723 0 0 813
458 -12 1379 1409 10 192 0
459 20 165 195 10 0 410
460 -15 500 530 10 231 0
461 30 0 1361 10 0 758
462 -10 1259 1289 10 597 0
463 -10 772 802 10 748 0
464 10 0 1478 10 0 632
465 -2 1226 1256 10 727 0
466 -20 202 232 10 755 0
467 20 176 206 10 0 7
468 -12 0 1346 10 409 0
469 -10 1288 1318 10 635 0
470 32 0 1367 10 0 639
471 27 172 202 10 0 503
472 -30 178 208 10 342 0
473 -10 0 1527 10 508 0
474 20 182 212 0 0 817
475 19 0 1477 10 0 276
476 -34 329 359 10 533 0
477 20 463 493 10 0 251
478 -20 1370 1400 10 27 0
479 20 0 1411 10 0 391
480 -20 246 276 10 629 0
481 -20 0 1484 10 702 0
482 28 123 153 10 0 306
483 34 353 383 10 0 502
484 -20 398 428 10 718 0
485 13 124 154 10 0 602
486 20 227 257 10 0 235
487 18 696 726 10 0 211
488 -3 237 267 10 352 0
489 -10 0 1370 10 371 0
490 35 1157 1187 10 0 360
491 -18 0 1357 10 650 0
492 -20 0 1429 10 497 0
493 30 168 198 10 0 788
494 -10 254 284 10 198 0
495 -30 215 245 10 516 0
496 -15 0 1495 10 677 0
497 20 0 1453 10 0 492
498 -10 0 1388 10 405 0
499 -20 386 416 10 408 0
500 -20 281 311 10 761 0
501 -10 1030 1060 10 353 0
502 -34 859 889 10 483 0
503 -27 538 568 10 471 0
504 -10 107 137 10 30 0
505 -39 0 1412 10 343 0
506 20 165 195 10 0 12
507 20 199 229 10 0 651
508 10 137 167 10 0 473
509 -20 240 270 10 521 0
510 50 113 143 10 0 338
511 9 1016 1046 10 0 726
512 20 0 1383 10 0 407
513 30 0 1446 10 0 107
514 10 121 151 10 0 442
515 23 0 1378 10 0 751
516 30 0 1392 10 0 495
517 -28 0 1438 10 337 0
518 23 652 682 10 0 725
519 10 247 277 10 0 310
520 15 230 260 10 0 654
521 20 238 268 10 0 509
522 10 108 138 10 0 527
523 20 150 180 10 0 354
524 24 50 80 10 0 669
525 -20 289 319 10 656 0
526 30 150 180 10 0 667
527 -10 267 297 10 522 0
528 18 235 265 10 0 181
529 10 34 64 10 0 56
530 -30 207 237 10 228 0
531 -20 267 297 10 797 0
532 -10 1152 1182 10 309 0
533 34 109 139 10 0 476
534 -40 283 313 10 540 0
535 -29 0 1467 10 278 0
536 -18 1064 1094 10 172 0
537 13 950 980 10 0 206
538 -20 242 272 10 91 0
539 -10 276 306 10 690 0
540 40 272 302 10 0 534
541 20 178 208 10 0 741
542 33 0 1462 0 0 810
543 -10 0 1438 10 657 0
544 10 157 187 10 0 336
545 -30 226 256 10 692 0
546 -10 284 314 10 704 0
547 20 199 229 10 0 678
548 11 112 142 10 0 219
549 10 100 130 10 0 670
550 10 110 140 10 0 615
551 -4 0 1359 10 660 0
552 -20 0 1315 10 24 0
553 34 790 820 10 0 331
554 -20 0 1466 10 380 0
555 26 187 217 10 0 403
556 30 0 1432 10 0 83
557 18 829 859 0 0 805
558 -31 213 243 10 263 0
559 30 199 229 10 0 430
560 20 200 230 10 0 82
561 27 264 294 10 0 449
562 10 227 257 10 0 730
563 19 36 66 10 0 320
564 -40 205 235 10 753 0
565 15 0 1426 10 0 144
566 20 0 1385 10 0 340
567 4 705 735 10 0 334
568 -20 662 692 10 79 0
569 6 1170 1200 0 0 814
570 -30 529 559 10 420 0
571 -20 520 550 10 585 0
572 10 0 1388 10 0 439
573 10 0 1463 10 0 98
574 10 114 144 10 0 429
575 24 0 1422 10 0 436
576 -10 153 183 10 31 0
577 20 199 229 10 0 22
578 30 149 179 10 0 301
579 -10 405 435 10 756 0
580 -19 0 1392 10 784 0
581 -10 310 340 10 590 0
582 35 0 1365 10 0 776
583 20 93 123 10 0 728
584 12 507 537 10 0 10
585 20 107 137 10 0 571
586 20 166 196 10 0 73
587 -31 292 322 10 365 0
588 -11 234 264 10 710 0
589 20 204 234 10 0 284
590 10 216 246 10 0 581
591 10 0 1472 10 0 15
592 30 182 212 10 0 329
593 -10 307 337 10 384 0
594 20 0 1323 10 0 137
595 20 0 1328 10 0 196
596 4 329 359 10 0 772
597 10 335 365 10 0 462
598 20 1059 1089 10 0 298
599 10 188 218 10 0 134
600 -20 270 300 10 760 0
601 10 129 159 10 0 734
602 -13 0 1329 10 485 0
603 16 0 1430 10 0 208
604 -16 681 711 10 191 0
605 30 187 217 10 0 209
606 18 622 652 10 0 302
607 -20 273 303 10 257 0
608 14 0 1383 10 0 294
609 20 0 1347 10 0 113
610 22 0 1436 0 0 812
611 10 181 211 10 0 381
612 -20 802 832 10 128 0
613 17 340 370 10 0 314
614 50 226 256 0 0 824
615 -10 134 164 10 550 0
616 -25 1217 1247 10 222 0
617 10 121 151 10 0 52
618 10 307 337 10 0 20
619 -10 520 550 10 433 0
620 9 549 579 10 0 187
621 10 0 1435 10 0 394
622 -10 0 1325 10 426 0
623 10 265 295 10 0 456
624 -23 713 743 10 681 0
625 16 1132 1162 10 0 63
626 -45 1205 1235 10 330 0
627 -8 0 1368 10 46 0
628 7 925 955 10 0 630
629 20 0 1418 10 0 480
630 -7 957 987 10 628 0
631 2 603 633 10 0 318
632 -10 162 192 10 464 0
633 10 0 1459 10 0 746
634 -20 268 298 10 673 0
635 10 293 323 10 0 469
636 -30 158 188 10 661 0
637 13 799 829 10 0 413
638 -20 170 200 10 347 0
639 -32 1121 1151 10 470 0
640 -30 378 408 10 288 0
641 12 91 121 10 0 418
642 16 124 154 10 0 795
643 -22 0 1335 10 319 0
644 26 0 1363 10 0 220
645 37 260 290 10 0 777
646 10 90 120 10 0 143
647 30 179 209 10 0 325
648 10 317 347 10 0 668
649 -40 0 1359 10 750 0
650 18 226 256 10 0 491
651 -20 229 259 10 507 0
652 20 229 259 10 0 363
653 10 78 108 10 0 104
654 -15 497 527 10 520 0
655 16 547 577 10 0 295
656 20 123 153 10 0 525
657 10 0 1444 10 0 543
658 -8 889 919 10 32 0
659 -20 803 833 10 101 0
660 4 673 703 10 0 551
661 30 121 151 10 0 636
662 -30 222 252 10 166 0
663 20 0 1444 0 0 808
664 -10 617 647 10 417 0
665 -23 876 906 10 129 0
666 -22 0 1333 10 358 0
667 -30 209 239 10 526 0
668 -10 747 777 10 648 0
669 -24 118 148 10 524 0
670 -10 132 162 10 549 0
671 21 563 593 10 0 452
672 20 92 122 10 0 95
673 20 214 244 10 0 634
674 -14 1049 1079 10 2 0
675 20 121 151 10 0 774
676 -20 0 1420 10 90 0
677 15 0 1396 10 0 496
678 -20 322 352 10 547 0
679 -20 727 757 10 103 0
680 2 0 1449 10 0 770
681 23 329 359 10 0 624
682 10 230 260 10 0 383
683 -10 640 670 10 346 0
684 -20 175 205 10 745 0
685 10 0 1331 10 0 110
686 10 133 163 10 0 214
687 2 217 247 10 0 170
688 -10 874 904 10 289 0
689 30 0 1325 0 0 825
690 10 230 260 10 0 539
691 -20 0 1527 10 438 0
692 30 0 1367 10 0 545
693 30 105 135 10 0 393
694 -20 0 1316 10 308 0
695 10 235 265 10 0 348
696 -20 290 320 10 448 0
697 -15 839 869 10 771 0
698 10 122 152 10 0 23
699 -18 879 909 10 801 0
700 24 769 799 10 0 796
701 10 259 289 10 0 290
702 20 155 185 10 0 481
703 -10 208 238 10 161 0
704 10 0 1373 10 0 546
705 -10 100 130 10 357 0
706 10 248 278 10 0 719
707 16 0 1361 0 0 830
708 20 232 262 10 0 723
709 10 139 169 10 0 111
710 11 0 1457 10 0 588
711 20 95 125 10 0 239
712 -30 289 319 10 252 0
713 20 286 316 10 0 296
714 30 84 114 10 0 66
715 -16 0 1516 10 414 0
716 20 256 286 10 0 790
717 20 198 228 10 0 789
718 20 115 145 10 0 484
719 -10 260 290 10 706 0
720 -20 251 281 10 36 0
721 10 147 177 10 0 285
722 26 1167 1197 0 0 804
723 -20 242 272 10 708 0
724 -30 312 342 10 17 0
725 -23 0 1397 10 518 0
726 -9 0 1460 10 511 0
727 2 0 1398 10 0 465
728 -20 217 247 10 583 0
729 20 85 115 10 0 282
730 -10 0 1357 10 562 0
731 2 254 284 10 0 127
732 7 913 943 10 0 240
733 -23 191 221 10 773 0
734 -10 236 266 10 601 0
735 -10 884 914 10 121 0
736 17 495 525 10 0 75
737 20 95 125 10 0 199
738 9 56 86 10 0 230
739 1 503 533 10 0 428
740 30 193 223 10 0 388
741 -20 761 791 10 541 0
742 -21 1041 1071 10 787 0
743 20 192 222 0 0 829
744 8 263 293 10 0 264
745 20 144 174 10 0 684
746 -10 1124 1154 10 633 0
747 -23 0 1475 10 779 0
748 10 0 1368 10 0 463
749 -10 850 880 10 768 0
750 40 0 1330 10 0 649
751 -23 866 896 10 515 0
752 20 0 1430 10 0 313
753 40 159 189 10 0 564
754 -30 633 663 10 266 0
755 20 0 1371 10 0 466
756 10 84 114 10 0 579
757 20 234 264 10 0 195
758 -30 319 349 10 461 0
759 21 138 168 10 0 226
760 20 150 180 10 0 600
761 20 216 246 10 0 500
762 -21 1007 1037 10 35 0
763 -20 301 331 10 180 0
764 -20 207 237 10 402 0
765 16 55 85 10 0 158
766 -24 255 285 10 5 0
767 30 43 73 10 0 112
768 10 0 1408 10 0 749
769 29 331 361 10 0 92
770 -2 780 810 10 680 0
771 15 0 1411 10 0 697
772 -4 1239 1269 10 596 0
773 23 53 83 10 0 733
774 -20 1326 1356 10 675 0
775 10 0 1470 10 0 422
776 -35 808 838 10 582 0
777 -37 311 341 10 645 0
778 20 0 1369 10 0 292
779 23 59 89 10 0 747
780 10 181 211 10 0 215
781 -10 829 859 10 316 0
782 10 0 1435 10 0 184
783 -20 1186 1216 10 160 0
784 19 720 750 10 0 580
785 10 94 124 10 0 332
786 -10 0 1432 10 58 0
787 21 727 757 10 0 742
788 -30 1066 1096 10 493 0
789 -20 0 1375 10 717 0
790 -20 297 327 10 716 0
791 -30 193 223 10 421 0
792 -30 200 230 10 326 0
793 19 368 398 10 0 300
794 -10 0 1421 10 76 0
795 -16 780 810 10 642 0
796 -24 985 1015 10 700 0
797 20 156 186 10 0 531
798 13 0 1400 10 0 117
799 20 144 174 10 0 356
800 19 0 1335 10 0 179
801 18 0 1359 10 0 699
802 -10 0 1370 10 218 0
803 -20 0 1428 10 344 0
804 -26 1167 1197 10 722 0
805 -18 829 859 10 557 0
806 -15 591 621 10 260 0
807 -10 233 263 10 136 0
808 -20 0 1444 10 663 0
809 -12 669 699 10 193 0
810 -33 0 1462 10 542 0
811 -27 1003 1033 10 270 0
812 -22 0 1436 10 610 0
813 -15 693 723 10 457 0
814 -6 1170 1200 10 569 0
815 -8 0 1432 10 245 0
816 -20 0 1509 10 163 0
817 -20 182 212 10 474 0
818 -20 0 1438 10 411 0
819 -21 787 817 10 370 0
820 -23 649 679 10 119 0
821 -10 0 1459 10 374 0
822 -5 499 529 10 291 0
823 -30 280 310 10 39 0
824 -50 226 256 10 614 0
825 -30 0 1325 10 689 0
826 -31 866 896 10 389 0
827 -19 1038 1068 10 25 0
828 -18 1477 1507 10 64 0
829 -20 192 222 10 743 0
830 -16 0 1361 10 707 0
831 -9 61 91 10 369 0
DEPOT_SECTION
1
-1
EOF
