NAME: lrc1_8_6
TYPE: PDPTW
COMMENT: Li & Lim PDPTW benchmark converted from SINTEF format
DIMENSION: 845
VEHICLES: 200
CAPACITY: 200
EDGE_WEIGHT_TYPE: EUC_2D
NODE_COORD_SECTION
1 200 200
2 244 56
3 245 106
4 233 214
5 395 340
6 229 371
7 384 248
8 277 163
9 52 94
10 89 152
11 218 284
12 340 276
13 206 106
14 375 247
15 113 179
16 348 280
17 223 372
18 361 287
19 6 62
20 37 397
21 364 27
22 14 201
23 325 294
24 41 382
25 325 130
26 384 47
27 116 181
28 346 155
29 359 30
30 222 284
31 91 150
32 140 387
33 176 154
34 352 383
35 213 332
36 133 68
37 151 188
38 105 250
39 94 70
40 287 307
41 267 321
42 220 71
43 244 106
44 338 290
45 5 345
46 145 301
47 393 301
48 359 23
49 196 107
50 348 41
51 59 51
52 126 91
53 234 214
54 108 395
55 186 306
56 125 122
57 12 368
58 348 279
59 26 247
60 393 306
61 268 114
62 2 17
63 62 258
64 186 145
65 338 315
66 66 118
67 68 378
68 294 136
69 73 126
70 68 263
71 302 136
72 234 203
73 127 94
74 233 208
75 210 1
76 102 252
77 152 237
78 2 3
79 92 162
80 177 55
81 193 29
82 105 360
83 193 216
84 338 150
85 68 143
86 180 15
87 182 378
88 39 384
89 43 386
90 291 301
91 32 251
92 246 298
93 32 229
94 116 252
95 198 295
96 63 262
97 119 179
98 174 375
99 199 45
100 150 236
101 363 24
102 393 307
103 331 251
104 293 306
105 18 102
106 196 293
107 299 141
108 364 25
109 41 183
110 342 385
111 302 203
112 212 197
113 384 294
114 381 290
115 110 254
116 196 51
117 264 341
118 23 98
119 278 265
120 23 97
121 281 155
122 352 162
123 209 85
124 15 4
125 177 379
126 18 208
127 343 322
128 369 107
129 31 360
130 263 110
131 240 246
132 380 339
133 111 286
134 213 271
135 251 381
136 322 242
137 390 52
138 26 70
139 300 132
140 342 384
141 357 160
142 204 87
143 197 293
144 98 107
145 400 109
146 231 243
147 84 221
148 230 290
149 397 261
150 222 283
151 247 377
152 60 319
153 79 154
154 256 385
155 140 40
156 8 119
157 208 274
158 84 293
159 74 351
160 95 64
161 329 236
162 248 286
163 234 243
164 244 109
165 340 388
166 161 233
167 125 95
168 351 199
169 61 333
170 146 324
171 372 104
172 381 144
173 394 299
174 363 30
175 358 23
176 220 238
177 97 105
178 186 355
179 391 42
180 48 326
181 74 87
182 264 69
183 341 394
184 128 95
185 362 383
186 41 340
187 13 220
188 85 61
189 340 290
190 396 106
191 79 344
192 201 195
193 90 311
194 207 185
195 92 255
196 385 56
197 396 59
198 51 326
199 169 352
200 230 139
201 286 44
202 286 308
203 339 69
204 206 296
205 142 385
206 370 57
207 35 79
208 17 209
209 128 68
210 145 165
211 237 259
212 89 154
213 72 257
214 158 121
215 323 243
216 367 361
217 165 126
218 45 85
219 137 68
220 310 143
221 18 100
222 201 6
223 297 135
224 86 154
225 374 175
226 91 70
227 166 357
228 113 183
229 347 395
230 243 244
231 243 140
232 14 100
233 393 312
234 92 384
235 294 249
236 195 91
237 235 212
238 350 271
239 353 164
240 262 233
241 200 48
242 214 119
243 234 37
244 93 62
245 234 73
246 157 378
247 194 43
248 268 223
249 355 156
250 248 124
251 364 213
252 371 253
253 31 353
254 41 337
255 209 167
256 352 303
257 53 326
258 388 106
259 21 104
260 381 12
261 221 379
262 46 380
263 192 332
264 343 359
265 320 211
266 34 355
267 338 106
268 397 283
269 267 161
270 124 221
271 310 340
272 270 106
273 243 104
274 68 250
275 213 305
276 214 378
277 287 279
278 313 64
279 244 285
280 154 68
281 14 53
282 298 137
283 371 111
284 393 246
285 118 122
286 9 47
287 171 168
288 321 212
289 115 185
290 336 387
291 357 202
292 374 104
293 271 371
294 291 398
295 353 3
296 74 213
297 17 99
298 253 316
299 369 118
300 11 328
301 126 70
302 165 264
303 377 282
304 73 292
305 174 326
306 135 161
307 85 155
308 360 23
309 20 91
310 72 253
311 87 155
312 134 63
313 349 275
314 325 45
315 182 300
316 328 239
317 138 143
318 372 256
319 57 381
320 162 251
321 183 301
322 381 375
323 389 171
324 179 305
325 14 210
326 290 311
327 345 158
328 200 83
329 342 154
330 18 294
331 156 4
332 247 212
333 93 149
334 299 399
335 369 171
336 246 247
337 356 223
338 266 116
339 39 34
340 51 205
341 180 387
342 203 88
343 173 72
344 129 85
345 45 291
346 294 311
347 305 198
348 338 391
349 349 135
350 237 213
351 82 360
352 102 84
353 300 144
354 236 38
355 278 159
356 344 280
357 149 234
358 320 373
359 109 252
360 218 134
361 184 282
362 32 78
363 395 310
364 19 206
365 243 275
366 175 192
367 299 227
368 159 164
369 215 260
370 163 364
371 208 20
372 97 387
373 294 13
374 108 250
375 389 306
376 262 30
377 334 92
378 279 337
379 3 15
380 210 271
381 256 145
382 387 267
383 8 285
384 83 357
385 267 295
386 279 262
387 238 101
388 219 377
389 126 90
390 129 67
391 166 115
392 238 250
393 246 244
394 131 95
395 115 257
396 243 106
397 202 158
398 389 307
399 237 109
400 117 148
401 180 375
402 276 157
403 303 358
404 17 96
405 173 381
406 70 81
407 46 197
408 206 81
409 348 343
410 95 63
411 324 216
412 265 127
413 196 138
414 26 260
415 384 307
416 23 317
417 204 292
418 321 287
419 56 97
420 70 264
421 152 240
422 0 155
423 317 68
424 395 167
425 289 306
426 75 367
427 353 276
428 183 71
429 312 200
430 49 222
431 297 137
432 200 89
433 242 113
434 341 33
435 55 341
436 99 67
437 236 243
438 229 209
439 93 59
440 143 159
441 267 112
442 196 295
443 334 100
444 122 183
445 225 53
446 28 353
447 158 239
448 392 307
449 13 59
450 127 90
451 221 281
452 326 374
453 178 103
454 376 251
455 293 310
456 386 60
457 300 272
458 243 209
459 102 67
460 285 107
461 82 365
462 5 344
463 366 97
464 220 283
465 79 95
466 369 100
467 371 244
468 366 340
469 85 128
470 231 6
471 330 313
472 202 85
473 236 204
474 220 381
475 206 286
476 274 7
477 369 211
478 126 208
479 134 62
480 67 318
481 232 127
482 96 209
483 146 301
484 308 178
485 294 118
486 280 224
487 241 275
488 82 65
489 159 11
490 300 64
491 22 96
492 334 186
493 310 200
494 52 331
495 25 256
496 210 268
497 310 196
498 183 375
499 194 65
500 366 251
501 285 184
502 160 313
503 349 324
504 225 288
505 124 69
506 349 272
507 87 365
508 240 210
509 40 380
510 276 116
511 280 5
512 20 204
513 301 139
514 195 294
515 377 144
516 34 242
517 324 217
518 348 371
519 70 256
520 48 304
521 41 378
522 114 254
523 264 112
524 244 176
525 349 181
526 346 163
527 52 334
528 53 51
529 177 174
530 114 178
531 367 255
532 19 61
533 273 118
534 84 359
535 244 114
536 321 144
537 384 53
538 29 250
539 172 383
540 84 360
541 28 246
542 107 159
543 319 160
544 230 241
545 32 352
546 32 357
547 237 108
548 162 94
549 185 299
550 110 188
551 259 4
552 34 385
553 156 32
554 201 297
555 311 344
556 174 329
557 119 286
558 179 383
559 26 250
560 84 363
561 6 20
562 373 253
563 184 233
564 177 300
565 88 121
566 22 205
567 306 361
568 87 164
569 123 176
570 131 275
571 315 237
572 85 67
573 197 300
574 308 196
575 114 88
576 87 153
577 21 201
578 137 64
579 361 194
580 115 51
581 24 96
582 2 200
583 211 274
584 102 149
585 307 196
586 127 87
587 302 274
588 383 53
589 376 254
590 15 100
591 111 179
592 308 204
593 85 358
594 391 54
595 385 55
596 65 335
597 46 378
598 310 363
599 217 286
600 33 247
601 88 150
602 397 73
603 70 231
604 72 315
605 131 67
606 117 381
607 31 357
608 299 351
609 393 297
610 102 118
611 273 160
612 350 131
613 364 55
614 47 328
615 109 186
616 143 20
617 134 98
618 42 384
619 255 80
620 52 194
621 128 93
622 50 385
623 386 57
624 86 112
625 26 275
626 40 336
627 135 384
628 52 301
629 68 261
630 36 288
631 375 294
632 220 288
633 186 304
634 369 106
635 96 69
636 321 217
637 177 77
638 320 216
639 246 47
640 350 207
641 279 247
642 153 315
643 68 386
644 399 179
645 297 240
646 199 290
647 21 204
648 362 28
649 353 65
650 24 57
651 75 368
652 393 305
653 239 254
654 146 320
655 369 6
656 277 154
657 304 141
658 205 372
659 339 3
660 254 0
661 321 209
662 114 250
663 318 219
664 209 283
665 48 358
666 339 384
667 351 153
668 377 29
669 317 183
670 183 303
671 299 308
672 197 292
673 370 98
674 188 67
675 207 87
676 295 307
677 325 311
678 228 96
679 368 215
680 208 86
681 75 76
682 27 251
683 308 314
684 217 289
685 337 388
686 133 94
687 91 388
688 87 147
689 389 54
690 185 386
691 234 212
692 53 330
693 237 247
694 369 19
695 346 385
696 397 313
697 355 41
698 211 266
699 8 363
700 59 89
701 344 391
702 242 105
703 327 242
704 55 324
705 114 252
706 29 355
707 102 377
708 345 382
709 313 194
710 285 136
711 272 154
712 379 254
713 22 210
714 117 187
715 157 220
716 21 96
717 182 379
718 298 138
719 28 356
720 130 70
721 111 184
722 319 113
723 347 385
724 220 337
725 344 283
726 217 98
727 76 90
728 175 299
729 270 151
730 398 258
731 344 321
732 266 234
733 49 187
734 92 155
735 344 236
736 226 52
737 183 294
738 237 243
739 184 69
740 222 383
741 21 255
742 390 357
743 272 161
744 371 349
745 220 296
746 184 235
747 113 184
748 370 104
749 273 182
750 382 54
751 379 126
752 327 241
753 189 306
754 26 326
755 367 104
756 271 154
757 67 258
758 86 357
759 107 98
760 66 254
761 374 253
762 228 341
763 60 328
764 268 160
765 201 255
766 397 362
767 236 210
768 349 157
769 348 319
770 186 75
771 327 115
772 77 319
773 147 210
774 195 148
775 108 186
776 26 199
777 305 255
778 368 102
779 146 174
780 319 217
781 335 202
782 128 94
783 82 78
784 92 68
785 231 219
786 309 274
787 336 386
788 324 194
789 174 387
790 24 93
791 107 247
792 291 308
793 13 322
794 68 254
795 142 379
796 43 121
797 329 241
798 260 352
799 328 243
800 384 64
801 80 365
802 24 96
803 334 100
804 396 59
805 287 279
806 325 130
807 317 68
808 84 359
809 326 374
810 246 298
811 234 212
812 142 379
813 377 29
814 92 255
815 218 134
816 143 20
817 243 209
818 102 67
819 37 397
820 234 243
821 301 139
822 229 371
823 323 243
824 32 251
825 159 164
826 22 205
827 183 301
828 74 351
829 369 211
830 193 216
831 147 210
832 52 94
833 231 6
834 340 276
835 291 308
836 338 315
837 217 286
838 195 294
839 243 106
840 186 145
841 348 343
842 68 386
843 306 361
844 18 102
845 264 112
PICKUP_AND_DELIVERY_SECTION
1 0 0 1573 0 0 0
2 -24 647 707 10 524 0
3 20 106 166 10 0 399
4 10 64 124 10 0 112
5 24 240 300 10 0 216
6 7 998 1058 0 0 822
7 -30 207 267 10 517 0
8 10 151 211 10 0 353
9 14 1127 1187 0 0 832
10 20 126 186 10 0 224
11 -10 185 245 10 134 0
12 43 853 913 0 0 834
13 33 273 333 10 0 201
14 10 181 241 10 0 454
15 -10 181 241 10 97 0
16 -20 202 262 10 797 0
17 -30 221 281 10 740 0
18 -10 241 301 10 58 0
19 23 882 942 10 0 138
20 50 810 870 0 0 819
21 -10 290 350 10 174 0
22 10 201 261 10 0 776
23 -8 1131 1191 10 256 0
24 20 241 301 10 0 699
25 19 1023 1083 0 0 806
26 -10 1076 1136 10 137 0
27 -10 206 266 10 721 0
28 -10 222 282 10 121 0
29 -20 329 389 10 729 0
30 10 86 146 10 0 385
31 10 119 179 10 0 565
32 8 196 256 10 0 539
33 15 51 111 10 0 686
34 -20 783 843 10 131 0
35 -10 703 763 10 690 0
36 20 160 220 10 0 209
37 18 50 110 10 0 625
38 30 165 225 10 0 193
39 -20 265 325 10 394 0
40 -10 210 270 10 202 0
41 -21 618 678 10 298 0
42 -10 661 721 10 130 0
43 -10 117 177 10 535 0
44 -39 635 695 10 189 0
45 -10 1196 1256 10 89 0
46 8 115 175 10 0 618
47 10 217 277 10 0 735
48 30 237 297 10 0 308
49 -20 1314 1374 10 408 0
50 -40 643 703 10 108 0
51 14 205 265 10 0 281
52 30 175 235 10 0 621
53 -20 95 155 10 237 0
54 -21 558 618 10 133 0
55 -20 157 217 10 670 0
56 15 108 168 10 0 450
57 -10 756 816 10 67 0
58 10 191 251 10 0 18
59 -20 180 240 10 760 0
60 20 225 285 10 0 398
61 30 160 220 10 0 231
62 11 269 329 10 0 124
63 20 150 210 10 0 416
64 18 1447 1507 0 0 840
65 9 937 997 0 0 836
66 27 550 610 10 0 727
67 10 667 727 10 0 57
68 10 113 173 10 0 278
69 -13 404 464 10 210 0
70 -20 180 240 10 310 0
71 20 150 210 10 0 220
72 10 152 212 10 0 571
73 10 201 261 10 0 167
74 30 33 93 10 0 350
75 11 985 1045 10 0 445
76 10 151 211 10 0 420
77 10 60 120 10 0 570
78 -18 779 839 10 528 0
79 -30 238 298 10 714 0
80 17 741 801 10 0 553
81 -10 742 802 10 312 0
82 -10 771 831 10 593 0
83 1 1216 1276 0 0 830
84 16 753 813 10 0 749
85 -16 1240 1300 10 532 0
86 -30 860 920 10 578 0
87 10 178 238 10 0 341
88 -10 246 306 10 651 0
89 10 280 340 10 0 45
90 20 135 195 10 0 104
91 20 241 301 0 0 824
92 19 941 1001 0 0 810
93 -20 1039 1099 10 208 0
94 20 98 158 10 0 478
95 20 130 190 10 0 554
96 20 164 224 10 0 345
97 10 220 280 10 0 15
98 -10 302 362 10 125 0
99 26 775 835 10 0 674
100 -10 61 121 10 357 0
101 20 242 302 10 0 697
102 10 247 307 10 0 415
103 -20 140 200 10 799 0
104 -20 141 201 10 90 0
105 18 217 277 0 0 844
106 20 95 155 10 0 475
107 -20 214 274 10 743 0
108 40 278 338 10 0 50
109 -10 1162 1222 10 635 0
110 -40 341 401 10 348 0
111 30 183 243 10 0 493
112 -10 839 899 10 4 0
113 -20 542 602 10 609 0
114 36 454 514 10 0 631
115 20 122 182 10 0 296
116 -20 515 575 10 675 0
117 -15 1026 1086 10 293 0
118 -20 317 377 10 221 0
119 -10 634 694 10 346 0
120 -30 306 366 10 259 0
121 10 122 182 10 0 28
122 10 156 216 10 0 239
123 -17 119 179 10 255 0
124 -11 684 744 10 62 0
125 10 287 347 10 0 98
126 -28 244 304 10 482 0
127 -19 796 856 10 386 0
128 20 264 324 10 0 634
129 -30 262 322 10 266 0
130 10 123 183 10 0 42
131 20 60 120 10 0 34
132 -29 726 786 10 769 0
133 21 123 183 10 0 54
134 10 92 152 10 0 11
135 17 253 313 10 0 798
136 -30 218 278 10 288 0
137 10 276 336 10 0 26
138 -23 906 966 10 19 0
139 -30 136 196 10 223 0
140 -20 352 412 10 183 0
141 20 165 225 10 0 203
142 30 113 173 10 0 472
143 30 93 153 10 0 573
144 -33 919 979 10 177 0
145 20 832 892 10 0 299
146 10 130 190 10 0 544
147 22 1088 1148 10 0 340
148 -20 107 167 10 150 0
149 16 570 630 10 0 382
150 20 85 145 10 0 148
151 -20 1200 1260 10 598 0
152 -8 240 300 10 304 0
153 -10 156 216 10 601 0
154 5 581 641 10 0 279
155 27 1000 1060 10 0 287
156 -20 824 884 10 716 0
157 30 74 134 10 0 684
158 11 541 601 10 0 604
159 32 945 1005 0 0 828
160 20 171 231 10 0 488
161 -20 156 216 10 411 0
162 -20 98 158 10 392 0
163 20 117 177 0 0 820
164 20 101 161 10 0 702
165 -26 328 388 10 555 0
166 30 102 162 10 0 447
167 -10 189 249 10 73 0
168 -16 777 837 10 640 0
169 10 271 331 10 0 254
170 -16 1368 1428 10 707 0
171 20 229 289 10 0 292
172 18 475 535 10 0 751
173 -20 779 839 10 506 0
174 10 315 375 10 0 21
175 -13 237 297 10 485 0
176 12 42 102 10 0 608
177 33 929 989 10 0 144
178 25 155 215 10 0 558
179 44 949 1009 10 0 206
180 20 199 259 10 0 545
181 -5 1334 1394 10 286 0
182 15 650 710 10 0 194
183 20 275 335 10 0 140
184 -20 235 295 10 586 0
185 21 244 304 10 0 683
186 -10 848 908 10 763 0
187 -20 1050 1110 10 364 0
188 20 180 240 10 0 449
189 39 436 496 10 0 44
190 -23 255 315 10 335 0
191 16 202 262 10 0 234
192 12 5 65 10 0 548
193 -30 654 714 10 38 0
194 -15 1205 1265 10 182 0
195 30 409 469 0 0 814
196 10 239 299 10 0 689
197 20 306 366 0 0 804
198 10 195 255 10 0 706
199 -20 234 294 10 302 0
200 -10 1283 1343 10 282 0
201 -33 551 611 10 13 0
202 10 222 282 10 0 40
203 -20 951 1011 10 141 0
204 30 175 235 10 0 417
205 16 512 572 10 0 246
206 -44 1103 1163 10 179 0
207 22 408 468 10 0 379
208 20 233 293 10 0 93
209 -20 195 255 10 36 0
210 13 65 125 10 0 69
211 -24 1159 1219 10 664 0
212 10 207 267 10 0 700
213 -10 244 304 10 522 0
214 -10 1090 1150 10 782 0
215 20 207 267 0 0 823
216 -24 472 532 10 5 0
217 -13 1227 1287 10 637 0
218 -23 900 960 10 362 0
219 25 146 206 10 0 479
220 -20 171 231 10 71 0
221 20 207 267 10 0 118
222 25 570 630 10 0 489
223 30 121 181 10 0 139
224 -20 184 244 10 10 0
225 -1 329 389 10 492 0
226 20 252 312 10 0 419
227 -10 1198 1258 10 405 0
228 30 155 215 10 0 584
229 10 259 319 10 0 666
230 30 61 121 10 0 503
231 -30 1258 1318 10 61 0
232 30 212 272 10 0 569
233 -12 289 349 10 641 0
234 -16 388 448 10 191 0
235 -37 456 516 10 645 0
236 20 193 253 10 0 680
237 20 40 100 10 0 53
238 10 165 225 10 0 427
239 -10 157 217 10 122 0
240 -15 1095 1155 10 587 0
241 20 205 265 10 0 774
242 -10 1000 1060 10 328 0
243 -13 497 557 10 481 0
244 -3 186 246 10 352 0
245 8 140 200 10 0 551
246 -16 901 961 10 205 0
247 -16 710 770 10 499 0
248 20 71 131 10 0 677
249 20 179 239 10 0 327
250 -20 649 709 10 718 0
251 -10 563 623 10 562 0
252 30 224 284 10 0 337
253 20 227 287 10 0 546
254 -10 654 714 10 169 0
255 17 34 94 10 0 123
256 8 1057 1117 10 0 23
257 20 193 253 10 0 704
258 9 249 309 10 0 463
259 30 203 263 10 0 120
260 -30 576 636 10 272 0
261 30 192 252 10 0 762
262 -20 308 368 10 607 0
263 -10 423 483 10 633 0
264 -20 441 501 10 676 0
265 6 120 180 10 0 636
266 30 282 342 10 0 129
267 -4 936 996 10 484 0
268 -20 397 457 10 652 0
269 -20 203 263 10 711 0
270 -20 988 1048 10 662 0
271 11 178 238 10 0 787
272 30 117 177 10 0 260
273 20 151 211 10 0 387
274 14 549 609 10 0 715
275 -19 475 535 10 361 0
276 20 178 238 10 0 388
277 4 1182 1242 0 0 805
278 -10 387 447 10 68 0
279 -5 1303 1363 10 154 0
280 -10 724 784 10 529 0
281 -14 790 850 10 51 0
282 10 116 176 10 0 200
283 3 234 294 10 0 515
284 -20 493 553 10 589 0
285 -20 935 995 10 576 0
286 5 838 898 10 0 181
287 -27 1338 1398 10 155 0
288 30 121 181 10 0 136
289 10 86 146 10 0 550
290 -20 313 373 10 708 0
291 -20 484 544 10 663 0
292 -20 217 277 10 171 0
293 15 737 797 10 0 117
294 -20 516 576 10 380 0
295 -27 249 309 10 434 0
296 -20 420 480 10 115 0
297 -10 991 1051 10 491 0
298 21 406 466 10 0 41
299 -20 1037 1097 10 145 0
300 -19 752 812 10 793 0
301 -10 222 282 10 617 0
302 20 72 132 10 0 199
303 -10 373 433 10 313 0
304 8 160 220 10 0 152
305 -30 940 1000 10 564 0
306 -10 1335 1395 10 591 0
307 -10 172 232 10 311 0
308 -30 238 298 10 48 0
309 -20 268 328 10 333 0
310 20 138 198 10 0 70
311 10 195 255 10 0 307
312 10 152 212 10 0 81
313 10 177 237 10 0 303
314 -15 574 634 10 602 0
315 10 101 161 10 0 627
316 10 170 230 10 0 732
317 17 84 144 10 0 344
318 20 237 297 10 0 500
319 22 230 290 10 0 462
320 -19 63 123 10 563 0
321 20 105 165 0 0 827
322 -23 1056 1116 10 468 0
323 3 436 496 10 0 644
324 -20 174 234 10 728 0
325 10 220 280 10 0 713
326 30 172 232 10 0 403
327 -20 235 295 10 249 0
328 10 151 211 10 0 242
329 -10 385 445 10 768 0
330 45 472 532 10 0 630
331 25 200 260 10 0 371
332 15 157 217 10 0 336
333 20 118 178 10 0 309
334 -10 759 819 10 701 0
335 23 171 231 10 0 190
336 -15 664 724 10 332 0
337 -30 953 1013 10 252 0
338 -30 173 233 10 441 0
339 10 231 291 10 0 561
340 -22 1201 1261 10 147 0
341 -10 230 290 10 87 0
342 -19 112 172 10 726 0
343 39 259 319 10 0 580
344 -17 138 198 10 317 0
345 -20 198 258 10 96 0
346 10 148 208 10 0 119
347 20 105 165 10 0 780
348 40 289 349 10 0 110
349 28 533 593 10 0 722
350 -30 108 168 10 74 0
351 10 245 305 10 0 540
352 3 151 211 10 0 244
353 -10 227 287 10 8 0
354 38 418 478 10 0 660
355 10 137 197 10 0 710
356 -25 230 290 10 367 0
357 10 61 121 10 0 100
358 -10 536 596 10 685 0
359 30 134 194 10 0 603
360 24 1260 1320 0 0 815
361 19 83 143 10 0 275
362 23 634 694 10 0 218
363 -20 261 321 10 725 0
364 20 256 316 10 0 187
365 -30 905 965 10 496 0
366 -30 909 969 10 720 0
367 25 102 162 10 0 356
368 13 1321 1381 0 0 825
369 9 61 121 10 0 378
370 -18 772 832 10 606 0
371 -25 586 646 10 331 0
372 -2 546 606 10 687 0
373 -17 572 632 10 736 0
374 10 191 251 10 0 430
375 30 316 376 10 0 418
376 8 180 240 10 0 476
377 -10 429 489 10 748 0
378 -9 588 648 10 369 0
379 -22 1087 1147 10 207 0
380 20 71 131 10 0 294
381 -20 1129 1189 10 402 0
382 -16 877 937 10 149 0
383 -20 308 368 10 495 0
384 10 280 340 10 0 758
385 -10 716 776 10 30 0
386 19 100 160 10 0 127
387 -20 167 227 10 273 0
388 -20 205 265 10 276 0
389 -24 851 911 10 575 0
390 30 184 244 10 0 453
391 -35 1234 1294 10 770 0
392 20 77 137 10 0 162
393 -20 664 724 10 486 0
394 20 125 185 10 0 39
395 10 106 166 10 0 626
396 10 128 188 0 0 839
397 -30 1143 1203 10 432 0
398 -20 305 365 10 60 0
399 -20 195 255 10 3 0
400 -16 97 157 10 440 0
401 10 176 236 10 0 724
402 20 95 155 10 0 381
403 -30 326 386 10 326 0
404 -10 227 287 10 590 0
405 10 273 333 10 0 227
406 -19 862 922 10 784 0
407 -35 408 468 10 582 0
408 20 134 194 10 0 49
409 12 325 385 0 0 841
410 -21 174 234 10 759 0
411 20 125 185 10 0 161
412 35 97 157 10 0 619
413 18 62 122 10 0 511
414 -10 614 674 10 682 0
415 -10 365 425 10 102 0
416 -20 439 499 10 63 0
417 -30 189 249 10 204 0
418 -30 576 636 10 375 0
419 -20 926 986 10 226 0
420 -10 192 252 10 76 0
421 30 69 129 10 0 746
422 -30 205 265 10 647 0
423 13 1145 1205 0 0 807
424 24 965 1025 10 0 536
425 10 198 258 10 0 671
426 -20 225 285 10 560 0
427 -10 170 230 10 238 0
428 -1 750 810 10 739 0
429 30 141 201 10 0 661
430 -10 1112 1172 10 374 0
431 -10 443 503 10 611 0
432 30 178 238 10 0 397
433 10 96 156 10 0 547
434 27 264 324 10 0 295
435 -15 660 720 10 480 0
436 10 167 227 10 0 439
437 -30 105 165 10 693 0
438 20 30 90 10 0 767
439 -10 199 259 10 436 0
440 16 70 130 10 0 400
441 30 148 208 10 0 338
442 -20 118 178 10 672 0
443 21 1122 1182 0 0 803
444 20 79 139 10 0 747
445 -11 1067 1127 10 75 0
446 -50 230 290 10 614 0
447 -30 85 145 10 166 0
448 20 236 296 10 0 788
449 -20 544 604 10 188 0
450 -15 164 224 10 56 0
451 20 83 143 10 0 504
452 17 563 623 0 0 809
453 -30 602 662 10 390 0
454 -10 183 243 10 14 0
455 -10 159 219 10 653 0
456 -20 326 386 10 778 0
457 -20 678 738 10 696 0
458 11 1364 1424 0 0 817
459 20 165 225 0 0 818
460 -15 485 545 10 771 0
461 -16 202 262 10 642 0
462 -22 1244 1304 10 319 0
463 -9 757 817 10 258 0
464 -20 198 258 10 632 0
465 -17 1211 1271 10 624 0
466 30 196 256 10 0 673
467 20 176 236 10 0 730
468 23 700 760 10 0 322
469 -22 1273 1333 10 610 0
470 32 686 746 0 0 833
471 27 172 232 10 0 744
472 -30 163 223 10 142 0
473 10 139 199 10 0 508
474 -16 182 242 10 765 0
475 -20 471 531 10 106 0
476 -8 314 374 10 376 0
477 20 448 508 0 0 829
478 -20 1355 1415 10 94 0
479 -25 152 212 10 219 0
480 15 231 291 10 0 435
481 13 79 139 10 0 243
482 28 108 168 10 0 126
483 34 338 398 10 0 557
484 4 383 443 10 0 267
485 13 124 184 10 0 175
486 20 212 272 10 0 393
487 -10 681 741 10 698 0
488 -20 222 282 10 160 0
489 -25 1173 1233 10 222 0
490 -10 1142 1202 10 648 0
491 10 252 312 10 0 297
492 1 141 201 10 0 225
493 -30 153 213 10 111 0
494 10 239 299 10 0 527
495 20 200 260 10 0 383
496 30 68 128 10 0 365
497 -10 111 171 10 574 0
498 30 175 235 10 0 717
499 16 371 431 10 0 247
500 -20 266 326 10 318 0
501 -12 1015 1075 10 579 0
502 -20 844 904 10 507 0
503 -30 523 583 10 230 0
504 -20 92 152 10 451 0
505 -30 209 269 10 605 0
506 20 165 225 10 0 173
507 20 199 259 10 0 502
508 -10 122 182 10 473 0
509 -20 240 300 10 521 0
510 -34 113 173 10 533 0
511 -18 1001 1061 10 413 0
512 20 180 240 10 0 688
513 30 201 261 0 0 821
514 10 106 166 0 0 838
515 -3 452 512 10 283 0
516 30 171 231 10 0 541
517 30 130 190 10 0 7
518 -15 637 697 10 766 0
519 -10 232 292 10 705 0
520 15 215 275 10 0 692
521 20 238 298 10 0 509
522 10 101 161 10 0 213
523 20 135 195 0 0 845
524 24 50 110 10 0 2
525 -10 274 334 10 709 0
526 30 150 210 10 0 649
527 -10 252 312 10 494 0
528 18 220 280 10 0 78
529 10 34 94 10 0 280
530 -10 192 252 10 615 0
531 20 252 312 10 0 679
532 16 1137 1197 10 0 85
533 34 109 169 10 0 510
534 20 268 328 0 0 808
535 10 96 156 10 0 43
536 -24 1049 1109 10 424 0
537 -16 935 995 10 655 0
538 30 227 287 10 0 741
539 -8 261 321 10 32 0
540 -10 257 317 10 351 0
541 -30 178 238 10 516 0
542 -9 1017 1077 10 620 0
543 26 153 213 10 0 667
544 -10 142 202 10 146 0
545 -20 226 286 10 180 0
546 -20 269 329 10 253 0
547 -10 184 244 10 433 0
548 -12 112 172 10 192 0
549 10 100 160 10 0 753
550 -10 95 155 10 289 0
551 -8 591 651 10 245 0
552 20 261 321 10 0 622
553 -17 775 835 10 80 0
554 -20 160 220 10 95 0
555 26 181 241 10 0 165
556 -22 685 745 10 654 0
557 -34 814 874 10 483 0
558 -25 198 258 10 178 0
559 30 184 244 10 0 628
560 20 200 260 10 0 426
561 -10 264 324 10 339 0
562 10 212 272 10 0 251
563 19 36 96 10 0 320
564 30 190 250 10 0 305
565 -10 553 613 10 31 0
566 20 178 238 0 0 826
567 4 690 750 0 0 843
568 -20 647 707 10 734 0
569 -30 1155 1215 10 232 0
570 -10 514 574 10 77 0
571 -10 505 565 10 72 0
572 10 236 296 10 0 796
573 -30 145 205 10 143 0
574 10 108 168 10 0 497
575 24 659 719 10 0 389
576 20 138 198 10 0 285
577 -20 184 244 10 733 0
578 30 149 209 10 0 86
579 12 390 450 10 0 501
580 -39 833 893 10 343 0
581 10 295 355 0 0 802
582 35 326 386 10 0 407
583 20 78 138 10 0 745
584 -30 492 552 10 228 0
585 20 107 167 10 0 669
586 20 151 211 10 0 184
587 15 277 337 10 0 240
588 10 234 294 10 0 800
589 20 189 249 10 0 284
590 10 210 270 10 0 404
591 10 169 229 10 0 306
592 30 167 227 10 0 612
593 10 292 352 10 0 82
594 -20 289 349 10 595 0
595 20 235 295 10 0 594
596 4 314 374 10 0 801
597 10 320 380 10 0 665
598 20 1044 1104 10 0 151
599 10 173 233 0 0 837
600 -20 255 315 10 794 0
601 10 122 182 10 0 153
602 15 234 294 10 0 314
603 -30 1082 1142 10 359 0
604 -11 666 726 10 158 0
605 30 172 232 10 0 505
606 18 607 667 10 0 370
607 20 258 318 10 0 262
608 -12 180 240 10 176 0
609 20 216 276 10 0 113
610 22 1154 1214 10 0 469
611 10 166 226 10 0 431
612 -30 787 847 10 592 0
613 -20 325 385 10 755 0
614 50 211 271 10 0 446
615 10 119 179 10 0 530
616 15 1202 1262 0 0 816
617 10 121 181 10 0 301
618 -8 292 352 10 46 0
619 -35 505 565 10 412 0
620 9 534 594 10 0 542
621 -30 213 273 10 52 0
622 -20 808 868 10 552 0
623 -40 250 310 10 750 0
624 17 698 758 10 0 465
625 -18 1117 1177 10 37 0
626 -10 1190 1250 10 395 0
627 -10 229 289 10 315 0
628 -30 910 970 10 559 0
629 20 205 265 10 0 757
630 -45 942 1002 10 330 0
631 -36 588 648 10 114 0
632 20 147 207 10 0 464
633 10 131 191 10 0 263
634 -20 253 313 10 128 0
635 10 278 338 10 0 109
636 -6 143 203 10 265 0
637 13 784 844 10 0 217
638 20 155 215 10 0 781
639 -37 1106 1166 10 678 0
640 16 363 423 10 0 168
641 12 91 151 10 0 233
642 16 124 184 10 0 461
643 16 294 354 0 0 842
644 -3 433 493 10 323 0
645 37 245 305 10 0 235
646 10 90 150 10 0 658
647 30 179 239 10 0 422
648 10 302 362 10 0 490
649 -30 291 351 10 526 0
650 18 226 286 10 0 790
651 10 214 274 10 0 88
652 20 219 279 10 0 268
653 10 66 126 10 0 455
654 22 482 542 10 0 556
655 16 532 592 10 0 537
656 20 108 168 10 0 657
657 -20 187 247 10 656 0
658 -10 874 934 10 646 0
659 -10 788 848 10 694 0
660 -38 658 718 10 354 0
661 -30 121 181 10 429 0
662 20 207 267 10 0 270
663 20 178 238 10 0 291
664 24 602 662 10 0 211
665 -10 861 921 10 597 0
666 -10 365 425 10 229 0
667 -26 194 254 10 543 0
668 22 732 792 0 0 813
669 -20 118 178 10 585 0
670 20 117 177 10 0 55
671 -10 548 608 10 425 0
672 20 92 152 10 0 442
673 -30 199 259 10 466 0
674 -26 1034 1094 10 99 0
675 20 113 173 10 0 116
676 20 143 203 10 0 264
677 -20 598 658 10 248 0
678 37 307 367 10 0 639
679 -20 712 772 10 531 0
680 -20 943 1003 10 236 0
681 23 314 374 10 0 783
682 10 215 275 10 0 414
683 -21 625 685 10 185 0
684 -30 160 220 10 157 0
685 10 302 362 10 0 358
686 -15 125 185 10 33 0
687 2 217 277 10 0 372
688 -20 859 919 10 512 0
689 -10 264 324 10 196 0
690 10 215 275 10 0 35
691 10 51 111 0 0 811
692 -15 227 287 10 520 0
693 30 90 150 10 0 437
694 10 260 320 10 0 659
695 10 235 295 10 0 723
696 20 275 335 10 0 457
697 -20 824 884 10 101 0
698 10 107 167 10 0 487
699 -20 864 924 10 24 0
700 -10 754 814 10 212 0
701 10 244 304 10 0 334
702 -20 140 200 10 164 0
703 -20 193 253 10 752 0
704 -20 190 250 10 257 0
705 10 100 160 10 0 519
706 -10 233 293 10 198 0
707 16 969 1029 10 0 170
708 20 232 292 10 0 290
709 10 124 184 10 0 525
710 -10 1074 1134 10 355 0
711 20 85 145 10 0 269
712 -20 274 334 10 761 0
713 -10 271 331 10 325 0
714 30 84 144 10 0 79
715 -14 1361 1421 10 274 0
716 20 241 301 10 0 156
717 -30 183 243 10 498 0
718 20 115 175 10 0 250
719 30 245 305 10 0 754
720 30 236 296 10 0 366
721 10 132 192 10 0 27
722 -28 1152 1212 10 349 0
723 -10 236 296 10 695 0
724 -10 297 357 10 401 0
725 20 217 277 10 0 363
726 19 103 163 10 0 342
727 -27 732 792 10 66 0
728 20 202 262 10 0 324
729 20 85 145 10 0 29
730 -20 583 643 10 467 0
731 2 239 299 10 0 742
732 -10 898 958 10 316 0
733 20 176 236 10 0 577
734 20 221 281 10 0 568
735 -10 869 929 10 47 0
736 17 480 540 10 0 373
737 20 95 155 10 0 789
738 -10 56 116 10 785 0
739 1 488 548 10 0 428
740 30 184 244 10 0 17
741 -30 746 806 10 538 0
742 -2 1026 1086 10 731 0
743 20 177 237 10 0 107
744 -27 248 308 10 471 0
745 -20 129 189 10 583 0
746 -30 1109 1169 10 421 0
747 -20 144 204 10 444 0
748 10 241 301 10 0 377
749 -16 835 895 10 84 0
750 40 233 293 10 0 623
751 -18 851 911 10 172 0
752 20 182 242 10 0 703
753 -10 144 204 10 549 0
754 -30 618 678 10 719 0
755 20 192 252 10 0 613
756 10 84 144 10 0 764
757 -20 219 279 10 629 0
758 -10 304 364 10 384 0
759 21 138 198 10 0 410
760 20 144 204 10 0 59
761 20 201 261 10 0 712
762 -30 992 1052 10 261 0
763 10 286 346 10 0 186
764 -10 192 252 10 756 0
765 16 55 115 10 0 474
766 15 255 315 10 0 518
767 -20 37 97 10 438 0
768 10 209 269 10 0 329
769 29 316 376 10 0 132
770 35 765 825 10 0 391
771 15 288 348 10 0 460
772 -20 1224 1284 10 791 0
773 23 53 113 0 0 831
774 -20 1311 1371 10 241 0
775 -23 108 168 10 779 0
776 -10 793 853 10 22 0
777 11 296 356 10 0 786
778 20 194 254 10 0 456
779 23 59 119 10 0 775
780 -20 166 226 10 347 0
781 -20 814 874 10 638 0
782 10 224 284 10 0 214
783 -23 1171 1231 10 681 0
784 19 705 765 10 0 406
785 10 79 139 10 0 738
786 -11 326 386 10 777 0
787 -11 712 772 10 271 0
788 -20 1051 1111 10 448 0
789 -20 246 306 10 737 0
790 -18 282 342 10 650 0
791 20 178 238 10 0 772
792 30 185 245 0 0 835
793 19 353 413 10 0 300
794 20 142 202 10 0 600
795 11 765 825 0 0 812
796 -10 970 1030 10 572 0
797 20 141 201 10 0 16
798 -17 380 440 10 135 0
799 20 135 195 10 0 103
800 -10 1051 1111 10 588 0
801 -4 434 494 10 596 0
802 -10 295 355 10 581 0
803 -21 1122 1182 10 443 0
804 -20 306 366 10 197 0
805 -4 1182 1242 10 277 0
806 -19 1023 1083 10 25 0
807 -13 1145 1205 10 423 0
808 -20 268 328 10 534 0
809 -17 563 623 10 452 0
810 -19 941 1001 10 92 0
811 -10 51 111 10 691 0
812 -11 765 825 10 795 0
813 -22 732 792 10 668 0
814 -30 409 469 10 195 0
815 -24 1260 1320 10 360 0
816 -15 1202 1262 10 616 0
817 -11 1364 1424 10 458 0
818 -20 165 225 10 459 0
819 -50 810 870 10 20 0
820 -20 117 177 10 163 0
821 -30 201 261 10 513 0
822 -7 998 1058 10 6 0
823 -20 207 267 10 215 0
824 -20 241 301 10 91 0
825 -13 1321 1381 10 368 0
826 -20 178 238 10 566 0
827 -20 105 165 10 321 0
828 -32 945 1005 10 159 0
829 -20 448 508 10 477 0
830 -1 1216 1276 10 83 0
831 -23 53 113 10 773 0
832 -14 1127 1187 10 9 0
833 -32 686 746 10 470 0
834 -43 853 913 10 12 0
835 -30 185 245 10 792 0
836 -9 937 997 10 65 0
837 -10 173 233 10 599 0
838 -10 106 166 10 514 0
839 -10 128 188 10 396 0
840 -18 1447 1507 10 64 0
841 -12 325 385 10 409 0
842 -16 294 354 10 643 0
843 -4 690 750 10 567 0
844 -18 217 277 10 105 0
845 -20 135 195 10 523 0
DEPOT_SECTION
1
-1
EOF
