NAME: lrc1_8_8
TYPE: PDPTW
COMMENT: Li & Lim PDPTW benchmark converted from SINTEF format
DIMENSION: 845
VEHICLES: 200
CAPACITY: 200
EDGE_WEIGHT_TYPE: EUC_2D
NODE_COORD_SECTION
1 200 200
2 244 56
3 245 106
4 233 214
5 395 340
6 229 371
7 384 248
8 277 163
9 52 94
10 89 152
11 218 284
12 340 276
13 206 106
14 375 247
15 113 179
16 348 280
17 223 372
18 361 287
19 6 62
20 37 397
21 364 27
22 14 201
23 325 294
24 41 382
25 325 130
26 384 47
27 116 181
28 346 155
29 359 30
30 222 284
31 91 150
32 140 387
33 176 154
34 352 383
35 213 332
36 133 68
37 151 188
38 105 250
39 94 70
40 287 307
41 267 321
42 220 71
43 244 106
44 338 290
45 5 345
46 145 301
47 393 301
48 359 23
49 196 107
50 348 41
51 59 51
52 126 91
53 234 214
54 108 395
55 186 306
56 125 122
57 12 368
58 348 279
59 26 247
60 393 306
61 268 114
62 2 17
63 62 258
64 186 145
65 338 315
66 66 118
67 68 378
68 294 136
69 73 126
70 68 263
71 302 136
72 234 203
73 127 94
74 233 208
75 210 1
76 102 252
77 152 237
78 2 3
79 92 162
80 177 55
81 193 29
82 105 360
83 193 216
84 338 150
85 68 143
86 180 15
87 182 378
88 39 384
89 43 386
90 291 301
91 32 251
92 246 298
93 32 229
94 116 252
95 198 295
96 63 262
97 119 179
98 174 375
99 199 45
100 150 236
101 363 24
102 393 307
103 331 251
104 293 306
105 18 102
106 196 293
107 299 141
108 364 25
109 41 183
110 342 385
111 302 203
112 212 197
113 384 294
114 381 290
115 110 254
116 196 51
117 264 341
118 23 98
119 278 265
120 23 97
121 281 155
122 352 162
123 209 85
124 15 4
125 177 379
126 18 208
127 343 322
128 369 107
129 31 360
130 263 110
131 240 246
132 380 339
133 111 286
134 213 271
135 251 381
136 322 242
137 390 52
138 26 70
139 300 132
140 342 384
141 357 160
142 204 87
143 197 293
144 98 107
145 400 109
146 231 243
147 84 221
148 230 290
149 397 261
150 222 283
151 247 377
152 60 319
153 79 154
154 256 385
155 140 40
156 8 119
157 208 274
158 84 293
159 74 351
160 95 64
161 329 236
162 248 286
163 234 243
164 244 109
165 340 388
166 161 233
167 125 95
168 351 199
169 61 333
170 146 324
171 372 104
172 381 144
173 394 299
174 363 30
175 358 23
176 220 238
177 97 105
178 186 355
179 391 42
180 48 326
181 74 87
182 264 69
183 341 394
184 128 95
185 362 383
186 41 340
187 13 220
188 85 61
189 340 290
190 396 106
191 79 344
192 201 195
193 90 311
194 207 185
195 92 255
196 385 56
197 396 59
198 51 326
199 169 352
200 230 139
201 286 44
202 286 308
203 339 69
204 206 296
205 142 385
206 370 57
207 35 79
208 17 209
209 128 68
210 145 165
211 237 259
212 89 154
213 72 257
214 158 121
215 323 243
216 367 361
217 165 126
218 45 85
219 137 68
220 310 143
221 18 100
222 201 6
223 297 135
224 86 154
225 374 175
226 91 70
227 166 357
228 113 183
229 347 395
230 243 244
231 243 140
232 14 100
233 393 312
234 92 384
235 294 249
236 195 91
237 235 212
238 350 271
239 353 164
240 262 233
241 200 48
242 214 119
243 234 37
244 93 62
245 234 73
246 157 378
247 194 43
248 268 223
249 355 156
250 248 124
251 364 213
252 371 253
253 31 353
254 41 337
255 209 167
256 352 303
257 53 326
258 388 106
259 21 104
260 381 12
261 221 379
262 46 380
263 192 332
264 343 359
265 320 211
266 34 355
267 338 106
268 397 283
269 267 161
270 124 221
271 310 340
272 270 106
273 243 104
274 68 250
275 213 305
276 214 378
277 287 279
278 313 64
279 244 285
280 154 68
281 14 53
282 298 137
283 371 111
284 393 246
285 118 122
286 9 47
287 171 168
288 321 212
289 115 185
290 336 387
291 357 202
292 374 104
293 271 371
294 291 398
295 353 3
296 74 213
297 17 99
298 253 316
299 369 118
300 11 328
301 126 70
302 165 264
303 377 282
304 73 292
305 174 326
306 135 161
307 85 155
308 360 23
309 20 91
310 72 253
311 87 155
312 134 63
313 349 275
314 325 45
315 182 300
316 328 239
317 138 143
318 372 256
319 57 381
320 162 251
321 183 301
322 381 375
323 389 171
324 179 305
325 14 210
326 290 311
327 345 158
328 200 83
329 342 154
330 18 294
331 156 4
332 247 212
333 93 149
334 299 399
335 369 171
336 246 247
337 356 223
338 266 116
339 39 34
340 51 205
341 180 387
342 203 88
343 173 72
344 129 85
345 45 291
346 294 311
347 305 198
348 338 391
349 349 135
350 237 213
351 82 360
352 102 84
353 300 144
354 236 38
355 278 159
356 344 280
357 149 234
358 320 373
359 109 252
360 218 134
361 184 282
362 32 78
363 395 310
364 19 206
365 243 275
366 175 192
367 299 227
368 159 164
369 215 260
370 163 364
371 208 20
372 97 387
373 294 13
374 108 250
375 389 306
376 262 30
377 334 92
378 279 337
379 3 15
380 210 271
381 256 145
382 387 267
383 8 285
384 83 357
385 267 295
386 279 262
387 238 101
388 219 377
389 126 90
390 129 67
391 166 115
392 238 250
393 246 244
394 131 95
395 115 257
396 243 106
397 202 158
398 389 307
399 237 109
400 117 148
401 180 375
402 276 157
403 303 358
404 17 96
405 173 381
406 70 81
407 46 197
408 206 81
409 348 343
410 95 63
411 324 216
412 265 127
413 196 138
414 26 260
415 384 307
416 23 317
417 204 292
418 321 287
419 56 97
420 70 264
421 152 240
422 0 155
423 317 68
424 395 167
425 289 306
426 75 367
427 353 276
428 183 71
429 312 200
430 49 222
431 297 137
432 200 89
433 242 113
434 341 33
435 55 341
436 99 67
437 236 243
438 229 209
439 93 59
440 143 159
441 267 112
442 196 295
443 334 100
444 122 183
445 225 53
446 28 353
447 158 239
448 392 307
449 13 59
450 127 90
451 221 281
452 326 374
453 178 103
454 376 251
455 293 310
456 386 60
457 300 272
458 243 209
459 102 67
460 285 107
461 82 365
462 5 344
463 366 97
464 220 283
465 79 95
466 369 100
467 371 244
468 366 340
469 85 128
470 231 6
471 330 313
472 202 85
473 236 204
474 220 381
475 206 286
476 274 7
477 369 211
478 126 208
479 134 62
480 67 318
481 232 127
482 96 209
483 146 301
484 308 178
485 294 118
486 280 224
487 241 275
488 82 65
489 159 11
490 300 64
491 22 96
492 334 186
493 310 200
494 52 331
495 25 256
496 210 268
497 310 196
498 183 375
499 194 65
500 366 251
501 285 184
502 160 313
503 349 324
504 225 288
505 124 69
506 349 272
507 87 365
508 240 210
509 40 380
510 276 116
511 280 5
512 20 204
513 301 139
514 195 294
515 377 144
516 34 242
517 324 217
518 348 371
519 70 256
520 48 304
521 41 378
522 114 254
523 264 112
524 244 176
525 349 181
526 346 163
527 52 334
528 53 51
529 177 174
530 114 178
531 367 255
532 19 61
533 273 118
534 84 359
535 244 114
536 321 144
537 384 53
538 29 250
539 172 383
540 84 360
541 28 246
542 107 159
543 319 160
544 230 241
545 32 352
546 32 357
547 237 108
548 162 94
549 185 299
550 110 188
551 259 4
552 34 385
553 156 32
554 201 297
555 311 344
556 174 329
557 119 286
558 179 383
559 26 250
560 84 363
561 6 20
562 373 253
563 184 233
564 177 300
565 88 121
566 22 205
567 306 361
568 87 164
569 123 176
570 131 275
571 315 237
572 85 67
573 197 300
574 308 196
575 114 88
576 87 153
577 21 201
578 137 64
579 361 194
580 115 51
581 24 96
582 2 200
583 211 274
584 102 149
585 307 196
586 127 87
587 302 274
588 383 53
589 376 254
590 15 100
591 111 179
592 308 204
593 85 358
594 391 54
595 385 55
596 65 335
597 46 378
598 310 363
599 217 286
600 33 247
601 88 150
602 397 73
603 70 231
604 72 315
605 131 67
606 117 381
607 31 357
608 299 351
609 393 297
610 102 118
611 273 160
612 350 131
613 364 55
614 47 328
615 109 186
616 143 20
617 134 98
618 42 384
619 255 80
620 52 194
621 128 93
622 50 385
623 386 57
624 86 112
625 26 275
626 40 336
627 135 384
628 52 301
629 68 261
630 36 288
631 375 294
632 220 288
633 186 304
634 369 106
635 96 69
636 321 217
637 177 77
638 320 216
639 246 47
640 350 207
641 279 247
642 153 315
643 68 386
644 399 179
645 297 240
646 199 290
647 21 204
648 362 28
649 353 65
650 24 57
651 75 368
652 393 305
653 239 254
654 146 320
655 369 6
656 277 154
657 304 141
658 205 372
659 339 3
660 254 0
661 321 209
662 114 250
663 318 219
664 209 283
665 48 358
666 339 384
667 351 153
668 377 29
669 317 183
670 183 303
671 299 308
672 197 292
673 370 98
674 188 67
675 207 87
676 295 307
677 325 311
678 228 96
679 368 215
680 208 86
681 75 76
682 27 251
683 308 314
684 217 289
685 337 388
686 133 94
687 91 388
688 87 147
689 389 54
690 185 386
691 234 212
692 53 330
693 237 247
694 369 19
695 346 385
696 397 313
697 355 41
698 211 266
699 8 363
700 59 89
701 344 391
702 242 105
703 327 242
704 55 324
705 114 252
706 29 355
707 102 377
708 345 382
709 313 194
710 285 136
711 272 154
712 379 254
713 22 210
714 117 187
715 157 220
716 21 96
717 182 379
718 298 138
719 28 356
720 130 70
721 111 184
722 319 113
723 347 385
724 220 337
725 344 283
726 217 98
727 76 90
728 175 299
729 270 151
730 398 258
731 344 321
732 266 234
733 49 187
734 92 155
735 344 236
736 226 52
737 183 294
738 237 243
739 184 69
740 222 383
741 21 255
742 390 357
743 272 161
744 371 349
745 220 296
746 184 235
747 113 184
748 370 104
749 273 182
750 382 54
751 379 126
752 327 241
753 189 306
754 26 326
755 367 104
756 271 154
757 67 258
758 86 357
759 107 98
760 66 254
761 374 253
762 228 341
763 60 328
764 268 160
765 201 255
766 397 362
767 236 210
768 349 157
769 348 319
770 186 75
771 327 115
772 77 319
773 147 210
774 195 148
775 108 186
776 26 199
777 305 255
778 368 102
779 146 174
780 319 217
781 335 202
782 128 94
783 82 78
784 92 68
785 231 219
786 309 274
787 336 386
788 324 194
789 174 387
790 24 93
791 107 247
792 291 308
793 13 322
794 68 254
795 142 379
796 43 121
797 329 241
798 260 352
799 328 243
800 384 64
801 80 365
802 21 255
803 22 96
804 11 328
805 199 45
806 329 236
807 320 373
808 123 176
809 31 357
810 74 213
811 380 339
812 35 79
813 395 310
814 372 104
815 52 301
816 324 216
817 28 246
818 321 209
819 49 187
820 173 72
821 389 171
822 271 371
823 165 126
824 67 318
825 41 337
826 300 64
827 225 53
828 87 147
829 197 293
830 234 243
831 371 253
832 142 379
833 360 23
834 229 371
835 349 324
836 248 124
837 184 235
838 278 159
839 108 250
840 209 167
841 174 326
842 50 385
843 175 192
844 220 71
845 84 363
PICKUP_AND_DELIVERY_SECTION
1 0 0 1573 0 0 0
2 -29 602 751 10 377 0
3 20 104 220 10 0 273
4 10 35 207 10 0 397
5 -10 240 374 10 398 0
6 7 961 1095 0 0 834
7 35 190 352 10 0 337
8 -24 113 250 10 524 0
9 -20 1104 1210 10 221 0
10 -20 120 228 10 307 0
11 20 166 264 10 0 475
12 43 798 967 10 0 732
13 33 236 371 10 0 242
14 -20 181 297 10 467 0
15 10 141 281 10 0 27
16 10 174 290 10 0 65
17 30 190 312 10 0 151
18 13 189 353 10 0 766
19 -10 863 961 10 309 0
20 -22 800 881 10 319 0
21 20 271 369 10 0 613
22 -10 186 300 10 31 0
23 -21 1094 1227 10 127 0
24 -30 241 319 10 509 0
25 19 998 1108 10 0 423
26 -20 1044 1169 10 197 0
27 -10 155 318 10 15 0
28 -1 202 303 10 525 0
29 20 296 422 10 0 648
30 -20 86 197 10 150 0
31 10 119 224 10 0 22
32 -10 196 326 10 401 0
33 15 51 182 10 0 413
34 -23 750 875 10 518 0
35 -30 685 781 10 261 0
36 20 148 280 10 0 243
37 18 50 185 10 0 270
38 -30 151 239 10 359 0
39 -20 253 337 10 586 0
40 -10 203 278 10 202 0
41 26 617 679 10 0 385
42 22 649 734 0 0 844
43 -10 103 221 10 535 0
44 -20 626 705 10 356 0
45 -10 1186 1266 10 597 0
46 8 115 246 10 0 570
47 -10 217 366 10 102 0
48 -20 237 345 10 175 0
49 -10 1269 1419 10 53 0
50 16 606 739 10 0 267
51 14 205 315 10 0 650
52 30 139 271 10 0 605
53 10 89 160 10 0 49
54 -2 513 663 10 687 0
55 -20 136 238 10 670 0
56 15 108 186 10 0 624
57 -20 734 839 10 552 0
58 -10 167 323 10 785 0
59 10 180 275 10 0 682
60 -20 220 356 10 448 0
61 30 125 256 10 0 441
62 -3 269 432 10 352 0
63 20 149 288 10 0 604
64 -10 1406 1507 10 508 0
65 -10 928 1007 10 16 0
66 27 497 663 10 0 565
67 10 632 762 10 0 462
68 10 113 236 10 0 71
69 -21 376 492 10 759 0
70 10 146 286 10 0 757
71 -10 120 264 10 68 0
72 -10 138 226 10 473 0
73 10 173 290 10 0 450
74 30 33 156 10 0 774
75 -18 945 1085 10 201 0
76 10 115 248 10 0 519
77 10 60 168 10 0 522
78 -18 746 873 10 124 0
79 -20 202 334 10 734 0
80 -20 698 844 10 547 0
81 -19 709 835 10 116 0
82 -26 736 865 10 234 0
83 -19 1183 1309 10 361 0
84 -5 722 845 10 291 0
85 -18 1210 1331 10 469 0
86 -34 816 963 10 553 0
87 10 178 369 10 0 654
88 -10 244 336 10 262 0
89 -10 243 391 10 618 0
90 20 135 215 10 0 455
91 20 188 353 10 0 414
92 -20 923 1020 10 632 0
93 -10 1025 1113 10 600 0
94 20 98 201 10 0 705
95 20 108 211 10 0 135
96 20 150 322 10 0 520
97 -20 189 311 10 444 0
98 -20 282 382 10 539 0
99 26 750 860 0 0 805
100 20 61 219 10 0 662
101 -10 239 355 10 174 0
102 10 220 335 10 0 47
103 20 140 235 10 0 506
104 20 141 239 10 0 346
105 18 206 313 10 0 796
106 -30 93 206 10 496 0
107 10 190 297 10 0 722
108 -27 263 354 10 434 0
109 -10 1117 1268 10 601 0
110 -20 306 437 10 708 0
111 30 152 274 10 0 501
112 -20 798 940 10 764 0
113 -36 524 621 10 114 0
114 36 446 523 10 0 113
115 -10 113 191 10 357 0
116 19 483 607 10 0 81
117 -14 993 1119 10 608 0
118 -20 282 413 10 120 0
119 -15 589 739 10 332 0
120 20 279 393 10 0 118
121 10 94 210 10 0 743
122 10 156 236 10 0 225
123 10 115 221 10 0 342
124 18 631 797 10 0 78
125 10 267 367 10 0 370
126 20 221 327 10 0 325
127 21 779 874 10 0 23
128 -20 247 341 10 755 0
129 -10 251 334 10 706 0
130 -35 109 208 10 412 0
131 -30 60 179 10 230 0
132 10 704 808 0 0 811
133 21 123 238 10 0 534
134 -10 72 215 10 698 0
135 -20 225 340 10 95 0
136 10 192 305 10 0 640
137 -30 252 361 10 689 0
138 -5 882 990 10 286 0
139 10 120 246 10 0 513
140 10 303 462 10 0 452
141 20 162 292 10 0 477
142 30 113 205 10 0 432
143 30 93 224 0 0 829
144 -20 883 1015 10 285 0
145 20 834 890 10 0 751
146 10 95 225 10 0 256
147 -11 1036 1200 10 430 0
148 -9 94 215 10 369 0
149 -10 529 670 10 238 0
150 20 85 241 10 0 30
151 -30 1182 1278 10 17 0
152 -20 220 321 10 760 0
153 10 146 226 10 0 287
154 -23 576 645 10 724 0
155 -20 968 1093 10 459 0
156 11 797 910 10 0 218
157 30 74 177 10 0 672
158 -10 508 634 10 169 0
159 -10 893 1057 10 758 0
160 20 171 262 10 0 214
161 10 133 275 0 0 806
162 35 98 172 10 0 676
163 20 65 229 0 0 830
164 20 101 248 10 0 710
165 10 319 397 10 0 567
166 30 83 181 10 0 421
167 10 163 276 10 0 782
168 -11 749 865 10 251 0
169 10 238 363 10 0 158
170 -16 1281 1428 10 765 0
171 20 197 320 0 0 814
172 -25 468 542 10 329 0
173 -12 745 873 10 730 0
174 10 289 400 10 0 101
175 20 237 313 10 0 48
176 12 42 158 10 0 671
177 -16 912 1005 10 440 0
178 25 155 277 10 0 627
179 44 909 1050 10 0 206
180 -10 197 322 10 198 0
181 9 1297 1394 10 0 465
182 -29 610 750 10 278 0
183 20 239 391 10 0 290
184 10 204 325 10 0 621
185 -10 244 339 10 695 0
186 -30 816 939 10 527 0
187 -30 1017 1144 10 538 0
188 20 180 272 10 0 226
189 -20 393 539 10 725 0
190 18 217 355 10 0 373
191 16 188 320 10 0 384
192 12 5 148 10 0 223
193 12 596 771 10 0 557
194 -14 1184 1287 10 200 0
195 -28 378 500 10 482 0
196 10 234 307 10 0 537
197 20 277 394 10 0 26
198 10 195 289 10 0 180
199 7 205 322 10 0 227
200 14 1225 1401 10 0 194
201 18 508 653 10 0 75
202 10 196 307 10 0 40
203 -4 901 1061 10 660 0
204 -10 160 249 10 544 0
205 16 467 617 10 0 502
206 -44 1054 1213 10 179 0
207 22 387 488 0 0 812
208 -20 210 315 10 566 0
209 -10 177 274 10 301 0
210 -23 65 235 10 779 0
211 -31 1104 1274 10 365 0
212 10 165 310 10 0 576
213 10 225 324 10 0 274
214 -20 1057 1184 10 160 0
215 20 158 316 10 0 303
216 -26 446 558 10 264 0
217 4 1215 1299 0 0 823
218 -11 868 992 10 156 0
219 25 146 317 10 0 680
220 -10 176 225 10 353 0
221 20 207 302 10 0 9
222 25 551 650 10 0 470
223 -12 116 270 10 192 0
224 30 139 288 10 0 542
225 -10 253 465 10 122 0
226 -20 216 348 10 188 0
227 -7 1147 1310 10 199 0
228 -10 129 241 10 289 0
229 10 244 391 10 0 348
230 30 61 181 10 0 131
231 -20 1204 1372 10 523 0
232 30 211 328 10 0 406
233 -10 293 344 10 313 0
234 26 320 516 10 0 82
235 -33 429 544 10 571 0
236 20 189 257 10 0 739
237 -20 37 143 10 438 0
238 10 165 264 10 0 149
239 20 157 293 10 0 768
240 -37 1070 1179 10 645 0
241 20 173 297 10 0 499
242 -33 980 1080 10 13 0
243 -20 444 610 10 36 0
244 20 185 248 10 0 700
245 8 131 249 10 0 371
246 22 885 977 10 0 762
247 -10 696 784 10 328 0
248 20 71 205 10 0 393
249 -30 161 262 10 667 0
250 19 627 731 0 0 836
251 11 535 651 10 0 168
252 30 195 313 0 0 831
253 -30 227 352 10 545 0
254 9 599 768 0 0 825
255 17 34 163 0 0 840
256 -10 1020 1155 10 146 0
257 -10 193 368 10 395 0
258 9 229 329 10 0 314
259 30 203 333 10 0 716
260 -16 545 667 10 655 0
261 30 180 335 10 0 35
262 10 258 418 10 0 88
263 31 390 516 10 0 275
264 26 414 529 10 0 216
265 6 120 218 10 0 424
266 -10 271 352 10 763 0
267 -16 930 1003 10 50 0
268 -20 351 503 10 652 0
269 -10 166 299 10 611 0
270 -18 962 1075 10 37 0
271 11 178 255 10 0 403
272 -10 117 232 10 338 0
273 -20 128 235 10 3 0
274 -10 521 637 10 213 0
275 -31 460 550 10 263 0
276 20 178 252 10 0 556
277 -20 1158 1266 10 723 0
278 29 345 489 10 0 182
279 -20 1242 1423 10 504 0
280 20 683 825 10 0 575
281 -23 765 875 10 362 0
282 10 116 217 10 0 718
283 3 192 340 10 0 292
284 -20 479 568 10 673 0
285 20 939 992 10 0 144
286 5 823 912 10 0 138
287 -10 1344 1393 10 153 0
288 -30 121 228 10 592 0
289 10 86 154 10 0 228
290 -20 306 380 10 183 0
291 5 471 557 10 0 84
292 -3 198 335 10 283 0
293 15 705 828 0 0 822
294 -29 510 583 10 769 0
295 20 249 447 10 0 697
296 33 397 503 0 0 810
297 1 947 1096 10 0 532
298 21 361 511 10 0 378
299 -34 1034 1100 10 533 0
300 12 732 833 0 0 804
301 10 189 314 10 0 209
302 20 72 214 10 0 642
303 -20 374 433 10 215 0
304 8 156 299 10 0 435
305 8 910 1029 0 0 841
306 -17 1290 1441 10 317 0
307 20 136 269 10 0 10
308 20 238 378 0 0 833
309 10 252 344 10 0 19
310 20 138 265 10 0 345
311 10 165 286 10 0 584
312 10 152 271 10 0 479
313 10 166 255 10 0 233
314 -9 543 665 10 258 0
315 10 101 256 10 0 321
316 -20 133 270 10 799 0
317 17 84 214 10 0 306
318 20 192 343 10 0 589
319 22 230 351 10 0 20
320 21 63 151 10 0 801
321 -10 110 161 10 315 0
322 -13 1009 1163 10 742 0
323 3 378 555 0 0 821
324 -10 152 257 10 549 0
325 -20 195 304 10 126 0
326 30 149 256 10 0 334
327 -30 187 344 10 526 0
328 10 117 251 10 0 247
329 25 367 462 10 0 172
330 -30 449 555 10 516 0
331 -30 200 281 10 578 0
332 15 118 256 10 0 119
333 -14 118 224 10 400 0
334 -30 721 856 10 326 0
335 23 171 285 10 0 644
336 -20 628 759 10 486 0
337 -35 919 1047 10 7 0
338 10 142 264 10 0 272
339 10 231 321 10 0 379
340 -21 1180 1281 10 407 0
341 10 199 322 10 0 658
342 -10 112 231 10 123 0
343 39 229 349 0 0 820
344 -10 135 220 10 617 0
345 -20 179 340 10 310 0
346 -20 145 245 10 104 0
347 20 105 239 10 0 669
348 -10 286 352 10 229 0
349 -20 515 611 10 761 0
350 -10 63 213 10 691 0
351 -19 226 323 10 563 0
352 3 151 241 10 0 62
353 10 190 324 10 0 220
354 38 370 525 10 0 736
355 10 126 207 0 0 838
356 20 203 317 10 0 44
357 10 61 179 10 0 115
358 22 537 595 0 0 807
359 30 104 228 10 0 38
360 -30 1209 1370 10 767 0
361 19 83 197 10 0 83
362 23 608 720 10 0 281
363 10 223 383 0 0 813
364 -30 221 352 10 647 0
365 31 855 1014 10 0 211
366 13 865 1012 0 0 843
367 25 102 186 10 0 458
368 -11 1274 1428 10 568 0
369 9 61 155 10 0 148
370 -10 736 869 10 125 0
371 -8 570 663 10 245 0
372 37 536 616 10 0 707
373 -18 530 673 10 190 0
374 10 140 303 0 0 839
375 30 265 427 10 0 415
376 8 180 231 10 0 476
377 29 391 527 10 0 2
378 -21 577 659 10 298 0
379 -10 1095 1139 10 339 0
380 20 71 211 10 0 646
381 -9 1090 1227 10 511 0
382 -23 843 970 10 515 0
383 24 284 392 10 0 630
384 -16 268 352 10 191 0
385 -26 688 805 10 41 0
386 19 100 253 10 0 683
387 -10 165 230 10 396 0
388 -20 195 276 10 745 0
389 31 808 953 10 0 783
390 30 150 288 10 0 720
391 -35 1216 1312 10 770 0
392 20 66 149 10 0 487
393 -20 630 758 10 248 0
394 20 125 275 10 0 453
395 10 102 244 10 0 257
396 10 117 200 10 0 387
397 -10 1133 1213 10 4 0
398 10 253 417 10 0 5
399 -13 180 271 10 481 0
400 14 97 250 10 0 333
401 10 176 258 10 0 32
402 20 87 212 10 0 656
403 -11 305 407 10 271 0
404 10 210 323 10 0 419
405 10 244 361 10 0 690
406 -30 821 963 10 232 0
407 21 369 507 10 0 340
408 -20 119 248 10 675 0
409 12 279 431 10 0 468
410 10 172 247 10 0 439
411 20 125 177 0 0 816
412 35 97 216 10 0 130
413 -15 73 102 10 33 0
414 -20 559 730 10 91 0
415 -30 301 489 10 375 0
416 -50 397 541 10 614 0
417 10 157 282 10 0 664
418 -12 552 660 10 641 0
419 -10 872 1041 10 404 0
420 30 156 287 10 0 478
421 -30 62 184 10 166 0
422 9 205 315 10 0 790
423 -19 1114 1236 10 25 0
424 -6 937 1053 10 265 0
425 10 168 289 10 0 792
426 10 208 330 10 0 651
427 10 170 279 10 0 631
428 14 715 844 10 0 637
429 -30 112 241 10 493 0
430 11 1072 1212 10 0 147
431 -20 417 530 10 729 0
432 -30 149 266 10 142 0
433 10 96 194 10 0 510
434 27 236 353 10 0 108
435 -8 630 750 10 304 0
436 10 167 319 10 0 580
437 20 56 213 10 0 693
438 20 30 183 10 0 237
439 -10 177 313 10 410 0
440 16 70 201 10 0 177
441 -30 124 233 10 61 0
442 -10 95 235 10 514 0
443 -16 1090 1214 10 536 0
444 20 79 188 10 0 97
445 23 1030 1165 0 0 827
446 20 230 343 10 0 596
447 20 57 187 10 0 593
448 20 219 334 10 0 60
449 -27 538 611 10 561 0
450 -10 132 272 10 73 0
451 20 83 203 10 0 684
452 -10 537 648 10 140 0
453 -20 544 720 10 394 0
454 20 183 292 10 0 500
455 -20 144 283 10 90 0
456 -20 285 426 10 594 0
457 -11 684 731 10 777 0
458 -25 1337 1451 10 367 0
459 20 165 244 10 0 155
460 17 465 566 10 0 612
461 -20 202 299 10 507 0
462 -10 1240 1309 10 67 0
463 -1 722 853 10 492 0
464 10 186 270 10 0 599
465 -9 1160 1321 10 181 0
466 30 196 287 10 0 748
467 20 176 254 10 0 14
468 -12 660 801 10 409 0
469 18 1269 1336 10 0 85
470 -25 664 767 10 222 0
471 27 172 261 10 0 677
472 10 140 247 10 0 674
473 10 111 228 10 0 72
474 -30 182 294 10 740 0
475 -20 453 549 10 11 0
476 -8 299 389 10 376 0
477 -20 407 549 10 141 0
478 -30 1318 1452 10 420 0
479 -10 152 286 10 312 0
480 15 198 324 0 0 824
481 13 79 179 10 0 399
482 28 104 224 10 0 195
483 -20 306 431 10 728 0
484 -20 354 473 10 585 0
485 13 124 210 10 0 771
486 20 202 282 10 0 336
487 -20 629 794 10 392 0
488 30 179 337 10 0 528
489 -10 1144 1263 10 635 0
490 35 1140 1205 0 0 826
491 10 259 305 0 0 803
492 1 134 278 10 0 463
493 30 110 264 10 0 429
494 -10 211 327 10 704 0
495 -30 192 268 10 559 0
496 30 68 159 10 0 106
497 20 110 215 10 0 543
498 30 175 276 10 0 717
499 -20 317 485 10 241 0
500 -20 247 345 10 454 0
501 -30 968 1122 10 111 0
502 -16 819 928 10 205 0
503 33 478 628 0 0 835
504 20 91 246 10 0 279
505 10 174 305 10 0 572
506 -20 165 276 10 103 0
507 20 199 286 10 0 461
508 10 69 236 10 0 64
509 30 240 354 10 0 24
510 -10 113 237 10 433 0
511 9 943 1119 10 0 381
512 20 180 264 10 0 776
513 -10 209 253 10 139 0
514 10 94 250 10 0 442
515 23 395 569 10 0 382
516 30 171 292 10 0 330
517 30 125 229 10 0 562
518 23 599 736 10 0 34
519 -10 189 335 10 76 0
520 -20 187 302 10 96 0
521 20 238 334 10 0 625
522 -10 101 202 10 77 0
523 20 108 268 10 0 231
524 24 50 222 10 0 8
525 1 228 380 10 0 28
526 30 150 262 10 0 327
527 30 226 337 10 0 186
528 -30 209 372 10 488 0
529 10 34 129 10 0 610
530 -10 165 279 10 591 0
531 20 233 331 10 0 712
532 -1 1103 1231 10 297 0
533 34 109 221 10 0 299
534 -21 233 363 10 133 0
535 10 96 206 10 0 43
536 16 1020 1138 10 0 443
537 -10 922 1007 10 196 0
538 30 195 320 10 0 187
539 20 235 347 10 0 98
540 40 232 342 10 0 606
541 20 178 291 0 0 817
542 -30 978 1116 10 224 0
543 -20 127 238 10 497 0
544 10 110 233 10 0 204
545 30 226 315 10 0 253
546 -30 232 366 10 719 0
547 20 147 281 10 0 80
548 11 112 219 10 0 784
549 10 100 222 10 0 324
550 10 90 238 10 0 615
551 -19 548 694 10 726 0
552 20 248 358 10 0 57
553 34 776 834 10 0 86
554 -20 145 235 10 583 0
555 26 181 306 10 0 731
556 -20 656 773 10 276 0
557 -12 785 902 10 193 0
558 -20 184 314 10 789 0
559 30 181 295 10 0 495
560 20 200 347 0 0 845
561 27 264 412 10 0 449
562 -30 180 320 10 517 0
563 19 36 126 10 0 351
564 -20 200 239 10 737 0
565 -27 524 642 10 66 0
566 20 178 296 10 0 208
567 -10 671 769 10 165 0
568 11 603 751 10 0 368
569 6 1116 1253 0 0 808
570 -8 476 612 10 46 0
571 33 488 582 10 0 235
572 -10 202 330 10 505 0
573 10 110 240 10 0 798
574 10 108 185 10 0 709
575 -20 631 747 10 280 0
576 -10 122 253 10 212 0
577 20 179 288 10 0 582
578 30 149 248 10 0 331
579 -40 340 499 10 703 0
580 -10 790 936 10 436 0
581 10 250 399 10 0 590
582 -20 319 394 10 577 0
583 20 74 211 10 0 554
584 -10 462 582 10 311 0
585 20 107 213 10 0 484
586 20 134 233 10 0 39
587 15 225 389 10 0 786
588 10 234 385 10 0 694
589 -20 184 288 10 318 0
590 -10 210 344 10 581 0
591 10 143 256 10 0 530
592 30 130 265 10 0 288
593 -20 277 367 10 447 0
594 20 264 374 10 0 456
595 -40 235 393 10 750 0
596 -20 259 429 10 446 0
597 10 278 422 10 0 45
598 -21 1043 1106 10 787 0
599 -10 124 282 10 464 0
600 10 204 365 10 0 93
601 10 122 230 10 0 109
602 15 234 357 10 0 649
603 -23 1046 1178 10 773 0
604 -20 619 774 10 63 0
605 -30 157 247 10 52 0
606 -40 581 694 10 540 0
607 20 231 344 0 0 809
608 14 180 294 10 0 117
609 20 216 301 10 0 696
610 -10 1138 1230 10 529 0
611 10 132 260 10 0 269
612 -17 740 893 10 460 0
613 -20 274 436 10 21 0
614 50 199 314 10 0 416
615 -10 92 223 10 550 0
616 -10 1172 1292 10 686 0
617 10 121 228 10 0 344
618 10 262 383 10 0 89
619 11 497 573 10 0 639
620 -20 475 653 10 713 0
621 -10 170 316 10 184 0
622 31 758 918 0 0 842
623 10 234 349 10 0 800
624 -15 672 784 10 56 0
625 -20 1118 1175 10 521 0
626 9 1168 1272 10 0 772
627 -25 216 301 10 178 0
628 7 864 1016 0 0 815
629 20 174 297 10 0 794
630 -24 904 1040 10 383 0
631 -10 553 683 10 427 0
632 20 109 244 10 0 92
633 10 104 224 10 0 753
634 -20 196 369 10 778 0
635 10 253 363 10 0 489
636 -20 122 283 10 638 0
637 -14 753 875 10 428 0
638 20 146 224 10 0 636
639 -11 1075 1197 10 619 0
640 -10 320 466 10 136 0
641 12 91 193 10 0 418
642 -20 124 210 10 302 0
643 16 270 379 10 0 699
644 -23 428 497 10 335 0
645 37 210 340 10 0 240
646 -20 90 203 10 380 0
647 30 179 348 10 0 364
648 -20 294 370 10 29 0
649 -15 290 351 10 602 0
650 -14 226 337 10 51 0
651 -10 209 310 10 426 0
652 20 219 334 10 0 268
653 -9 66 215 10 738 0
654 -10 448 576 10 87 0
655 16 485 640 10 0 260
656 -20 89 218 10 402 0
657 10 172 262 10 0 749
658 -10 846 962 10 341 0
659 8 731 904 10 0 668
660 4 602 774 10 0 203
661 30 121 240 0 0 818
662 -20 160 314 10 100 0
663 -10 132 284 10 780 0
664 -10 559 706 10 417 0
665 -30 833 948 10 692 0
666 -8 329 462 10 744 0
667 30 183 265 10 0 249
668 -8 695 829 10 659 0
669 -20 118 212 10 347 0
670 20 104 241 10 0 55
671 -12 522 635 10 176 0
672 -30 92 237 10 157 0
673 20 198 325 10 0 284
674 -10 983 1145 10 472 0
675 20 113 254 10 0 408
676 -35 143 311 10 162 0
677 -27 563 692 10 471 0
678 -20 294 381 10 702 0
679 15 720 763 10 0 735
680 -25 908 1038 10 219 0
681 23 260 428 10 0 727
682 -10 194 296 10 59 0
683 -19 616 694 10 386 0
684 -20 120 261 10 451 0
685 -10 268 397 10 701 0
686 10 125 247 10 0 616
687 2 217 360 10 0 54
688 7 824 955 0 0 828
689 30 238 358 10 0 137
690 -10 186 321 10 405 0
691 10 36 154 10 0 350
692 30 196 338 10 0 665
693 -20 59 214 10 437 0
694 -10 247 406 10 588 0
695 10 235 327 10 0 185
696 -20 252 358 10 609 0
697 -20 776 932 10 295 0
698 10 87 187 10 0 134
699 -16 815 973 10 643 0
700 -20 706 862 10 244 0
701 10 239 367 10 0 685
702 20 103 239 10 0 678
703 40 146 299 10 0 579
704 10 190 294 10 0 494
705 -20 100 215 10 94 0
706 10 230 381 10 0 129
707 -37 961 1037 10 372 0
708 20 232 352 10 0 110
709 -10 113 269 10 574 0
710 -20 1044 1164 10 164 0
711 -10 85 228 10 756 0
712 -20 253 356 10 531 0
713 20 226 377 10 0 620
714 30 84 206 10 0 775
715 -20 1343 1440 10 791 0
716 -30 214 329 10 259 0
717 -30 179 295 10 498 0
718 -10 115 228 10 282 0
719 30 232 335 10 0 546
720 -30 195 337 10 390 0
721 -10 90 266 10 747 0
722 -10 1107 1257 10 107 0
723 20 236 349 10 0 277
724 23 255 399 10 0 154
725 20 218 275 10 0 189
726 19 103 194 10 0 551
727 -23 736 787 10 681 0
728 20 177 287 10 0 483
729 20 85 239 10 0 431
730 12 558 667 10 0 173
731 -26 216 321 10 555 0
732 -43 853 1003 10 12 0
733 20 151 306 0 0 819
734 20 207 295 10 0 79
735 -15 822 976 10 679 0
736 -38 454 567 10 354 0
737 20 95 257 10 0 564
738 9 56 210 10 0 653
739 -20 488 548 10 236 0
740 30 184 297 10 0 474
741 29 699 852 0 0 802
742 13 989 1123 10 0 322
743 -10 131 284 10 121 0
744 8 226 332 10 0 666
745 20 98 234 10 0 388
746 24 1102 1175 0 0 837
747 10 107 241 10 0 721
748 -30 217 324 10 466 0
749 -10 793 938 10 657 0
750 40 233 333 10 0 595
751 -20 818 944 10 145 0
752 20 154 270 10 0 797
753 -10 117 232 10 633 0
754 -19 624 671 10 793 0
755 20 192 307 10 0 128
756 10 84 149 10 0 711
757 -10 187 310 10 70 0
758 10 264 403 10 0 159
759 21 138 299 10 0 69
760 20 144 308 10 0 152
761 20 181 321 10 0 349
762 -22 957 1087 10 246 0
763 10 241 390 10 0 266
764 20 170 274 10 0 112
765 16 55 187 10 0 170
766 -13 255 385 10 18 0
767 30 37 130 10 0 360
768 -20 176 301 10 239 0
769 29 276 417 10 0 294
770 35 738 851 10 0 391
771 -13 228 409 10 485 0
772 -9 1194 1313 10 626 0
773 23 53 164 10 0 603
774 -30 1277 1405 10 74 0
775 -30 93 241 10 714 0
776 -20 761 885 10 512 0
777 11 283 370 10 0 457
778 20 194 353 10 0 634
779 23 59 226 10 0 210
780 10 141 251 10 0 663
781 23 763 925 10 0 788
782 -10 205 302 10 167 0
783 -31 1126 1276 10 389 0
784 -11 714 757 10 548 0
785 10 36 190 10 0 58
786 -15 295 416 10 587 0
787 21 675 809 10 0 598
788 -23 1003 1158 10 781 0
789 20 198 355 10 0 558
790 -9 287 337 10 422 0
791 20 142 274 10 0 715
792 -10 156 274 10 425 0
793 19 309 456 10 0 754
794 -20 142 274 10 629 0
795 11 730 860 0 0 832
796 -18 935 1064 10 105 0
797 -20 135 282 10 752 0
798 -10 360 459 10 573 0
799 20 135 231 10 0 316
800 -10 1029 1133 10 623 0
801 -21 423 506 10 320 0
802 -29 699 852 10 741 0
803 -10 259 305 10 491 0
804 -12 732 833 10 300 0
805 -26 750 860 10 99 0
806 -10 133 275 10 161 0
807 -22 537 595 10 358 0
808 -6 1116 1253 10 569 0
809 -20 231 344 10 607 0
810 -33 397 503 10 296 0
811 -10 704 808 10 132 0
812 -22 387 488 10 207 0
813 -10 223 383 10 363 0
814 -20 197 320 10 171 0
815 -7 864 1016 10 628 0
816 -20 125 177 10 411 0
817 -20 178 291 10 541 0
818 -30 121 240 10 661 0
819 -20 151 306 10 733 0
820 -39 229 349 10 343 0
821 -3 378 555 10 323 0
822 -15 705 828 10 293 0
823 -4 1215 1299 10 217 0
824 -15 198 324 10 480 0
825 -9 599 768 10 254 0
826 -35 1140 1205 10 490 0
827 -23 1030 1165 10 445 0
828 -7 824 955 10 688 0
829 -30 93 224 10 143 0
830 -20 65 229 10 163 0
831 -30 195 313 10 252 0
832 -11 730 860 10 795 0
833 -20 238 378 10 308 0
834 -7 961 1095 10 6 0
835 -33 478 628 10 503 0
836 -19 627 731 10 250 0
837 -24 1102 1175 10 746 0
838 -10 126 207 10 355 0
839 -10 140 303 10 374 0
840 -17 34 163 10 255 0
841 -8 910 1029 10 305 0
842 -31 758 918 10 622 0
843 -13 865 1012 10 366 0
844 -22 649 734 10 42 0
845 -20 200 347 10 560 0
DEPOT_SECTION
1
-1
EOF
