NAME: lrc1_8_7
TYPE: PDPTW
COMMENT: Li & Lim PDPTW benchmark converted from SINTEF format
DIMENSION: 831
VEHICLES: 200
CAPACITY: 200
EDGE_WEIGHT_TYPE: EUC_2D
NODE_COORD_SECTION
1 200 200
2 244 56
3 245 106
4 233 214
5 395 340
6 229 371
7 384 248
8 277 163
9 52 94
10 89 152
11 218 284
12 340 276
13 206 106
14 375 247
15 113 179
16 348 280
17 223 372
18 361 287
19 6 62
20 37 397
21 364 27
22 14 201
23 325 294
24 41 382
25 325 130
26 384 47
27 116 181
28 346 155
29 359 30
30 222 284
31 91 150
32 140 387
33 176 154
34 352 383
35 213 332
36 133 68
37 151 188
38 105 250
39 94 70
40 287 307
41 267 321
42 220 71
43 244 106
44 338 290
45 5 345
46 145 301
47 393 301
48 359 23
49 196 107
50 348 41
51 59 51
52 126 91
53 234 214
54 108 395
55 186 306
56 125 122
57 12 368
58 348 279
59 26 247
60 393 306
61 268 114
62 2 17
63 62 258
64 186 145
65 338 315
66 66 118
67 68 378
68 294 136
69 73 126
70 68 263
71 302 136
72 234 203
73 127 94
74 233 208
75 210 1
76 102 252
77 152 237
78 2 3
79 92 162
80 177 55
81 193 29
82 105 360
83 193 216
84 338 150
85 68 143
86 180 15
87 182 378
88 39 384
89 43 386
90 291 301
91 32 251
92 246 298
93 32 229
94 116 252
95 198 295
96 63 262
97 119 179
98 174 375
99 199 45
100 150 236
101 363 24
102 393 307
103 331 251
104 293 306
105 18 102
106 196 293
107 299 141
108 364 25
109 41 183
110 342 385
111 302 203
112 212 197
113 384 294
114 381 290
115 110 254
116 196 51
117 264 341
118 23 98
119 278 265
120 23 97
121 281 155
122 352 162
123 209 85
124 15 4
125 177 379
126 18 208
127 343 322
128 369 107
129 31 360
130 263 110
131 240 246
132 380 339
133 111 286
134 213 271
135 251 381
136 322 242
137 390 52
138 26 70
139 300 132
140 342 384
141 357 160
142 204 87
143 197 293
144 98 107
145 400 109
146 231 243
147 84 221
148 230 290
149 397 261
150 222 283
151 247 377
152 60 319
153 79 154
154 256 385
155 140 40
156 8 119
157 208 274
158 84 293
159 74 351
160 95 64
161 329 236
162 248 286
163 234 243
164 244 109
165 340 388
166 161 233
167 125 95
168 351 199
169 61 333
170 146 324
171 372 104
172 381 144
173 394 299
174 363 30
175 358 23
176 220 238
177 97 105
178 186 355
179 391 42
180 48 326
181 74 87
182 264 69
183 341 394
184 128 95
185 362 383
186 41 340
187 13 220
188 85 61
189 340 290
190 396 106
191 79 344
192 201 195
193 90 311
194 207 185
195 92 255
196 385 56
197 396 59
198 51 326
199 169 352
200 230 139
201 286 44
202 286 308
203 339 69
204 206 296
205 142 385
206 370 57
207 35 79
208 17 209
209 128 68
210 145 165
211 237 259
212 89 154
213 72 257
214 158 121
215 323 243
216 367 361
217 165 126
218 45 85
219 137 68
220 310 143
221 18 100
222 201 6
223 297 135
224 86 154
225 374 175
226 91 70
227 166 357
228 113 183
229 347 395
230 243 244
231 243 140
232 14 100
233 393 312
234 92 384
235 294 249
236 195 91
237 235 212
238 350 271
239 353 164
240 262 233
241 200 48
242 214 119
243 234 37
244 93 62
245 234 73
246 157 378
247 194 43
248 268 223
249 355 156
250 248 124
251 364 213
252 371 253
253 31 353
254 41 337
255 209 167
256 352 303
257 53 326
258 388 106
259 21 104
260 381 12
261 221 379
262 46 380
263 192 332
264 343 359
265 320 211
266 34 355
267 338 106
268 397 283
269 267 161
270 124 221
271 310 340
272 270 106
273 243 104
274 68 250
275 213 305
276 214 378
277 287 279
278 313 64
279 244 285
280 154 68
281 14 53
282 298 137
283 371 111
284 393 246
285 118 122
286 9 47
287 171 168
288 321 212
289 115 185
290 336 387
291 357 202
292 374 104
293 271 371
294 291 398
295 353 3
296 74 213
297 17 99
298 253 316
299 369 118
300 11 328
301 126 70
302 165 264
303 377 282
304 73 292
305 174 326
306 135 161
307 85 155
308 360 23
309 20 91
310 72 253
311 87 155
312 134 63
313 349 275
314 325 45
315 182 300
316 328 239
317 138 143
318 372 256
319 57 381
320 162 251
321 183 301
322 381 375
323 389 171
324 179 305
325 14 210
326 290 311
327 345 158
328 200 83
329 342 154
330 18 294
331 156 4
332 247 212
333 93 149
334 299 399
335 369 171
336 246 247
337 356 223
338 266 116
339 39 34
340 51 205
341 180 387
342 203 88
343 173 72
344 129 85
345 45 291
346 294 311
347 305 198
348 338 391
349 349 135
350 237 213
351 82 360
352 102 84
353 300 144
354 236 38
355 278 159
356 344 280
357 149 234
358 320 373
359 109 252
360 218 134
361 184 282
362 32 78
363 395 310
364 19 206
365 243 275
366 175 192
367 299 227
368 159 164
369 215 260
370 163 364
371 208 20
372 97 387
373 294 13
374 108 250
375 389 306
376 262 30
377 334 92
378 279 337
379 3 15
380 210 271
381 256 145
382 387 267
383 8 285
384 83 357
385 267 295
386 279 262
387 238 101
388 219 377
389 126 90
390 129 67
391 166 115
392 238 250
393 246 244
394 131 95
395 115 257
396 243 106
397 202 158
398 389 307
399 237 109
400 117 148
401 180 375
402 276 157
403 303 358
404 17 96
405 173 381
406 70 81
407 46 197
408 206 81
409 348 343
410 95 63
411 324 216
412 265 127
413 196 138
414 26 260
415 384 307
416 23 317
417 204 292
418 321 287
419 56 97
420 70 264
421 152 240
422 0 155
423 317 68
424 395 167
425 289 306
426 75 367
427 353 276
428 183 71
429 312 200
430 49 222
431 297 137
432 200 89
433 242 113
434 341 33
435 55 341
436 99 67
437 236 243
438 229 209
439 93 59
440 143 159
441 267 112
442 196 295
443 334 100
444 122 183
445 225 53
446 28 353
447 158 239
448 392 307
449 13 59
450 127 90
451 221 281
452 326 374
453 178 103
454 376 251
455 293 310
456 386 60
457 300 272
458 243 209
459 102 67
460 285 107
461 82 365
462 5 344
463 366 97
464 220 283
465 79 95
466 369 100
467 371 244
468 366 340
469 85 128
470 231 6
471 330 313
472 202 85
473 236 204
474 220 381
475 206 286
476 274 7
477 369 211
478 126 208
479 134 62
480 67 318
481 232 127
482 96 209
483 146 301
484 308 178
485 294 118
486 280 224
487 241 275
488 82 65
489 159 11
490 300 64
491 22 96
492 334 186
493 310 200
494 52 331
495 25 256
496 210 268
497 310 196
498 183 375
499 194 65
500 366 251
501 285 184
502 160 313
503 349 324
504 225 288
505 124 69
506 349 272
507 87 365
508 240 210
509 40 380
510 276 116
511 280 5
512 20 204
513 301 139
514 195 294
515 377 144
516 34 242
517 324 217
518 348 371
519 70 256
520 48 304
521 41 378
522 114 254
523 264 112
524 244 176
525 349 181
526 346 163
527 52 334
528 53 51
529 177 174
530 114 178
531 367 255
532 19 61
533 273 118
534 84 359
535 244 114
536 321 144
537 384 53
538 29 250
539 172 383
540 84 360
541 28 246
542 107 159
543 319 160
544 230 241
545 32 352
546 32 357
547 237 108
548 162 94
549 185 299
550 110 188
551 259 4
552 34 385
553 156 32
554 201 297
555 311 344
556 174 329
557 119 286
558 179 383
559 26 250
560 84 363
561 6 20
562 373 253
563 184 233
564 177 300
565 88 121
566 22 205
567 306 361
568 87 164
569 123 176
570 131 275
571 315 237
572 85 67
573 197 300
574 308 196
575 114 88
576 87 153
577 21 201
578 137 64
579 361 194
580 115 51
581 24 96
582 2 200
583 211 274
584 102 149
585 307 196
586 127 87
587 302 274
588 383 53
589 376 254
590 15 100
591 111 179
592 308 204
593 85 358
594 391 54
595 385 55
596 65 335
597 46 378
598 310 363
599 217 286
600 33 247
601 88 150
602 397 73
603 70 231
604 72 315
605 131 67
606 117 381
607 31 357
608 299 351
609 393 297
610 102 118
611 273 160
612 350 131
613 364 55
614 47 328
615 109 186
616 143 20
617 134 98
618 42 384
619 255 80
620 52 194
621 128 93
622 50 385
623 386 57
624 86 112
625 26 275
626 40 336
627 135 384
628 52 301
629 68 261
630 36 288
631 375 294
632 220 288
633 186 304
634 369 106
635 96 69
636 321 217
637 177 77
638 320 216
639 246 47
640 350 207
641 279 247
642 153 315
643 68 386
644 399 179
645 297 240
646 199 290
647 21 204
648 362 28
649 353 65
650 24 57
651 75 368
652 393 305
653 239 254
654 146 320
655 369 6
656 277 154
657 304 141
658 205 372
659 339 3
660 254 0
661 321 209
662 114 250
663 318 219
664 209 283
665 48 358
666 339 384
667 351 153
668 377 29
669 317 183
670 183 303
671 299 308
672 197 292
673 370 98
674 188 67
675 207 87
676 295 307
677 325 311
678 228 96
679 368 215
680 208 86
681 75 76
682 27 251
683 308 314
684 217 289
685 337 388
686 133 94
687 91 388
688 87 147
689 389 54
690 185 386
691 234 212
692 53 330
693 237 247
694 369 19
695 346 385
696 397 313
697 355 41
698 211 266
699 8 363
700 59 89
701 344 391
702 242 105
703 327 242
704 55 324
705 114 252
706 29 355
707 102 377
708 345 382
709 313 194
710 285 136
711 272 154
712 379 254
713 22 210
714 117 187
715 157 220
716 21 96
717 182 379
718 298 138
719 28 356
720 130 70
721 111 184
722 319 113
723 347 385
724 220 337
725 344 283
726 217 98
727 76 90
728 175 299
729 270 151
730 398 258
731 344 321
732 266 234
733 49 187
734 92 155
735 344 236
736 226 52
737 183 294
738 237 243
739 184 69
740 222 383
741 21 255
742 390 357
743 272 161
744 371 349
745 220 296
746 184 235
747 113 184
748 370 104
749 273 182
750 382 54
751 379 126
752 327 241
753 189 306
754 26 326
755 367 104
756 271 154
757 67 258
758 86 357
759 107 98
760 66 254
761 374 253
762 228 341
763 60 328
764 268 160
765 201 255
766 397 362
767 236 210
768 349 157
769 348 319
770 186 75
771 327 115
772 77 319
773 147 210
774 195 148
775 108 186
776 26 199
777 305 255
778 368 102
779 146 174
780 319 217
781 335 202
782 128 94
783 82 78
784 92 68
785 231 219
786 309 274
787 336 386
788 324 194
789 174 387
790 24 93
791 107 247
792 291 308
793 13 322
794 68 254
795 142 379
796 43 121
797 329 241
798 260 352
799 328 243
800 384 64
801 80 365
802 2 3
803 50 385
804 46 380
805 326 374
806 338 106
807 345 382
808 68 386
809 219 377
810 86 357
811 109 186
812 393 246
813 45 291
814 125 122
815 368 215
816 385 56
817 79 154
818 351 199
819 243 275
820 268 114
821 97 105
822 74 87
823 294 249
824 5 344
825 327 242
826 86 154
827 193 216
828 189 306
829 195 148
830 363 30
831 399 179
PICKUP_AND_DELIVERY_SECTION
1 0 0 1573 0 0 0
2 14 616 738 10 0 639
3 20 104 233 10 0 396
4 -12 66 121 10 192 0
5 -21 240 378 10 185 0
6 7 998 1058 10 0 170
7 35 203 271 10 0 424
8 -20 148 215 10 656 0
9 -23 1120 1193 10 362 0
10 20 120 195 10 0 733
11 20 149 281 10 0 211
12 43 836 930 10 0 240
13 33 236 371 10 0 391
14 10 181 297 10 0 454
15 10 164 258 10 0 591
16 -12 200 263 10 641 0
17 -20 213 290 10 474 0
18 13 231 310 10 0 268
19 -10 875 948 10 491 0
20 -2 773 907 10 687 0
21 -40 275 365 10 108 0
22 10 198 263 10 0 208
23 -15 1098 1223 10 587 0
24 -30 241 368 10 509 0
25 -23 1019 1088 10 515 0
26 -10 1050 1162 10 137 0
27 -10 193 279 10 77 0
28 20 196 308 10 0 84
29 -30 308 410 10 48 0
30 -20 86 163 10 150 0
31 -20 119 187 10 444 0
32 8 196 248 10 0 795
33 15 51 113 10 0 548
34 -10 763 863 10 132 0
35 21 695 770 10 0 762
36 20 148 283 10 0 331
37 18 50 83 10 0 747
38 -10 172 218 10 522 0
39 -21 251 340 10 759 0
40 -30 199 282 10 230 0
41 26 615 682 10 0 385
42 -18 649 734 10 201 0
43 -20 103 253 10 164 0
44 -15 639 691 10 766 0
45 -26 1205 1246 10 186 0
46 8 115 244 10 0 372
47 -10 217 269 10 427 0
48 30 237 268 10 0 29
49 -15 1304 1384 10 616 0
50 -20 621 724 10 778 0
51 14 205 310 10 0 281
52 -10 191 219 10 167 0
53 10 70 180 10 0 350
54 -13 539 637 10 627 0
55 10 150 224 10 0 475
56 15 108 215 0 0 814
57 12 749 824 10 0 699
58 10 213 229 10 0 189
59 -30 180 241 10 516 0
60 20 220 294 10 0 448
61 30 154 227 0 0 820
62 -20 269 341 10 188 0
63 20 149 217 10 0 614
64 -10 1388 1507 10 535 0
65 -2 956 979 10 731 0
66 -10 554 606 10 775 0
67 10 636 758 10 0 665
68 10 113 190 10 0 657
69 38 402 466 10 0 610
70 -20 168 251 10 794 0
71 20 136 225 10 0 220
72 -10 123 241 10 473 0
73 10 169 293 10 0 782
74 30 33 196 10 0 112
75 -8 947 1083 10 245 0
76 10 161 201 10 0 604
77 10 60 139 10 0 27
78 14 758 861 0 0 802
79 -23 236 300 10 779 0
80 -10 705 836 10 453 0
81 -32 739 805 10 470 0
82 10 777 824 10 0 626
83 1 1218 1273 0 0 827
84 -20 750 816 10 28 0
85 -17 1200 1340 10 317 0
86 -26 845 935 10 247 0
87 10 178 257 10 0 558
88 -20 244 353 10 521 0
89 10 285 335 10 0 707
90 20 135 246 10 0 418
91 20 233 309 10 0 600
92 -9 910 1032 10 369 0
93 -20 1029 1109 10 364 0
94 -10 98 158 10 357 0
95 -10 122 197 10 514 0
96 20 167 222 10 0 416
97 10 239 260 10 0 569
98 -20 271 394 10 737 0
99 -20 765 845 10 236 0
100 -30 61 143 10 421 0
101 20 241 304 10 0 278
102 10 242 312 10 0 303
103 -20 140 243 10 797 0
104 20 141 211 10 0 279
105 -9 206 343 10 422 0
106 -30 93 183 10 143 0
107 10 208 280 10 0 353
108 40 239 390 10 0 21
109 -30 1144 1240 10 420 0
110 -10 340 403 10 140 0
111 30 170 256 10 0 458
112 -30 828 910 10 74 0
113 -30 510 635 10 375 0
114 36 428 540 10 0 631
115 20 104 200 10 0 557
116 19 513 577 10 0 674
117 -5 1026 1085 10 154 0
118 10 308 387 10 0 156
119 -20 612 715 10 148 0
120 -10 295 377 10 581 0
121 10 120 183 10 0 611
122 10 156 241 10 0 501
123 10 115 261 10 0 408
124 18 658 771 10 0 297
125 10 304 331 10 0 570
126 -30 238 311 10 647 0
127 -10 801 851 10 785 0
128 20 256 332 10 0 299
129 -20 254 331 10 546 0
130 -35 132 174 10 412 0
131 20 60 162 10 0 786
132 10 753 760 10 0 34
133 21 123 222 10 0 534
134 -20 112 132 10 380 0
135 17 233 332 10 0 798
136 10 183 313 10 0 571
137 10 270 343 10 0 26
138 -5 883 990 10 286 0
139 10 127 205 10 0 443
140 10 328 436 10 0 110
141 20 162 235 10 0 788
142 -30 113 227 10 432 0
143 30 93 173 10 0 106
144 17 916 983 10 0 285
145 -30 811 914 10 667 0
146 10 111 208 10 0 437
147 -15 1071 1165 10 187 0
148 20 94 181 10 0 119
149 -6 568 632 10 265 0
150 20 85 200 10 0 30
151 -11 1198 1263 10 334 0
152 29 216 324 10 0 351
153 10 141 232 0 0 817
154 5 568 653 10 0 117
155 -18 978 1082 10 580 0
156 -10 832 876 10 118 0
157 30 74 196 10 0 684
158 -20 521 622 10 791 0
159 -20 917 1032 10 507 0
160 20 171 280 10 0 528
161 -20 144 229 10 638 0
162 -20 98 211 10 504 0
163 20 95 199 10 0 486
164 20 101 240 10 0 43
165 -20 328 388 10 723 0
166 -20 88 175 10 447 0
167 10 199 240 10 0 52
168 4 773 842 0 0 818
169 10 261 341 10 0 754
170 -7 1335 1428 10 6 0
171 20 218 300 10 0 602
172 18 437 572 10 0 722
173 -12 743 874 10 730 0
174 10 302 388 0 0 830
175 20 237 372 10 0 655
176 12 42 91 10 0 392
177 33 932 986 0 0 821
178 25 155 237 10 0 690
179 44 944 1014 10 0 800
180 -15 197 302 10 520 0
181 9 1293 1394 0 0 822
182 -11 628 732 10 619 0
183 -10 247 363 10 695 0
184 10 193 337 10 0 575
185 21 244 305 10 0 5
186 26 848 907 10 0 45
187 15 1045 1115 10 0 147
188 20 180 279 10 0 62
189 -10 433 498 10 58 0
190 18 247 324 10 0 283
191 16 188 310 10 0 560
192 12 5 108 10 0 4
193 -30 649 719 10 359 0
194 -21 1199 1271 10 476 0
195 -28 385 493 10 482 0
196 10 234 322 0 0 816
197 20 299 373 10 0 206
198 -8 195 303 10 304 0
199 7 216 312 10 0 789
200 -11 1294 1331 10 710 0
201 18 526 635 10 0 42
202 10 208 296 10 0 326
203 -27 927 1034 10 434 0
204 30 171 239 10 0 417
205 -10 487 597 10 341 0
206 -20 1086 1181 10 197 0
207 22 420 456 10 0 419
208 -10 227 298 10 22 0
209 10 164 286 10 0 637
210 13 65 164 10 0 678
211 -20 1162 1215 10 11 0
212 -20 171 303 10 307 0
213 10 223 325 10 0 274
214 -10 1086 1155 10 399 0
215 -20 178 296 10 663 0
216 -27 454 551 10 471 0
217 -20 1217 1298 10 702 0
218 -10 880 981 10 404 0
219 25 146 238 10 0 578
220 -20 146 256 10 71 0
221 20 207 258 10 0 790
222 -12 568 633 10 243 0
223 30 116 213 10 0 484
224 30 190 238 0 0 826
225 18 296 421 10 0 525
226 -10 248 317 10 529 0
227 -20 1192 1265 10 745 0
228 -19 140 230 10 563 0
229 10 244 354 10 0 685
230 30 61 135 10 0 40
231 -12 1254 1323 10 381 0
232 30 211 336 10 0 650
233 -20 274 364 10 696 0
234 -18 398 437 10 801 0
235 8 446 527 0 0 823
236 20 138 308 10 0 99
237 -10 37 134 10 691 0
238 10 165 260 10 0 415
239 -1 157 234 10 492 0
240 -43 1079 1170 10 12 0
241 20 181 288 10 0 680
242 5 988 1072 10 0 397
243 12 520 534 10 0 222
244 -10 177 255 10 410 0
245 8 131 219 10 0 75
246 -16 879 984 10 642 0
247 26 682 797 10 0 86
248 20 71 155 10 0 313
249 -10 176 242 10 709 0
250 19 635 723 10 0 360
251 -30 522 664 10 288 0
252 -20 216 291 10 467 0
253 20 227 346 10 0 706
254 -14 625 743 10 435 0
255 17 34 117 10 0 387
256 -3 1039 1136 10 712 0
257 20 193 232 10 0 704
258 9 243 314 10 0 463
259 30 203 300 10 0 716
260 15 575 637 10 0 668
261 -20 180 272 10 276 0
262 10 268 408 0 0 804
263 -21 389 517 10 320 0
264 -20 431 511 10 666 0
265 6 120 171 10 0 149
266 -10 298 325 10 651 0
267 8 925 1008 0 0 806
268 -13 377 476 10 18 0
269 -20 206 259 10 764 0
270 -33 990 1047 10 296 0
271 11 178 302 10 0 277
272 30 117 159 10 0 460
273 -20 138 225 10 547 0
274 -10 523 635 10 213 0
275 -10 457 553 10 573 0
276 20 178 264 10 0 261
277 -11 1158 1266 10 271 0
278 -20 374 461 10 101 0
279 -20 1298 1368 10 104 0
280 20 724 783 10 0 428
281 -14 780 859 10 51 0
282 10 116 219 10 0 718
283 -18 209 319 10 190 0
284 14 483 563 0 0 812
285 -17 936 995 10 144 0
286 5 789 947 10 0 138
287 -15 1363 1373 10 306 0
288 30 121 234 10 0 251
289 10 86 178 10 0 721
290 10 298 389 10 0 358
291 5 466 563 10 0 781
292 -20 198 297 10 755 0
293 -16 727 807 10 294 0
294 16 494 598 10 0 293
295 -10 249 322 10 694 0
296 33 397 502 10 0 270
297 -18 969 1074 10 124 0
298 21 392 479 10 0 336
299 -20 1033 1101 10 128 0
300 -19 735 829 10 793 0
301 -20 187 316 10 586 0
302 20 72 165 10 0 564
303 -10 387 420 10 102 0
304 8 176 204 10 0 198
305 -18 915 1024 10 606 0
306 15 1314 1417 10 0 287
307 20 160 244 10 0 212
308 -13 238 290 10 485 0
309 -10 254 342 10 590 0
310 20 138 243 10 0 757
311 -20 159 292 10 333 0
312 10 152 286 10 0 479
313 -20 166 273 10 248 0
314 8 564 645 10 0 660
315 10 101 230 10 0 539
316 -20 158 242 10 636 0
317 17 84 179 10 0 85
318 -20 240 294 10 531 0
319 22 230 303 10 0 772
320 21 63 102 10 0 263
321 -19 102 242 10 361 0
322 -23 1030 1143 10 518 0
323 -15 431 501 10 771 0
324 -20 160 249 10 728 0
325 -20 221 278 10 566 0
326 -10 148 257 10 202 0
327 -29 220 311 10 669 0
328 10 138 223 10 0 354
329 -20 344 486 10 497 0
330 45 471 533 10 0 630
331 -20 200 295 10 36 0
332 -10 147 228 10 508 0
333 20 118 266 10 0 311
334 11 765 813 10 0 151
335 -20 171 253 10 585 0
336 -21 660 728 10 298 0
337 -16 929 1037 10 640 0
338 10 130 277 10 0 510
339 10 234 280 10 0 796
340 -10 1216 1246 10 519 0
341 10 196 325 10 0 205
342 30 112 198 10 0 739
343 -30 205 373 10 605 0
344 -10 135 238 10 686 0
345 18 195 262 0 0 813
346 10 145 240 10 0 455
347 20 105 217 10 0 592
348 -10 271 366 10 701 0
349 28 490 636 10 0 612
350 -10 115 161 10 53 0
351 -29 238 312 10 152 0
352 -20 151 292 10 450 0
353 -10 197 317 10 107 0
354 -10 398 498 10 328 0
355 -20 104 229 10 402 0
356 20 207 313 10 0 725
357 10 61 98 10 0 94
358 -10 512 621 10 290 0
359 30 120 208 10 0 193
360 -19 1248 1331 10 250 0
361 19 83 163 10 0 321
362 23 619 709 10 0 9
363 -20 240 342 10 652 0
364 20 243 329 10 0 93
365 31 885 984 0 0 819
366 -10 886 992 10 705 0
367 25 102 242 10 0 777
368 -13 1293 1409 10 481 0
369 9 61 163 10 0 92
370 21 751 853 10 0 658
371 -26 576 657 10 551 0
372 -8 528 625 10 46 0
373 -8 541 662 10 376 0
374 -20 169 274 10 662 0
375 30 306 387 10 0 113
376 8 180 252 10 0 373
377 -20 431 486 10 595 0
378 -37 602 635 10 403 0
379 20 1064 1170 10 0 532
380 20 71 165 10 0 134
381 12 1109 1208 10 0 231
382 -29 874 940 10 769 0
383 24 294 382 10 0 625
384 10 266 354 10 0 502
385 -26 706 786 10 41 0
386 19 100 182 10 0 457
387 -17 140 254 10 255 0
388 20 190 280 0 0 809
389 -16 840 922 10 440 0
390 30 170 258 10 0 720
391 -33 1216 1312 10 13 0
392 -12 62 159 10 176 0
393 -9 626 761 10 738 0
394 20 125 169 10 0 681
395 10 102 184 10 0 494
396 -20 128 188 10 3 0
397 -5 1129 1218 10 242 0
398 -20 283 388 10 609 0
399 10 181 269 10 0 214
400 14 97 215 10 0 734
401 10 176 283 10 0 717
402 20 87 205 10 0 355
403 37 304 408 10 0 378
404 10 210 333 10 0 218
405 10 218 388 10 0 556
406 -19 851 934 10 784 0
407 -20 366 510 10 713 0
408 -10 119 254 10 123 0
409 12 310 399 10 0 735
410 10 192 217 10 0 244
411 -30 125 220 10 661 0
412 35 97 193 10 0 130
413 18 62 153 10 0 553
414 16 625 663 10 0 741
415 -10 334 456 10 238 0
416 -20 437 501 10 96 0
417 -30 185 254 10 204 0
418 -20 558 654 10 90 0
419 -22 917 995 10 207 0
420 30 174 270 10 0 109
421 30 62 180 10 0 100
422 9 205 279 10 0 105
423 -23 1128 1223 10 445 0
424 -35 957 1034 10 7 0
425 10 187 270 10 0 792
426 -30 208 302 10 461 0
427 10 170 230 10 0 47
428 -20 757 802 10 280 0
429 -30 127 214 10 493 0
430 -16 1104 1180 10 603 0
431 -34 439 508 10 533 0
432 30 181 235 10 0 142
433 -24 96 210 10 524 0
434 27 254 334 10 0 203
435 14 614 766 10 0 254
436 -20 167 255 10 459 0
437 -10 103 166 10 146 0
438 20 30 130 10 0 767
439 20 178 280 10 0 572
440 16 70 126 10 0 389
441 -20 130 227 10 523 0
442 20 95 261 10 0 746
443 -10 1094 1210 10 139 0
444 20 79 177 10 0 31
445 23 1050 1145 10 0 423
446 20 230 306 10 0 597
447 20 61 168 10 0 166
448 -20 219 341 10 60 0
449 -27 540 609 10 561 0
450 20 133 255 10 0 352
451 -10 83 218 10 464 0
452 17 548 638 0 0 805
453 10 604 660 10 0 80
454 -10 183 262 10 14 0
455 -10 144 288 10 346 0
456 -40 303 409 10 750 0
457 -19 635 781 10 386 0
458 -30 1352 1437 10 111 0
459 20 165 225 10 0 436
460 -30 498 533 10 272 0
461 30 202 293 10 0 426
462 7 1252 1296 0 0 824
463 -9 747 827 10 258 0
464 10 171 284 10 0 451
465 -20 1191 1291 10 783 0
466 30 196 300 10 0 697
467 20 176 219 10 0 252
468 -26 676 784 10 555 0
469 -10 1241 1365 10 621 0
470 32 685 746 10 0 81
471 27 172 258 10 0 216
472 -20 156 231 10 675 0
473 10 111 227 10 0 72
474 20 182 244 10 0 17
475 -10 468 535 10 55 0
476 21 283 406 10 0 194
477 -30 443 513 10 517 0
478 -23 1317 1452 10 773 0
479 -10 152 271 10 312 0
480 15 227 294 10 0 654
481 13 79 210 10 0 368
482 28 104 179 10 0 195
483 -30 296 441 10 498 0
484 -30 361 466 10 223 0
485 13 124 247 10 0 308
486 -20 189 294 10 163 0
487 -10 647 775 10 599 0
488 30 201 302 10 0 635
489 -35 1144 1263 10 770 0
490 -19 1106 1238 10 726 0
491 10 225 339 10 0 19
492 1 134 254 10 0 239
493 30 157 209 10 0 429
494 -10 226 311 10 395 0
495 -20 183 279 10 541 0
496 30 68 164 10 0 583
497 20 110 173 10 0 329
498 30 175 297 10 0 483
499 16 341 462 10 0 736
500 20 247 345 10 0 589
501 -10 1017 1072 10 122 0
502 -10 818 929 10 384 0
503 -8 498 608 10 744 0
504 20 91 227 10 0 162
505 -10 203 276 10 617 0
506 -20 165 270 10 799 0
507 20 199 247 10 0 159
508 10 115 190 10 0 332
509 30 240 350 10 0 24
510 -10 113 241 10 338 0
511 -10 1005 1058 10 648 0
512 20 180 256 10 0 776
513 30 176 285 10 0 749
514 10 104 169 10 0 95
515 23 437 527 10 0 25
516 30 171 231 10 0 59
517 30 131 189 10 0 477
518 23 635 699 10 0 322
519 10 210 315 10 0 340
520 15 185 305 10 0 180
521 20 238 329 10 0 88
522 10 101 146 10 0 38
523 20 117 214 10 0 441
524 24 50 160 10 0 433
525 -18 235 372 10 225 0
526 30 150 238 10 0 579
527 -30 263 300 10 692 0
528 -20 209 359 10 160 0
529 10 34 142 10 0 226
530 -30 170 274 10 714 0
531 20 260 305 10 0 318
532 -20 1120 1215 10 379 0
533 34 109 218 10 0 431
534 -21 258 338 10 133 0
535 10 96 186 10 0 64
536 -26 1039 1119 10 543 0
537 -20 932 997 10 594 0
538 -30 224 291 10 559 0
539 -10 246 335 10 315 0
540 40 259 314 10 0 593
541 20 178 235 10 0 495
542 -12 1000 1094 10 584 0
543 26 136 230 10 0 536
544 -30 110 233 10 693 0
545 30 226 322 10 0 596
546 20 259 338 10 0 129
547 20 158 270 10 0 273
548 -15 112 189 10 33 0
549 10 100 162 10 0 554
550 10 91 159 10 0 715
551 26 591 650 10 0 371
552 20 248 341 10 0 618
553 -18 743 868 10 413 0
554 -10 139 240 10 549 0
555 26 181 265 10 0 468
556 -10 648 781 10 405 0
557 -20 807 881 10 115 0
558 -10 208 249 10 87 0
559 30 181 256 10 0 538
560 -16 200 299 10 191 0
561 27 264 385 10 0 449
562 10 187 296 10 0 761
563 19 36 106 10 0 228
564 -20 186 254 10 302 0
565 15 527 638 10 0 624
566 20 178 250 10 0 325
567 4 709 731 10 0 787
568 11 615 739 10 0 688
569 -10 1118 1251 10 97 0
570 -10 506 581 10 125 0
571 -10 467 602 10 136 0
572 -20 234 297 10 439 0
573 10 121 228 10 0 275
574 10 108 214 10 0 768
575 -10 655 723 10 184 0
576 -10 122 293 10 601 0
577 20 179 262 10 0 582
578 -25 149 265 10 219 0
579 -30 373 467 10 526 0
580 18 826 901 10 0 155
581 10 294 355 10 0 120
582 -20 315 398 10 577 0
583 -30 74 201 10 496 0
584 12 487 558 10 0 542
585 20 107 185 10 0 335
586 20 144 217 10 0 301
587 15 255 359 10 0 23
588 10 234 330 10 0 689
589 -20 184 309 10 500 0
590 10 210 283 10 0 309
591 -10 158 240 10 15 0
592 -20 159 235 10 347 0
593 -40 275 369 10 540 0
594 20 275 363 10 0 537
595 20 235 320 10 0 377
596 -30 271 417 10 545 0
597 -20 315 386 10 446 0
598 -10 1021 1127 10 653 0
599 10 168 238 10 0 487
600 -20 229 341 10 91 0
601 10 122 226 10 0 576
602 -20 234 287 10 171 0
603 16 1038 1187 10 0 430
604 -10 641 751 10 76 0
605 30 169 235 10 0 343
606 18 601 673 10 0 305
607 -30 249 326 10 719 0
608 14 180 329 10 0 742
609 20 216 269 10 0 398
610 -38 1157 1211 10 69 0
611 -10 149 243 10 121 0
612 -28 790 843 10 349 0
613 -10 308 402 10 623 0
614 -20 199 310 10 63 0
615 10 92 212 0 0 811
616 15 1199 1266 10 0 49
617 10 121 222 10 0 505
618 -20 294 351 10 552 0
619 11 486 583 10 0 182
620 -10 545 583 10 682 0
621 10 200 286 10 0 469
622 31 795 882 0 0 803
623 10 234 351 10 0 613
624 -15 700 756 10 565 0
625 -24 1115 1178 10 383 0
626 -10 1168 1272 10 82 0
627 13 195 332 10 0 54
628 -10 911 968 10 763 0
629 -20 225 245 10 760 0
630 -45 951 993 10 330 0
631 -36 592 643 10 114 0
632 20 114 240 10 0 724
633 10 130 192 10 0 664
634 10 223 343 10 0 751
635 -30 260 356 10 488 0
636 20 125 221 10 0 316
637 -10 777 850 10 209 0
638 20 148 221 10 0 161
639 -14 1091 1181 10 2 0
640 16 321 465 10 0 337
641 12 91 266 10 0 16
642 16 124 191 10 0 246
643 16 250 399 0 0 808
644 26 413 512 0 0 831
645 37 242 308 10 0 732
646 10 90 195 10 0 672
647 30 179 275 10 0 126
648 10 278 387 10 0 511
649 -20 259 383 10 673 0
650 -30 226 309 10 232 0
651 10 209 335 10 0 266
652 20 219 294 10 0 363
653 10 66 194 10 0 598
654 -15 459 565 10 480 0
655 -20 512 613 10 175 0
656 20 130 145 10 0 8
657 -10 154 281 10 68 0
658 -21 846 962 10 370 0
659 -10 768 868 10 748 0
660 -8 643 733 10 314 0
661 30 121 208 10 0 411
662 20 191 283 10 0 374
663 20 175 242 10 0 215
664 -10 614 651 10 633 0
665 -10 838 944 10 67 0
666 20 363 427 10 0 264
667 30 165 284 10 0 145
668 -15 728 795 10 260 0
669 29 118 179 10 0 327
670 20 117 177 10 0 740
671 -20 542 614 10 676 0
672 -10 92 242 10 646 0
673 20 198 270 10 0 649
674 -19 990 1139 10 116 0
675 20 113 194 10 0 472
676 20 143 266 10 0 671
677 -23 597 659 10 683 0
678 -13 295 380 10 210 0
679 15 672 812 0 0 815
680 -20 913 1032 10 241 0
681 -20 339 349 10 394 0
682 10 200 290 10 0 620
683 23 616 693 10 0 677
684 -30 143 237 10 157 0
685 -10 293 371 10 229 0
686 10 125 170 10 0 344
687 2 217 281 10 0 20
688 -11 836 942 10 568 0
689 -10 251 338 10 588 0
690 -25 186 308 10 178 0
691 10 37 125 10 0 237
692 30 206 309 10 0 527
693 30 82 158 10 0 544
694 10 257 323 10 0 295
695 10 235 303 10 0 183
696 20 261 348 10 0 233
697 -30 830 878 10 466 0
698 -16 72 203 10 765 0
699 -12 831 958 10 57 0
700 24 738 830 10 0 727
701 10 239 329 10 0 348
702 20 130 209 10 0 217
703 40 173 272 0 0 825
704 -20 190 271 10 257 0
705 10 100 150 10 0 366
706 -20 230 341 10 253 0
707 -10 936 1062 10 89 0
708 20 232 315 0 0 807
709 10 113 216 10 0 249
710 11 1079 1129 10 0 200
711 20 85 214 10 0 743
712 3 261 348 10 0 256
713 20 260 343 10 0 407
714 30 84 183 10 0 530
715 -10 1358 1424 10 550 0
716 -30 214 329 10 259 0
717 -10 179 254 10 401 0
718 -10 115 190 10 282 0
719 30 259 290 10 0 607
720 -30 210 321 10 390 0
721 -10 94 230 10 289 0
722 -18 1133 1232 10 172 0
723 20 236 339 10 0 165
724 -20 285 370 10 632 0
725 -20 219 275 10 356 0
726 19 103 188 10 0 490
727 -24 703 820 10 700 0
728 20 185 279 10 0 324
729 20 85 226 10 0 756
730 12 566 659 10 0 173
731 2 251 287 10 0 65
732 -37 893 963 10 645 0
733 -20 157 256 10 10 0
734 -14 214 287 10 400 0
735 -12 850 948 10 409 0
736 -16 475 546 10 499 0
737 20 95 222 10 0 98
738 9 56 173 10 0 393
739 -30 494 543 10 342 0
740 -20 184 284 10 670 0
741 -16 747 805 10 414 0
742 -14 1003 1109 10 608 0
743 -20 150 265 10 711 0
744 8 226 341 10 0 503
745 20 139 178 10 0 227
746 -20 1102 1175 10 442 0
747 -18 149 198 10 37 0
748 10 226 316 10 0 659
749 -30 811 919 10 513 0
750 40 233 362 10 0 456
751 -10 843 920 10 634 0
752 -10 174 249 10 780 0
753 40 160 188 0 0 828
754 -10 594 702 10 169 0
755 20 192 297 10 0 292
756 -20 84 128 10 729 0
757 -20 201 297 10 310 0
758 10 295 372 0 0 810
759 21 138 220 10 0 39
760 20 144 190 10 0 629
761 -10 181 288 10 562 0
762 -21 962 1083 10 35 0
763 10 279 353 10 0 628
764 20 172 271 10 0 269
765 16 55 137 10 0 698
766 15 255 366 10 0 44
767 -20 37 159 10 438 0
768 -10 199 279 10 574 0
769 29 307 385 10 0 382
770 35 763 826 10 0 489
771 15 268 368 10 0 323
772 -22 1205 1302 10 319 0
773 23 53 172 10 0 478
774 19 1302 1379 0 0 829
775 10 126 150 10 0 66
776 -20 786 859 10 512 0
777 -25 280 373 10 367 0
778 20 194 313 10 0 50
779 23 59 173 10 0 79
780 10 144 248 10 0 752
781 -5 790 898 10 291 0
782 -10 184 324 10 73 0
783 20 1146 1256 10 0 465
784 19 678 792 10 0 406
785 10 99 118 10 0 127
786 -20 309 402 10 131 0
787 -4 707 777 10 567 0
788 -20 1054 1107 10 141 0
789 -7 228 325 10 199 0
790 -20 257 366 10 221 0
791 20 135 282 10 0 158
792 -10 173 258 10 425 0
793 19 308 457 10 0 300
794 20 142 228 10 0 70
795 -8 767 823 10 32 0
796 -10 925 1074 10 339 0
797 20 136 207 10 0 103
798 -17 360 460 10 135 0
799 20 135 251 10 0 506
800 -44 1037 1125 10 179 0
801 18 390 538 10 0 234
802 -14 758 861 10 78 0
803 -31 795 882 10 622 0
804 -10 268 408 10 262 0
805 -17 548 638 10 452 0
806 -8 925 1008 10 267 0
807 -20 232 315 10 708 0
808 -16 250 399 10 643 0
809 -20 190 280 10 388 0
810 -10 295 372 10 758 0
811 -10 92 212 10 615 0
812 -14 483 563 10 284 0
813 -18 195 262 10 345 0
814 -15 108 215 10 56 0
815 -15 672 812 10 679 0
816 -10 234 322 10 196 0
817 -10 141 232 10 153 0
818 -4 773 842 10 168 0
819 -31 885 984 10 365 0
820 -30 154 227 10 61 0
821 -33 932 986 10 177 0
822 -9 1293 1394 10 181 0
823 -8 446 527 10 235 0
824 -7 1252 1296 10 462 0
825 -40 173 272 10 703 0
826 -30 190 238 10 224 0
827 -1 1218 1273 10 83 0
828 -40 160 188 10 753 0
829 -19 1302 1379 10 774 0
830 -10 302 388 10 174 0
831 -26 413 512 10 644 0
DEPOT_SECTION
1
-1
EOF
