NAME: lrc1_8_9
TYPE: PDPTW
COMMENT: Li & Lim PDPTW benchmark converted from SINTEF format
DIMENSION: 837
VEHICLES: 200
CAPACITY: 200
EDGE_WEIGHT_TYPE: EUC_2D
NODE_COORD_SECTION
1 200 200
2 244 56
3 245 106
4 233 214
5 395 340
6 229 371
7 384 248
8 277 163
9 52 94
10 89 152
11 218 284
12 340 276
13 206 106
14 375 247
15 113 179
16 348 280
17 223 372
18 361 287
19 6 62
20 37 397
21 364 27
22 14 201
23 325 294
24 41 382
25 325 130
26 384 47
27 116 181
28 346 155
29 359 30
30 222 284
31 91 150
32 140 387
33 176 154
34 352 383
35 213 332
36 133 68
37 151 188
38 105 250
39 94 70
40 287 307
41 267 321
42 220 71
43 244 106
44 338 290
45 5 345
46 145 301
47 393 301
48 359 23
49 196 107
50 348 41
51 59 51
52 126 91
53 234 214
54 108 395
55 186 306
56 125 122
57 12 368
58 348 279
59 26 247
60 393 306
61 268 114
62 2 17
63 62 258
64 186 145
65 338 315
66 66 118
67 68 378
68 294 136
69 73 126
70 68 263
71 302 136
72 234 203
73 127 94
74 233 208
75 210 1
76 102 252
77 152 237
78 2 3
79 92 162
80 177 55
81 193 29
82 105 360
83 193 216
84 338 150
85 68 143
86 180 15
87 182 378
88 39 384
89 43 386
90 291 301
91 32 251
92 246 298
93 32 229
94 116 252
95 198 295
96 63 262
97 119 179
98 174 375
99 199 45
100 150 236
101 363 24
102 393 307
103 331 251
104 293 306
105 18 102
106 196 293
107 299 141
108 364 25
109 41 183
110 342 385
111 302 203
112 212 197
113 384 294
114 381 290
115 110 254
116 196 51
117 264 341
118 23 98
119 278 265
120 23 97
121 281 155
122 352 162
123 209 85
124 15 4
125 177 379
126 18 208
127 343 322
128 369 107
129 31 360
130 263 110
131 240 246
132 380 339
133 111 286
134 213 271
135 251 381
136 322 242
137 390 52
138 26 70
139 300 132
140 342 384
141 357 160
142 204 87
143 197 293
144 98 107
145 400 109
146 231 243
147 84 221
148 230 290
149 397 261
150 222 283
151 247 377
152 60 319
153 79 154
154 256 385
155 140 40
156 8 119
157 208 274
158 84 293
159 74 351
160 95 64
161 329 236
162 248 286
163 234 243
164 244 109
165 340 388
166 161 233
167 125 95
168 351 199
169 61 333
170 146 324
171 372 104
172 381 144
173 394 299
174 363 30
175 358 23
176 220 238
177 97 105
178 186 355
179 391 42
180 48 326
181 74 87
182 264 69
183 341 394
184 128 95
185 362 383
186 41 340
187 13 220
188 85 61
189 340 290
190 396 106
191 79 344
192 201 195
193 90 311
194 207 185
195 92 255
196 385 56
197 396 59
198 51 326
199 169 352
200 230 139
201 286 44
202 286 308
203 339 69
204 206 296
205 142 385
206 370 57
207 35 79
208 17 209
209 128 68
210 145 165
211 237 259
212 89 154
213 72 257
214 158 121
215 323 243
216 367 361
217 165 126
218 45 85
219 137 68
220 310 143
221 18 100
222 201 6
223 297 135
224 86 154
225 374 175
226 91 70
227 166 357
228 113 183
229 347 395
230 243 244
231 243 140
232 14 100
233 393 312
234 92 384
235 294 249
236 195 91
237 235 212
238 350 271
239 353 164
240 262 233
241 200 48
242 214 119
243 234 37
244 93 62
245 234 73
246 157 378
247 194 43
248 268 223
249 355 156
250 248 124
251 364 213
252 371 253
253 31 353
254 41 337
255 209 167
256 352 303
257 53 326
258 388 106
259 21 104
260 381 12
261 221 379
262 46 380
263 192 332
264 343 359
265 320 211
266 34 355
267 338 106
268 397 283
269 267 161
270 124 221
271 310 340
272 270 106
273 243 104
274 68 250
275 213 305
276 214 378
277 287 279
278 313 64
279 244 285
280 154 68
281 14 53
282 298 137
283 371 111
284 393 246
285 118 122
286 9 47
287 171 168
288 321 212
289 115 185
290 336 387
291 357 202
292 374 104
293 271 371
294 291 398
295 353 3
296 74 213
297 17 99
298 253 316
299 369 118
300 11 328
301 126 70
302 165 264
303 377 282
304 73 292
305 174 326
306 135 161
307 85 155
308 360 23
309 20 91
310 72 253
311 87 155
312 134 63
313 349 275
314 325 45
315 182 300
316 328 239
317 138 143
318 372 256
319 57 381
320 162 251
321 183 301
322 381 375
323 389 171
324 179 305
325 14 210
326 290 311
327 345 158
328 200 83
329 342 154
330 18 294
331 156 4
332 247 212
333 93 149
334 299 399
335 369 171
336 246 247
337 356 223
338 266 116
339 39 34
340 51 205
341 180 387
342 203 88
343 173 72
344 129 85
345 45 291
346 294 311
347 305 198
348 338 391
349 349 135
350 237 213
351 82 360
352 102 84
353 300 144
354 236 38
355 278 159
356 344 280
357 149 234
358 320 373
359 109 252
360 218 134
361 184 282
362 32 78
363 395 310
364 19 206
365 243 275
366 175 192
367 299 227
368 159 164
369 215 260
370 163 364
371 208 20
372 97 387
373 294 13
374 108 250
375 389 306
376 262 30
377 334 92
378 279 337
379 3 15
380 210 271
381 256 145
382 387 267
383 8 285
384 83 357
385 267 295
386 279 262
387 238 101
388 219 377
389 126 90
390 129 67
391 166 115
392 238 250
393 246 244
394 131 95
395 115 257
396 243 106
397 202 158
398 389 307
399 237 109
400 117 148
401 180 375
402 276 157
403 303 358
404 17 96
405 173 381
406 70 81
407 46 197
408 206 81
409 348 343
410 95 63
411 324 216
412 265 127
413 196 138
414 26 260
415 384 307
416 23 317
417 204 292
418 321 287
419 56 97
420 70 264
421 152 240
422 0 155
423 317 68
424 395 167
425 289 306
426 75 367
427 353 276
428 183 71
429 312 200
430 49 222
431 297 137
432 200 89
433 242 113
434 341 33
435 55 341
436 99 67
437 236 243
438 229 209
439 93 59
440 143 159
441 267 112
442 196 295
443 334 100
444 122 183
445 225 53
446 28 353
447 158 239
448 392 307
449 13 59
450 127 90
451 221 281
452 326 374
453 178 103
454 376 251
455 293 310
456 386 60
457 300 272
458 243 209
459 102 67
460 285 107
461 82 365
462 5 344
463 366 97
464 220 283
465 79 95
466 369 100
467 371 244
468 366 340
469 85 128
470 231 6
471 330 313
472 202 85
473 236 204
474 220 381
475 206 286
476 274 7
477 369 211
478 126 208
479 134 62
480 67 318
481 232 127
482 96 209
483 146 301
484 308 178
485 294 118
486 280 224
487 241 275
488 82 65
489 159 11
490 300 64
491 22 96
492 334 186
493 310 200
494 52 331
495 25 256
496 210 268
497 310 196
498 183 375
499 194 65
500 366 251
501 285 184
502 160 313
503 349 324
504 225 288
505 124 69
506 349 272
507 87 365
508 240 210
509 40 380
510 276 116
511 280 5
512 20 204
513 301 139
514 195 294
515 377 144
516 34 242
517 324 217
518 348 371
519 70 256
520 48 304
521 41 378
522 114 254
523 264 112
524 244 176
525 349 181
526 346 163
527 52 334
528 53 51
529 177 174
530 114 178
531 367 255
532 19 61
533 273 118
534 84 359
535 244 114
536 321 144
537 384 53
538 29 250
539 172 383
540 84 360
541 28 246
542 107 159
543 319 160
544 230 241
545 32 352
546 32 357
547 237 108
548 162 94
549 185 299
550 110 188
551 259 4
552 34 385
553 156 32
554 201 297
555 311 344
556 174 329
557 119 286
558 179 383
559 26 250
560 84 363
561 6 20
562 373 253
563 184 233
564 177 300
565 88 121
566 22 205
567 306 361
568 87 164
569 123 176
570 131 275
571 315 237
572 85 67
573 197 300
574 308 196
575 114 88
576 87 153
577 21 201
578 137 64
579 361 194
580 115 51
581 24 96
582 2 200
583 211 274
584 102 149
585 307 196
586 127 87
587 302 274
588 383 53
589 376 254
590 15 100
591 111 179
592 308 204
593 85 358
594 391 54
595 385 55
596 65 335
597 46 378
598 310 363
599 217 286
600 33 247
601 88 150
602 397 73
603 70 231
604 72 315
605 131 67
606 117 381
607 31 357
608 299 351
609 393 297
610 102 118
611 273 160
612 350 131
613 364 55
614 47 328
615 109 186
616 143 20
617 134 98
618 42 384
619 255 80
620 52 194
621 128 93
622 50 385
623 386 57
624 86 112
625 26 275
626 40 336
627 135 384
628 52 301
629 68 261
630 36 288
631 375 294
632 220 288
633 186 304
634 369 106
635 96 69
636 321 217
637 177 77
638 320 216
639 246 47
640 350 207
641 279 247
642 153 315
643 68 386
644 399 179
645 297 240
646 199 290
647 21 204
648 362 28
649 353 65
650 24 57
651 75 368
652 393 305
653 239 254
654 146 320
655 369 6
656 277 154
657 304 141
658 205 372
659 339 3
660 254 0
661 321 209
662 114 250
663 318 219
664 209 283
665 48 358
666 339 384
667 351 153
668 377 29
669 317 183
670 183 303
671 299 308
672 197 292
673 370 98
674 188 67
675 207 87
676 295 307
677 325 311
678 228 96
679 368 215
680 208 86
681 75 76
682 27 251
683 308 314
684 217 289
685 337 388
686 133 94
687 91 388
688 87 147
689 389 54
690 185 386
691 234 212
692 53 330
693 237 247
694 369 19
695 346 385
696 397 313
697 355 41
698 211 266
699 8 363
700 59 89
701 344 391
702 242 105
703 327 242
704 55 324
705 114 252
706 29 355
707 102 377
708 345 382
709 313 194
710 285 136
711 272 154
712 379 254
713 22 210
714 117 187
715 157 220
716 21 96
717 182 379
718 298 138
719 28 356
720 130 70
721 111 184
722 319 113
723 347 385
724 220 337
725 344 283
726 217 98
727 76 90
728 175 299
729 270 151
730 398 258
731 344 321
732 266 234
733 49 187
734 92 155
735 344 236
736 226 52
737 183 294
738 237 243
739 184 69
740 222 383
741 21 255
742 390 357
743 272 161
744 371 349
745 220 296
746 184 235
747 113 184
748 370 104
749 273 182
750 382 54
751 379 126
752 327 241
753 189 306
754 26 326
755 367 104
756 271 154
757 67 258
758 86 357
759 107 98
760 66 254
761 374 253
762 228 341
763 60 328
764 268 160
765 201 255
766 397 362
767 236 210
768 349 157
769 348 319
770 186 75
771 327 115
772 77 319
773 147 210
774 195 148
775 108 186
776 26 199
777 305 255
778 368 102
779 146 174
780 319 217
781 335 202
782 128 94
783 82 78
784 92 68
785 231 219
786 309 274
787 336 386
788 324 194
789 174 387
790 24 93
791 107 247
792 291 308
793 13 322
794 68 254
795 142 379
796 43 121
797 329 241
798 260 352
799 328 243
800 384 64
801 80 365
802 98 107
803 395 340
804 8 363
805 193 29
806 352 383
807 385 56
808 324 194
809 43 121
810 19 206
811 82 360
812 308 204
813 325 130
814 143 159
815 389 306
816 67 258
817 129 67
818 146 324
819 313 64
820 127 87
821 226 52
822 225 288
823 26 275
824 131 275
825 70 231
826 285 107
827 52 301
828 118 122
829 152 237
830 291 301
831 206 286
832 210 268
833 243 275
834 196 107
835 126 208
836 234 243
837 41 378
PICKUP_AND_DELIVERY_SECTION
1 0 0 1573 0 0 0
2 -30 617 737 10 142 0
3 20 104 224 10 0 273
4 10 35 155 10 0 777
5 24 240 360 0 0 803
6 -10 968 1088 10 55 0
7 35 190 310 10 0 730
8 -20 121 241 10 711 0
9 -5 1097 1217 10 286 0
10 20 120 240 10 0 66
11 20 155 275 10 0 684
12 43 823 943 10 0 732
13 -20 243 363 10 547 0
14 -20 181 301 10 454 0
15 -17 151 271 10 317 0
16 -20 172 292 10 103 0
17 30 191 311 10 0 199
18 13 211 331 10 0 173
19 -10 852 972 10 309 0
20 -20 780 900 10 552 0
21 20 260 380 10 0 101
22 10 186 306 10 0 741
23 -21 1101 1221 10 127 0
24 -8 241 361 10 46 0
25 19 993 1113 0 0 813
26 -27 1046 1166 10 434 0
27 -23 176 296 10 773 0
28 20 192 312 10 0 515
29 20 299 419 10 0 48
30 10 86 206 10 0 148
31 10 119 239 10 0 212
32 8 196 316 10 0 627
33 15 51 171 10 0 548
34 16 753 873 0 0 806
35 -31 673 793 10 263 0
36 20 148 268 10 0 681
37 18 50 170 10 0 542
38 30 135 255 10 0 715
39 30 235 355 10 0 226
40 -19 180 300 10 386 0
41 -21 588 708 10 298 0
42 22 631 751 10 0 680
43 40 103 223 10 0 619
44 -12 605 725 10 418 0
45 -10 1166 1286 10 763 0
46 8 115 235 10 0 24
47 -20 217 337 10 609 0
48 -20 237 357 10 29 0
49 18 1284 1404 0 0 834
50 16 613 733 10 0 203
51 14 205 325 10 0 650
52 30 145 265 10 0 306
53 10 65 185 10 0 641
54 -2 528 648 10 687 0
55 10 127 247 10 0 6
56 -23 108 228 10 779 0
57 -30 726 846 10 719 0
58 10 167 287 10 0 113
59 10 180 300 10 0 559
60 -20 220 340 10 652 0
61 30 130 250 10 0 535
62 11 269 389 10 0 379
63 20 149 269 10 0 495
64 18 1387 1507 10 0 287
65 -20 907 1027 10 356 0
66 -20 520 640 10 10 0
67 10 637 757 10 0 159
68 -10 113 233 10 121 0
69 38 374 494 10 0 177
70 10 150 270 10 0 193
71 -20 120 240 10 718 0
72 -10 122 242 10 691 0
73 -10 171 291 10 621 0
74 30 33 153 10 0 237
75 -26 955 1075 10 551 0
76 10 121 241 10 0 519
77 10 60 180 0 0 829
78 14 749 869 10 0 124
79 20 208 328 10 0 469
80 17 711 831 10 0 214
81 16 712 832 0 0 805
82 10 741 861 10 0 707
83 -20 1186 1306 10 302 0
84 16 723 843 10 0 501
85 -25 1210 1330 10 109 0
86 7 830 950 10 0 616
87 -30 178 298 10 498 0
88 -16 244 364 10 643 0
89 -22 250 370 10 319 0
90 20 135 255 0 0 830
91 20 211 331 10 0 682
92 -20 911 1031 10 385 0
93 -15 1009 1129 10 187 0
94 20 98 218 10 0 395
95 20 100 220 10 0 417
96 20 150 270 10 0 169
97 -30 190 310 10 714 0
98 30 272 392 10 0 246
99 26 745 865 10 0 155
100 20 61 181 10 0 705
101 -20 239 359 10 21 0
102 10 220 340 10 0 398
103 20 140 260 10 0 16
104 -10 141 261 10 653 0
105 18 206 326 10 0 716
106 20 93 213 10 0 573
107 -20 184 304 10 402 0
108 40 248 368 10 0 697
109 25 1132 1252 10 0 85
110 -10 311 431 10 290 0
111 -20 153 273 10 347 0
112 -20 809 929 10 486 0
113 -10 512 632 10 58 0
114 -20 424 544 10 303 0
115 -20 104 224 10 791 0
116 -17 485 605 10 255 0
117 9 996 1116 10 0 279
118 10 287 407 10 0 419
119 -15 604 724 10 587 0
120 20 276 396 10 0 449
121 10 92 212 10 0 68
122 -20 156 276 10 239 0
123 10 115 235 10 0 354
124 -14 654 774 10 78 0
125 -10 257 377 10 401 0
126 20 214 334 10 0 208
127 21 766 886 10 0 23
128 20 234 354 10 0 755
129 -30 232 352 10 266 0
130 10 109 229 10 0 399
131 -20 60 180 10 392 0
132 -12 696 816 10 409 0
133 21 123 243 10 0 257
134 10 72 192 10 0 464
135 -30 223 343 10 261 0
136 10 188 308 10 0 235
137 -40 246 366 10 750 0
138 -10 876 996 10 581 0
139 10 120 240 10 0 490
140 10 322 442 10 0 468
141 20 162 282 10 0 335
142 30 113 233 10 0 2
143 30 93 213 10 0 554
144 17 889 1009 0 0 802
145 -20 802 922 10 673 0
146 -10 100 220 10 785 0
147 -21 1058 1178 10 407 0
148 -10 94 214 10 30 0
149 -14 540 660 10 284 0
150 20 85 205 10 0 211
151 -10 1170 1290 10 690 0
152 -15 210 330 10 520 0
153 10 129 249 10 0 422
154 5 551 671 10 0 293
155 -26 970 1090 10 99 0
156 11 794 914 10 0 297
157 30 74 194 10 0 664
158 -10 511 631 10 357 0
159 -10 915 1035 10 67 0
160 20 171 291 10 0 784
161 10 133 253 10 0 703
162 -20 98 218 10 451 0
163 20 87 207 0 0 836
164 20 101 221 10 0 242
165 -40 298 418 10 348 0
166 -19 72 192 10 563 0
167 -10 159 279 10 782 0
168 -11 747 867 10 251 0
169 -20 241 361 10 96 0
170 24 1308 1428 0 0 818
171 -10 199 319 10 748 0
172 -25 445 565 10 329 0
173 -13 749 869 10 18 0
174 10 285 405 10 0 648
175 20 237 357 10 0 179
176 12 42 162 10 0 369
177 -38 899 1019 10 69 0
178 25 155 275 10 0 370
179 -20 919 1039 10 175 0
180 -10 197 317 10 704 0
181 9 1274 1394 10 0 465
182 -4 620 740 10 660 0
183 -10 245 365 10 695 0
184 -20 205 325 10 394 0
185 21 244 364 10 0 598
186 -9 818 938 10 254 0
187 15 1020 1140 10 0 93
188 20 180 300 10 0 244
189 39 406 526 10 0 277
190 -3 225 345 10 283 0
191 16 188 308 10 0 384
192 12 5 125 10 0 524
193 -10 624 744 10 70 0
194 -16 1175 1295 10 655 0
195 30 379 499 10 0 435
196 10 234 354 0 0 807
197 20 276 396 10 0 602
198 10 195 315 10 0 300
199 -30 204 324 10 17 0
200 -30 1253 1373 10 272 0
201 18 521 641 10 0 639
202 -30 192 312 10 792 0
203 -16 921 1041 10 50 0
204 -20 145 265 10 442 0
205 -20 482 602 10 539 0
206 -13 1073 1193 10 537 0
207 -10 378 498 10 404 0
208 -20 203 323 10 126 0
209 10 165 285 10 0 436
210 13 65 185 10 0 584
211 -20 1129 1249 10 150 0
212 -10 177 297 10 31 0
213 -20 214 334 10 662 0
214 -17 1060 1180 10 80 0
215 20 177 297 10 0 393
216 22 442 562 10 0 452
217 -25 1197 1317 10 219 0
218 -30 870 990 10 259 0
219 25 146 266 10 0 217
220 20 141 261 10 0 377
221 20 207 327 10 0 491
222 -10 540 660 10 312 0
223 30 116 236 10 0 282
224 -20 154 274 10 576 0
225 18 299 419 10 0 323
226 -30 222 342 10 39 0
227 -40 1168 1288 10 753 0
228 -20 125 245 10 444 0
229 -10 244 364 10 701 0
230 -20 61 181 10 438 0
231 -10 1228 1348 10 269 0
232 30 211 331 10 0 790
233 -10 259 379 10 363 0
234 -20 358 478 10 558 0
235 -10 426 546 10 136 0
236 20 163 283 10 0 342
237 -30 37 157 10 74 0
238 10 165 285 10 0 415
239 20 157 277 10 0 122
240 -10 1065 1185 10 425 0
241 -20 175 295 10 675 0
242 -20 970 1090 10 164 0
243 -20 467 587 10 408 0
244 -20 174 294 10 188 0
245 8 131 251 10 0 511
246 -30 871 991 10 98 0
247 -39 680 800 10 343 0
248 -10 71 191 10 508 0
249 -1 161 281 10 492 0
250 -20 619 739 10 350 0
251 11 533 653 10 0 168
252 30 194 314 10 0 318
253 20 227 347 10 0 462
254 9 624 744 10 0 186
255 17 34 154 10 0 116
256 -13 1027 1147 10 742 0
257 -21 193 313 10 133 0
258 -10 219 339 10 292 0
259 30 203 323 10 0 218
260 15 546 666 10 0 668
261 30 180 300 10 0 135
262 10 278 398 10 0 665
263 31 393 513 10 0 35
264 26 411 531 10 0 567
265 6 120 240 10 0 411
266 30 252 372 10 0 129
267 -10 906 1026 10 657 0
268 9 367 487 10 0 382
269 10 173 293 10 0 231
270 -10 958 1078 10 591 0
271 -20 178 298 10 676 0
272 30 117 237 10 0 200
273 -20 121 241 10 3 0
274 -16 519 639 10 414 0
275 -10 445 565 10 599 0
276 20 178 298 10 0 474
277 -39 1152 1272 10 189 0
278 29 357 477 0 0 819
279 -9 1273 1393 10 117 0
280 20 694 814 10 0 688
281 12 760 880 10 0 532
282 -30 116 236 10 223 0
283 3 204 324 10 0 190
284 14 463 583 10 0 149
285 20 905 1025 0 0 828
286 5 808 928 10 0 9
287 -18 1308 1428 10 64 0
288 -20 121 241 10 663 0
289 10 86 206 10 0 296
290 10 283 403 10 0 110
291 5 454 574 10 0 424
292 10 198 318 10 0 258
293 -5 707 827 10 154 0
294 -30 486 606 10 740 0
295 20 249 369 10 0 659
296 -10 390 510 10 289 0
297 -11 961 1081 10 156 0
298 21 376 496 10 0 41
299 -10 1007 1127 10 623 0
300 -10 722 842 10 198 0
301 10 192 312 10 0 783
302 20 72 192 10 0 83
303 20 343 463 10 0 114
304 8 156 276 10 0 706
305 -10 910 1030 10 405 0
306 -30 1305 1425 10 52 0
307 20 142 262 10 0 568
308 20 238 358 10 0 694
309 10 238 358 10 0 19
310 20 138 258 10 0 516
311 10 165 285 10 0 734
312 10 152 272 10 0 222
313 10 166 286 10 0 427
314 8 544 664 10 0 423
315 10 101 221 10 0 483
316 -30 140 260 10 517 0
317 17 84 204 10 0 15
318 -30 207 327 10 252 0
319 22 230 350 10 0 89
320 -20 63 183 10 447 0
321 20 102 222 10 0 564
322 -29 1026 1146 10 769 0
323 -18 406 526 10 225 0
324 10 144 264 10 0 642
325 10 190 310 10 0 582
326 30 142 262 10 0 457
327 20 205 325 10 0 349
328 -30 121 241 10 432 0
329 25 355 475 10 0 172
330 45 442 562 10 0 630
331 -20 200 320 10 479 0
332 15 127 247 10 0 367
333 -10 118 238 10 529 0
334 -10 729 849 10 685 0
335 -20 171 291 10 141 0
336 -37 634 754 10 645 0
337 28 923 1043 10 0 735
338 -13 143 263 10 481 0
339 10 231 351 10 0 561
340 -20 1171 1291 10 713 0
341 10 200 320 10 0 789
342 -20 112 232 10 236 0
343 39 229 349 10 0 247
344 20 135 255 10 0 389
345 18 179 299 10 0 604
346 10 145 265 10 0 608
347 20 105 225 10 0 111
348 40 259 379 10 0 165
349 -20 503 623 10 327 0
350 20 78 198 10 0 250
351 10 215 335 0 0 811
352 3 151 271 10 0 528
353 10 197 317 10 0 612
354 -10 388 508 10 123 0
355 10 107 227 10 0 431
356 20 200 320 10 0 65
357 10 61 181 10 0 158
358 -15 506 626 10 766 0
359 30 104 224 10 0 366
360 24 1230 1350 10 0 774
361 19 83 203 10 0 658
362 -10 604 724 10 590 0
363 10 231 351 10 0 233
364 20 226 346 0 0 810
365 31 875 995 0 0 833
366 -30 879 999 10 359 0
367 -15 102 222 10 332 0
368 -6 1291 1411 10 569 0
369 -12 61 181 10 176 0
370 -25 742 862 10 178 0
371 10 556 676 10 0 489
372 37 516 636 10 0 606
373 26 542 662 10 0 391
374 10 161 281 10 0 522
375 30 286 406 0 0 815
376 8 180 300 10 0 476
377 -20 399 519 10 220 0
378 -30 558 678 10 455 0
379 -11 1057 1177 10 62 0
380 -16 71 191 10 765 0
381 -13 1099 1219 10 485 0
382 -9 847 967 10 268 0
383 -20 278 398 10 541 0
384 -16 250 370 10 191 0
385 20 686 806 10 0 92
386 19 100 220 10 0 40
387 -10 137 257 10 433 0
388 -10 178 298 10 514 0
389 -20 821 941 10 344 0
390 30 154 274 0 0 817
391 -26 1204 1324 10 373 0
392 20 62 182 10 0 131
393 -20 634 754 10 215 0
394 20 125 245 10 0 184
395 -20 102 222 10 94 0
396 10 103 223 10 0 702
397 -30 1113 1233 10 767 0
398 -10 275 395 10 102 0
399 -10 165 285 10 130 0
400 14 97 217 10 0 530
401 10 176 296 10 0 125
402 20 87 207 10 0 107
403 -26 296 416 10 555 0
404 10 210 330 10 0 207
405 10 243 363 10 0 305
406 -20 832 952 10 459 0
407 21 378 498 10 0 147
408 20 119 239 10 0 243
409 12 295 415 10 0 132
410 -20 172 292 10 439 0
411 -6 125 245 10 265 0
412 35 97 217 10 0 441
413 18 62 182 10 0 739
414 16 584 704 10 0 274
415 -10 335 455 10 238 0
416 10 409 529 10 0 754
417 -20 159 279 10 95 0
418 12 546 666 10 0 44
419 -10 896 1016 10 118 0
420 30 162 282 10 0 629
421 30 62 182 10 0 746
422 -10 205 325 10 153 0
423 -8 1115 1235 10 314 0
424 -5 935 1055 10 291 0
425 10 168 288 10 0 240
426 -30 208 328 10 461 0
427 -10 170 290 10 313 0
428 14 720 840 10 0 553
429 30 112 232 10 0 536
430 -10 1082 1202 10 615 0
431 -10 413 533 10 355 0
432 30 148 268 10 0 328
433 10 96 216 10 0 387
434 27 234 354 10 0 26
435 -30 630 750 10 195 0
436 -10 167 287 10 209 0
437 -30 75 195 10 693 0
438 20 30 150 10 0 230
439 20 177 297 10 0 410
440 16 70 190 0 0 814
441 -35 118 238 10 412 0
442 20 95 215 10 0 204
443 21 1092 1212 10 0 722
444 20 79 199 10 0 228
445 -19 1037 1157 10 726 0
446 -30 230 350 10 545 0
447 20 57 177 10 0 320
448 20 219 339 10 0 696
449 -20 514 634 10 120 0
450 20 134 254 10 0 575
451 20 83 203 10 0 162
452 -22 533 653 10 216 0
453 10 572 692 10 0 637
454 20 183 303 10 0 14
455 30 144 264 10 0 378
456 30 296 416 10 0 751
457 -30 648 768 10 326 0
458 -33 1334 1454 10 571 0
459 20 165 285 10 0 406
460 17 455 575 0 0 826
461 30 202 322 10 0 426
462 -20 1201 1321 10 253 0
463 -15 727 847 10 771 0
464 -10 168 288 10 134 0
465 -9 1181 1301 10 181 0
466 -20 196 316 10 778 0
467 -20 176 296 10 589 0
468 -10 670 790 10 140 0
469 -20 1243 1363 10 79 0
470 -30 656 776 10 578 0
471 27 172 292 10 0 731
472 10 133 253 10 0 499
473 10 109 229 10 0 764
474 -20 182 302 10 276 0
475 19 441 561 0 0 831
476 -8 284 404 10 376 0
477 20 418 538 10 0 679
478 26 1325 1445 0 0 835
479 20 152 272 10 0 331
480 15 201 321 10 0 527
481 13 79 199 10 0 338
482 -10 104 224 10 550 0
483 -10 308 428 10 315 0
484 -20 353 473 10 497 0
485 13 124 244 10 0 381
486 20 182 302 10 0 112
487 -20 651 771 10 583 0
488 -10 192 312 10 572 0
489 -10 1143 1263 10 371 0
490 -10 1112 1232 10 139 0
491 -20 222 342 10 221 0
492 1 134 254 10 0 249
493 30 123 243 10 0 749
494 10 209 329 10 0 607
495 -20 183 303 10 63 0
496 30 68 188 0 0 832
497 20 110 230 10 0 484
498 30 175 295 10 0 87
499 -10 341 461 10 472 0
500 20 236 356 10 0 712
501 -16 985 1105 10 84 0
502 -22 814 934 10 654 0
503 -20 493 613 10 725 0
504 20 91 211 0 0 822
505 10 179 299 10 0 635
506 20 165 285 10 0 631
507 20 199 319 10 0 618
508 10 92 212 10 0 248
509 -10 240 360 10 597 0
510 -34 113 233 10 533 0
511 -8 971 1091 10 245 0
512 20 180 300 10 0 776
513 -20 171 291 10 656 0
514 10 94 214 10 0 388
515 -20 422 542 10 28 0
516 -20 171 291 10 310 0
517 30 125 245 10 0 316
518 -20 607 727 10 666 0
519 -10 202 322 10 76 0
520 15 185 305 10 0 152
521 20 238 358 0 0 837
522 -10 101 221 10 374 0
523 20 108 228 10 0 678
524 -12 50 170 10 192 0
525 1 244 364 10 0 781
526 30 150 270 10 0 644
527 -15 222 342 10 480 0
528 -3 209 329 10 352 0
529 10 34 154 10 0 333
530 -14 162 282 10 400 0
531 -20 222 342 10 799 0
532 -12 1107 1227 10 281 0
533 34 109 229 10 0 510
534 20 238 358 10 0 801
535 -30 96 216 10 61 0
536 -30 1019 1139 10 429 0
537 13 905 1025 10 0 206
538 -20 197 317 10 794 0
539 20 231 351 10 0 205
540 -10 227 347 10 758 0
541 20 178 298 10 0 383
542 -18 987 1107 10 37 0
543 -10 125 245 10 709 0
544 -9 112 232 10 738 0
545 30 226 346 10 0 446
546 -30 239 359 10 692 0
547 20 154 274 10 0 13
548 -15 112 232 10 33 0
549 -20 100 220 10 737 0
550 10 90 210 10 0 482
551 26 561 681 10 0 75
552 20 248 368 10 0 20
553 -14 745 865 10 428 0
554 -30 130 250 10 143 0
555 26 181 301 10 0 403
556 30 655 775 10 0 762
557 -4 784 904 10 596 0
558 20 184 304 10 0 234
559 -10 181 301 10 59 0
560 -10 200 320 10 593 0
561 -10 264 384 10 339 0
562 10 182 302 10 0 761
563 19 36 156 10 0 166
564 -20 160 280 10 321 0
565 -10 523 643 10 601 0
566 20 178 298 10 0 647
567 -26 660 780 10 264 0
568 -20 617 737 10 307 0
569 6 1125 1245 10 0 368
570 30 484 604 0 0 824
571 33 475 595 10 0 458
572 10 206 326 10 0 488
573 -20 115 235 10 106 0
574 -20 108 228 10 585 0
575 -20 629 749 10 450 0
576 20 122 242 10 0 224
577 -20 179 299 10 733 0
578 30 149 269 10 0 470
579 12 360 480 10 0 640
580 -21 803 923 10 759 0
581 10 265 385 10 0 138
582 -10 296 416 10 325 0
583 20 74 194 10 0 487
584 -13 462 582 10 210 0
585 20 107 227 10 0 574
586 20 134 254 0 0 820
587 15 247 367 10 0 119
588 10 234 354 10 0 594
589 20 184 304 10 0 467
590 10 210 330 10 0 362
591 10 139 259 10 0 270
592 30 137 257 0 0 812
593 10 262 382 10 0 560
594 -10 259 379 10 588 0
595 20 235 355 10 0 689
596 4 284 404 10 0 557
597 10 290 410 10 0 509
598 -21 1014 1134 10 185 0
599 10 143 263 10 0 275
600 -20 225 345 10 760 0
601 10 122 242 10 0 565
602 -20 234 354 10 197 0
603 16 1052 1172 0 0 825
604 -18 636 756 10 345 0
605 -30 149 269 10 720 0
606 -37 577 697 10 372 0
607 -10 230 350 10 494 0
608 -10 180 300 10 346 0
609 20 216 336 10 0 47
610 -17 1124 1244 10 624 0
611 -10 136 256 10 756 0
612 -10 757 877 10 353 0
613 -10 295 415 10 634 0
614 50 199 319 10 0 793
615 10 92 212 10 0 430
616 -7 1172 1292 10 86 0
617 10 121 241 10 0 686
618 -20 262 382 10 507 0
619 -40 475 595 10 43 0
620 -10 504 624 10 775 0
621 10 183 303 10 0 73
622 -10 778 898 10 651 0
623 10 234 354 10 0 299
624 17 668 788 10 0 610
625 16 1087 1207 0 0 823
626 9 1160 1280 10 0 772
627 -8 199 319 10 32 0
628 7 880 1000 0 0 827
629 -30 175 295 10 420 0
630 -45 912 1032 10 330 0
631 -20 558 678 10 506 0
632 20 117 237 10 0 745
633 10 104 224 10 0 724
634 10 223 343 10 0 613
635 -10 248 368 10 505 0
636 -10 122 242 10 780 0
637 -10 754 874 10 453 0
638 20 125 245 10 0 661
639 -18 1076 1196 10 201 0
640 -12 333 453 10 579 0
641 -10 91 211 10 53 0
642 -10 124 244 10 324 0
643 16 264 384 10 0 88
644 -30 403 523 10 526 0
645 37 215 335 10 0 336
646 10 90 210 10 0 672
647 -20 179 299 10 566 0
648 -10 272 392 10 174 0
649 24 261 381 10 0 800
650 -14 226 346 10 51 0
651 10 209 329 10 0 622
652 20 219 339 10 0 60
653 10 66 186 10 0 104
654 22 452 572 10 0 502
655 16 502 622 10 0 194
656 20 89 209 10 0 513
657 10 157 277 10 0 267
658 -19 844 964 10 361 0
659 -20 758 878 10 295 0
660 4 628 748 10 0 182
661 -20 121 241 10 638 0
662 20 177 297 10 0 213
663 20 148 268 10 0 288
664 -30 572 692 10 157 0
665 -10 831 951 10 262 0
666 20 335 455 10 0 518
667 -10 164 284 10 768 0
668 -15 702 822 10 260 0
669 29 118 238 10 0 710
670 20 104 224 10 0 728
671 -23 518 638 10 786 0
672 -10 92 212 10 646 0
673 20 198 318 10 0 145
674 -35 1004 1124 10 770 0
675 20 113 233 10 0 241
676 20 143 263 10 0 271
677 -23 568 688 10 683 0
678 -20 277 397 10 523 0
679 -20 682 802 10 477 0
680 -22 913 1033 10 42 0
681 -20 284 404 10 36 0
682 -20 185 305 10 91 0
683 23 595 715 10 0 677
684 -20 130 250 10 11 0
685 10 272 392 10 0 334
686 -10 125 245 10 617 0
687 2 217 337 10 0 54
688 -20 829 949 10 280 0
689 -20 238 358 10 595 0
690 10 186 306 10 0 151
691 10 36 156 10 0 72
692 30 197 317 10 0 546
693 30 60 180 10 0 437
694 -20 247 367 10 308 0
695 10 235 355 10 0 183
696 -20 245 365 10 448 0
697 -40 794 914 10 108 0
698 10 77 197 10 0 798
699 39 834 954 0 0 804
700 -2 724 844 10 727 0
701 10 239 359 10 0 229
702 -10 110 230 10 396 0
703 -10 163 283 10 161 0
704 10 190 310 10 0 180
705 -20 100 220 10 100 0
706 -8 230 350 10 304 0
707 -10 939 1059 10 82 0
708 20 232 352 10 0 744
709 10 113 233 10 0 543
710 -29 1044 1164 10 669 0
711 20 85 205 10 0 8
712 -20 244 364 10 500 0
713 20 241 361 10 0 340
714 30 84 204 10 0 97
715 -30 1331 1451 10 38 0
716 -18 211 331 10 105 0
717 20 179 299 10 0 795
718 20 115 235 10 0 71
719 30 232 352 10 0 57
720 30 206 326 10 0 605
721 -10 102 222 10 747 0
722 -21 1122 1242 10 443 0
723 20 236 356 10 0 787
724 -10 267 387 10 633 0
725 20 187 307 10 0 503
726 19 103 223 10 0 445
727 2 702 822 10 0 700
728 -20 172 292 10 670 0
729 20 85 205 10 0 743
730 -35 553 673 10 7 0
731 -27 209 329 10 471 0
732 -43 868 988 10 12 0
733 20 151 271 10 0 577
734 -10 191 311 10 311 0
735 -28 839 959 10 337 0
736 17 450 570 0 0 821
737 20 95 215 10 0 549
738 9 56 176 10 0 544
739 -18 458 578 10 413 0
740 30 184 304 10 0 294
741 -10 716 836 10 22 0
742 13 996 1116 10 0 256
743 -20 147 267 10 729 0
744 -20 226 346 10 708 0
745 -20 99 219 10 632 0
746 -30 1079 1199 10 421 0
747 10 114 234 10 0 721
748 10 211 331 10 0 171
749 -30 805 925 10 493 0
750 40 233 353 10 0 137
751 -30 821 941 10 456 0
752 -20 152 272 10 797 0
753 40 114 234 10 0 227
754 -10 588 708 10 416 0
755 -20 192 312 10 128 0
756 10 84 204 10 0 611
757 20 189 309 0 0 816
758 10 274 394 10 0 540
759 21 138 258 10 0 580
760 20 144 264 10 0 600
761 -10 181 301 10 562 0
762 -30 962 1082 10 556 0
763 10 256 376 10 0 45
764 -10 162 282 10 473 0
765 16 55 175 10 0 380
766 15 255 375 10 0 358
767 30 37 157 10 0 397
768 10 179 299 10 0 667
769 29 286 406 10 0 322
770 35 735 855 10 0 674
771 15 258 378 10 0 463
772 -9 1194 1314 10 626 0
773 23 53 173 10 0 27
774 -24 1281 1401 10 360 0
775 10 93 213 10 0 620
776 -20 763 883 10 512 0
777 -10 266 386 10 4 0
778 20 194 314 10 0 466
779 23 59 179 10 0 56
780 10 136 256 10 0 636
781 -1 784 904 10 525 0
782 10 194 314 10 0 167
783 -10 1141 1261 10 301 0
784 -20 675 795 10 160 0
785 10 49 169 10 0 146
786 23 296 416 10 0 671
787 -20 682 802 10 723 0
788 18 1021 1141 0 0 808
789 -10 216 336 10 341 0
790 -30 252 372 10 232 0
791 20 148 268 10 0 115
792 30 155 275 10 0 202
793 -50 323 443 10 614 0
794 20 142 262 10 0 538
795 -20 735 855 10 717 0
796 12 940 1060 0 0 809
797 20 135 255 10 0 752
798 -10 350 470 10 698 0
799 20 135 255 10 0 531
800 -24 1021 1141 10 649 0
801 -20 404 524 10 534 0
802 -17 889 1009 10 144 0
803 -24 240 360 10 5 0
804 -39 834 954 10 699 0
805 -16 712 832 10 81 0
806 -16 753 873 10 34 0
807 -10 234 354 10 196 0
808 -18 1021 1141 10 788 0
809 -12 940 1060 10 796 0
810 -20 226 346 10 364 0
811 -10 215 335 10 351 0
812 -30 137 257 10 592 0
813 -19 993 1113 10 25 0
814 -16 70 190 10 440 0
815 -30 286 406 10 375 0
816 -20 189 309 10 757 0
817 -30 154 274 10 390 0
818 -24 1308 1428 10 170 0
819 -29 357 477 10 278 0
820 -20 134 254 10 586 0
821 -17 450 570 10 736 0
822 -20 91 211 10 504 0
823 -16 1087 1207 10 625 0
824 -30 484 604 10 570 0
825 -16 1052 1172 10 603 0
826 -17 455 575 10 460 0
827 -7 880 1000 10 628 0
828 -20 905 1025 10 285 0
829 -10 60 180 10 77 0
830 -20 135 255 10 90 0
831 -19 441 561 10 475 0
832 -30 68 188 10 496 0
833 -31 875 995 10 365 0
834 -18 1284 1404 10 49 0
835 -26 1325 1445 10 478 0
836 -20 87 207 10 163 0
837 -20 238 358 10 521 0
DEPOT_SECTION
1
-1
EOF
