NAME: lrc2_8_9
TYPE: PDPTW
COMMENT: Li & Lim PDPTW benchmark converted from SINTEF format
DIMENSION: 807
VEHICLES: 200
CAPACITY: 1000
EDGE_WEIGHT_TYPE: EUC_2D
NODE_COORD_SECTION
1 200 200
2 244 56
3 245 106
4 233 214
5 395 340
6 229 371
7 384 248
8 277 163
9 52 94
10 89 152
11 218 284
12 340 276
13 206 106
14 375 247
15 113 179
16 348 280
17 223 372
18 361 287
19 6 62
20 37 397
21 364 27
22 14 201
23 325 294
24 41 382
25 325 130
26 384 47
27 116 181
28 346 155
29 359 30
30 222 284
31 91 150
32 140 387
33 176 154
34 352 383
35 213 332
36 133 68
37 151 188
38 105 250
39 94 70
40 287 307
41 267 321
42 220 71
43 244 106
44 338 290
45 5 345
46 145 301
47 393 301
48 359 23
49 196 107
50 348 41
51 59 51
52 126 91
53 234 214
54 108 395
55 186 306
56 125 122
57 12 368
58 348 279
59 26 247
60 393 306
61 268 114
62 2 17
63 62 258
64 186 145
65 338 315
66 66 118
67 68 378
68 294 136
69 73 126
70 68 263
71 302 136
72 234 203
73 127 94
74 233 208
75 210 1
76 102 252
77 152 237
78 2 3
79 92 162
80 177 55
81 193 29
82 105 360
83 193 216
84 338 150
85 68 143
86 180 15
87 182 378
88 39 384
89 43 386
90 291 301
91 32 251
92 246 298
93 32 229
94 116 252
95 198 295
96 63 262
97 119 179
98 174 375
99 199 45
100 150 236
101 363 24
102 393 307
103 331 251
104 293 306
105 18 102
106 196 293
107 299 141
108 364 25
109 41 183
110 342 385
111 302 203
112 212 197
113 384 294
114 381 290
115 110 254
116 196 51
117 264 341
118 23 98
119 278 265
120 23 97
121 281 155
122 352 162
123 209 85
124 15 4
125 177 379
126 18 208
127 343 322
128 369 107
129 31 360
130 263 110
131 240 246
132 380 339
133 111 286
134 213 271
135 251 381
136 322 242
137 390 52
138 26 70
139 300 132
140 342 384
141 357 160
142 204 87
143 197 293
144 98 107
145 400 109
146 231 243
147 84 221
148 230 290
149 397 261
150 222 283
151 247 377
152 60 319
153 79 154
154 256 385
155 140 40
156 8 119
157 208 274
158 84 293
159 74 351
160 95 64
161 329 236
162 248 286
163 234 243
164 244 109
165 340 388
166 161 233
167 125 95
168 351 199
169 61 333
170 146 324
171 372 104
172 381 144
173 394 299
174 363 30
175 358 23
176 220 238
177 97 105
178 186 355
179 391 42
180 48 326
181 74 87
182 264 69
183 341 394
184 128 95
185 362 383
186 41 340
187 13 220
188 85 61
189 340 290
190 396 106
191 79 344
192 201 195
193 90 311
194 207 185
195 92 255
196 385 56
197 396 59
198 51 326
199 169 352
200 230 139
201 286 44
202 286 308
203 339 69
204 206 296
205 142 385
206 370 57
207 35 79
208 17 209
209 128 68
210 145 165
211 237 259
212 89 154
213 72 257
214 158 121
215 323 243
216 367 361
217 165 126
218 45 85
219 137 68
220 310 143
221 18 100
222 201 6
223 297 135
224 86 154
225 374 175
226 91 70
227 166 357
228 113 183
229 347 395
230 243 244
231 243 140
232 14 100
233 393 312
234 92 384
235 294 249
236 195 91
237 235 212
238 350 271
239 353 164
240 262 233
241 200 48
242 214 119
243 234 37
244 93 62
245 234 73
246 157 378
247 194 43
248 268 223
249 355 156
250 248 124
251 364 213
252 371 253
253 31 353
254 41 337
255 209 167
256 352 303
257 53 326
258 388 106
259 21 104
260 381 12
261 221 379
262 46 380
263 192 332
264 343 359
265 320 211
266 34 355
267 338 106
268 397 283
269 267 161
270 124 221
271 310 340
272 270 106
273 243 104
274 68 250
275 213 305
276 214 378
277 287 279
278 313 64
279 244 285
280 154 68
281 14 53
282 298 137
283 371 111
284 393 246
285 118 122
286 9 47
287 171 168
288 321 212
289 115 185
290 336 387
291 357 202
292 374 104
293 271 371
294 291 398
295 353 3
296 74 213
297 17 99
298 253 316
299 369 118
300 11 328
301 126 70
302 165 264
303 377 282
304 73 292
305 174 326
306 135 161
307 85 155
308 360 23
309 20 91
310 72 253
311 87 155
312 134 63
313 349 275
314 325 45
315 182 300
316 328 239
317 138 143
318 372 256
319 57 381
320 162 251
321 183 301
322 381 375
323 389 171
324 179 305
325 14 210
326 290 311
327 345 158
328 200 83
329 342 154
330 18 294
331 156 4
332 247 212
333 93 149
334 299 399
335 369 171
336 246 247
337 356 223
338 266 116
339 39 34
340 51 205
341 180 387
342 203 88
343 173 72
344 129 85
345 45 291
346 294 311
347 305 198
348 338 391
349 349 135
350 237 213
351 82 360
352 102 84
353 300 144
354 236 38
355 278 159
356 344 280
357 149 234
358 320 373
359 109 252
360 218 134
361 184 282
362 32 78
363 395 310
364 19 206
365 243 275
366 175 192
367 299 227
368 159 164
369 215 260
370 163 364
371 208 20
372 97 387
373 294 13
374 108 250
375 389 306
376 262 30
377 334 92
378 279 337
379 3 15
380 210 271
381 256 145
382 387 267
383 8 285
384 83 357
385 267 295
386 279 262
387 238 101
388 219 377
389 126 90
390 129 67
391 166 115
392 238 250
393 246 244
394 131 95
395 115 257
396 243 106
397 202 158
398 389 307
399 237 109
400 117 148
401 180 375
402 276 157
403 303 358
404 17 96
405 173 381
406 70 81
407 46 197
408 206 81
409 348 343
410 95 63
411 324 216
412 265 127
413 196 138
414 26 260
415 384 307
416 23 317
417 204 292
418 321 287
419 56 97
420 70 264
421 152 240
422 0 155
423 317 68
424 395 167
425 289 306
426 75 367
427 353 276
428 183 71
429 312 200
430 49 222
431 297 137
432 200 89
433 242 113
434 341 33
435 55 341
436 99 67
437 236 243
438 229 209
439 93 59
440 143 159
441 267 112
442 196 295
443 334 100
444 122 183
445 225 53
446 28 353
447 158 239
448 392 307
449 13 59
450 127 90
451 221 281
452 326 374
453 178 103
454 376 251
455 293 310
456 386 60
457 300 272
458 243 209
459 102 67
460 285 107
461 82 365
462 5 344
463 366 97
464 220 283
465 79 95
466 369 100
467 371 244
468 366 340
469 85 128
470 231 6
471 330 313
472 202 85
473 236 204
474 220 381
475 206 286
476 274 7
477 369 211
478 126 208
479 134 62
480 67 318
481 232 127
482 96 209
483 146 301
484 308 178
485 294 118
486 280 224
487 241 275
488 82 65
489 159 11
490 300 64
491 22 96
492 334 186
493 310 200
494 52 331
495 25 256
496 210 268
497 310 196
498 183 375
499 194 65
500 366 251
501 285 184
502 160 313
503 349 324
504 225 288
505 124 69
506 349 272
507 87 365
508 240 210
509 40 380
510 276 116
511 280 5
512 20 204
513 301 139
514 195 294
515 377 144
516 34 242
517 324 217
518 348 371
519 70 256
520 48 304
521 41 378
522 114 254
523 264 112
524 244 176
525 349 181
526 346 163
527 52 334
528 53 51
529 177 174
530 114 178
531 367 255
532 19 61
533 273 118
534 84 359
535 244 114
536 321 144
537 384 53
538 29 250
539 172 383
540 84 360
541 28 246
542 107 159
543 319 160
544 230 241
545 32 352
546 32 357
547 237 108
548 162 94
549 185 299
550 110 188
551 259 4
552 34 385
553 156 32
554 201 297
555 311 344
556 174 329
557 119 286
558 179 383
559 26 250
560 84 363
561 6 20
562 373 253
563 184 233
564 177 300
565 88 121
566 22 205
567 306 361
568 87 164
569 123 176
570 131 275
571 315 237
572 85 67
573 197 300
574 308 196
575 114 88
576 87 153
577 21 201
578 137 64
579 361 194
580 115 51
581 24 96
582 2 200
583 211 274
584 102 149
585 307 196
586 127 87
587 302 274
588 383 53
589 376 254
590 15 100
591 111 179
592 308 204
593 85 358
594 391 54
595 385 55
596 65 335
597 46 378
598 310 363
599 217 286
600 33 247
601 88 150
602 397 73
603 70 231
604 72 315
605 131 67
606 117 381
607 31 357
608 299 351
609 393 297
610 102 118
611 273 160
612 350 131
613 364 55
614 47 328
615 109 186
616 143 20
617 134 98
618 42 384
619 255 80
620 52 194
621 128 93
622 50 385
623 386 57
624 86 112
625 26 275
626 40 336
627 135 384
628 52 301
629 68 261
630 36 288
631 375 294
632 220 288
633 186 304
634 369 106
635 96 69
636 321 217
637 177 77
638 320 216
639 246 47
640 350 207
641 279 247
642 153 315
643 68 386
644 399 179
645 297 240
646 199 290
647 21 204
648 362 28
649 353 65
650 24 57
651 75 368
652 393 305
653 239 254
654 146 320
655 369 6
656 277 154
657 304 141
658 205 372
659 339 3
660 254 0
661 321 209
662 114 250
663 318 219
664 209 283
665 48 358
666 339 384
667 351 153
668 377 29
669 317 183
670 183 303
671 299 308
672 197 292
673 370 98
674 188 67
675 207 87
676 295 307
677 325 311
678 228 96
679 368 215
680 208 86
681 75 76
682 27 251
683 308 314
684 217 289
685 337 388
686 133 94
687 91 388
688 87 147
689 389 54
690 185 386
691 234 212
692 53 330
693 237 247
694 369 19
695 346 385
696 397 313
697 355 41
698 211 266
699 8 363
700 59 89
701 344 391
702 242 105
703 327 242
704 55 324
705 114 252
706 29 355
707 102 377
708 345 382
709 313 194
710 285 136
711 272 154
712 379 254
713 22 210
714 117 187
715 157 220
716 21 96
717 182 379
718 298 138
719 28 356
720 130 70
721 111 184
722 319 113
723 347 385
724 220 337
725 344 283
726 217 98
727 76 90
728 175 299
729 270 151
730 398 258
731 344 321
732 266 234
733 49 187
734 92 155
735 344 236
736 226 52
737 183 294
738 237 243
739 184 69
740 222 383
741 21 255
742 390 357
743 272 161
744 371 349
745 220 296
746 184 235
747 113 184
748 370 104
749 273 182
750 382 54
751 379 126
752 327 241
753 189 306
754 26 326
755 367 104
756 271 154
757 67 258
758 86 357
759 107 98
760 66 254
761 374 253
762 228 341
763 60 328
764 268 160
765 201 255
766 397 362
767 236 210
768 349 157
769 348 319
770 186 75
771 327 115
772 77 319
773 147 210
774 195 148
775 108 186
776 26 199
777 305 255
778 368 102
779 146 174
780 319 217
781 335 202
782 128 94
783 82 78
784 92 68
785 231 219
786 309 274
787 336 386
788 324 194
789 174 387
790 24 93
791 107 247
792 291 308
793 13 322
794 68 254
795 142 379
796 43 121
797 329 241
798 260 352
799 328 243
800 384 64
801 80 365
802 317 68
803 31 357
804 244 285
805 243 104
806 34 242
807 384 248
PICKUP_AND_DELIVERY_SECTION
1 0 0 6289 0 0 0
2 -12 2468 2948 10 243 0
3 -20 306 786 10 729 0
4 -20 134 614 10 438 0
5 -30 720 1200 10 326 0
6 -10 3871 4351 10 132 0
7 35 707 1187 0 0 807
8 10 484 964 10 0 764
9 -13 4387 4867 10 449 0
10 -13 384 864 10 210 0
11 -10 621 1101 10 698 0
12 -20 3291 3771 10 113 0
13 33 972 1452 10 0 222
14 -20 526 1006 10 636 0
15 10 604 1084 10 0 393
16 -20 688 1168 10 725 0
17 30 766 1246 10 0 418
18 13 842 1322 10 0 102
19 -20 3408 3888 10 120 0
20 50 3120 3600 10 0 57
21 20 1040 1520 10 0 648
22 10 683 1163 10 0 584
23 22 4403 4883 10 0 458
24 -8 813 1293 10 32 0
25 19 3973 4453 10 0 536
26 -13 4185 4665 10 537 0
27 -20 704 1184 10 743 0
28 -10 769 1249 10 433 0
29 -10 1194 1674 10 72 0
30 10 188 668 10 0 707
31 10 283 763 10 0 488
32 8 594 1074 10 0 24
33 15 51 531 10 0 286
34 16 3011 3491 10 0 742
35 21 2691 3171 10 0 487
36 20 518 998 10 0 207
37 18 50 530 10 0 681
38 30 539 1019 10 0 407
39 30 941 1421 10 0 389
40 10 722 1202 10 0 557
41 -20 2353 2833 10 717 0
42 -19 2525 3005 10 116 0
43 40 350 830 10 0 396
44 -7 2421 2901 10 199 0
45 14 4662 5142 10 0 462
46 -21 220 700 10 320 0
47 -20 680 1160 10 752 0
48 -3 753 1233 10 283 0
49 18 5137 5617 10 0 774
50 -20 2451 2931 10 239 0
51 -20 644 1124 10 479 0
52 30 580 1060 10 0 219
53 10 259 739 10 0 654
54 12 2110 2590 10 0 205
55 -16 509 989 10 765 0
56 15 264 744 10 0 586
57 -50 2906 3386 10 20 0
58 -10 644 1124 10 316 0
59 -20 563 1043 10 760 0
60 -20 780 1260 10 797 0
61 30 522 1002 10 0 190
62 11 897 1377 10 0 368
63 -20 481 961 10 96 0
64 -16 5743 6223 10 499 0
65 -20 3629 4109 10 103 0
66 -30 2078 2558 10 720 0
67 10 2546 3026 10 0 665
68 10 215 695 10 0 771
69 -20 1498 1978 10 733 0
70 10 598 1078 10 0 208
71 -17 481 961 10 255 0
72 10 487 967 10 0 29
73 10 686 1166 10 0 580
74 30 33 513 10 0 473
75 -10 3818 4298 10 399 0
76 10 484 964 10 0 126
77 10 103 583 10 0 662
78 14 2997 3477 10 0 783
79 20 830 1310 10 0 519
80 -26 2842 3322 10 247 0
81 16 2848 3328 10 0 489
82 -10 2962 3442 10 464 0
83 -10 4744 5224 10 355 0
84 16 2892 3372 10 0 200
85 16 4841 5321 10 0 569
86 7 3319 3799 10 0 360
87 10 569 1049 10 0 677
88 -20 864 1344 10 521 0
89 -10 1001 1481 10 651 0
90 20 304 784 10 0 676
91 -20 842 1322 10 444 0
92 -16 3644 4124 10 294 0
93 7 4038 4518 10 0 340
94 -20 155 635 10 100 0
95 20 399 879 10 0 425
96 20 538 1018 10 0 63
97 10 759 1239 10 0 591
98 -20 1089 1569 10 276 0
99 -18 2979 3459 10 201 0
100 20 61 541 10 0 94
101 -20 850 1330 10 778 0
102 -13 870 1350 10 18 0
103 20 322 802 10 0 65
104 20 365 845 10 0 608
105 -9 749 1229 10 422 0
106 20 259 739 10 0 684
107 10 734 1214 10 0 722
108 -20 992 1472 10 755 0
109 -20 4529 5009 10 495 0
110 10 1245 1725 10 0 127
111 -9 612 1092 10 738 0
112 16 3235 3715 10 0 746
113 20 2048 2528 10 0 12
114 -8 1697 2177 10 235 0
115 -10 367 847 10 522 0
116 19 1939 2419 10 0 42
117 -22 3983 4463 10 358 0
118 10 1150 1630 10 0 287
119 -30 2414 2894 10 498 0
120 20 1106 1586 10 0 19
121 10 368 848 10 0 213
122 10 427 907 10 0 175
123 10 357 837 10 0 408
124 -20 2618 3098 10 244 0
125 -10 1029 1509 10 401 0
126 -10 857 1337 10 76 0
127 -10 3066 3546 10 110 0
128 -10 935 1415 10 535 0
129 23 929 1409 10 0 772
130 10 372 852 10 0 164
131 20 60 540 10 0 585
132 10 2786 3266 10 0 6
133 -30 352 832 10 359 0
134 10 248 728 10 0 486
135 -10 891 1371 10 341 0
136 10 753 1233 10 0 189
137 -20 986 1466 10 594 0
138 -27 3505 3985 10 561 0
139 10 423 903 10 0 612
140 -40 1289 1769 10 348 0
141 20 538 1018 10 0 649
142 -11 254 734 10 548 0
143 -20 215 695 10 380 0
144 17 3557 4037 10 0 674
145 20 3209 3689 10 0 203
146 10 398 878 10 0 744
147 -10 4232 4712 10 599 0
148 -20 309 789 10 150 0
149 16 2159 2639 10 0 382
150 20 144 624 10 0 148
151 -23 4682 5162 10 468 0
152 29 841 1321 10 0 234
153 10 505 985 10 0 512
154 -10 2203 2683 10 633 0
155 -17 3880 4360 10 624 0
156 11 3174 3654 10 0 214
157 30 141 621 10 0 583
158 11 2044 2524 10 0 603
159 -10 3659 4139 10 554 0
160 -30 533 1013 10 605 0
161 10 505 985 10 0 730
162 35 194 674 10 0 346
163 20 346 826 10 0 641
164 -10 253 733 10 130 0
165 10 1190 1670 10 0 216
166 30 286 766 10 0 257
167 -23 637 1117 10 779 0
168 -20 2988 3468 10 531 0
169 10 963 1443 10 0 305
170 -20 5466 5946 10 534 0
171 20 794 1274 10 0 434
172 18 1778 2258 10 0 463
173 -20 2995 3475 10 303 0
174 10 1138 1618 10 0 613
175 -10 709 1189 10 122 0
176 12 42 522 10 0 313
177 -10 3594 4074 10 301 0
178 25 383 863 10 0 789
179 -20 3676 4156 10 295 0
180 20 674 1154 10 0 372
181 -10 5239 5719 10 686 0
182 15 2482 2962 10 0 371
183 20 979 1459 10 0 293
184 10 819 1299 10 0 568
185 -26 843 1323 10 555 0
186 -10 3270 3750 10 706 0
187 -26 4080 4560 10 776 0
188 20 482 962 10 0 281
189 -10 1624 2104 10 136 0
190 -30 901 1381 10 61 0
191 16 687 1167 10 0 758
192 12 5 485 10 0 510
193 -10 2494 2974 10 573 0
194 -12 4701 5181 10 381 0
195 30 1516 1996 10 0 270
196 10 834 1314 10 0 659
197 -23 1103 1583 10 335 0
198 -10 622 1102 10 395 0
199 7 816 1296 10 0 44
200 -16 5011 5491 10 84 0
201 18 2083 2563 10 0 99
202 10 768 1248 10 0 628
203 -20 3683 4163 10 145 0
204 -30 579 1059 10 496 0
205 -12 1929 2409 10 54 0
206 -16 4294 4774 10 655 0
207 -20 1510 1990 10 36 0
208 -10 811 1291 10 70 0
209 10 661 1141 10 0 436
210 13 65 545 10 0 10
211 -15 4515 4995 10 457 0
212 10 710 1190 10 0 366
213 -10 858 1338 10 121 0
214 -11 4241 4721 10 156 0
215 -40 708 1188 10 703 0
216 -10 1768 2248 10 165 0
217 -2 4789 5269 10 727 0
218 -24 3481 3961 10 575 0
219 -30 395 875 10 52 0
220 20 563 1043 10 0 543
221 20 632 1112 10 0 590
222 -33 2161 2641 10 13 0
223 30 366 846 10 0 353
224 -10 615 1095 10 530 0
225 -10 1196 1676 10 785 0
226 -10 889 1369 10 404 0
227 -22 4673 5153 10 246 0
228 30 498 978 10 0 791
229 10 914 1394 10 0 685
230 30 61 541 10 0 638
231 -30 4914 5394 10 667 0
232 -20 728 1208 10 576 0
233 -20 1035 1515 10 356 0
234 -29 1432 1912 10 152 0
235 8 1704 2184 10 0 114
236 20 653 1133 10 0 432
237 20 41 521 10 0 350
238 10 468 948 10 0 284
239 20 476 956 10 0 50
240 -33 4258 4738 10 571 0
241 20 699 1179 10 0 331
242 5 3878 4358 10 0 397
243 12 1869 2349 10 0 2
244 20 626 1106 10 0 124
245 8 440 920 10 0 470
246 22 3485 3965 10 0 227
247 26 2718 3198 10 0 80
248 -20 71 551 10 437 0
249 20 596 1076 10 0 634
250 19 2477 2957 10 0 610
251 11 2133 2613 10 0 781
252 -20 776 1256 10 761 0
253 -30 712 1192 10 461 0
254 -16 2496 2976 10 642 0
255 17 34 514 10 0 71
256 8 4109 4589 10 0 277
257 -30 574 1054 10 166 0
258 9 874 1354 10 0 751
259 -20 572 1052 10 333 0
260 -30 2182 2662 10 689 0
261 30 649 1129 10 0 474
262 10 1112 1592 10 0 719
263 -20 1573 2053 10 734 0
264 -10 1644 2124 10 653 0
265 6 242 722 10 0 517
266 -2 1006 1486 10 687 0
267 8 3626 4106 10 0 443
268 -20 1467 1947 10 506 0
269 10 692 1172 10 0 483
270 -30 3832 4312 10 195 0
271 11 513 993 10 0 518
272 30 300 780 10 0 292
273 20 485 965 0 0 805
274 -30 2075 2555 10 538 0
275 -37 1780 2260 10 645 0
276 20 474 954 10 0 98
277 -8 4606 5086 10 256 0
278 -21 1429 1909 10 476 0
279 6 5090 5570 0 0 804
280 -26 2775 3255 10 373 0
281 -20 3039 3519 10 188 0
282 -30 317 797 10 513 0
283 3 817 1297 10 0 48
284 -10 1854 2334 10 238 0
285 -20 3622 4102 10 675 0
286 -15 3231 3711 10 33 0
287 -10 5233 5713 10 118 0
288 30 297 777 10 0 640
289 10 196 676 10 0 747
290 -20 1134 1614 10 708 0
291 5 1817 2297 10 0 477
292 -30 746 1226 10 272 0
293 -20 2827 3307 10 183 0
294 16 1944 2424 10 0 92
295 20 842 1322 10 0 179
296 -20 1558 2038 10 713 0
297 -17 3846 4326 10 736 0
298 -20 1502 1982 10 632 0
299 -24 4028 4508 10 424 0
300 12 2889 3369 10 0 622
301 10 766 1246 10 0 177
302 20 72 552 10 0 435
303 20 1373 1853 10 0 173
304 -10 522 1002 10 705 0
305 -10 3639 4119 10 169 0
306 -17 5222 5702 10 317 0
307 20 570 1050 10 0 732
308 -10 797 1277 10 588 0
309 10 950 1430 10 0 716
310 -10 314 794 10 550 0
311 -30 661 1141 10 767 0
312 10 458 938 10 0 379
313 -12 587 1067 10 176 0
314 -30 2176 2656 10 466 0
315 10 256 736 10 0 690
316 10 558 1038 10 0 58
317 17 148 628 10 0 306
318 -10 828 1308 10 574 0
319 -13 736 1216 10 627 0
320 21 63 543 10 0 46
321 -20 302 782 10 737 0
322 -20 4106 4586 10 666 0
323 3 1626 2106 10 0 788
324 -20 577 1057 10 728 0
325 -10 759 1239 10 615 0
326 30 569 1049 10 0 5
327 -10 821 1301 10 657 0
328 10 482 962 10 0 354
329 -20 1420 1900 10 702 0
330 45 1769 2249 10 0 754
331 -20 662 1142 10 241 0
332 -10 509 989 10 691 0
333 20 234 714 10 0 259
334 -10 2914 3394 10 701 0
335 23 446 926 10 0 197
336 21 2535 3015 10 0 749
337 -20 3692 4172 10 347 0
338 -30 573 1053 10 441 0
339 -20 789 1269 10 459 0
340 -7 4684 5164 10 93 0
341 10 800 1280 10 0 135
342 30 208 688 10 0 796
343 -18 917 1397 10 413 0
344 20 431 911 10 0 528
345 18 674 1154 10 0 763
346 -35 471 951 10 162 0
347 20 180 660 10 0 337
348 40 1036 1516 10 0 140
349 -13 2011 2491 10 481 0
350 -20 312 792 10 237 0
351 10 860 1340 10 0 795
352 -30 482 962 10 578 0
353 -30 787 1267 10 223 0
354 -10 1551 2031 10 328 0
355 10 428 908 10 0 83
356 20 800 1280 10 0 233
357 10 61 541 10 0 801
358 22 2026 2506 10 0 117
359 30 416 896 10 0 133
360 -7 4919 5399 10 86 0
361 19 94 574 10 0 753
362 -21 2414 2894 10 759 0
363 -10 924 1404 10 544 0
364 -20 906 1386 10 757 0
365 -20 3498 3978 10 388 0
366 -10 3516 3996 10 212 0
367 25 212 692 10 0 799
368 -11 5165 5645 10 62 0
369 9 61 541 10 0 646
370 -30 2968 3448 10 692 0
371 -15 2224 2704 10 182 0
372 -20 2065 2545 10 180 0
373 26 2167 2647 10 0 280
374 10 646 1126 10 0 582
375 30 1145 1625 10 0 786
376 8 484 964 10 0 428
377 29 1594 2074 10 0 616
378 -37 2233 2713 10 403 0
379 -10 4226 4706 10 312 0
380 20 87 567 10 0 143
381 12 4395 4875 10 0 194
382 -16 3388 3868 10 149 0
383 24 1113 1593 10 0 626
384 -10 1001 1481 10 704 0
385 -30 2745 3225 10 564 0
386 19 162 642 10 0 696
387 20 549 1029 10 0 553
388 20 700 1180 10 0 365
389 -30 3282 3762 10 39 0
390 30 615 1095 10 0 410
391 -9 4815 5295 10 406 0
392 20 189 669 10 0 503
393 -10 2535 3015 10 15 0
394 20 303 783 10 0 469
395 10 304 784 10 0 198
396 -40 394 874 10 43 0
397 -5 4453 4933 10 242 0
398 -30 1101 1581 10 693 0
399 10 661 1141 10 0 75
400 14 152 632 10 0 572
401 10 465 945 10 0 125
402 20 258 738 10 0 611
403 37 1185 1665 10 0 378
404 10 788 1268 10 0 226
405 10 971 1451 10 0 724
406 9 3329 3809 10 0 391
407 -30 1513 1993 10 38 0
408 -10 417 897 10 123 0
409 -30 1179 1659 10 455 0
410 -30 577 1057 10 390 0
411 -20 357 837 10 497 0
412 35 151 631 10 0 523
413 18 110 590 10 0 343
414 -20 2337 2817 10 629 0
415 -20 1339 1819 10 652 0
416 -19 1635 2115 10 563 0
417 -20 637 1117 10 442 0
418 -30 2183 2663 10 17 0
419 -37 3586 4066 10 678 0
420 30 647 1127 10 0 541
421 -20 155 635 10 447 0
422 9 580 1060 10 0 105
423 13 4461 4941 0 0 802
424 24 3740 4220 10 0 299
425 -20 673 1153 10 95 0
426 -50 780 1260 10 614 0
427 10 531 1011 10 0 609
428 -8 2879 3359 10 376 0
429 30 442 922 10 0 562
430 -20 4330 4810 10 794 0
431 -19 1652 2132 10 726 0
432 -20 592 1072 10 236 0
433 10 195 675 10 0 28
434 -20 937 1417 10 171 0
435 -20 2522 3002 10 302 0
436 -10 473 953 10 209 0
437 20 298 778 10 0 248
438 20 30 510 10 0 4
439 20 678 1158 10 0 491
440 16 70 550 10 0 577
441 30 473 953 10 0 338
442 20 351 831 10 0 417
443 -8 4370 4850 10 267 0
444 20 79 559 10 0 91
445 -9 4149 4629 10 511 0
446 20 764 1244 10 0 597
447 20 219 699 10 0 421
448 20 826 1306 10 0 631
449 13 2057 2537 10 0 9
450 -10 535 1015 10 529 0
451 20 95 575 10 0 664
452 -15 2131 2611 10 766 0
453 10 2290 2770 10 0 784
454 20 583 1063 10 0 525
455 30 516 996 10 0 409
456 -10 1183 1663 10 694 0
457 15 2592 3072 10 0 211
458 -22 5336 5816 10 23 0
459 20 421 901 10 0 339
460 17 1822 2302 10 0 660
461 30 666 1146 10 0 253
462 -14 4857 5337 10 45 0
463 -18 2908 3388 10 172 0
464 10 670 1150 10 0 82
465 -18 4723 5203 10 650 0
466 30 628 1108 10 0 314
467 20 466 946 10 0 589
468 23 2681 3161 10 0 151
469 -20 4971 5451 10 394 0
470 -8 2624 3104 10 245 0
471 -30 449 929 10 792 0
472 10 534 1014 10 0 542
473 -30 438 918 10 74 0
474 -30 541 1021 10 261 0
475 19 1765 2245 10 0 604
476 21 1138 1618 10 0 278
477 -5 1671 2151 10 291 0
478 -10 5298 5778 10 514 0
479 20 414 894 10 0 51
480 15 803 1283 10 0 494
481 13 79 559 10 0 349
482 28 312 792 10 0 620
483 -10 1232 1712 10 269 0
484 4 1413 1893 10 0 551
485 13 259 739 10 0 768
486 -10 727 1207 10 134 0
487 -21 2604 3084 10 35 0
488 -10 768 1248 10 31 0
489 -16 4574 5054 10 81 0
490 -1 4448 4928 10 492 0
491 -20 888 1368 10 439 0
492 1 443 923 10 0 490
493 30 490 970 10 0 663
494 -15 834 1314 10 480 0
495 20 679 1159 10 0 109
496 30 68 548 10 0 204
497 20 323 803 10 0 411
498 30 517 997 10 0 119
499 16 1365 1845 10 0 64
500 20 945 1425 10 0 579
501 -26 3939 4419 10 644 0
502 -30 3255 3735 10 556 0
503 -20 1973 2453 10 392 0
504 20 248 728 10 0 570
505 -10 717 1197 10 601 0
506 20 422 902 10 0 268
507 20 560 1040 10 0 552
508 10 369 849 10 0 656
509 30 764 1244 10 0 546
510 -12 213 693 10 192 0
511 9 3884 4364 10 0 445
512 -10 562 1042 10 153 0
513 30 683 1163 10 0 282
514 10 305 785 10 0 478
515 23 1689 2169 10 0 710
516 30 445 925 0 0 806
517 -6 401 881 10 265 0
518 -11 2428 2908 10 271 0
519 -20 809 1289 10 79 0
520 15 739 1219 10 0 643
521 20 715 1195 10 0 88
522 10 251 731 10 0 115
523 -35 421 901 10 412 0
524 24 50 530 10 0 639
525 -20 976 1456 10 454 0
526 30 362 842 10 0 750
527 30 886 1366 10 0 593
528 -20 758 1238 10 344 0
529 10 34 514 10 0 450
530 10 650 1130 10 0 224
531 20 889 1369 10 0 168
532 -10 4430 4910 10 790 0
533 34 242 722 10 0 718
534 20 952 1432 10 0 170
535 10 146 626 10 0 128
536 -19 4077 4557 10 25 0
537 13 3618 4098 10 0 26
538 30 790 1270 10 0 274
539 20 922 1402 10 0 671
540 -4 908 1388 10 596 0
541 -30 514 994 10 420 0
542 -10 3947 4427 10 472 0
543 -20 491 971 10 220 0
544 10 447 927 10 0 363
545 -20 666 1146 10 560 0
546 -30 955 1435 10 509 0
547 -20 617 1097 10 711 0
548 11 210 690 10 0 142
549 10 204 684 10 0 798
550 10 260 740 10 0 310
551 -4 2243 2723 10 484 0
552 -20 924 1404 10 507 0
553 -20 2981 3461 10 387 0
554 10 519 999 10 0 159
555 26 569 1049 10 0 185
556 30 2620 3100 10 0 502
557 -10 3134 3614 10 40 0
558 -30 673 1153 10 740 0
559 -10 615 1095 10 721 0
560 20 614 1094 10 0 545
561 27 872 1352 10 0 138
562 -30 728 1208 10 429 0
563 19 36 516 10 0 416
564 30 639 1119 10 0 385
565 15 2092 2572 10 0 680
566 20 472 952 10 0 635
567 -29 2641 3121 10 769 0
568 -10 2467 2947 10 184 0
569 -16 4499 4979 10 85 0
570 -20 1935 2415 10 504 0
571 33 1898 2378 10 0 240
572 -14 822 1302 10 400 0
573 10 459 939 10 0 193
574 10 275 755 10 0 318
575 24 2518 2998 10 0 218
576 20 433 913 10 0 232
577 -16 615 1095 10 440 0
578 30 360 840 10 0 352
579 -20 1439 1919 10 500 0
580 -10 3212 3692 10 73 0
581 -10 1060 1540 10 617 0
582 -10 1186 1666 10 374 0
583 -30 193 673 10 157 0
584 -10 1848 2328 10 22 0
585 -20 231 711 10 131 0
586 -15 483 963 10 56 0
587 -11 988 1468 10 777 0
588 10 739 1219 10 0 308
589 -20 635 1115 10 467 0
590 -20 684 1164 10 221 0
591 -10 556 1036 10 97 0
592 30 548 1028 10 0 735
593 -30 1050 1530 10 527 0
594 20 1035 1515 10 0 137
595 20 790 1270 10 0 697
596 4 1138 1618 10 0 540
597 -20 1160 1640 10 446 0
598 -20 4057 4537 10 723 0
599 10 572 1052 10 0 147
600 10 899 1379 10 0 741
601 10 335 815 10 0 505
602 -10 698 1178 10 748 0
603 -11 4208 4688 10 158 0
604 -19 2546 3026 10 475 0
605 30 567 1047 10 0 160
606 18 2310 2790 10 0 658
607 20 911 1391 0 0 803
608 -20 482 962 10 104 0
609 -10 624 1104 10 427 0
610 -19 4495 4975 10 250 0
611 -20 544 1024 10 402 0
612 -10 3027 3507 10 139 0
613 -10 1181 1661 10 174 0
614 50 723 1203 10 0 426
615 10 355 835 10 0 325
616 -29 4690 5170 10 377 0
617 10 246 726 10 0 581
618 10 1049 1529 10 0 793
619 -10 1899 2379 10 756 0
620 -28 2015 2495 10 482 0
621 -30 731 1211 10 647 0
622 -12 3112 3592 10 300 0
623 -20 880 1360 10 673 0
624 17 2670 3150 10 0 155
625 -1 4346 4826 10 630 0
626 -24 4641 5121 10 383 0
627 13 796 1276 10 0 319
628 -10 3519 3999 10 202 0
629 20 702 1182 10 0 414
630 1 3646 4126 10 0 625
631 -20 2232 2712 10 448 0
632 20 468 948 10 0 298
633 10 403 883 10 0 154
634 -20 891 1371 10 249 0
635 -20 990 1470 10 566 0
636 20 453 933 10 0 14
637 -35 3015 3495 10 770 0
638 -30 499 979 10 230 0
639 -24 4303 4783 10 524 0
640 -30 1331 1811 10 288 0
641 -20 128 608 10 163 0
642 16 257 737 10 0 254
643 -15 1058 1538 10 520 0
644 26 1610 2090 10 0 501
645 37 860 1340 10 0 275
646 -9 120 600 10 369 0
647 30 518 998 10 0 621
648 -20 1089 1569 10 21 0
649 -20 1043 1523 10 141 0
650 18 667 1147 10 0 465
651 10 736 1216 10 0 89
652 20 736 1216 10 0 415
653 10 133 613 10 0 264
654 -10 1807 2287 10 53 0
655 16 2010 2490 10 0 206
656 -10 311 791 10 508 0
657 10 628 1108 10 0 327
658 -18 3377 3857 10 606 0
659 -10 3031 3511 10 196 0
660 -17 2511 2991 10 460 0
661 -29 245 725 10 669 0
662 -10 710 1190 10 77 0
663 -30 594 1074 10 493 0
664 -20 2289 2769 10 451 0
665 -10 3322 3802 10 67 0
666 20 1341 1821 10 0 322
667 30 656 1136 10 0 231
668 22 2806 3286 10 0 800
669 29 294 774 10 0 661
670 20 350 830 10 0 683
671 -20 2073 2553 10 539 0
672 -20 171 651 10 745 0
673 20 677 1157 10 0 623
674 -17 4018 4498 10 144 0
675 20 306 786 10 0 285
676 -20 414 894 10 90 0
677 -10 2270 2750 10 87 0
678 37 1109 1589 10 0 419
679 -10 2726 3206 10 709 0
680 -15 3651 4131 10 565 0
681 -18 1135 1615 10 37 0
682 -10 741 1221 10 775 0
683 -20 2379 2859 10 670 0
684 -20 520 1000 10 106 0
685 -10 1088 1568 10 229 0
686 10 352 832 10 0 181
687 2 680 1160 10 0 266
688 -10 3318 3798 10 782 0
689 30 937 1417 10 0 260
690 -10 740 1220 10 315 0
691 10 85 565 10 0 332
692 30 789 1269 10 0 370
693 30 242 722 10 0 398
694 10 921 1401 10 0 456
695 -2 743 1223 10 731 0
696 -19 979 1459 10 386 0
697 -20 3176 3656 10 595 0
698 10 309 789 10 0 11
699 39 3337 3817 10 0 715
700 -1 2898 3378 10 739 0
701 10 854 1334 10 0 334
702 20 440 920 10 0 329
703 40 651 1131 10 0 215
704 10 523 1003 10 0 384
705 10 203 683 10 0 304
706 10 813 1293 10 0 186
707 -10 3757 4237 10 30 0
708 20 691 1171 10 0 290
709 10 378 858 10 0 679
710 -23 4175 4655 10 515 0
711 20 198 678 10 0 547
712 -10 977 1457 10 780 0
713 20 966 1446 10 0 296
714 -23 145 625 10 773 0
715 -39 5325 5805 10 699 0
716 -10 844 1324 10 309 0
717 20 613 1093 10 0 41
718 -34 273 753 10 533 0
719 -10 858 1338 10 262 0
720 30 822 1302 10 0 66
721 10 406 886 10 0 559
722 -10 4489 4969 10 107 0
723 20 787 1267 10 0 598
724 -10 1068 1548 10 405 0
725 20 748 1228 10 0 16
726 19 174 654 10 0 431
727 2 2807 3287 10 0 217
728 20 688 1168 10 0 324
729 20 102 582 10 0 3
730 -10 2212 2692 10 161 0
731 2 834 1314 10 0 695
732 -20 3472 3952 10 307 0
733 20 585 1065 10 0 69
734 20 762 1242 10 0 263
735 -30 3357 3837 10 592 0
736 17 1801 2281 10 0 297
737 20 142 622 10 0 321
738 9 56 536 10 0 111
739 1 1833 2313 10 0 700
740 30 592 1072 10 0 558
741 -10 2862 3342 10 600 0
742 -16 3985 4465 10 34 0
743 20 590 1070 10 0 27
744 -10 871 1351 10 146 0
745 20 396 876 10 0 672
746 -16 4315 4795 10 112 0
747 -10 454 934 10 289 0
748 10 842 1322 10 0 602
749 -21 3222 3702 10 336 0
750 -30 693 1173 10 526 0
751 -9 3286 3766 10 258 0
752 20 607 1087 10 0 47
753 -19 457 937 10 361 0
754 -45 2351 2831 10 330 0
755 20 531 1011 10 0 108
756 10 154 634 10 0 619
757 20 754 1234 10 0 364
758 -16 1095 1575 10 191 0
759 21 352 832 10 0 362
760 20 419 899 10 0 59
761 20 684 1164 10 0 252
762 -21 3849 4329 10 787 0
763 -18 1023 1503 10 345 0
764 -10 646 1126 10 8 0
765 16 55 535 10 0 55
766 15 821 1301 10 0 452
767 30 37 517 10 0 311
768 -13 714 1194 10 485 0
769 29 1145 1625 10 0 567
770 35 2939 3419 10 0 637
771 -10 1034 1514 10 68 0
772 -23 4776 5256 10 129 0
773 23 53 533 10 0 714
774 -18 5123 5603 10 49 0
775 10 311 791 10 0 682
776 26 3050 3530 10 0 187
777 11 1064 1544 10 0 587
778 20 579 1059 10 0 101
779 23 59 539 10 0 167
780 10 545 1025 10 0 712
781 -11 3137 3617 10 251 0
782 10 775 1255 10 0 688
783 -14 4563 5043 10 78 0
784 -10 2701 3181 10 453 0
785 10 196 676 10 0 225
786 -30 1182 1662 10 375 0
787 21 2728 3208 10 0 762
788 -3 4084 4564 10 323 0
789 -25 864 1344 10 178 0
790 10 1008 1488 10 0 532
791 -30 593 1073 10 228 0
792 30 622 1102 10 0 471
793 -10 1290 1770 10 618 0
794 20 371 851 10 0 430
795 -10 2941 3421 10 351 0
796 -30 3760 4240 10 342 0
797 20 445 925 10 0 60
798 -10 1399 1879 10 549 0
799 -25 396 876 10 367 0
800 -22 4083 4563 10 668 0
801 -10 1618 2098 10 357 0
802 -13 4461 4941 10 423 0
803 -20 911 1391 10 607 0
804 -6 5090 5570 10 279 0
805 -20 485 965 10 273 0
806 -30 445 925 10 516 0
807 -35 707 1187 10 7 0
DEPOT_SECTION
1
-1
EOF
