NAME: lrc2_8_6
TYPE: PDPTW
COMMENT: Li & Lim PDPTW benchmark converted from SINTEF format
DIMENSION: 805
VEHICLES: 200
CAPACITY: 1000
EDGE_WEIGHT_TYPE: EUC_2D
NODE_COORD_SECTION
1 200 200
2 244 56
3 245 106
4 233 214
5 395 340
6 229 371
7 384 248
8 277 163
9 52 94
10 89 152
11 218 284
12 340 276
13 206 106
14 375 247
15 113 179
16 348 280
17 223 372
18 361 287
19 6 62
20 37 397
21 364 27
22 14 201
23 325 294
24 41 382
25 325 130
26 384 47
27 116 181
28 346 155
29 359 30
30 222 284
31 91 150
32 140 387
33 176 154
34 352 383
35 213 332
36 133 68
37 151 188
38 105 250
39 94 70
40 287 307
41 267 321
42 220 71
43 244 106
44 338 290
45 5 345
46 145 301
47 393 301
48 359 23
49 196 107
50 348 41
51 59 51
52 126 91
53 234 214
54 108 395
55 186 306
56 125 122
57 12 368
58 348 279
59 26 247
60 393 306
61 268 114
62 2 17
63 62 258
64 186 145
65 338 315
66 66 118
67 68 378
68 294 136
69 73 126
70 68 263
71 302 136
72 234 203
73 127 94
74 233 208
75 210 1
76 102 252
77 152 237
78 2 3
79 92 162
80 177 55
81 193 29
82 105 360
83 193 216
84 338 150
85 68 143
86 180 15
87 182 378
88 39 384
89 43 386
90 291 301
91 32 251
92 246 298
93 32 229
94 116 252
95 198 295
96 63 262
97 119 179
98 174 375
99 199 45
100 150 236
101 363 24
102 393 307
103 331 251
104 293 306
105 18 102
106 196 293
107 299 141
108 364 25
109 41 183
110 342 385
111 302 203
112 212 197
113 384 294
114 381 290
115 110 254
116 196 51
117 264 341
118 23 98
119 278 265
120 23 97
121 281 155
122 352 162
123 209 85
124 15 4
125 177 379
126 18 208
127 343 322
128 369 107
129 31 360
130 263 110
131 240 246
132 380 339
133 111 286
134 213 271
135 251 381
136 322 242
137 390 52
138 26 70
139 300 132
140 342 384
141 357 160
142 204 87
143 197 293
144 98 107
145 400 109
146 231 243
147 84 221
148 230 290
149 397 261
150 222 283
151 247 377
152 60 319
153 79 154
154 256 385
155 140 40
156 8 119
157 208 274
158 84 293
159 74 351
160 95 64
161 329 236
162 248 286
163 234 243
164 244 109
165 340 388
166 161 233
167 125 95
168 351 199
169 61 333
170 146 324
171 372 104
172 381 144
173 394 299
174 363 30
175 358 23
176 220 238
177 97 105
178 186 355
179 391 42
180 48 326
181 74 87
182 264 69
183 341 394
184 128 95
185 362 383
186 41 340
187 13 220
188 85 61
189 340 290
190 396 106
191 79 344
192 201 195
193 90 311
194 207 185
195 92 255
196 385 56
197 396 59
198 51 326
199 169 352
200 230 139
201 286 44
202 286 308
203 339 69
204 206 296
205 142 385
206 370 57
207 35 79
208 17 209
209 128 68
210 145 165
211 237 259
212 89 154
213 72 257
214 158 121
215 323 243
216 367 361
217 165 126
218 45 85
219 137 68
220 310 143
221 18 100
222 201 6
223 297 135
224 86 154
225 374 175
226 91 70
227 166 357
228 113 183
229 347 395
230 243 244
231 243 140
232 14 100
233 393 312
234 92 384
235 294 249
236 195 91
237 235 212
238 350 271
239 353 164
240 262 233
241 200 48
242 214 119
243 234 37
244 93 62
245 234 73
246 157 378
247 194 43
248 268 223
249 355 156
250 248 124
251 364 213
252 371 253
253 31 353
254 41 337
255 209 167
256 352 303
257 53 326
258 388 106
259 21 104
260 381 12
261 221 379
262 46 380
263 192 332
264 343 359
265 320 211
266 34 355
267 338 106
268 397 283
269 267 161
270 124 221
271 310 340
272 270 106
273 243 104
274 68 250
275 213 305
276 214 378
277 287 279
278 313 64
279 244 285
280 154 68
281 14 53
282 298 137
283 371 111
284 393 246
285 118 122
286 9 47
287 171 168
288 321 212
289 115 185
290 336 387
291 357 202
292 374 104
293 271 371
294 291 398
295 353 3
296 74 213
297 17 99
298 253 316
299 369 118
300 11 328
301 126 70
302 165 264
303 377 282
304 73 292
305 174 326
306 135 161
307 85 155
308 360 23
309 20 91
310 72 253
311 87 155
312 134 63
313 349 275
314 325 45
315 182 300
316 328 239
317 138 143
318 372 256
319 57 381
320 162 251
321 183 301
322 381 375
323 389 171
324 179 305
325 14 210
326 290 311
327 345 158
328 200 83
329 342 154
330 18 294
331 156 4
332 247 212
333 93 149
334 299 399
335 369 171
336 246 247
337 356 223
338 266 116
339 39 34
340 51 205
341 180 387
342 203 88
343 173 72
344 129 85
345 45 291
346 294 311
347 305 198
348 338 391
349 349 135
350 237 213
351 82 360
352 102 84
353 300 144
354 236 38
355 278 159
356 344 280
357 149 234
358 320 373
359 109 252
360 218 134
361 184 282
362 32 78
363 395 310
364 19 206
365 243 275
366 175 192
367 299 227
368 159 164
369 215 260
370 163 364
371 208 20
372 97 387
373 294 13
374 108 250
375 389 306
376 262 30
377 334 92
378 279 337
379 3 15
380 210 271
381 256 145
382 387 267
383 8 285
384 83 357
385 267 295
386 279 262
387 238 101
388 219 377
389 126 90
390 129 67
391 166 115
392 238 250
393 246 244
394 131 95
395 115 257
396 243 106
397 202 158
398 389 307
399 237 109
400 117 148
401 180 375
402 276 157
403 303 358
404 17 96
405 173 381
406 70 81
407 46 197
408 206 81
409 348 343
410 95 63
411 324 216
412 265 127
413 196 138
414 26 260
415 384 307
416 23 317
417 204 292
418 321 287
419 56 97
420 70 264
421 152 240
422 0 155
423 317 68
424 395 167
425 289 306
426 75 367
427 353 276
428 183 71
429 312 200
430 49 222
431 297 137
432 200 89
433 242 113
434 341 33
435 55 341
436 99 67
437 236 243
438 229 209
439 93 59
440 143 159
441 267 112
442 196 295
443 334 100
444 122 183
445 225 53
446 28 353
447 158 239
448 392 307
449 13 59
450 127 90
451 221 281
452 326 374
453 178 103
454 376 251
455 293 310
456 386 60
457 300 272
458 243 209
459 102 67
460 285 107
461 82 365
462 5 344
463 366 97
464 220 283
465 79 95
466 369 100
467 371 244
468 366 340
469 85 128
470 231 6
471 330 313
472 202 85
473 236 204
474 220 381
475 206 286
476 274 7
477 369 211
478 126 208
479 134 62
480 67 318
481 232 127
482 96 209
483 146 301
484 308 178
485 294 118
486 280 224
487 241 275
488 82 65
489 159 11
490 300 64
491 22 96
492 334 186
493 310 200
494 52 331
495 25 256
496 210 268
497 310 196
498 183 375
499 194 65
500 366 251
501 285 184
502 160 313
503 349 324
504 225 288
505 124 69
506 349 272
507 87 365
508 240 210
509 40 380
510 276 116
511 280 5
512 20 204
513 301 139
514 195 294
515 377 144
516 34 242
517 324 217
518 348 371
519 70 256
520 48 304
521 41 378
522 114 254
523 264 112
524 244 176
525 349 181
526 346 163
527 52 334
528 53 51
529 177 174
530 114 178
531 367 255
532 19 61
533 273 118
534 84 359
535 244 114
536 321 144
537 384 53
538 29 250
539 172 383
540 84 360
541 28 246
542 107 159
543 319 160
544 230 241
545 32 352
546 32 357
547 237 108
548 162 94
549 185 299
550 110 188
551 259 4
552 34 385
553 156 32
554 201 297
555 311 344
556 174 329
557 119 286
558 179 383
559 26 250
560 84 363
561 6 20
562 373 253
563 184 233
564 177 300
565 88 121
566 22 205
567 306 361
568 87 164
569 123 176
570 131 275
571 315 237
572 85 67
573 197 300
574 308 196
575 114 88
576 87 153
577 21 201
578 137 64
579 361 194
580 115 51
581 24 96
582 2 200
583 211 274
584 102 149
585 307 196
586 127 87
587 302 274
588 383 53
589 376 254
590 15 100
591 111 179
592 308 204
593 85 358
594 391 54
595 385 55
596 65 335
597 46 378
598 310 363
599 217 286
600 33 247
601 88 150
602 397 73
603 70 231
604 72 315
605 131 67
606 117 381
607 31 357
608 299 351
609 393 297
610 102 118
611 273 160
612 350 131
613 364 55
614 47 328
615 109 186
616 143 20
617 134 98
618 42 384
619 255 80
620 52 194
621 128 93
622 50 385
623 386 57
624 86 112
625 26 275
626 40 336
627 135 384
628 52 301
629 68 261
630 36 288
631 375 294
632 220 288
633 186 304
634 369 106
635 96 69
636 321 217
637 177 77
638 320 216
639 246 47
640 350 207
641 279 247
642 153 315
643 68 386
644 399 179
645 297 240
646 199 290
647 21 204
648 362 28
649 353 65
650 24 57
651 75 368
652 393 305
653 239 254
654 146 320
655 369 6
656 277 154
657 304 141
658 205 372
659 339 3
660 254 0
661 321 209
662 114 250
663 318 219
664 209 283
665 48 358
666 339 384
667 351 153
668 377 29
669 317 183
670 183 303
671 299 308
672 197 292
673 370 98
674 188 67
675 207 87
676 295 307
677 325 311
678 228 96
679 368 215
680 208 86
681 75 76
682 27 251
683 308 314
684 217 289
685 337 388
686 133 94
687 91 388
688 87 147
689 389 54
690 185 386
691 234 212
692 53 330
693 237 247
694 369 19
695 346 385
696 397 313
697 355 41
698 211 266
699 8 363
700 59 89
701 344 391
702 242 105
703 327 242
704 55 324
705 114 252
706 29 355
707 102 377
708 345 382
709 313 194
710 285 136
711 272 154
712 379 254
713 22 210
714 117 187
715 157 220
716 21 96
717 182 379
718 298 138
719 28 356
720 130 70
721 111 184
722 319 113
723 347 385
724 220 337
725 344 283
726 217 98
727 76 90
728 175 299
729 270 151
730 398 258
731 344 321
732 266 234
733 49 187
734 92 155
735 344 236
736 226 52
737 183 294
738 237 243
739 184 69
740 222 383
741 21 255
742 390 357
743 272 161
744 371 349
745 220 296
746 184 235
747 113 184
748 370 104
749 273 182
750 382 54
751 379 126
752 327 241
753 189 306
754 26 326
755 367 104
756 271 154
757 67 258
758 86 357
759 107 98
760 66 254
761 374 253
762 228 341
763 60 328
764 268 160
765 201 255
766 397 362
767 236 210
768 349 157
769 348 319
770 186 75
771 327 115
772 77 319
773 147 210
774 195 148
775 108 186
776 26 199
777 305 255
778 368 102
779 146 174
780 319 217
781 335 202
782 128 94
783 82 78
784 92 68
785 231 219
786 309 274
787 336 386
788 324 194
789 174 387
790 24 93
791 107 247
792 291 308
793 13 322
794 68 254
795 142 379
796 43 121
797 329 241
798 260 352
799 328 243
800 384 64
801 80 365
802 85 128
803 242 113
804 268 160
805 179 305
PICKUP_AND_DELIVERY_SECTION
1 0 0 6289 0 0 0
2 -20 2588 2828 10 248 0
3 -10 426 666 10 535 0
4 10 254 494 10 0 313
5 24 840 1080 10 0 229
6 -10 3991 4231 10 140 0
7 35 827 1067 10 0 518
8 -24 604 844 10 524 0
9 -10 4507 4747 10 581 0
10 20 504 744 10 0 682
11 -30 741 981 10 767 0
12 43 3411 3651 10 0 256
13 -8 1092 1332 10 245 0
14 10 646 886 10 0 609
15 10 724 964 10 0 27
16 10 808 1048 10 0 531
17 -10 886 1126 10 633 0
18 13 962 1202 10 0 644
19 -3 3528 3768 10 352 0
20 -12 3240 3480 10 193 0
21 -20 1160 1400 10 438 0
22 10 803 1043 10 0 325
23 -20 4523 4763 10 104 0
24 20 933 1173 10 0 706
25 -20 4093 4333 10 302 0
26 -4 4305 4545 10 168 0
27 -10 824 1064 10 15 0
28 20 889 1129 10 0 594
29 20 1314 1554 10 0 648
30 -30 308 548 10 496 0
31 10 403 643 10 0 274
32 8 714 954 10 0 206
33 15 88 328 10 0 167
34 -20 3131 3371 10 150 0
35 21 2811 3051 10 0 430
36 -20 638 878 10 479 0
37 18 82 322 10 0 734
38 -20 659 899 10 791 0
39 30 1061 1301 10 0 720
40 10 842 1082 10 0 119
41 -12 2473 2713 10 44 0
42 22 2645 2885 10 0 242
43 40 470 710 10 0 376
44 12 2541 2781 10 0 41
45 -15 4782 5022 10 520 0
46 8 340 580 10 0 539
47 10 800 1040 10 0 666
48 -10 873 1113 10 709 0
49 -11 5257 5497 10 568 0
50 16 2571 2811 10 0 179
51 -10 764 1004 10 410 0
52 30 700 940 10 0 371
53 10 379 619 10 0 288
54 12 2230 2470 10 0 67
55 10 629 869 10 0 603
56 15 384 624 10 0 428
57 12 3026 3266 10 0 270
58 -20 764 1004 10 215 0
59 10 683 923 10 0 213
60 -10 900 1140 10 427 0
61 30 642 882 10 0 284
62 -30 1017 1257 10 342 0
63 20 601 841 10 0 159
64 -7 5901 6141 10 688 0
65 -20 3749 3989 10 676 0
66 27 2198 2438 10 0 124
67 -12 2666 2906 10 54 0
68 10 335 575 10 0 223
69 -10 1618 1858 10 491 0
70 10 718 958 10 0 502
71 20 601 841 10 0 292
72 -20 607 847 10 131 0
73 10 806 1046 10 0 343
74 30 58 298 10 0 425
75 -16 3938 4178 10 499 0
76 10 604 844 10 0 577
77 10 223 463 10 0 604
78 -25 3117 3357 10 219 0
79 20 950 1190 10 0 784
80 -17 2962 3202 10 317 0
81 16 2968 3208 10 0 580
82 10 3082 3322 10 0 699
83 -18 4864 5104 10 606 0
84 -20 3012 3252 10 318 0
85 16 4961 5201 10 0 306
86 -25 3439 3679 10 222 0
87 10 689 929 10 0 690
88 -20 984 1224 10 447 0
89 10 1121 1361 10 0 746
90 20 424 664 10 0 471
91 -30 962 1202 10 559 0
92 -12 3764 4004 10 579 0
93 -20 4158 4398 10 388 0
94 20 275 515 10 0 705
95 20 519 759 10 0 795
96 20 658 898 10 0 534
97 -10 879 1119 10 775 0
98 30 1209 1449 10 0 735
99 -1 3099 3339 10 739 0
100 20 174 414 10 0 359
101 20 970 1210 10 0 295
102 -20 990 1230 10 350 0
103 20 442 682 10 0 216
104 20 485 725 10 0 23
105 18 869 1109 10 0 156
106 -20 379 619 10 672 0
107 10 854 1094 10 0 634
108 -30 1112 1352 10 466 0
109 -20 4649 4889 10 728 0
110 10 1365 1605 10 0 293
111 30 732 972 10 0 638
112 16 3355 3595 10 0 366
113 -15 2168 2408 10 587 0
114 -30 1817 2057 10 455 0
115 20 487 727 10 0 330
116 -10 2059 2299 10 635 0
117 -40 4103 4343 10 348 0
118 -20 1270 1510 10 439 0
119 -10 2534 2774 10 40 0
120 -11 1226 1466 10 548 0
121 10 488 728 10 0 788
122 -29 547 787 10 669 0
123 -20 477 717 10 164 0
124 -27 2738 2978 10 66 0
125 -13 1149 1389 10 627 0
126 20 977 1217 10 0 713
127 -20 3186 3426 10 723 0
128 20 1055 1295 10 0 668
129 -30 1049 1289 10 421 0
130 10 492 732 10 0 201
131 20 181 421 10 0 72
132 -20 2906 3146 10 583 0
133 21 472 712 10 0 719
134 10 368 608 10 0 451
135 17 1011 1251 10 0 275
136 -20 873 1113 10 663 0
137 10 1106 1346 10 0 267
138 -9 3625 3865 10 422 0
139 10 543 783 10 0 667
140 10 1409 1649 10 0 6
141 -20 658 898 10 239 0
142 30 374 614 10 0 488
143 30 335 575 10 0 628
144 -10 3677 3917 10 530 0
145 -10 3329 3569 10 355 0
146 -20 518 758 10 163 0
147 22 4352 4592 10 0 478
148 -20 429 669 10 504 0
149 -10 2279 2519 10 338 0
150 20 264 504 10 0 34
151 -30 4802 5042 10 517 0
152 -28 961 1201 10 482 0
153 -20 625 865 10 333 0
154 5 2323 2563 10 0 732
155 27 4000 4240 10 0 368
156 -18 3294 3534 10 105 0
157 30 261 501 10 0 753
158 -20 2164 2404 10 757 0
159 -20 3779 4019 10 63 0
160 20 653 893 10 0 449
161 10 625 865 10 0 452
162 35 314 554 10 0 742
163 20 466 706 10 0 146
164 20 373 613 10 0 123
165 10 1310 1550 10 0 264
166 30 406 646 10 0 521
167 -15 757 997 10 33 0
168 4 3108 3348 10 0 26
169 10 1083 1323 10 0 351
170 -11 5586 5826 10 334 0
171 -30 914 1154 10 513 0
172 18 1898 2138 10 0 751
173 -20 3115 3355 10 696 0
174 -34 1258 1498 10 533 0
175 -20 829 1069 10 778 0
176 12 52 292 10 0 263
177 33 3714 3954 10 0 181
178 -21 503 743 10 320 0
179 -16 3796 4036 10 50 0
180 20 794 1034 10 0 758
181 -33 5359 5599 10 177 0
182 -20 2602 2842 10 308 0
183 20 1099 1339 10 0 787
184 10 939 1179 10 0 770
185 21 963 1203 10 0 701
186 26 3390 3630 10 0 630
187 -10 4200 4440 10 554 0
188 -20 602 842 10 244 0
189 -10 1744 1984 10 695 0
190 18 1021 1261 10 0 649
191 16 807 1047 10 0 461
192 12 5 245 10 0 331
193 12 2614 2854 10 0 20
194 -12 4821 5061 10 381 0
195 -33 1636 1876 10 296 0
196 10 954 1194 10 0 750
197 -20 1223 1463 10 718 0
198 10 742 982 10 0 494
199 7 936 1176 10 0 679
200 -26 5131 5371 10 722 0
201 -10 2203 2443 10 130 0
202 -10 888 1128 10 544 0
203 -4 3803 4043 10 660 0
204 30 699 939 10 0 261
205 -20 2049 2289 10 552 0
206 -8 4414 4654 10 32 0
207 -10 1630 1870 10 436 0
208 20 931 1171 10 0 741
209 10 781 1021 10 0 470
210 13 141 381 10 0 620
211 -4 4635 4875 10 277 0
212 -30 830 1070 10 228 0
213 -10 978 1218 10 59 0
214 -33 4361 4601 10 542 0
215 20 828 1068 10 0 58
216 -20 1888 2128 10 103 0
217 4 4909 5149 10 0 391
218 -19 3601 3841 10 793 0
219 25 515 755 10 0 78
220 -35 683 923 10 412 0
221 -30 752 992 10 647 0
222 25 2281 2521 10 0 86
223 -10 486 726 10 68 0
224 30 735 975 10 0 700
225 -1 1316 1556 10 525 0
226 -10 1009 1249 10 617 0
227 -13 4793 5033 10 762 0
228 30 618 858 10 0 212
229 -24 1034 1274 10 5 0
230 30 126 366 10 0 387
231 -35 5034 5274 10 490 0
232 -20 848 1088 10 760 0
233 30 1155 1395 10 0 415
234 -10 1552 1792 10 597 0
235 -20 1824 2064 10 474 0
236 -20 773 1013 10 408 0
237 -10 161 401 10 691 0
238 10 588 828 10 0 562
239 20 596 836 10 0 141
240 -15 4378 4618 10 457 0
241 -17 819 1059 10 255 0
242 -22 3998 4238 10 42 0
243 -38 1989 2229 10 354 0
244 20 746 986 10 0 188
245 8 560 800 10 0 13
246 22 3605 3845 10 0 462
247 26 2838 3078 10 0 637
248 20 167 407 10 0 2
249 -25 716 956 10 367 0
250 -29 2597 2837 10 377 0
251 -20 2253 2493 10 670 0
252 -30 896 1136 10 592 0
253 -30 832 1072 10 545 0
254 -10 2616 2856 10 262 0
255 17 34 274 10 0 241
256 -43 4229 4469 10 12 0
257 20 694 934 10 0 507
258 9 994 1234 10 0 689
259 30 692 932 10 0 414
260 -3 2302 2542 10 283 0
261 -30 769 1009 10 204 0
262 10 1232 1472 10 0 254
263 -12 1693 1933 10 176 0
264 -10 1764 2004 10 165 0
265 6 362 602 10 0 290
266 30 1126 1366 10 0 372
267 -10 3746 3986 10 137 0
268 9 1587 1827 10 0 468
269 10 812 1052 10 0 645
270 -12 3952 4192 10 57 0
271 -20 633 873 10 380 0
272 30 420 660 10 0 551
273 20 605 845 10 0 640
274 -10 2195 2435 10 31 0
275 -17 1900 2140 10 135 0
276 20 594 834 10 0 789
277 4 4726 4966 10 0 211
278 -10 1549 1789 10 396 0
279 -20 5210 5450 10 385 0
280 20 2895 3135 10 0 553
281 -30 3159 3399 10 578 0
282 10 437 677 10 0 373
283 3 937 1177 10 0 260
284 -30 1974 2214 10 61 0
285 20 3742 3982 10 0 287
286 5 3351 3591 10 0 379
287 -20 5353 5593 10 285 0
288 -10 417 657 10 53 0
289 10 316 556 10 0 747
290 -6 1254 1494 10 265 0
291 -25 1937 2177 10 329 0
292 -20 866 1106 10 71 0
293 -10 2947 3187 10 110 0
294 16 2064 2304 10 0 418
295 -20 962 1202 10 101 0
296 33 1678 1918 10 0 195
297 -10 3966 4206 10 404 0
298 -20 1622 1862 10 558 0
299 12 4148 4388 10 0 443
300 -10 3009 3249 10 704 0
301 10 886 1126 10 0 782
302 20 172 412 10 0 25
303 -16 1493 1733 10 765 0
304 8 642 882 10 0 557
305 -30 3759 3999 10 420 0
306 -16 5342 5582 10 85 0
307 -20 690 930 10 444 0
308 20 917 1157 10 0 182
309 -27 1070 1310 10 561 0
310 20 434 674 10 0 512
311 10 781 1021 10 0 465
312 10 578 818 10 0 650
313 -10 707 947 10 4 0
314 -13 2296 2536 10 485 0
315 10 376 616 10 0 800
316 -30 678 918 10 493 0
317 17 268 508 10 0 80
318 20 948 1188 10 0 84
319 22 856 1096 10 0 618
320 21 134 374 10 0 178
321 20 422 662 10 0 724
322 -20 4226 4466 10 598 0
323 -10 1746 1986 10 756 0
324 10 697 937 0 0 805
325 -10 879 1119 10 22 0
326 -20 689 929 10 632 0
327 20 941 1181 10 0 456
328 10 602 842 10 0 771
329 25 1540 1780 10 0 291
330 -20 1889 2129 10 115 0
331 -12 782 1022 10 192 0
332 15 629 869 10 0 731
333 20 354 594 10 0 153
334 11 3034 3274 10 0 170
335 -10 566 806 10 574 0
336 21 2655 2895 10 0 393
337 -10 3812 4052 10 341 0
338 10 693 933 10 0 149
339 -19 909 1149 10 726 0
340 -10 4804 5044 10 646 0
341 10 920 1160 10 0 337
342 30 328 568 10 0 62
343 -10 1037 1277 10 73 0
344 20 551 791 10 0 445
345 18 794 1034 10 0 772
346 10 591 831 10 0 555
347 20 300 540 10 0 526
348 40 1156 1396 10 0 117
349 -20 2131 2371 10 656 0
350 20 432 672 10 0 102
351 -10 980 1220 10 169 0
352 3 602 842 10 0 19
353 -50 907 1147 10 510 0
354 38 1671 1911 10 0 243
355 10 548 788 10 0 145
356 20 920 1160 10 0 725
357 10 125 365 10 0 395
358 -20 2146 2386 10 448 0
359 -20 536 776 10 100 0
360 -9 5039 5279 10 511 0
361 19 214 454 10 0 737
362 -23 2534 2774 10 681 0
363 -8 1044 1284 10 744 0
364 -10 1026 1266 10 522 0
365 -23 3618 3858 10 786 0
366 -16 3636 3876 10 112 0
367 25 332 572 10 0 249
368 -27 5285 5525 10 155 0
369 9 127 367 10 0 798
370 21 3088 3328 10 0 625
371 -30 2344 2584 10 52 0
372 -30 2185 2425 10 266 0
373 -10 2287 2527 10 282 0
374 -20 766 1006 10 495 0
375 30 1265 1505 10 0 503
376 -40 604 844 10 43 0
377 29 1714 1954 10 0 250
378 -10 2353 2593 10 599 0
379 -5 4346 4586 10 286 0
380 20 207 447 10 0 271
381 12 4515 4755 10 0 194
382 -14 3508 3748 10 608 0
383 -10 1233 1473 10 590 0
384 10 1121 1361 10 0 707
385 20 2865 3105 10 0 279
386 19 282 522 10 0 585
387 -30 669 909 10 230 0
388 20 820 1060 10 0 93
389 31 3402 3642 10 0 639
390 30 735 975 10 0 505
391 -4 4935 5175 10 217 0
392 20 309 549 10 0 484
393 -21 2655 2895 10 336 0
394 20 423 663 10 0 605
395 -10 424 664 10 357 0
396 10 514 754 10 0 278
397 -27 4573 4813 10 434 0
398 -20 1221 1461 10 708 0
399 -30 781 1021 10 693 0
400 14 272 512 10 0 662
401 10 585 825 10 0 536
402 -20 378 618 10 729 0
403 -20 1305 1545 10 745 0
404 10 908 1148 10 0 297
405 -20 1091 1331 10 717 0
406 -12 3449 3689 10 584 0
407 -16 1633 1873 10 440 0
408 20 537 777 10 0 236
409 -20 1299 1539 10 684 0
410 10 697 937 10 0 51
411 20 477 717 10 0 567
412 35 271 511 10 0 220
413 18 230 470 10 0 716
414 -30 2457 2697 10 259 0
415 -30 1459 1699 10 233 0
416 10 1755 1995 10 0 754
417 10 757 997 10 0 564
418 -16 2303 2543 10 294 0
419 -35 3706 3946 10 582 0
420 30 767 1007 10 0 305
421 30 275 515 10 0 129
422 9 700 940 10 0 138
423 -10 4581 4821 10 549 0
424 24 3860 4100 10 0 501
425 -30 793 1033 10 74 0
426 10 900 1140 10 0 687
427 10 651 891 10 0 60
428 -15 2999 3239 10 56 0
429 30 562 802 10 0 780
430 -21 4450 4690 10 35 0
431 -37 1772 2012 10 678 0
432 -20 712 952 10 702 0
433 10 315 555 0 0 803
434 27 1057 1297 10 0 397
435 -18 2642 2882 10 801 0
436 10 593 833 10 0 207
437 20 418 658 10 0 677
438 20 30 270 10 0 21
439 20 798 1038 10 0 118
440 16 161 401 10 0 407
441 30 593 833 10 0 547
442 20 471 711 10 0 573
443 -12 4490 4730 10 299 0
444 20 199 439 10 0 307
445 -20 4269 4509 10 344 0
446 -10 884 1124 10 651 0
447 20 339 579 10 0 88
448 20 946 1186 10 0 358
449 -20 2177 2417 10 160 0
450 20 655 895 10 0 572
451 -10 215 455 10 134 0
452 -10 2251 2491 10 161 0
453 -10 2410 2650 10 621 0
454 20 703 943 10 0 685
455 30 636 876 10 0 114
456 -20 1303 1543 10 327 0
457 15 2712 2952 10 0 240
458 -10 5456 5696 10 464 0
459 20 541 781 10 0 610
460 17 1942 2182 10 0 749
461 -16 786 1026 10 191 0
462 -22 4977 5217 10 246 0
463 -20 3028 3268 10 752 0
464 10 790 1030 10 0 458
465 -10 4843 5083 10 311 0
466 30 748 988 10 0 108
467 20 586 826 10 0 658
468 -9 2801 3041 10 268 0
469 18 5091 5331 0 0 802
470 -10 2744 2984 10 209 0
471 -20 569 809 10 90 0
472 -13 654 894 10 481 0
473 10 558 798 10 0 523
474 20 661 901 10 0 235
475 19 1885 2125 10 0 665
476 -20 1258 1498 10 755 0
477 20 1791 2031 10 0 730
478 -22 5418 5658 10 147 0
479 20 534 774 10 0 36
480 -23 923 1163 10 773 0
481 13 199 439 10 0 472
482 28 432 672 10 0 152
483 34 1352 1592 10 0 626
484 -20 1533 1773 10 392 0
485 13 379 619 10 0 314
486 -10 847 1087 10 653 0
487 -2 2724 2964 10 631 0
488 -30 888 1128 10 142 0
489 -15 4694 4934 10 565 0
490 35 4568 4808 10 0 231
491 10 1008 1248 10 0 69
492 -12 563 803 10 641 0
493 30 610 850 10 0 316
494 -10 954 1194 10 198 0
495 20 799 1039 10 0 374
496 30 155 395 10 0 30
497 20 443 683 10 0 703
498 -19 637 877 10 563 0
499 16 1485 1725 10 0 75
500 -3 1065 1305 10 712 0
501 -24 4059 4299 10 424 0
502 -10 3375 3615 10 70 0
503 -30 2093 2333 10 375 0
504 20 368 608 10 0 148
505 -30 837 1077 10 390 0
506 20 542 782 10 0 652
507 -20 680 920 10 257 0
508 10 489 729 10 0 671
509 30 884 1124 10 0 622
510 50 333 573 10 0 353
511 9 4004 4244 10 0 360
512 -20 682 922 10 310 0
513 30 803 1043 10 0 171
514 -10 425 665 10 698 0
515 23 1809 2049 10 0 612
516 30 565 805 10 0 570
517 30 521 761 10 0 151
518 -35 2548 2788 10 7 0
519 -10 929 1169 10 601 0
520 15 859 1099 10 0 45
521 -30 835 1075 10 166 0
522 10 371 611 10 0 364
523 -10 541 781 10 473 0
524 24 80 320 10 0 8
525 1 1096 1336 10 0 225
526 -20 482 722 10 347 0
527 30 1006 1246 10 0 593
528 18 878 1118 10 0 532
529 10 34 274 10 0 686
530 10 770 1010 10 0 144
531 -10 1009 1249 10 16 0
532 -18 4550 4790 10 528 0
533 34 362 602 10 0 174
534 -20 1072 1312 10 96 0
535 10 266 506 10 0 3
536 -10 4197 4437 10 401 0
537 -10 3738 3978 10 748 0
538 30 910 1150 10 0 600
539 -8 1042 1282 10 46 0
540 40 1028 1268 10 0 654
541 -20 634 874 10 733 0
542 33 4067 4307 10 0 214
543 26 611 851 10 0 588
544 10 567 807 10 0 202
545 30 786 1026 10 0 253
546 -20 1075 1315 10 560 0
547 -30 737 977 10 441 0
548 11 330 570 10 0 120
549 10 324 564 10 0 423
550 -30 380 620 10 714 0
551 -30 2363 2603 10 272 0
552 20 1044 1284 10 0 205
553 -20 3101 3341 10 280 0
554 10 639 879 10 0 187
555 -10 689 929 10 346 0
556 -24 2740 2980 10 664 0
557 -8 3254 3494 10 304 0
558 20 793 1033 10 0 298
559 30 735 975 10 0 91
560 20 734 974 10 0 546
561 27 992 1232 10 0 309
562 -10 848 1088 10 238 0
563 19 36 276 10 0 498
564 -10 759 999 10 417 0
565 15 2212 2452 10 0 489
566 -20 592 832 10 794 0
567 -20 2761 3001 10 411 0
568 11 2587 2827 10 0 49
569 -10 4619 4859 10 790 0
570 -30 2055 2295 10 516 0
571 33 2018 2258 10 0 781
572 -20 942 1182 10 450 0
573 -20 579 819 10 442 0
574 10 395 635 10 0 335
575 24 2638 2878 10 0 616
576 -23 553 793 10 779 0
577 -10 735 975 10 76 0
578 30 480 720 10 0 281
579 12 1559 1799 10 0 92
580 -16 3332 3572 10 81 0
581 10 1180 1420 10 0 9
582 35 1306 1546 10 0 419
583 20 313 553 10 0 132
584 12 1968 2208 10 0 406
585 -19 351 591 10 386 0
586 20 603 843 10 0 774
587 15 1108 1348 10 0 113
588 -26 859 1099 10 543 0
589 -20 755 995 10 761 0
590 10 804 1044 10 0 383
591 -10 676 916 10 721 0
592 30 668 908 10 0 252
593 -30 1170 1410 10 527 0
594 -20 1155 1395 10 28 0
595 20 910 1150 10 0 694
596 4 1258 1498 10 0 715
597 10 1280 1520 10 0 234
598 20 4177 4417 10 0 322
599 10 692 932 10 0 378
600 -30 1019 1259 10 538 0
601 10 455 695 10 0 519
602 -20 818 1058 10 673 0
603 -10 4328 4568 10 55 0
604 -10 2666 2906 10 77 0
605 -20 687 927 10 394 0
606 18 2430 2670 10 0 83
607 20 1031 1271 10 0 643
608 14 602 842 10 0 382
609 -10 744 984 10 14 0
610 -20 4615 4855 10 459 0
611 10 664 904 10 0 683
612 -23 3147 3387 10 515 0
613 -10 1301 1541 10 657 0
614 -20 843 1083 10 629 0
615 10 475 715 10 0 783
616 -24 4810 5050 10 575 0
617 10 366 606 10 0 226
618 -22 1169 1409 10 319 0
619 11 2019 2259 10 0 674
620 -13 2135 2375 10 210 0
621 10 851 1091 10 0 453
622 -30 3232 3472 10 509 0
623 10 1000 1240 10 0 655
624 17 2790 3030 10 0 727
625 -21 4466 4706 10 370 0
626 -34 4761 5001 10 483 0
627 13 916 1156 10 0 125
628 -30 3639 3879 10 143 0
629 20 822 1062 10 0 614
630 -26 3766 4006 10 186 0
631 2 2352 2592 10 0 487
632 20 588 828 10 0 326
633 10 523 763 10 0 17
634 -10 1011 1251 10 107 0
635 10 1110 1350 10 0 116
636 -20 573 813 10 711 0
637 -26 3135 3375 10 247 0
638 -30 619 859 10 111 0
639 -31 4423 4663 10 389 0
640 -20 1451 1691 10 273 0
641 12 248 488 10 0 492
642 16 377 617 10 0 740
643 -20 1178 1418 10 607 0
644 -13 1730 1970 10 18 0
645 -10 980 1220 10 269 0
646 10 240 480 10 0 340
647 30 638 878 10 0 221
648 -20 1209 1449 10 29 0
649 -18 1163 1403 10 190 0
650 -10 787 1027 10 312 0
651 10 856 1096 10 0 446
652 -20 856 1096 10 506 0
653 10 253 493 10 0 486
654 -40 1927 2167 10 540 0
655 -10 2130 2370 10 623 0
656 20 431 671 10 0 349
657 10 748 988 10 0 613
658 -20 3497 3737 10 467 0
659 8 3151 3391 10 0 697
660 4 2631 2871 10 0 203
661 30 365 605 10 0 799
662 -14 830 1070 10 400 0
663 20 714 954 10 0 136
664 24 2409 2649 10 0 556
665 -19 3442 3682 10 475 0
666 -10 1461 1701 10 47 0
667 -10 776 1016 10 139 0
668 -20 2926 3166 10 128 0
669 29 414 654 10 0 122
670 20 470 710 10 0 251
671 -10 2193 2433 10 508 0
672 20 291 531 10 0 106
673 20 797 1037 10 0 602
674 -11 4138 4378 10 619 0
675 20 426 666 10 0 759
676 20 534 774 10 0 65
677 -20 2390 2630 10 437 0
678 37 1229 1469 10 0 431
679 -7 2846 3086 10 199 0
680 -17 3771 4011 10 736 0
681 23 1255 1495 10 0 362
682 -20 861 1101 10 10 0
683 -10 2499 2739 10 611 0
684 20 640 880 10 0 409
685 -20 1208 1448 10 454 0
686 -10 472 712 10 529 0
687 -10 800 1040 10 426 0
688 7 3438 3678 10 0 64
689 -9 1057 1297 10 258 0
690 -10 860 1100 10 87 0
691 10 205 445 10 0 237
692 30 909 1149 10 0 763
693 30 362 602 10 0 399
694 -20 1041 1281 10 595 0
695 10 863 1103 10 0 189
696 20 1099 1339 10 0 173
697 -8 3296 3536 10 659 0
698 10 429 669 10 0 514
699 -10 3457 3697 10 82 0
700 -30 3018 3258 10 224 0
701 -21 974 1214 10 185 0
702 20 560 800 10 0 432
703 -20 771 1011 10 497 0
704 10 643 883 10 0 300
705 -20 323 563 10 94 0
706 -20 933 1173 10 24 0
707 -10 3877 4117 10 384 0
708 20 811 1051 10 0 398
709 10 498 738 10 0 48
710 -10 4295 4535 10 768 0
711 20 318 558 10 0 636
712 3 1097 1337 10 0 500
713 -20 1086 1326 10 126 0
714 30 265 505 10 0 550
715 -4 5445 5685 10 596 0
716 -18 964 1204 10 413 0
717 20 733 973 10 0 405
718 20 393 633 10 0 197
719 -21 978 1218 10 133 0
720 -30 942 1182 10 39 0
721 10 526 766 10 0 591
722 26 4609 4849 10 0 200
723 20 907 1147 10 0 127
724 -20 1188 1428 10 321 0
725 -20 868 1108 10 356 0
726 19 294 534 10 0 339
727 -17 2927 3167 10 624 0
728 20 808 1048 10 0 109
729 20 222 462 10 0 402
730 -20 2332 2572 10 477 0
731 -15 954 1194 10 332 0
732 -5 3592 3832 10 154 0
733 20 705 945 10 0 541
734 -18 882 1122 10 37 0
735 -30 3477 3717 10 98 0
736 17 1921 2161 10 0 680
737 -19 262 502 10 361 0
738 9 107 347 10 0 777
739 1 1953 2193 10 0 99
740 -16 712 952 10 642 0
741 -20 2982 3222 10 208 0
742 -35 4105 4345 10 162 0
743 -10 710 950 10 785 0
744 8 991 1231 10 0 363
745 20 516 756 10 0 403
746 -10 4435 4675 10 89 0
747 -10 574 814 10 289 0
748 10 962 1202 10 0 537
749 -17 3342 3582 10 460 0
750 -10 813 1053 10 196 0
751 -18 3406 3646 10 172 0
752 20 727 967 10 0 463
753 -30 577 817 10 157 0
754 -10 2471 2711 10 416 0
755 20 651 891 10 0 476
756 10 274 514 10 0 323
757 20 874 1114 10 0 158
758 -20 1215 1455 10 180 0
759 -20 472 712 10 675 0
760 20 539 779 10 0 232
761 20 804 1044 10 0 589
762 13 3969 4209 10 0 227
763 -30 1143 1383 10 692 0
764 20 766 1006 0 0 804
765 16 100 340 10 0 303
766 -20 941 1181 10 797 0
767 30 112 352 10 0 11
768 10 834 1074 10 0 710
769 -30 1265 1505 10 792 0
770 -10 3059 3299 10 184 0
771 -10 1154 1394 10 328 0
772 -18 4896 5136 10 345 0
773 23 96 336 10 0 480
774 -20 5243 5483 10 586 0
775 10 431 671 10 0 97
776 26 3170 3410 10 0 796
777 -9 1184 1424 10 738 0
778 20 699 939 10 0 175
779 23 120 360 10 0 576
780 -30 665 905 10 429 0
781 -33 3257 3497 10 571 0
782 -10 895 1135 10 301 0
783 -10 4683 4923 10 615 0
784 -20 2821 3061 10 79 0
785 10 316 556 10 0 743
786 23 1302 1542 10 0 365
787 -20 2848 3088 10 183 0
788 -10 4204 4444 10 121 0
789 -20 984 1224 10 276 0
790 10 1128 1368 10 0 569
791 20 713 953 10 0 38
792 30 742 982 10 0 769
793 19 1410 1650 10 0 218
794 20 491 731 10 0 566
795 -20 3061 3301 10 95 0
796 -26 3880 4120 10 776 0
797 20 565 805 10 0 766
798 -9 1519 1759 10 369 0
799 -30 516 756 10 661 0
800 -10 4203 4443 10 315 0
801 18 1738 1978 10 0 435
802 -18 5091 5331 10 469 0
803 -10 315 555 10 433 0
804 -20 766 1006 10 764 0
805 -10 697 937 10 324 0
DEPOT_SECTION
1
-1
EOF
