NAME: lrc2_8_1
TYPE: PDPTW
COMMENT: Li & Lim PDPTW benchmark converted from SINTEF format
DIMENSION: 813
VEHICLES: 200
CAPACITY: 1000
EDGE_WEIGHT_TYPE: EUC_2D
NODE_COORD_SECTION
1 200 200
2 244 56
3 245 106
4 233 214
5 395 340
6 229 371
7 384 248
8 277 163
9 52 94
10 89 152
11 218 284
12 340 276
13 206 106
14 375 247
15 113 179
16 348 280
17 223 372
18 361 287
19 6 62
20 37 397
21 364 27
22 14 201
23 325 294
24 41 382
25 325 130
26 384 47
27 116 181
28 346 155
29 359 30
30 222 284
31 91 150
32 140 387
33 176 154
34 352 383
35 213 332
36 133 68
37 151 188
38 105 250
39 94 70
40 287 307
41 267 321
42 220 71
43 244 106
44 338 290
45 5 345
46 145 301
47 393 301
48 359 23
49 196 107
50 348 41
51 59 51
52 126 91
53 234 214
54 108 395
55 186 306
56 125 122
57 12 368
58 348 279
59 26 247
60 393 306
61 268 114
62 2 17
63 62 258
64 186 145
65 338 315
66 66 118
67 68 378
68 294 136
69 73 126
70 68 263
71 302 136
72 234 203
73 127 94
74 233 208
75 210 1
76 102 252
77 152 237
78 2 3
79 92 162
80 177 55
81 193 29
82 105 360
83 193 216
84 338 150
85 68 143
86 180 15
87 182 378
88 39 384
89 43 386
90 291 301
91 32 251
92 246 298
93 32 229
94 116 252
95 198 295
96 63 262
97 119 179
98 174 375
99 199 45
100 150 236
101 363 24
102 393 307
103 331 251
104 293 306
105 18 102
106 196 293
107 299 141
108 364 25
109 41 183
110 342 385
111 302 203
112 212 197
113 384 294
114 381 290
115 110 254
116 196 51
117 264 341
118 23 98
119 278 265
120 23 97
121 281 155
122 352 162
123 209 85
124 15 4
125 177 379
126 18 208
127 343 322
128 369 107
129 31 360
130 263 110
131 240 246
132 380 339
133 111 286
134 213 271
135 251 381
136 322 242
137 390 52
138 26 70
139 300 132
140 342 384
141 357 160
142 204 87
143 197 293
144 98 107
145 400 109
146 231 243
147 84 221
148 230 290
149 397 261
150 222 283
151 247 377
152 60 319
153 79 154
154 256 385
155 140 40
156 8 119
157 208 274
158 84 293
159 74 351
160 95 64
161 329 236
162 248 286
163 234 243
164 244 109
165 340 388
166 161 233
167 125 95
168 351 199
169 61 333
170 146 324
171 372 104
172 381 144
173 394 299
174 363 30
175 358 23
176 220 238
177 97 105
178 186 355
179 391 42
180 48 326
181 74 87
182 264 69
183 341 394
184 128 95
185 362 383
186 41 340
187 13 220
188 85 61
189 340 290
190 396 106
191 79 344
192 201 195
193 90 311
194 207 185
195 92 255
196 385 56
197 396 59
198 51 326
199 169 352
200 230 139
201 286 44
202 286 308
203 339 69
204 206 296
205 142 385
206 370 57
207 35 79
208 17 209
209 128 68
210 145 165
211 237 259
212 89 154
213 72 257
214 158 121
215 323 243
216 367 361
217 165 126
218 45 85
219 137 68
220 310 143
221 18 100
222 201 6
223 297 135
224 86 154
225 374 175
226 91 70
227 166 357
228 113 183
229 347 395
230 243 244
231 243 140
232 14 100
233 393 312
234 92 384
235 294 249
236 195 91
237 235 212
238 350 271
239 353 164
240 262 233
241 200 48
242 214 119
243 234 37
244 93 62
245 234 73
246 157 378
247 194 43
248 268 223
249 355 156
250 248 124
251 364 213
252 371 253
253 31 353
254 41 337
255 209 167
256 352 303
257 53 326
258 388 106
259 21 104
260 381 12
261 221 379
262 46 380
263 192 332
264 343 359
265 320 211
266 34 355
267 338 106
268 397 283
269 267 161
270 124 221
271 310 340
272 270 106
273 243 104
274 68 250
275 213 305
276 214 378
277 287 279
278 313 64
279 244 285
280 154 68
281 14 53
282 298 137
283 371 111
284 393 246
285 118 122
286 9 47
287 171 168
288 321 212
289 115 185
290 336 387
291 357 202
292 374 104
293 271 371
294 291 398
295 353 3
296 74 213
297 17 99
298 253 316
299 369 118
300 11 328
301 126 70
302 165 264
303 377 282
304 73 292
305 174 326
306 135 161
307 85 155
308 360 23
309 20 91
310 72 253
311 87 155
312 134 63
313 349 275
314 325 45
315 182 300
316 328 239
317 138 143
318 372 256
319 57 381
320 162 251
321 183 301
322 381 375
323 389 171
324 179 305
325 14 210
326 290 311
327 345 158
328 200 83
329 342 154
330 18 294
331 156 4
332 247 212
333 93 149
334 299 399
335 369 171
336 246 247
337 356 223
338 266 116
339 39 34
340 51 205
341 180 387
342 203 88
343 173 72
344 129 85
345 45 291
346 294 311
347 305 198
348 338 391
349 349 135
350 237 213
351 82 360
352 102 84
353 300 144
354 236 38
355 278 159
356 344 280
357 149 234
358 320 373
359 109 252
360 218 134
361 184 282
362 32 78
363 395 310
364 19 206
365 243 275
366 175 192
367 299 227
368 159 164
369 215 260
370 163 364
371 208 20
372 97 387
373 294 13
374 108 250
375 389 306
376 262 30
377 334 92
378 279 337
379 3 15
380 210 271
381 256 145
382 387 267
383 8 285
384 83 357
385 267 295
386 279 262
387 238 101
388 219 377
389 126 90
390 129 67
391 166 115
392 238 250
393 246 244
394 131 95
395 115 257
396 243 106
397 202 158
398 389 307
399 237 109
400 117 148
401 180 375
402 276 157
403 303 358
404 17 96
405 173 381
406 70 81
407 46 197
408 206 81
409 348 343
410 95 63
411 324 216
412 265 127
413 196 138
414 26 260
415 384 307
416 23 317
417 204 292
418 321 287
419 56 97
420 70 264
421 152 240
422 0 155
423 317 68
424 395 167
425 289 306
426 75 367
427 353 276
428 183 71
429 312 200
430 49 222
431 297 137
432 200 89
433 242 113
434 341 33
435 55 341
436 99 67
437 236 243
438 229 209
439 93 59
440 143 159
441 267 112
442 196 295
443 334 100
444 122 183
445 225 53
446 28 353
447 158 239
448 392 307
449 13 59
450 127 90
451 221 281
452 326 374
453 178 103
454 376 251
455 293 310
456 386 60
457 300 272
458 243 209
459 102 67
460 285 107
461 82 365
462 5 344
463 366 97
464 220 283
465 79 95
466 369 100
467 371 244
468 366 340
469 85 128
470 231 6
471 330 313
472 202 85
473 236 204
474 220 381
475 206 286
476 274 7
477 369 211
478 126 208
479 134 62
480 67 318
481 232 127
482 96 209
483 146 301
484 308 178
485 294 118
486 280 224
487 241 275
488 82 65
489 159 11
490 300 64
491 22 96
492 334 186
493 310 200
494 52 331
495 25 256
496 210 268
497 310 196
498 183 375
499 194 65
500 366 251
501 285 184
502 160 313
503 349 324
504 225 288
505 124 69
506 349 272
507 87 365
508 240 210
509 40 380
510 276 116
511 280 5
512 20 204
513 301 139
514 195 294
515 377 144
516 34 242
517 324 217
518 348 371
519 70 256
520 48 304
521 41 378
522 114 254
523 264 112
524 244 176
525 349 181
526 346 163
527 52 334
528 53 51
529 177 174
530 114 178
531 367 255
532 19 61
533 273 118
534 84 359
535 244 114
536 321 144
537 384 53
538 29 250
539 172 383
540 84 360
541 28 246
542 107 159
543 319 160
544 230 241
545 32 352
546 32 357
547 237 108
548 162 94
549 185 299
550 110 188
551 259 4
552 34 385
553 156 32
554 201 297
555 311 344
556 174 329
557 119 286
558 179 383
559 26 250
560 84 363
561 6 20
562 373 253
563 184 233
564 177 300
565 88 121
566 22 205
567 306 361
568 87 164
569 123 176
570 131 275
571 315 237
572 85 67
573 197 300
574 308 196
575 114 88
576 87 153
577 21 201
578 137 64
579 361 194
580 115 51
581 24 96
582 2 200
583 211 274
584 102 149
585 307 196
586 127 87
587 302 274
588 383 53
589 376 254
590 15 100
591 111 179
592 308 204
593 85 358
594 391 54
595 385 55
596 65 335
597 46 378
598 310 363
599 217 286
600 33 247
601 88 150
602 397 73
603 70 231
604 72 315
605 131 67
606 117 381
607 31 357
608 299 351
609 393 297
610 102 118
611 273 160
612 350 131
613 364 55
614 47 328
615 109 186
616 143 20
617 134 98
618 42 384
619 255 80
620 52 194
621 128 93
622 50 385
623 386 57
624 86 112
625 26 275
626 40 336
627 135 384
628 52 301
629 68 261
630 36 288
631 375 294
632 220 288
633 186 304
634 369 106
635 96 69
636 321 217
637 177 77
638 320 216
639 246 47
640 350 207
641 279 247
642 153 315
643 68 386
644 399 179
645 297 240
646 199 290
647 21 204
648 362 28
649 353 65
650 24 57
651 75 368
652 393 305
653 239 254
654 146 320
655 369 6
656 277 154
657 304 141
658 205 372
659 339 3
660 254 0
661 321 209
662 114 250
663 318 219
664 209 283
665 48 358
666 339 384
667 351 153
668 377 29
669 317 183
670 183 303
671 299 308
672 197 292
673 370 98
674 188 67
675 207 87
676 295 307
677 325 311
678 228 96
679 368 215
680 208 86
681 75 76
682 27 251
683 308 314
684 217 289
685 337 388
686 133 94
687 91 388
688 87 147
689 389 54
690 185 386
691 234 212
692 53 330
693 237 247
694 369 19
695 346 385
696 397 313
697 355 41
698 211 266
699 8 363
700 59 89
701 344 391
702 242 105
703 327 242
704 55 324
705 114 252
706 29 355
707 102 377
708 345 382
709 313 194
710 285 136
711 272 154
712 379 254
713 22 210
714 117 187
715 157 220
716 21 96
717 182 379
718 298 138
719 28 356
720 130 70
721 111 184
722 319 113
723 347 385
724 220 337
725 344 283
726 217 98
727 76 90
728 175 299
729 270 151
730 398 258
731 344 321
732 266 234
733 49 187
734 92 155
735 344 236
736 226 52
737 183 294
738 237 243
739 184 69
740 222 383
741 21 255
742 390 357
743 272 161
744 371 349
745 220 296
746 184 235
747 113 184
748 370 104
749 273 182
750 382 54
751 379 126
752 327 241
753 189 306
754 26 326
755 367 104
756 271 154
757 67 258
758 86 357
759 107 98
760 66 254
761 374 253
762 228 341
763 60 328
764 268 160
765 201 255
766 397 362
767 236 210
768 349 157
769 348 319
770 186 75
771 327 115
772 77 319
773 147 210
774 195 148
775 108 186
776 26 199
777 305 255
778 368 102
779 146 174
780 319 217
781 335 202
782 128 94
783 82 78
784 92 68
785 231 219
786 309 274
787 336 386
788 324 194
789 174 387
790 24 93
791 107 247
792 291 308
793 13 322
794 68 254
795 142 379
796 43 121
797 329 241
798 260 352
799 328 243
800 384 64
801 80 365
802 45 85
803 186 145
804 351 199
805 160 313
806 218 134
807 48 358
808 298 138
809 140 40
810 146 324
811 302 203
812 243 275
813 2 200
PICKUP_AND_DELIVERY_SECTION
1 0 0 6289 0 0 0
2 -10 2648 2768 10 282 0
3 20 486 606 10 0 376
4 10 314 434 10 0 493
5 -20 900 1020 10 237 0
6 7 4051 4171 10 0 227
7 -20 887 1007 10 454 0
8 10 664 784 10 0 242
9 14 4567 4687 10 0 783
10 20 564 684 10 0 495
11 -10 801 921 10 72 0
12 43 3471 3591 10 0 337
13 33 1152 1272 10 0 532
14 10 706 826 10 0 268
15 10 784 904 10 0 79
16 -20 868 988 10 411 0
17 -20 946 1066 10 95 0
18 -20 1022 1142 10 797 0
19 -20 3588 3708 10 439 0
20 -21 3300 3420 10 133 0
21 -20 1220 1340 10 755 0
22 -10 863 983 10 153 0
23 -11 4583 4703 10 334 0
24 -20 993 1113 10 507 0
25 19 4153 4273 10 0 501
26 -20 4365 4485 10 164 0
27 -10 884 1004 10 615 0
28 20 949 1069 10 0 283
29 -10 1374 1494 10 130 0
30 10 368 488 10 0 162
31 10 463 583 10 0 733
32 -30 774 894 10 496 0
33 15 148 268 10 0 505
34 -4 3191 3311 10 567 0
35 -20 2871 2991 10 789 0
36 -25 698 818 10 219 0
37 18 142 262 10 0 550
38 30 719 839 10 0 195
39 -20 1121 1241 10 566 0
40 -10 902 1022 10 544 0
41 -17 2533 2653 10 135 0
42 -10 2705 2825 10 292 0
43 40 530 650 10 0 655
44 12 2601 2721 10 0 732
45 -20 4842 4962 10 94 0
46 8 400 520 10 0 699
47 10 860 980 10 0 216
48 -10 933 1053 10 588 0
49 -17 5317 5437 10 460 0
50 -11 2631 2751 10 619 0
51 14 824 944 10 0 603
52 -10 760 880 10 617 0
53 10 439 559 10 0 636
54 12 2290 2410 10 0 658
55 -10 689 809 10 573 0
56 15 444 564 10 0 244
57 -12 3086 3206 10 300 0
58 10 824 944 10 0 60
59 10 743 863 10 0 253
60 -10 960 1080 10 58 0
61 30 702 822 10 0 515
62 -3 1077 1197 10 352 0
63 20 661 781 10 0 494
64 18 5961 6081 0 0 803
65 -27 3809 3929 10 471 0
66 27 2258 2378 10 0 453
67 10 2726 2846 10 0 82
68 10 395 515 10 0 485
69 -20 1678 1798 10 226 0
70 10 778 898 10 0 374
71 -35 661 781 10 412 0
72 10 667 787 10 0 11
73 10 866 986 10 0 116
74 30 118 238 10 0 308
75 -23 3998 4118 10 773 0
76 -30 664 784 10 359 0
77 10 283 403 10 0 478
78 -10 3177 3297 10 118 0
79 -10 1010 1130 10 15 0
80 17 3022 3142 10 0 86
81 -10 3028 3148 10 621 0
82 -10 3142 3262 10 67 0
83 -27 4924 5044 10 270 0
84 -20 3072 3192 10 356 0
85 -25 5021 5141 10 109 0
86 -17 3499 3619 10 80 0
87 -10 749 869 10 401 0
88 40 1044 1164 10 0 552
89 -22 1181 1301 10 319 0
90 20 484 604 10 0 104
91 20 1022 1142 10 0 776
92 -20 3824 3944 10 385 0
93 7 4218 4338 10 0 430
94 20 335 455 10 0 45
95 20 579 699 10 0 17
96 -20 718 838 10 794 0
97 -20 939 1059 10 734 0
98 -10 1269 1389 10 341 0
99 -23 3159 3279 10 681 0
100 20 234 354 10 0 705
101 -40 1030 1150 10 750 0
102 10 1050 1170 10 0 381
103 20 502 622 10 0 183
104 -20 545 665 10 90 0
105 18 929 1049 10 0 716
106 20 439 559 10 0 330
107 -10 914 1034 10 399 0
108 40 1172 1292 10 0 197
109 25 4709 4829 10 0 85
110 10 1425 1545 10 0 503
111 30 792 912 0 0 811
112 -10 3415 3535 10 137 0
113 20 2228 2348 10 0 132
114 -20 1877 1997 10 467 0
115 -10 547 667 10 395 0
116 -10 2119 2239 10 73 0
117 -30 4163 4283 10 564 0
118 10 1330 1450 10 0 78
119 -10 2594 2714 10 464 0
120 20 1286 1406 10 0 281
121 10 548 668 10 0 645
122 10 607 727 10 0 778
123 10 537 657 10 0 736
124 -20 2798 2918 10 188 0
125 10 1209 1329 10 0 724
126 20 1037 1157 10 0 542
127 -30 3246 3366 10 792 0
128 -13 1115 1235 10 481 0
129 23 1109 1229 10 0 719
130 10 552 672 10 0 29
131 -30 241 361 10 230 0
132 -20 2966 3086 10 113 0
133 21 532 652 10 0 20
134 10 428 548 10 0 633
135 17 1071 1191 10 0 41
136 -10 933 1053 10 780 0
137 10 1166 1286 10 0 112
138 3 3685 3805 10 0 287
139 10 603 723 10 0 667
140 -40 1469 1589 10 348 0
141 -29 718 838 10 669 0
142 30 434 554 10 0 675
143 30 395 515 10 0 480
144 -33 3737 3857 10 177 0
145 -10 3389 3509 10 363 0
146 10 578 698 10 0 599
147 -18 4412 4532 10 528 0
148 20 489 609 10 0 745
149 16 2339 2459 10 0 631
150 20 324 444 10 0 723
151 -37 4862 4982 10 372 0
152 -30 1021 1141 10 527 0
153 10 685 805 10 0 22
154 5 2383 2503 10 0 393
155 27 4060 4180 0 0 809
156 -20 3354 3474 10 444 0
157 30 321 441 10 0 276
158 11 2224 2344 10 0 628
159 32 3839 3959 10 0 707
160 20 713 833 10 0 491
161 10 685 805 10 0 710
162 -10 374 494 10 30 0
163 20 526 646 10 0 632
164 20 433 553 10 0 26
165 -21 1370 1490 10 185 0
166 30 466 586 10 0 692
167 -30 817 937 10 578 0
168 4 3168 3288 0 0 804
169 -20 1143 1263 10 760 0
170 24 5646 5766 0 0 810
171 -34 974 1094 10 533 0
172 -16 1958 2078 10 640 0
173 14 3175 3295 10 0 735
174 10 1318 1438 10 0 201
175 -30 889 1009 10 767 0
176 12 112 232 10 0 369
177 33 3774 3894 10 0 144
178 -20 563 683 10 670 0
179 -18 3856 3976 10 225 0
180 20 854 974 10 0 446
181 -20 5419 5539 10 379 0
182 -18 2662 2782 10 431 0
183 -20 1159 1279 10 103 0
184 10 999 1119 10 0 720
185 21 1023 1143 10 0 165
186 -14 3450 3570 10 435 0
187 -19 4260 4380 10 419 0
188 20 662 782 10 0 124
189 -20 1804 1924 10 531 0
190 18 1081 1201 10 0 323
191 -2 867 987 10 687 0
192 12 5 125 10 0 490
193 12 2674 2794 10 0 462
194 -20 4881 5001 10 761 0
195 -30 1696 1816 10 38 0
196 10 1014 1134 10 0 623
197 -40 1283 1403 10 108 0
198 10 802 922 10 0 763
199 -30 996 1116 10 740 0
200 -15 5191 5311 10 231 0
201 -10 2263 2383 10 174 0
202 -10 948 1068 10 425 0
203 -10 3863 3983 10 371 0
204 -30 759 879 10 693 0
205 -20 2109 2229 10 728 0
206 -26 4474 4594 10 644 0
207 -10 1690 1810 10 339 0
208 -30 991 1111 10 538 0
209 -20 841 961 10 479 0
210 13 201 321 10 0 713
211 -15 4695 4815 10 332 0
212 10 890 1010 10 0 406
213 -30 1038 1158 10 421 0
214 -9 4421 4541 10 620 0
215 -30 888 1008 10 592 0
216 -10 1948 2068 10 47 0
217 -13 4969 5089 10 391 0
218 10 3661 3781 0 0 802
219 25 575 695 10 0 36
220 20 743 863 10 0 543
221 -30 812 932 10 647 0
222 -18 2341 2461 10 413 0
223 30 546 666 10 0 680
224 -10 795 915 10 289 0
225 18 1376 1496 10 0 179
226 20 1069 1189 10 0 69
227 -7 4853 4973 10 6 0
228 30 678 798 10 0 584
229 10 1094 1214 10 0 701
230 30 186 306 10 0 131
231 15 5094 5214 10 0 200
232 30 908 1028 10 0 489
233 -20 1215 1335 10 448 0
234 -20 1612 1732 10 534 0
235 -23 1884 2004 10 786 0
236 -30 833 953 10 342 0
237 20 221 341 10 0 5
238 10 648 768 10 0 290
239 20 656 776 10 0 335
240 -23 4438 4558 10 683 0
241 20 879 999 10 0 331
242 -10 4058 4178 10 8 0
243 -20 2049 2169 10 273 0
244 -15 806 926 10 56 0
245 8 620 740 10 0 387
246 -20 3665 3785 10 437 0
247 26 2898 3018 10 0 465
248 20 227 347 10 0 766
249 20 776 896 10 0 771
250 -10 2657 2777 10 756 0
251 -20 2313 2433 10 594 0
252 -30 956 1076 10 429 0
253 -10 892 1012 10 59 0
254 9 2676 2796 10 0 630
255 17 77 197 10 0 579
256 -15 4289 4409 10 293 0
257 20 754 874 10 0 607
258 -20 1054 1174 10 327 0
259 -28 752 872 10 482 0
260 15 2362 2482 10 0 443
261 30 829 949 10 0 556
262 -16 1292 1412 10 642 0
263 -20 1753 1873 10 474 0
264 26 1824 1944 10 0 788
265 6 422 542 10 0 562
266 30 1186 1306 10 0 618
267 -9 3806 3926 10 697 0
268 -10 1647 1767 10 14 0
269 10 872 992 10 0 486
270 27 4012 4132 10 0 83
271 -20 693 813 10 676 0
272 30 480 600 10 0 748
273 20 665 785 10 0 243
274 14 2255 2375 10 0 626
275 -20 1960 2080 10 558 0
276 -30 654 774 10 157 0
277 -20 4786 4906 10 708 0
278 -50 1609 1729 10 510 0
279 -24 5270 5390 10 664 0
280 20 2955 3075 10 0 637
281 -20 3219 3339 10 120 0
282 10 497 617 10 0 2
283 -20 997 1117 10 28 0
284 14 2034 2154 10 0 463
285 -2 3802 3922 10 727 0
286 -10 3411 3531 10 436 0
287 -3 5413 5533 10 138 0
288 -25 477 597 10 367 0
289 10 376 496 10 0 224
290 -10 1314 1434 10 238 0
291 5 1997 2117 10 0 612
292 10 926 1046 10 0 42
293 15 3007 3127 10 0 256
294 -10 2124 2244 10 685 0
295 -30 1022 1142 10 526 0
296 -20 1738 1858 10 333 0
297 1 4026 4146 10 0 340
298 -30 1682 1802 10 326 0
299 12 4208 4328 10 0 536
300 12 3069 3189 10 0 57
301 -20 946 1066 10 450 0
302 -19 232 352 10 563 0
303 -3 1553 1673 10 712 0
304 8 702 822 10 0 560
305 -20 3819 3939 10 684 0
306 -10 5402 5522 10 309 0
307 -23 750 870 10 779 0
308 -30 977 1097 10 74 0
309 10 1130 1250 10 0 306
310 20 494 614 10 0 545
311 10 841 961 10 0 389
312 10 638 758 10 0 553
313 10 767 887 10 0 666
314 -10 2356 2476 10 768 0
315 10 436 556 10 0 622
316 10 738 858 10 0 677
317 17 328 448 10 0 410
318 20 1008 1128 10 0 418
319 22 916 1036 10 0 89
320 21 194 314 10 0 549
321 -10 482 602 10 514 0
322 -23 4286 4406 10 518 0
323 -18 1806 1926 10 190 0
324 10 757 877 10 0 801
325 10 939 1059 10 0 397
326 30 749 869 10 0 298
327 20 1001 1121 10 0 258
328 10 662 782 10 0 659
329 -27 1600 1720 10 434 0
330 -20 1949 2069 10 106 0
331 -20 842 962 10 241 0
332 15 689 809 10 0 211
333 20 414 534 10 0 296
334 11 3094 3214 10 0 23
335 -20 626 746 10 239 0
336 21 2715 2835 10 0 487
337 -43 3872 3992 10 12 0
338 10 753 873 10 0 634
339 10 969 1089 10 0 207
340 -1 4864 4984 10 297 0
341 10 980 1100 10 0 98
342 30 388 508 10 0 236
343 39 1097 1217 10 0 678
344 20 611 731 10 0 586
345 18 854 974 10 0 654
346 -20 651 771 10 451 0
347 20 360 480 10 0 585
348 40 1216 1336 10 0 140
349 28 2191 2311 10 0 751
350 20 492 612 10 0 703
351 10 1040 1160 10 0 643
352 3 662 782 10 0 62
353 -30 967 1087 10 513 0
354 -19 1731 1851 10 726 0
355 10 608 728 10 0 777
356 20 980 1100 10 0 84
357 10 185 305 10 0 522
358 -12 2206 2326 10 641 0
359 30 596 716 10 0 76
360 24 5099 5219 0 0 806
361 19 274 394 10 0 546
362 -10 2594 2714 10 790 0
363 10 1104 1224 10 0 145
364 -16 1086 1206 10 440 0
365 31 3678 3798 0 0 812
366 -18 3696 3816 10 557 0
367 25 392 512 10 0 288
368 -12 5345 5465 10 796 0
369 -12 187 307 10 176 0
370 -40 3148 3268 10 540 0
371 10 2404 2524 10 0 203
372 37 2245 2365 10 0 151
373 -10 2347 2467 10 648 0
374 -10 826 946 10 70 0
375 30 1325 1445 10 0 415
376 -20 664 784 10 3 0
377 29 1774 1894 10 0 674
378 -10 2413 2533 10 473 0
379 20 4406 4526 10 0 181
380 20 267 387 10 0 583
381 -10 4575 4695 10 102 0
382 -23 3568 3688 10 468 0
383 -15 1293 1413 10 520 0
384 -9 1181 1301 10 738 0
385 20 2925 3045 10 0 92
386 -10 342 462 10 691 0
387 -8 729 849 10 245 0
388 -10 880 1000 10 698 0
389 -10 3462 3582 10 311 0
390 30 795 915 10 0 499
391 13 4995 5115 10 0 217
392 20 369 489 10 0 426
393 -5 2715 2835 10 154 0
394 20 483 603 10 0 580
395 10 484 604 10 0 115
396 -10 574 694 10 433 0
397 -10 4633 4753 10 325 0
398 -20 1281 1401 10 725 0
399 10 841 961 10 0 107
400 14 332 452 10 0 682
401 10 645 765 10 0 87
402 20 438 558 10 0 611
403 37 1365 1485 10 0 742
404 -30 968 1088 10 516 0
405 -40 1151 1271 10 753 0
406 -10 3509 3629 10 212 0
407 -20 1693 1813 10 576 0
408 20 597 717 10 0 702
409 -10 1359 1479 10 695 0
410 -17 757 877 10 317 0
411 20 537 657 10 0 16
412 35 331 451 10 0 71
413 18 290 410 10 0 222
414 16 2517 2637 10 0 741
415 -30 1519 1639 10 375 0
416 -30 1815 1935 10 509 0
417 10 817 937 10 0 606
418 -20 2363 2483 10 318 0
419 19 3766 3886 10 0 187
420 30 827 947 10 0 629
421 30 335 455 10 0 213
422 9 760 880 10 0 616
423 -13 4641 4761 10 537 0
424 -30 3920 4040 10 661 0
425 10 853 973 10 0 202
426 -20 960 1080 10 392 0
427 10 711 831 10 0 458
428 14 3059 3179 10 0 445
429 30 622 742 10 0 252
430 -7 4510 4630 10 93 0
431 18 1832 1952 10 0 182
432 -10 772 892 10 472 0
433 10 375 495 10 0 396
434 27 1117 1237 10 0 329
435 14 2702 2822 10 0 186
436 10 653 773 10 0 286
437 20 478 598 10 0 246
438 20 61 181 10 0 609
439 20 858 978 10 0 19
440 16 221 341 10 0 364
441 30 653 773 10 0 722
442 -20 531 651 10 672 0
443 -15 4550 4670 10 260 0
444 20 259 379 10 0 156
445 -14 4329 4449 10 428 0
446 -20 944 1064 10 180 0
447 20 399 519 10 0 559
448 20 1006 1126 10 0 233
449 -20 2237 2357 10 459 0
450 20 715 835 10 0 301
451 20 275 395 10 0 346
452 17 2311 2431 10 0 787
453 -27 2470 2590 10 66 0
454 20 763 883 10 0 7
455 -14 696 816 10 608 0
456 30 1363 1483 10 0 679
457 -20 2772 2892 10 752 0
458 -10 5516 5636 10 427 0
459 20 601 721 10 0 449
460 17 2002 2122 10 0 49
461 30 846 966 10 0 715
462 -12 5037 5157 10 193 0
463 -14 3088 3208 10 284 0
464 10 850 970 10 0 119
465 -26 4903 5023 10 247 0
466 30 808 928 10 0 477
467 20 646 766 10 0 114
468 23 2861 2981 10 0 382
469 -27 5151 5271 10 561 0
470 -26 2804 2924 10 551 0
471 27 629 749 10 0 65
472 10 714 834 10 0 432
473 10 618 738 10 0 378
474 20 721 841 10 0 263
475 -20 1945 2065 10 504 0
476 21 1318 1438 10 0 660
477 -30 1851 1971 10 466 0
478 -10 5478 5598 10 77 0
479 20 594 714 10 0 209
480 -30 983 1103 10 143 0
481 13 259 379 10 0 128
482 28 492 612 10 0 259
483 -4 1412 1532 10 596 0
484 -10 1593 1713 10 574 0
485 -10 439 559 10 68 0
486 -10 907 1027 10 269 0
487 -21 2784 2904 10 336 0
488 30 948 1068 10 0 782
489 -30 4754 4874 10 232 0
490 -12 4628 4748 10 192 0
491 -20 1068 1188 10 160 0
492 1 623 743 10 0 602
493 -10 670 790 10 4 0
494 -20 1014 1134 10 63 0
495 -20 859 979 10 10 0
496 30 215 335 10 0 32
497 20 503 623 10 0 709
498 30 697 817 10 0 717
499 -30 1545 1665 10 390 0
500 -20 1125 1245 10 638 0
501 -19 4119 4239 10 25 0
502 8 3435 3555 0 0 805
503 -10 2153 2273 10 110 0
504 20 428 548 10 0 475
505 -15 897 1017 10 33 0
506 20 602 722 10 0 652
507 20 740 860 10 0 24
508 10 549 669 10 0 663
509 30 944 1064 10 0 416
510 50 393 513 10 0 278
511 -15 4064 4184 10 565 0
512 20 742 862 10 0 572
513 30 863 983 10 0 353
514 10 485 605 10 0 321
515 -30 1869 1989 10 61 0
516 30 625 745 10 0 404
517 30 581 701 10 0 696
518 23 2608 2728 10 0 322
519 10 989 1109 10 0 604
520 15 919 1039 10 0 383
521 -10 895 1015 10 704 0
522 -10 431 551 10 357 0
523 20 601 721 10 0 613
524 24 140 260 10 0 764
525 1 1156 1276 10 0 800
526 30 542 662 10 0 295
527 30 1066 1186 10 0 152
528 18 938 1058 10 0 147
529 10 79 199 10 0 581
530 -10 830 950 10 747 0
531 20 1069 1189 10 0 189
532 -33 4610 4730 10 13 0
533 34 422 542 10 0 171
534 20 1132 1252 10 0 234
535 10 326 446 10 0 657
536 -12 4257 4377 10 299 0
537 13 3798 3918 10 0 423
538 30 970 1090 10 0 208
539 -10 1102 1222 10 690 0
540 40 1088 1208 10 0 370
541 20 694 814 10 0 614
542 -20 4127 4247 10 126 0
543 -20 671 791 10 220 0
544 10 627 747 10 0 40
545 -20 846 966 10 310 0
546 -19 1135 1255 10 361 0
547 20 797 917 10 0 668
548 11 390 510 10 0 605
549 -21 384 504 10 320 0
550 -18 440 560 10 37 0
551 26 2423 2543 10 0 470
552 -40 1104 1224 10 88 0
553 -10 3161 3281 10 312 0
554 10 699 819 10 0 762
555 26 749 869 10 0 744
556 -30 2800 2920 10 261 0
557 18 3314 3434 10 0 366
558 20 853 973 10 0 275
559 -20 795 915 10 447 0
560 -8 794 914 10 304 0
561 27 1052 1172 10 0 469
562 -6 908 1028 10 265 0
563 19 87 207 10 0 302
564 30 819 939 10 0 117
565 15 2272 2392 10 0 511
566 20 652 772 10 0 39
567 4 2821 2941 10 0 34
568 11 2647 2767 10 0 688
569 -22 4679 4799 10 610 0
570 -10 2115 2235 10 706 0
571 -20 2078 2198 10 656 0
572 -20 1002 1122 10 512 0
573 10 639 759 10 0 55
574 10 455 575 10 0 484
575 -30 2698 2818 10 714 0
576 20 613 733 10 0 407
577 -10 795 915 10 601 0
578 30 540 660 10 0 167
579 -17 1619 1739 10 255 0
580 -20 3392 3512 10 394 0
581 -10 1240 1360 10 529 0
582 35 1366 1486 0 0 813
583 -20 373 493 10 380 0
584 -30 2028 2148 10 228 0
585 -20 411 531 10 347 0
586 -20 663 783 10 344 0
587 -20 1168 1288 10 743 0
588 10 919 1039 10 0 48
589 -10 815 935 10 785 0
590 10 864 984 10 0 770
591 10 736 856 10 0 624
592 30 728 848 10 0 215
593 -10 1230 1350 10 653 0
594 20 1215 1335 10 0 251
595 20 970 1090 10 0 689
596 4 1318 1438 10 0 483
597 10 1340 1460 10 0 754
598 -11 4237 4357 10 795 0
599 -10 752 872 10 146 0
600 10 1079 1199 10 0 746
601 10 515 635 10 0 577
602 -1 878 998 10 492 0
603 -14 4388 4508 10 51 0
604 -10 2726 2846 10 519 0
605 -11 747 867 10 548 0
606 -10 2490 2610 10 417 0
607 -20 1091 1211 10 257 0
608 14 662 782 10 0 455
609 -20 804 924 10 438 0
610 22 4675 4795 10 0 569
611 -20 724 844 10 402 0
612 -5 3207 3327 10 291 0
613 -20 1361 1481 10 523 0
614 -20 903 1023 10 541 0
615 10 535 655 10 0 27
616 -9 4870 4990 10 422 0
617 10 426 546 10 0 52
618 -30 1229 1349 10 266 0
619 11 2079 2199 10 0 50
620 9 2195 2315 10 0 214
621 10 911 1031 10 0 81
622 -10 3292 3412 10 315 0
623 -10 1060 1180 10 196 0
624 -10 2850 2970 10 591 0
625 -20 4526 4646 10 791 0
626 -14 4821 4941 10 274 0
627 13 976 1096 10 0 758
628 -11 3699 3819 10 158 0
629 -30 882 1002 10 420 0
630 -9 3826 3946 10 254 0
631 -16 2412 2532 10 149 0
632 -20 648 768 10 163 0
633 -10 583 703 10 134 0
634 -10 1071 1191 10 338 0
635 10 1170 1290 10 0 639
636 -10 633 753 10 53 0
637 -20 3195 3315 10 280 0
638 20 679 799 10 0 500
639 -10 4483 4603 10 635 0
640 16 1511 1631 10 0 172
641 12 308 428 10 0 358
642 16 437 557 10 0 262
643 -10 1238 1358 10 351 0
644 26 1790 1910 10 0 206
645 -10 1040 1160 10 121 0
646 -16 300 420 10 765 0
647 30 698 818 10 0 221
648 10 1269 1389 10 0 373
649 24 1223 1343 10 0 774
650 -21 847 967 10 759 0
651 10 916 1036 10 0 793
652 -20 916 1036 10 506 0
653 10 313 433 10 0 593
654 -18 1987 2107 10 345 0
655 -40 2190 2310 10 43 0
656 20 491 611 10 0 571
657 -10 808 928 10 535 0
658 -12 3557 3677 10 54 0
659 -10 3211 3331 10 328 0
660 -21 2691 2811 10 476 0
661 30 425 545 10 0 424
662 20 890 1010 10 0 757
663 -10 774 894 10 508 0
664 24 2469 2589 10 0 279
665 32 3502 3622 0 0 807
666 -10 1521 1641 10 313 0
667 -10 836 956 10 139 0
668 -20 2986 3106 10 547 0
669 29 474 594 10 0 141
670 20 530 650 10 0 178
671 -2 2253 2373 10 731 0
672 20 351 471 10 0 442
673 20 857 977 10 0 694
674 -29 4198 4318 10 377 0
675 -30 486 606 10 142 0
676 20 594 714 10 0 271
677 -10 2450 2570 10 316 0
678 -39 1289 1409 10 343 0
679 -30 2906 3026 10 456 0
680 -30 3831 3951 10 223 0
681 23 1315 1435 10 0 99
682 -14 921 1041 10 400 0
683 23 2559 2679 10 0 240
684 20 700 820 10 0 305
685 10 1268 1388 10 0 294
686 10 532 652 10 0 739
687 2 860 980 10 0 191
688 -11 3498 3618 10 568 0
689 -20 1117 1237 10 595 0
690 10 920 1040 10 0 539
691 10 265 385 10 0 386
692 -30 969 1089 10 166 0
693 30 422 542 10 0 204
694 -20 1101 1221 10 673 0
695 10 923 1043 10 0 409
696 -30 1159 1279 10 517 0
697 9 3356 3476 10 0 267
698 10 489 609 10 0 388
699 -8 3517 3637 10 46 0
700 -10 3078 3198 10 721 0
701 -10 1034 1154 10 229 0
702 -20 620 740 10 408 0
703 -20 831 951 10 350 0
704 10 703 823 10 0 521
705 -20 383 503 10 100 0
706 10 993 1113 10 0 570
707 -32 3937 4057 10 159 0
708 20 871 991 10 0 277
709 -20 558 678 10 497 0
710 -10 4355 4475 10 161 0
711 -20 378 498 10 729 0
712 3 1157 1277 10 0 303
713 -13 1146 1266 10 210 0
714 30 325 445 10 0 575
715 -30 5505 5625 10 461 0
716 -18 1024 1144 10 105 0
717 -30 793 913 10 498 0
718 20 453 573 0 0 808
719 -23 1038 1158 10 129 0
720 -10 1002 1122 10 184 0
721 10 586 706 10 0 700
722 -30 4669 4789 10 441 0
723 -20 967 1087 10 150 0
724 -10 1248 1368 10 125 0
725 20 928 1048 10 0 398
726 19 354 474 10 0 354
727 2 2987 3107 10 0 285
728 20 868 988 10 0 205
729 20 282 402 10 0 711
730 -20 2392 2512 10 799 0
731 2 1014 1134 10 0 671
732 -12 3652 3772 10 44 0
733 -10 765 885 10 31 0
734 20 942 1062 10 0 97
735 -14 3537 3657 10 173 0
736 -10 1981 2101 10 123 0
737 20 322 442 10 0 772
738 9 167 287 10 0 384
739 -10 2013 2133 10 686 0
740 30 772 892 10 0 199
741 -16 3042 3162 10 414 0
742 -37 4165 4285 10 403 0
743 20 770 890 10 0 587
744 -26 1051 1171 10 555 0
745 -20 576 696 10 148 0
746 -10 4495 4615 10 600 0
747 10 634 754 10 0 530
748 -30 1022 1142 10 272 0
749 -23 3402 3522 10 781 0
750 40 873 993 10 0 101
751 -28 3466 3586 10 349 0
752 20 787 907 10 0 457
753 40 637 757 10 0 405
754 -10 2531 2651 10 597 0
755 20 711 831 10 0 21
756 10 334 454 10 0 250
757 -20 934 1054 10 662 0
758 -13 1275 1395 10 627 0
759 21 532 652 10 0 650
760 20 599 719 10 0 169
761 20 864 984 10 0 194
762 -10 4029 4149 10 554 0
763 -10 1203 1323 10 198 0
764 -24 826 946 10 524 0
765 16 160 280 10 0 646
766 -20 1001 1121 10 248 0
767 30 172 292 10 0 175
768 10 894 1014 10 0 314
769 29 1325 1445 10 0 798
770 -10 3119 3239 10 590 0
771 -20 1214 1334 10 249 0
772 -20 4956 5076 10 737 0
773 23 156 276 10 0 75
774 -24 5303 5423 10 649 0
775 10 491 611 10 0 784
776 -20 3230 3350 10 91 0
777 -10 1244 1364 10 355 0
778 -10 759 879 10 122 0
779 23 180 300 10 0 307
780 10 725 845 10 0 136
781 23 3317 3437 10 0 749
782 -30 955 1075 10 488 0
783 -14 4743 4863 10 9 0
784 -10 2881 3001 10 775 0
785 10 376 496 10 0 589
786 23 1362 1482 10 0 235
787 -17 2908 3028 10 452 0
788 -26 4264 4384 10 264 0
789 20 1044 1164 10 0 35
790 10 1188 1308 10 0 362
791 20 773 893 10 0 625
792 30 802 922 10 0 127
793 -10 1470 1590 10 651 0
794 20 551 671 10 0 96
795 11 3121 3241 10 0 598
796 12 3940 4060 10 0 368
797 20 625 745 10 0 18
798 -29 1579 1699 10 769 0
799 20 576 696 10 0 730
800 -1 4263 4383 10 525 0
801 -10 1798 1918 10 324 0
802 -10 3661 3781 10 218 0
803 -18 5961 6081 10 64 0
804 -4 3168 3288 10 168 0
805 -8 3435 3555 10 502 0
806 -24 5099 5219 10 360 0
807 -32 3502 3622 10 665 0
808 -20 453 573 10 718 0
809 -27 4060 4180 10 155 0
810 -24 5646 5766 10 170 0
811 -30 792 912 10 111 0
812 -31 3678 3798 10 365 0
813 -35 1366 1486 10 582 0
DEPOT_SECTION
1
-1
EOF
