NAME: lrc2_8_7
TYPE: PDPTW
COMMENT: Li & Lim PDPTW benchmark converted from SINTEF format
DIMENSION: 803
VEHICLES: 200
CAPACITY: 1000
EDGE_WEIGHT_TYPE: EUC_2D
NODE_COORD_SECTION
1 200 200
2 244 56
3 245 106
4 233 214
5 395 340
6 229 371
7 384 248
8 277 163
9 52 94
10 89 152
11 218 284
12 340 276
13 206 106
14 375 247
15 113 179
16 348 280
17 223 372
18 361 287
19 6 62
20 37 397
21 364 27
22 14 201
23 325 294
24 41 382
25 325 130
26 384 47
27 116 181
28 346 155
29 359 30
30 222 284
31 91 150
32 140 387
33 176 154
34 352 383
35 213 332
36 133 68
37 151 188
38 105 250
39 94 70
40 287 307
41 267 321
42 220 71
43 244 106
44 338 290
45 5 345
46 145 301
47 393 301
48 359 23
49 196 107
50 348 41
51 59 51
52 126 91
53 234 214
54 108 395
55 186 306
56 125 122
57 12 368
58 348 279
59 26 247
60 393 306
61 268 114
62 2 17
63 62 258
64 186 145
65 338 315
66 66 118
67 68 378
68 294 136
69 73 126
70 68 263
71 302 136
72 234 203
73 127 94
74 233 208
75 210 1
76 102 252
77 152 237
78 2 3
79 92 162
80 177 55
81 193 29
82 105 360
83 193 216
84 338 150
85 68 143
86 180 15
87 182 378
88 39 384
89 43 386
90 291 301
91 32 251
92 246 298
93 32 229
94 116 252
95 198 295
96 63 262
97 119 179
98 174 375
99 199 45
100 150 236
101 363 24
102 393 307
103 331 251
104 293 306
105 18 102
106 196 293
107 299 141
108 364 25
109 41 183
110 342 385
111 302 203
112 212 197
113 384 294
114 381 290
115 110 254
116 196 51
117 264 341
118 23 98
119 278 265
120 23 97
121 281 155
122 352 162
123 209 85
124 15 4
125 177 379
126 18 208
127 343 322
128 369 107
129 31 360
130 263 110
131 240 246
132 380 339
133 111 286
134 213 271
135 251 381
136 322 242
137 390 52
138 26 70
139 300 132
140 342 384
141 357 160
142 204 87
143 197 293
144 98 107
145 400 109
146 231 243
147 84 221
148 230 290
149 397 261
150 222 283
151 247 377
152 60 319
153 79 154
154 256 385
155 140 40
156 8 119
157 208 274
158 84 293
159 74 351
160 95 64
161 329 236
162 248 286
163 234 243
164 244 109
165 340 388
166 161 233
167 125 95
168 351 199
169 61 333
170 146 324
171 372 104
172 381 144
173 394 299
174 363 30
175 358 23
176 220 238
177 97 105
178 186 355
179 391 42
180 48 326
181 74 87
182 264 69
183 341 394
184 128 95
185 362 383
186 41 340
187 13 220
188 85 61
189 340 290
190 396 106
191 79 344
192 201 195
193 90 311
194 207 185
195 92 255
196 385 56
197 396 59
198 51 326
199 169 352
200 230 139
201 286 44
202 286 308
203 339 69
204 206 296
205 142 385
206 370 57
207 35 79
208 17 209
209 128 68
210 145 165
211 237 259
212 89 154
213 72 257
214 158 121
215 323 243
216 367 361
217 165 126
218 45 85
219 137 68
220 310 143
221 18 100
222 201 6
223 297 135
224 86 154
225 374 175
226 91 70
227 166 357
228 113 183
229 347 395
230 243 244
231 243 140
232 14 100
233 393 312
234 92 384
235 294 249
236 195 91
237 235 212
238 350 271
239 353 164
240 262 233
241 200 48
242 214 119
243 234 37
244 93 62
245 234 73
246 157 378
247 194 43
248 268 223
249 355 156
250 248 124
251 364 213
252 371 253
253 31 353
254 41 337
255 209 167
256 352 303
257 53 326
258 388 106
259 21 104
260 381 12
261 221 379
262 46 380
263 192 332
264 343 359
265 320 211
266 34 355
267 338 106
268 397 283
269 267 161
270 124 221
271 310 340
272 270 106
273 243 104
274 68 250
275 213 305
276 214 378
277 287 279
278 313 64
279 244 285
280 154 68
281 14 53
282 298 137
283 371 111
284 393 246
285 118 122
286 9 47
287 171 168
288 321 212
289 115 185
290 336 387
291 357 202
292 374 104
293 271 371
294 291 398
295 353 3
296 74 213
297 17 99
298 253 316
299 369 118
300 11 328
301 126 70
302 165 264
303 377 282
304 73 292
305 174 326
306 135 161
307 85 155
308 360 23
309 20 91
310 72 253
311 87 155
312 134 63
313 349 275
314 325 45
315 182 300
316 328 239
317 138 143
318 372 256
319 57 381
320 162 251
321 183 301
322 381 375
323 389 171
324 179 305
325 14 210
326 290 311
327 345 158
328 200 83
329 342 154
330 18 294
331 156 4
332 247 212
333 93 149
334 299 399
335 369 171
336 246 247
337 356 223
338 266 116
339 39 34
340 51 205
341 180 387
342 203 88
343 173 72
344 129 85
345 45 291
346 294 311
347 305 198
348 338 391
349 349 135
350 237 213
351 82 360
352 102 84
353 300 144
354 236 38
355 278 159
356 344 280
357 149 234
358 320 373
359 109 252
360 218 134
361 184 282
362 32 78
363 395 310
364 19 206
365 243 275
366 175 192
367 299 227
368 159 164
369 215 260
370 163 364
371 208 20
372 97 387
373 294 13
374 108 250
375 389 306
376 262 30
377 334 92
378 279 337
379 3 15
380 210 271
381 256 145
382 387 267
383 8 285
384 83 357
385 267 295
386 279 262
387 238 101
388 219 377
389 126 90
390 129 67
391 166 115
392 238 250
393 246 244
394 131 95
395 115 257
396 243 106
397 202 158
398 389 307
399 237 109
400 117 148
401 180 375
402 276 157
403 303 358
404 17 96
405 173 381
406 70 81
407 46 197
408 206 81
409 348 343
410 95 63
411 324 216
412 265 127
413 196 138
414 26 260
415 384 307
416 23 317
417 204 292
418 321 287
419 56 97
420 70 264
421 152 240
422 0 155
423 317 68
424 395 167
425 289 306
426 75 367
427 353 276
428 183 71
429 312 200
430 49 222
431 297 137
432 200 89
433 242 113
434 341 33
435 55 341
436 99 67
437 236 243
438 229 209
439 93 59
440 143 159
441 267 112
442 196 295
443 334 100
444 122 183
445 225 53
446 28 353
447 158 239
448 392 307
449 13 59
450 127 90
451 221 281
452 326 374
453 178 103
454 376 251
455 293 310
456 386 60
457 300 272
458 243 209
459 102 67
460 285 107
461 82 365
462 5 344
463 366 97
464 220 283
465 79 95
466 369 100
467 371 244
468 366 340
469 85 128
470 231 6
471 330 313
472 202 85
473 236 204
474 220 381
475 206 286
476 274 7
477 369 211
478 126 208
479 134 62
480 67 318
481 232 127
482 96 209
483 146 301
484 308 178
485 294 118
486 280 224
487 241 275
488 82 65
489 159 11
490 300 64
491 22 96
492 334 186
493 310 200
494 52 331
495 25 256
496 210 268
497 310 196
498 183 375
499 194 65
500 366 251
501 285 184
502 160 313
503 349 324
504 225 288
505 124 69
506 349 272
507 87 365
508 240 210
509 40 380
510 276 116
511 280 5
512 20 204
513 301 139
514 195 294
515 377 144
516 34 242
517 324 217
518 348 371
519 70 256
520 48 304
521 41 378
522 114 254
523 264 112
524 244 176
525 349 181
526 346 163
527 52 334
528 53 51
529 177 174
530 114 178
531 367 255
532 19 61
533 273 118
534 84 359
535 244 114
536 321 144
537 384 53
538 29 250
539 172 383
540 84 360
541 28 246
542 107 159
543 319 160
544 230 241
545 32 352
546 32 357
547 237 108
548 162 94
549 185 299
550 110 188
551 259 4
552 34 385
553 156 32
554 201 297
555 311 344
556 174 329
557 119 286
558 179 383
559 26 250
560 84 363
561 6 20
562 373 253
563 184 233
564 177 300
565 88 121
566 22 205
567 306 361
568 87 164
569 123 176
570 131 275
571 315 237
572 85 67
573 197 300
574 308 196
575 114 88
576 87 153
577 21 201
578 137 64
579 361 194
580 115 51
581 24 96
582 2 200
583 211 274
584 102 149
585 307 196
586 127 87
587 302 274
588 383 53
589 376 254
590 15 100
591 111 179
592 308 204
593 85 358
594 391 54
595 385 55
596 65 335
597 46 378
598 310 363
599 217 286
600 33 247
601 88 150
602 397 73
603 70 231
604 72 315
605 131 67
606 117 381
607 31 357
608 299 351
609 393 297
610 102 118
611 273 160
612 350 131
613 364 55
614 47 328
615 109 186
616 143 20
617 134 98
618 42 384
619 255 80
620 52 194
621 128 93
622 50 385
623 386 57
624 86 112
625 26 275
626 40 336
627 135 384
628 52 301
629 68 261
630 36 288
631 375 294
632 220 288
633 186 304
634 369 106
635 96 69
636 321 217
637 177 77
638 320 216
639 246 47
640 350 207
641 279 247
642 153 315
643 68 386
644 399 179
645 297 240
646 199 290
647 21 204
648 362 28
649 353 65
650 24 57
651 75 368
652 393 305
653 239 254
654 146 320
655 369 6
656 277 154
657 304 141
658 205 372
659 339 3
660 254 0
661 321 209
662 114 250
663 318 219
664 209 283
665 48 358
666 339 384
667 351 153
668 377 29
669 317 183
670 183 303
671 299 308
672 197 292
673 370 98
674 188 67
675 207 87
676 295 307
677 325 311
678 228 96
679 368 215
680 208 86
681 75 76
682 27 251
683 308 314
684 217 289
685 337 388
686 133 94
687 91 388
688 87 147
689 389 54
690 185 386
691 234 212
692 53 330
693 237 247
694 369 19
695 346 385
696 397 313
697 355 41
698 211 266
699 8 363
700 59 89
701 344 391
702 242 105
703 327 242
704 55 324
705 114 252
706 29 355
707 102 377
708 345 382
709 313 194
710 285 136
711 272 154
712 379 254
713 22 210
714 117 187
715 157 220
716 21 96
717 182 379
718 298 138
719 28 356
720 130 70
721 111 184
722 319 113
723 347 385
724 220 337
725 344 283
726 217 98
727 76 90
728 175 299
729 270 151
730 398 258
731 344 321
732 266 234
733 49 187
734 92 155
735 344 236
736 226 52
737 183 294
738 237 243
739 184 69
740 222 383
741 21 255
742 390 357
743 272 161
744 371 349
745 220 296
746 184 235
747 113 184
748 370 104
749 273 182
750 382 54
751 379 126
752 327 241
753 189 306
754 26 326
755 367 104
756 271 154
757 67 258
758 86 357
759 107 98
760 66 254
761 374 253
762 228 341
763 60 328
764 268 160
765 201 255
766 397 362
767 236 210
768 349 157
769 348 319
770 186 75
771 327 115
772 77 319
773 147 210
774 195 148
775 108 186
776 26 199
777 305 255
778 368 102
779 146 174
780 319 217
781 335 202
782 128 94
783 82 78
784 92 68
785 231 219
786 309 274
787 336 386
788 324 194
789 174 387
790 24 93
791 107 247
792 291 308
793 13 322
794 68 254
795 142 379
796 43 121
797 329 241
798 260 352
799 328 243
800 384 64
801 80 365
802 399 179
803 384 294
PICKUP_AND_DELIVERY_SECTION
1 0 0 6289 0 0 0
2 -20 2472 2943 10 101 0
3 20 365 726 10 0 205
4 10 328 420 10 0 543
5 -35 879 1041 10 7 0
6 -13 3973 4249 10 798 0
7 35 765 1129 10 0 5
8 -24 611 837 10 524 0
9 -10 4540 4714 10 617 0
10 20 459 790 10 0 580
11 20 675 1047 10 0 599
12 -26 3401 3661 10 264 0
13 33 958 1466 10 0 660
14 10 592 940 10 0 47
15 10 693 996 10 0 368
16 -30 565 1290 10 74 0
17 30 813 1199 10 0 405
18 -10 778 1386 10 72 0
19 -22 3352 3943 10 207 0
20 50 3025 3695 10 0 665
21 -40 966 1594 10 108 0
22 -20 810 1036 10 364 0
23 -20 4582 4703 10 253 0
24 -10 809 1296 10 522 0
25 -22 3961 4465 10 668 0
26 -20 4304 4547 10 128 0
27 20 892 997 10 0 534
28 -30 840 1177 10 517 0
29 -27 1187 1681 10 434 0
30 -10 193 662 10 146 0
31 10 369 678 10 0 566
32 -20 581 1086 10 321 0
33 15 51 468 10 0 175
34 -16 2896 3607 10 149 0
35 -20 2722 3139 10 276 0
36 20 555 961 10 0 308
37 18 50 363 10 0 575
38 -10 600 957 10 374 0
39 30 1019 1344 10 0 371
40 -15 649 1275 10 587 0
41 26 2431 2754 10 0 65
42 -17 2739 2791 10 736 0
43 40 535 645 10 0 236
44 12 2554 2767 10 0 458
45 -20 4707 5098 10 310 0
46 8 115 840 10 0 495
47 -10 700 1140 10 14 0
48 -20 765 1222 10 344 0
49 -10 5200 5554 10 118 0
50 16 2410 2971 10 0 381
51 14 693 1075 10 0 716
52 -10 625 1015 10 209 0
53 10 355 644 10 0 248
54 12 2339 2362 10 0 469
55 10 539 959 10 0 498
56 15 293 716 10 0 394
57 12 2978 3313 10 0 772
58 10 714 1054 10 0 640
59 10 741 864 10 0 582
60 -20 893 1148 10 454 0
61 -20 532 992 10 711 0
62 -18 1006 1269 10 650 0
63 -10 488 955 10 134 0
64 -13 5966 6076 10 391 0
65 -26 3466 4271 10 41 0
66 -20 2094 2543 10 333 0
67 10 2602 2971 10 0 340
68 10 113 799 10 0 510
69 38 1528 1948 10 0 688
70 -10 507 1169 10 549 0
71 -30 688 754 10 661 0
72 10 459 994 10 0 18
73 10 662 1189 10 0 476
74 30 50 306 10 0 16
75 -30 3894 4223 10 195 0
76 10 527 921 10 0 699
77 10 202 484 10 0 96
78 14 3098 3375 10 0 489
79 -13 876 1265 10 210 0
80 17 2941 3224 10 0 242
81 16 2926 3250 10 0 247
82 -10 3017 3388 10 433 0
83 -24 4778 5189 10 746 0
84 16 3001 3263 10 0 463
85 -26 4849 5312 10 234 0
86 -14 3220 3899 10 428 0
87 10 789 830 10 0 125
88 -20 1042 1165 10 552 0
89 -10 1088 1393 10 618 0
90 20 259 828 10 0 452
91 -20 949 1216 10 106 0
92 -10 3821 3948 10 282 0
93 -10 4119 4437 10 758 0
94 -10 195 596 10 357 0
95 -9 213 1064 10 738 0
96 -10 565 990 10 77 0
97 10 854 1143 10 0 593
98 -20 1063 1595 10 558 0
99 -10 3054 3383 10 572 0
100 20 163 426 10 0 760
101 20 951 1229 10 0 2
102 10 908 1312 10 0 290
103 -20 312 813 10 752 0
104 20 488 722 10 0 154
105 18 788 1189 10 0 783
106 20 349 650 10 0 91
107 10 704 1245 10 0 190
108 40 1067 1398 10 0 21
109 -20 4669 4868 10 662 0
110 10 1400 1569 10 0 119
111 -20 679 1025 10 764 0
112 -30 3375 3574 10 605 0
113 20 1998 2579 0 0 803
114 -10 1809 2065 10 398 0
115 20 286 928 10 0 426
116 -10 1908 2450 10 635 0
117 9 4026 4420 10 0 762
118 10 1102 1678 10 0 49
119 -10 2387 2922 10 110 0
120 -20 1166 1526 10 221 0
121 10 375 840 10 0 638
122 10 563 770 10 0 278
123 10 445 750 10 0 342
124 -21 2691 3024 10 759 0
125 -10 1175 1363 10 87 0
126 -20 868 1326 10 442 0
127 -22 3200 3412 10 358 0
128 20 1026 1325 10 0 26
129 -10 1049 1290 10 763 0
130 -30 473 752 10 223 0
131 20 60 559 10 0 363
132 10 2898 3154 10 0 211
133 -20 452 732 10 583 0
134 10 221 755 10 0 63
135 17 877 1385 10 0 151
136 -37 770 1217 10 645 0
137 -20 1110 1342 10 595 0
138 -10 3595 3895 10 682 0
139 10 371 955 10 0 441
140 10 1239 1818 10 0 418
141 -23 421 1136 10 335 0
142 30 311 676 10 0 343
143 -20 353 558 10 672 0
144 17 3770 3824 10 0 478
145 20 3406 3493 10 0 299
146 10 338 939 10 0 30
147 -10 4336 4608 10 530 0
148 20 369 730 10 0 570
149 16 2283 2514 10 0 34
150 20 266 501 10 0 728
151 -17 4869 4974 10 135 0
152 29 949 1212 10 0 266
153 -20 543 948 10 512 0
154 -20 2423 2463 10 104 0
155 27 3907 4333 10 0 674
156 11 3401 3428 10 0 796
157 -30 140 622 10 496 0
158 -10 2035 2534 10 325 0
159 32 3719 4079 10 0 610
160 20 568 977 10 0 232
161 10 522 968 10 0 487
162 35 225 643 10 0 268
163 20 313 859 10 0 504
164 20 177 810 10 0 396
165 10 1195 1665 10 0 189
166 30 373 680 10 0 246
167 -20 768 986 10 586 0
168 -12 2912 3544 10 579 0
169 10 1072 1334 10 0 596
170 -7 5536 5876 10 199 0
171 20 856 1212 10 0 748
172 -23 1612 2425 10 515 0
173 -8 3132 3339 10 744 0
174 -10 1182 1575 10 694 0
175 -15 773 1126 10 33 0
176 12 42 339 10 0 653
177 -14 3693 3975 10 400 0
178 25 424 822 10 0 627
179 -12 3768 4064 10 612 0
180 20 802 1026 10 0 629
181 -10 5280 5678 10 384 0
182 -30 2461 2982 10 578 0
183 -40 1028 1410 10 348 0
184 -20 876 1243 10 439 0
185 -20 787 1379 10 652 0
186 -21 3126 3894 10 754 0
187 15 4178 4463 10 0 287
188 20 613 831 10 0 281
189 -10 1849 1878 10 165 0
190 -10 1015 1267 10 107 0
191 -30 799 1054 10 359 0
192 12 5 260 10 0 606
193 12 2631 2838 10 0 625
194 -14 4743 5140 10 200 0
195 30 1582 1930 10 0 75
196 10 702 1446 10 0 197
197 -10 1212 1474 10 196 0
198 10 791 934 10 0 692
199 7 845 1267 10 0 170
200 14 4954 5548 10 0 194
201 -10 2001 2646 10 427 0
202 -20 782 1234 10 743 0
203 26 3803 4043 10 0 537
204 -20 596 1043 10 684 0
205 -20 1945 2393 10 3 0
206 10 4404 4663 10 0 490
207 22 1560 1940 10 0 19
208 -10 909 1193 10 514 0
209 10 721 1081 10 0 52
210 13 65 647 10 0 79
211 -10 4568 4941 10 132 0
212 -23 691 1209 10 779 0
213 10 935 1260 10 0 214
214 -10 4461 4502 10 213 0
215 20 668 1227 10 0 589
216 -26 1685 2331 10 555 0
217 -20 4917 5141 10 757 0
218 10 3526 3915 10 0 569
219 25 503 767 10 0 450
220 -10 617 989 10 657 0
221 20 745 1000 10 0 120
222 25 2230 2571 10 0 553
223 30 293 918 10 0 130
224 -20 693 1017 10 307 0
225 -10 1237 1634 10 634 0
226 -18 1062 1197 10 413 0
227 -20 4630 5196 10 737 0
228 30 565 912 10 0 584
229 -19 1038 1271 10 386 0
230 30 61 613 10 0 501
231 15 4935 5372 10 0 360
232 -20 755 1182 10 160 0
233 30 961 1590 10 0 334
234 26 1419 1924 10 0 85
235 -13 1815 2073 10 485 0
236 -40 782 1005 10 43 0
237 20 37 732 10 0 781
238 -15 529 887 10 332 0
239 -30 454 978 10 526 0
240 -7 4212 4784 10 732 0
241 20 851 1028 10 0 243
242 -17 3962 4274 10 80 0
243 -20 1926 2292 10 241 0
244 -10 661 1070 10 686 0
245 8 521 840 10 0 488
246 -30 3453 3997 10 166 0
247 -16 2793 3124 10 81 0
248 -10 100 475 10 53 0
249 -1 393 1279 10 492 0
250 -38 2599 2836 10 354 0
251 11 2263 2483 10 0 679
252 30 838 1194 10 0 314
253 20 778 1125 10 0 23
254 -20 2529 2943 10 702 0
255 17 46 227 10 0 372
256 -20 4189 4508 10 745 0
257 -20 687 941 10 791 0
258 9 910 1319 10 0 771
259 -20 760 864 10 459 0
260 15 2198 2646 10 0 710
261 -10 781 997 10 315 0
262 -19 1252 1452 10 563 0
263 -10 1646 1980 10 401 0
264 26 1642 2127 10 0 12
265 6 156 808 10 0 292
266 -29 1047 1445 10 152 0
267 -5 3733 3998 10 291 0
268 -35 1440 1974 10 162 0
269 -35 785 1078 10 412 0
270 -10 3800 4345 10 601 0
271 -10 616 889 10 346 0
272 30 308 771 10 0 316
273 20 392 1059 10 0 432
274 -45 2177 2453 10 330 0
275 -20 1790 2249 10 474 0
276 20 462 967 10 0 35
277 -11 4608 5085 10 322 0
278 -10 1637 1701 10 122 0
279 -33 5167 5493 10 571 0
280 -1 2737 3294 10 739 0
281 -20 3147 3410 10 188 0
282 10 475 638 10 0 92
283 3 951 1164 10 0 466
284 -20 1804 2383 10 347 0
285 -16 3491 4232 10 440 0
286 -10 3078 3865 10 590 0
287 -15 5232 5713 10 187 0
288 30 176 899 10 0 353
289 10 370 502 10 0 304
290 -10 1271 1476 10 102 0
291 5 1958 2156 10 0 267
292 -6 738 1234 10 265 0
293 15 2923 3210 10 0 567
294 -20 2012 2357 10 437 0
295 -10 829 1336 10 312 0
296 -10 1571 2026 10 550 0
297 -26 4008 4163 10 776 0
298 21 1505 1980 10 0 370
299 -20 4057 4479 10 145 0
300 -19 2910 3348 10 793 0
301 -25 805 1207 10 331 0
302 20 72 513 10 0 753
303 -30 1424 1802 10 326 0
304 -10 601 923 10 289 0
305 -30 3711 4048 10 556 0
306 -20 5391 5532 10 387 0
307 20 597 1023 10 0 224
308 -20 786 1288 10 36 0
309 10 905 1475 10 0 339
310 20 395 714 10 0 45
311 -9 789 1013 10 422 0
312 10 386 1010 10 0 295
313 10 736 918 10 0 712
314 -30 2393 2439 10 252 0
315 10 308 685 10 0 261
316 -30 510 1087 10 272 0
317 17 260 515 10 0 362
318 -20 1001 1135 10 438 0
319 22 756 1195 10 0 416
320 21 63 499 10 0 361
321 20 410 673 10 0 32
322 11 4175 4517 10 0 277
323 -10 1442 2290 10 574 0
324 -10 495 1139 10 698 0
325 10 739 1259 10 0 158
326 30 644 975 10 0 303
327 -30 1033 1089 10 513 0
328 10 460 985 10 0 470
329 -20 1556 1763 10 356 0
330 45 1743 2275 10 0 274
331 25 792 1012 10 0 301
332 15 592 907 10 0 238
333 20 355 593 10 0 66
334 -30 2914 3394 10 233 0
335 23 545 827 10 0 141
336 -10 2755 2796 10 338 0
337 -14 3741 4122 10 608 0
338 10 661 966 10 0 336
339 -10 806 1251 10 309 0
340 -10 4744 5104 10 67 0
341 10 974 1107 10 0 539
342 -10 261 636 10 123 0
343 -30 999 1316 10 142 0
344 20 516 827 10 0 48
345 18 743 1084 10 0 519
346 10 531 890 10 0 271
347 20 343 497 10 0 284
348 40 1172 1379 10 0 183
349 28 1952 2550 10 0 697
350 20 278 826 10 0 411
351 10 964 1235 10 0 801
352 3 427 1016 10 0 681
353 -30 893 1160 10 288 0
354 38 1584 1997 10 0 250
355 -20 485 851 10 402 0
356 20 886 1194 10 0 329
357 10 203 288 10 0 94
358 22 2157 2374 10 0 127
359 30 570 743 10 0 191
360 -15 4926 5392 10 231 0
361 -21 158 510 10 320 0
362 -17 2529 2779 10 317 0
363 -20 1003 1325 10 131 0
364 20 949 1343 10 0 22
365 -23 3520 3957 10 786 0
366 -20 3554 3957 10 577 0
367 25 165 739 10 0 636
368 -10 5114 5696 10 15 0
369 -16 99 396 10 765 0
370 -21 3092 3325 10 298 0
371 -30 2389 2539 10 39 0
372 -17 2086 2523 10 255 0
373 -20 2308 2507 10 506 0
374 10 701 1070 10 0 38
375 -20 995 1775 10 448 0
376 8 638 810 10 0 678
377 -30 1581 2087 10 429 0
378 -30 2443 2502 10 693 0
379 20 4162 4771 10 0 532
380 20 231 422 10 0 642
381 -16 4593 4678 10 50 0
382 11 3352 3904 10 0 788
383 -30 1162 1545 10 516 0
384 10 990 1492 10 0 181
385 -12 2861 3110 10 641 0
386 19 247 557 10 0 229
387 20 480 1097 10 0 306
388 20 908 972 10 0 724
389 -11 3326 3718 10 568 0
390 30 544 1166 10 0 621
391 13 4993 5117 10 0 64
392 20 346 512 10 0 527
393 -30 2552 2997 10 592 0
394 -15 379 707 10 56 0
395 10 443 644 10 0 704
396 -20 547 721 10 164 0
397 -16 4482 4904 10 499 0
398 10 1261 1420 10 0 114
399 10 712 1090 10 0 540
400 14 309 474 10 0 177
401 10 470 939 10 0 263
402 20 371 626 10 0 355
403 -20 1201 1649 10 696 0
404 10 1001 1055 10 0 581
405 -30 1034 1388 10 17 0
406 -20 3363 3776 10 734 0
407 21 1575 1932 10 0 680
408 20 341 973 10 0 551
409 -10 1144 1694 10 695 0
410 -10 532 1102 10 436 0
411 -20 451 744 10 350 0
412 35 97 858 10 0 269
413 18 199 500 10 0 226
414 -30 2453 2701 10 420 0
415 -30 1335 1823 10 792 0
416 -22 1852 1898 10 319 0
417 10 802 952 10 0 719
418 -10 2090 2756 10 140 0
419 -29 3631 4020 10 741 0
420 30 645 1130 10 0 414
421 30 177 614 10 0 715
422 9 638 1003 10 0 311
423 13 4562 4839 10 0 443
424 -8 3879 4081 10 751 0
425 10 720 1106 10 0 777
426 -20 819 1222 10 115 0
427 10 597 945 10 0 201
428 14 2899 3338 10 0 86
429 30 321 1044 10 0 377
430 11 4316 4823 10 0 465
431 18 1696 2088 10 0 619
432 -20 660 1004 10 273 0
433 10 304 566 10 0 82
434 27 1086 1267 10 0 29
435 14 2686 2837 10 0 603
436 10 639 786 10 0 410
437 20 487 589 10 0 294
438 20 30 421 10 0 318
439 20 797 1039 10 0 184
440 16 161 401 10 0 285
441 -10 639 787 10 139 0
442 20 412 769 10 0 126
443 -13 4375 4845 10 423 0
444 20 110 528 10 0 453
445 -10 4243 4535 10 615 0
446 -20 641 1366 10 507 0
447 20 178 740 10 0 651
448 20 1018 1114 10 0 375
449 -27 2261 2334 10 561 0
450 -25 562 988 10 219 0
451 20 127 543 10 0 464
452 -20 2079 2662 10 90 0
453 -20 2404 2656 10 444 0
454 20 577 1068 10 0 60
455 -10 548 964 10 544 0
456 30 1327 1519 10 0 613
457 -20 2799 2864 10 799 0
458 -12 5356 5797 10 44 0
459 20 377 945 10 0 259
460 -10 1804 2320 10 473 0
461 -10 774 1037 10 705 0
462 -31 5008 5186 10 622 0
463 -16 2936 3360 10 84 0
464 -20 712 1109 10 451 0
465 -11 4738 5188 10 430 0
466 -3 595 1141 10 283 0
467 20 577 836 10 0 671
468 -24 2605 3237 10 664 0
469 -12 4998 5424 10 54 0
470 -10 2701 3027 10 328 0
471 -20 490 887 10 676 0
472 -19 551 997 10 726 0
473 10 473 883 10 0 460
474 20 668 895 10 0 275
475 -15 1795 2216 10 480 0
476 -10 1119 1637 10 73 0
477 20 1738 2083 10 0 800
478 -17 5410 5667 10 144 0
479 -11 531 777 10 548 0
480 15 787 1299 10 0 475
481 13 79 567 10 0 547
482 28 344 760 10 0 620
483 -30 1357 1587 10 564 0
484 -10 1420 1887 10 508 0
485 13 363 634 10 0 235
486 20 696 1238 10 0 562
487 -10 2790 2898 10 161 0
488 -8 927 1088 10 245 0
489 -14 4782 4845 10 78 0
490 -10 4556 4820 10 206 0
491 -18 970 1287 10 528 0
492 1 579 787 10 0 249
493 -20 568 893 10 497 0
494 -23 825 1323 10 773 0
495 -8 780 1058 10 46 0
496 30 68 503 10 0 157
497 20 425 701 10 0 493
498 -10 625 888 10 55 0
499 16 1451 1759 10 0 397
500 20 977 1393 10 0 659
501 -30 3948 4411 10 230 0
502 -11 3282 3708 10 795 0
503 -2 1863 2563 10 631 0
504 -20 388 588 10 163 0
505 10 767 1148 10 0 720
506 20 436 887 10 0 373
507 20 727 872 10 0 446
508 10 458 759 10 0 484
509 30 816 1191 10 0 643
510 -10 340 566 10 68 0
511 -50 4118 4130 10 614 0
512 20 770 833 10 0 153
513 30 785 1060 10 0 327
514 10 350 739 10 0 208
515 23 1637 2221 10 0 172
516 30 514 856 10 0 383
517 30 458 825 10 0 28
518 23 2622 2714 10 0 787
519 -18 878 1220 10 345 0
520 -10 779 1178 10 721 0
521 -20 765 1144 10 794 0
522 10 221 762 10 0 24
523 -34 371 951 10 533 0
524 24 50 561 10 0 8
525 -10 1028 1404 10 691 0
526 30 339 866 10 0 239
527 -20 947 1306 10 392 0
528 18 653 1343 10 0 491
529 10 37 240 10 0 790
530 10 563 1217 10 0 147
531 -30 1041 1216 10 767 0
532 -20 4489 4851 10 379 0
533 34 259 705 10 0 523
534 -20 1032 1351 10 27 0
535 10 163 610 10 0 604
536 -20 4152 4482 10 725 0
537 -26 3618 4099 10 203 0
538 30 620 1439 10 0 541
539 -10 991 1333 10 341 0
540 -10 880 1415 10 399 0
541 -30 567 941 10 538 0
542 -10 3981 4393 10 646 0
543 -10 388 1075 10 4 0
544 10 491 883 10 0 455
545 30 558 1255 10 0 706
546 20 953 1437 10 0 654
547 -13 672 1041 10 481 0
548 11 333 568 10 0 479
549 10 312 576 10 0 70
550 10 337 662 10 0 296
551 -20 2424 2542 10 408 0
552 20 963 1365 10 0 88
553 -25 2940 3502 10 222 0
554 -20 601 917 10 632 0
555 26 736 883 10 0 216
556 30 2815 2904 10 0 305
557 18 3095 3653 10 0 630
558 20 653 1174 10 0 98
559 30 679 1030 10 0 600
560 20 694 1015 10 0 597
561 27 991 1233 10 0 449
562 -20 712 1223 10 486 0
563 19 36 527 10 0 262
564 30 704 1054 10 0 483
565 15 2154 2509 10 0 624
566 -10 540 885 10 31 0
567 -15 2725 3037 10 293 0
568 11 2592 2823 10 0 389
569 -10 4637 4841 10 218 0
570 -20 1965 2385 10 148 0
571 33 1983 2293 10 0 279
572 10 926 1198 10 0 99
573 10 571 828 10 0 742
574 10 350 681 10 0 323
575 -18 2621 2895 10 37 0
576 20 527 819 10 0 784
577 20 776 933 10 0 366
578 30 445 755 10 0 182
579 12 1433 1926 10 0 168
580 -20 3277 3628 10 10 0
581 -10 1021 1579 10 404 0
582 -10 1180 1671 10 59 0
583 20 98 768 10 0 133
584 -30 1878 2299 10 228 0
585 20 177 766 10 0 602
586 20 385 1060 10 0 167
587 15 866 1591 10 0 40
588 10 795 1162 10 0 623
589 -20 777 972 10 215 0
590 10 919 930 10 0 286
591 10 627 965 10 0 707
592 30 615 962 10 0 393
593 -10 1229 1351 10 97 0
594 -30 978 1571 10 689 0
595 20 716 1344 10 0 137
596 -10 1184 1572 10 169 0
597 -20 1163 1637 10 560 0
598 -20 4150 4444 10 755 0
599 -20 567 1058 10 11 0
600 -30 936 1342 10 559 0
601 10 536 614 10 0 270
602 -20 460 1415 10 585 0
603 -14 4408 4488 10 435 0
604 -10 2700 2872 10 535 0
605 30 659 956 10 0 112
606 -12 2376 2724 10 192 0
607 -2 934 1369 10 687 0
608 14 551 893 10 0 337
609 20 648 1080 10 0 701
610 -32 4482 4988 10 159 0
611 -20 609 960 10 656 0
612 12 2975 3560 10 0 179
613 -30 1181 1661 10 456 0
614 50 862 1064 10 0 511
615 10 336 853 10 0 445
616 15 4747 5113 10 0 774
617 10 233 738 10 0 9
618 10 1049 1529 10 0 89
619 -18 1820 2458 10 431 0
620 -28 2151 2359 10 482 0
621 -30 847 1096 10 390 0
622 31 3207 3498 10 0 462
623 -10 926 1313 10 588 0
624 -15 2595 3226 10 565 0
625 -12 4191 4981 10 193 0
626 -7 4655 5108 10 628 0
627 -25 762 1309 10 178 0
628 7 3592 3925 10 0 626
629 -20 739 1144 10 180 0
630 -18 3629 4144 10 557 0
631 2 2276 2668 10 0 503
632 20 529 886 10 0 554
633 10 466 820 10 0 789
634 10 975 1288 10 0 225
635 10 1011 1450 10 0 116
636 -25 495 892 10 367 0
637 13 3198 3312 10 0 770
638 -10 446 1031 10 121 0
639 -10 4223 4864 10 747 0
640 -10 1444 1698 10 58 0
641 12 219 516 10 0 385
642 -20 305 688 10 380 0
643 -30 1216 1380 10 509 0
644 26 1763 1938 0 0 802
645 37 644 1556 10 0 136
646 10 118 602 10 0 542
647 30 600 915 10 0 727
648 10 1319 1339 10 0 749
649 -40 1102 1464 10 750 0
650 18 703 1112 10 0 62
651 -20 748 1204 10 447 0
652 20 815 1137 10 0 185
653 -12 275 470 10 176 0
654 -20 1679 2415 10 546 0
655 -20 2017 2482 10 761 0
656 20 221 882 10 0 611
657 10 694 1042 10 0 220
658 -10 3456 3778 10 690 0
659 -20 3083 3458 10 500 0
660 -33 2687 2814 10 13 0
661 30 305 665 10 0 71
662 20 737 1162 10 0 109
663 20 521 1147 10 0 780
664 24 2366 2692 10 0 468
665 -50 3475 3650 10 20 0
666 20 1394 1768 10 0 683
667 -10 602 1191 10 709 0
668 22 2543 3550 10 0 25
669 29 281 786 10 0 722
670 20 361 819 10 0 713
671 -20 2220 2406 10 467 0
672 20 243 579 10 0 143
673 -20 648 1187 10 778 0
674 -27 4082 4433 10 155 0
675 20 514 578 10 0 782
676 20 633 676 10 0 471
677 -15 2222 2799 10 766 0
678 -8 1127 1571 10 376 0
679 -11 2724 3208 10 251 0
680 -21 3794 3987 10 407 0
681 -3 1165 1586 10 352 0
682 10 696 1265 10 0 138
683 -20 2432 2806 10 666 0
684 20 479 1041 10 0 204
685 -20 1004 1653 10 797 0
686 10 343 841 10 0 244
687 2 859 982 10 0 607
688 -38 3329 3787 10 69 0
689 30 1055 1298 10 0 594
690 10 710 1250 10 0 658
691 10 94 556 10 0 525
692 -10 811 1246 10 198 0
693 30 366 597 10 0 378
694 10 881 1440 10 0 174
695 10 855 1112 10 0 409
696 20 939 1498 10 0 403
697 -28 3394 3438 10 349 0
698 10 323 775 10 0 324
699 -10 3423 3732 10 76 0
700 -20 2919 3356 10 733 0
701 -20 890 1299 10 609 0
702 20 542 817 10 0 254
703 -10 646 1136 10 756 0
704 -10 748 779 10 395 0
705 10 212 675 10 0 461
706 -30 898 1208 10 545 0
707 -10 3927 4067 10 591 0
708 20 743 1119 10 0 769
709 10 533 703 10 0 667
710 -15 4369 4462 10 260 0
711 20 118 759 10 0 61
712 -10 911 1523 10 313 0
713 -20 981 1430 10 670 0
714 30 123 647 10 0 775
715 -30 5380 5750 10 421 0
716 -14 813 1355 10 51 0
717 20 820 887 10 0 740
718 -20 397 629 10 729 0
719 -10 986 1210 10 417 0
720 -10 858 1266 10 505 0
721 10 439 853 10 0 520
722 -29 4536 4922 10 669 0
723 -10 872 1182 10 785 0
724 -20 1128 1488 10 388 0
725 20 929 1046 10 0 536
726 19 273 554 10 0 472
727 -30 2855 3238 10 647 0
728 -20 889 967 10 150 0
729 20 212 471 10 0 718
730 -10 2263 2640 10 768 0
731 2 907 1242 10 0 735
732 7 3625 3798 10 0 240
733 20 579 1072 10 0 700
734 20 788 1217 10 0 406
735 -2 3371 3823 10 731 0
736 17 1837 2245 10 0 42
737 20 206 558 10 0 227
738 9 56 406 10 0 95
739 1 1934 2212 10 0 280
740 -20 510 1155 10 717 0
741 29 2948 3257 10 0 419
742 -10 3967 4483 10 573 0
743 20 648 1012 10 0 202
744 8 1016 1206 10 0 173
745 20 632 639 10 0 256
746 24 4318 4792 10 0 83
747 10 579 810 10 0 639
748 -20 738 1427 10 171 0
749 -10 3155 3769 10 648 0
750 40 753 1114 10 0 649
751 8 3317 3734 10 0 424
752 20 756 938 10 0 103
753 -20 435 960 10 302 0
754 21 2327 2855 10 0 186
755 20 449 1092 10 0 598
756 10 178 610 10 0 703
757 20 687 1302 10 0 217
758 10 1135 1536 10 0 93
759 21 529 655 10 0 124
760 -20 365 952 10 100 0
761 20 666 1182 10 0 655
762 -9 3849 4329 10 117 0
763 10 957 1568 10 0 129
764 20 650 1123 10 0 111
765 16 55 854 10 0 369
766 15 787 1336 10 0 677
767 30 37 530 10 0 531
768 10 864 1045 10 0 730
769 -20 1135 1635 10 708 0
770 -13 2963 3394 10 637 0
771 -9 1201 1346 10 258 0
772 -12 4965 5067 10 57 0
773 23 167 265 10 0 494
774 -15 5355 5370 10 616 0
775 -30 307 794 10 714 0
776 26 3022 3558 10 0 297
777 -10 1096 1512 10 425 0
778 20 654 985 10 0 673
779 23 59 476 10 0 212
780 -20 504 1066 10 663 0
781 -20 3052 3701 10 237 0
782 -20 840 1191 10 675 0
783 -18 4624 4982 10 105 0
784 -20 2783 3100 10 576 0
785 10 275 596 10 0 723
786 23 1266 1578 10 0 365
787 -23 2798 3139 10 518 0
788 -11 4049 4598 10 382 0
789 -10 1018 1190 10 633 0
790 -10 1067 1428 10 529 0
791 20 740 925 10 0 257
792 30 712 1011 10 0 415
793 19 1359 1702 10 0 300
794 20 429 793 10 0 521
795 11 2938 3425 10 0 502
796 -11 3826 4174 10 156 0
797 20 481 890 10 0 685
798 13 1387 1891 10 0 6
799 20 357 915 10 0 457
800 -20 4192 4455 10 477 0
801 -10 1690 2025 10 351 0
802 -26 1763 1938 10 644 0
803 -20 1998 2579 10 113 0
DEPOT_SECTION
1
-1
EOF
