NAME: lc1_2_7
TYPE: PDPTW
COMMENT: Li & Lim PDPTW benchmark converted from SINTEF format
DIMENSION: 215
VEHICLES: 50
CAPACITY: 200
EDGE_WEIGHT_TYPE: EUC_2D
NODE_COORD_SECTION
1 70 70
2 33 78
3 59 52
4 10 137
5 4 28
6 25 26
7 86 37
8 1 109
9 6 135
10 32 79
11 24 26
12 86 36
13 95 35
14 63 50
15 100 106
16 99 112
17 36 135
18 57 59
19 8 124
20 85 106
21 103 69
22 109 131
23 43 140
24 115 134
25 98 70
26 112 67
27 102 104
28 93 75
29 90 104
30 127 108
31 84 99
32 113 69
33 129 9
34 18 38
35 30 27
36 25 80
37 17 37
38 32 106
39 43 135
40 61 59
41 104 106
42 109 71
43 121 110
44 61 48
45 74 99
46 89 73
47 21 25
48 99 28
49 101 96
50 9 114
51 121 112
52 137 6
53 118 131
54 34 82
55 4 125
56 26 105
57 35 123
58 21 48
59 21 115
60 99 108
61 1 34
62 94 70
63 74 93
64 32 128
65 94 73
66 135 3
67 97 28
68 59 56
69 80 97
70 134 31
71 103 34
72 30 79
73 4 30
74 87 39
75 90 101
76 119 136
77 78 92
78 110 66
79 62 58
80 127 112
81 113 71
82 34 104
83 2 28
84 17 43
85 1 24
86 112 71
87 135 0
88 125 108
89 8 138
90 103 111
91 57 53
92 98 31
93 116 132
94 28 99
95 137 3
96 29 28
97 94 105
98 92 107
99 10 134
100 34 79
101 94 72
102 35 76
103 76 99
104 127 28
105 8 119
106 102 110
107 24 24
108 64 61
109 22 38
110 88 72
111 107 63
112 33 131
113 123 112
114 67 55
115 39 128
116 136 0
117 93 36
118 7 115
119 21 44
120 28 74
121 86 102
122 19 37
123 84 36
124 118 108
125 132 24
126 6 25
127 28 78
128 2 132
129 22 22
130 88 35
131 94 104
132 74 96
133 0 117
134 99 96
135 119 114
136 28 107
137 133 12
138 35 102
139 36 105
140 84 39
141 34 138
142 136 29
143 33 133
144 16 39
145 32 77
146 122 131
147 77 100
148 96 26
149 127 29
150 91 95
151 42 136
152 36 132
153 103 106
154 107 105
155 96 74
156 63 57
157 122 113
158 14 131
159 30 31
160 40 132
161 99 26
162 10 118
163 102 60
164 120 136
165 97 29
166 19 39
167 27 77
168 30 24
169 126 112
170 105 110
171 118 114
172 135 6
173 111 66
174 95 77
175 139 10
176 61 54
177 16 38
178 16 138
179 91 78
180 91 71
181 0 27
182 6 113
183 119 139
184 35 99
185 31 112
186 5 119
187 3 135
188 30 136
189 20 39
190 131 11
191 28 33
192 4 23
193 87 108
194 21 26
195 121 134
196 119 130
197 91 108
198 130 27
199 101 107
200 34 108
201 131 31
202 131 31
203 36 105
204 78 92
205 1 109
206 20 39
207 24 24
208 28 78
209 122 113
210 88 72
211 21 115
212 33 131
213 21 48
214 99 28
215 59 52
PICKUP_AND_DELIVERY_SECTION
1 0 0 1351 0 0 0
2 -10 690 870 90 167 0
3 20 487 667 0 0 215
4 30 93 273 90 0 158
5 -10 549 729 90 83 0
6 20 64 244 90 0 47
7 10 415 595 90 0 140
8 10 558 738 0 0 205
9 40 279 459 90 0 99
10 20 598 778 90 0 100
11 20 155 335 90 0 96
12 20 324 504 90 0 123
13 -20 134 314 90 74 0
14 -10 300 480 90 176 0
15 -20 506 686 90 31 0
16 -10 788 968 90 154 0
17 -10 543 723 90 23 0
18 -30 767 947 90 34 0
19 10 174 354 90 0 182
20 20 130 310 90 0 193
21 30 33 213 90 0 173
22 20 72 252 90 0 196
23 10 350 530 90 0 17
24 30 79 259 90 0 146
25 10 399 579 90 0 101
26 -20 408 588 90 42 0
27 20 139 319 90 0 153
28 30 118 298 90 0 155
29 20 787 967 90 0 150
30 10 620 800 90 0 88
31 20 32 212 90 0 15
32 -20 315 495 90 86 0
33 10 84 264 90 0 137
34 30 520 700 90 0 18
35 -10 714 894 90 129 0
36 -20 320 500 90 120 0
37 -20 428 608 90 144 0
38 -10 539 719 90 200 0
39 10 164 344 90 0 143
40 -20 861 1041 90 44 0
41 -10 322 502 90 49 0
42 20 39 219 90 0 26
43 -10 806 986 90 171 0
44 20 393 573 90 0 40
45 -30 119 299 90 132 0
46 10 19 199 90 0 179
47 -20 339 519 90 6 0
48 30 327 507 0 0 214
49 10 41 221 90 0 41
50 20 839 1019 90 0 184
51 20 159 339 90 0 113
52 -30 555 735 90 172 0
53 -20 729 909 90 195 0
54 -20 874 1054 90 72 0
55 30 268 448 90 0 133
56 40 57 237 90 0 185
57 -10 1018 1198 90 115 0
58 10 53 233 0 0 213
59 10 251 431 0 0 211
60 -20 882 1062 90 90 0
61 20 77 257 90 0 126
62 20 493 673 90 0 65
63 20 23 203 90 0 69
64 -20 1011 1191 90 141 0
65 -20 676 856 90 62 0
66 20 185 365 90 0 116
67 -30 50 230 90 165 0
68 20 673 853 90 0 108
69 -20 397 577 90 63 0
70 -30 447 627 90 198 0
71 -40 516 696 90 161 0
72 20 506 686 90 0 54
73 -10 641 821 90 192 0
74 20 35 215 90 0 13
75 -10 880 1060 90 97 0
76 30 269 449 90 0 93
77 30 492 672 0 0 204
78 -10 590 770 90 81 0
79 20 111 291 90 0 91
80 20 526 706 90 0 124
81 10 223 403 90 0 78
82 -20 632 812 90 136 0
83 10 84 264 90 0 5
84 -20 152 332 90 119 0
85 -30 269 449 90 181 0
86 20 132 312 90 0 32
87 10 278 458 90 0 95
88 -10 712 892 90 30 0
89 -10 185 365 90 178 0
90 20 603 783 90 0 60
91 -20 579 759 90 79 0
92 -10 420 600 90 148 0
93 -30 822 1002 90 76 0
94 10 51 231 90 0 138
95 -10 462 642 90 87 0
96 -20 805 985 90 11 0
97 10 602 782 90 0 75
98 30 408 588 90 0 131
99 -40 563 743 90 9 0
100 -20 781 961 90 10 0
101 -10 585 765 90 25 0
102 10 35 215 90 0 145
103 20 211 391 90 0 147
104 -20 71 251 90 149 0
105 20 79 259 90 0 118
106 -20 694 874 90 170 0
107 10 525 705 0 0 207
108 -20 954 1134 90 68 0
109 -10 886 1066 90 166 0
110 30 862 1042 0 0 210
111 30 684 864 90 0 163
112 30 918 1098 0 0 212
113 -20 342 522 90 51 0
114 10 15 195 90 0 156
115 10 65 245 90 0 57
116 -20 369 549 90 66 0
117 20 42 222 90 0 130
118 -20 746 926 90 105 0
119 20 58 238 90 0 84
120 20 134 314 90 0 36
121 10 36 216 90 0 197
122 -20 611 791 90 177 0
123 -20 507 687 90 12 0
124 -20 900 1080 90 80 0
125 10 258 438 90 0 142
126 -20 455 635 90 61 0
127 10 414 594 0 0 208
128 -20 465 645 90 187 0
129 10 432 612 90 0 35
130 -20 231 411 90 117 0
131 -30 693 873 90 98 0
132 30 26 206 90 0 45
133 -30 460 640 90 55 0
134 10 38 218 90 0 199
135 20 66 246 90 0 169
136 20 150 330 90 0 82
137 -10 746 926 90 33 0
138 -10 817 997 90 94 0
139 20 724 904 0 0 203
140 -10 600 780 90 7 0
141 20 637 817 90 0 64
142 -10 354 534 90 125 0
143 -10 826 1006 90 39 0
144 20 246 426 90 0 37
145 -10 39 219 90 102 0
146 -30 545 725 90 24 0
147 -20 303 483 90 103 0
148 10 142 322 90 0 92
149 20 70 250 90 0 104
150 -20 976 1156 90 29 0
151 10 256 436 90 0 152
152 -10 450 630 90 151 0
153 -20 231 411 90 27 0
154 10 415 595 90 0 16
155 -30 304 484 90 28 0
156 -10 20 200 90 114 0
157 20 250 430 0 0 209
158 -30 658 838 90 4 0
159 -20 898 1078 90 194 0
160 20 70 250 90 0 188
161 40 235 415 90 0 71
162 10 76 256 90 0 186
163 -30 780 960 90 111 0
164 -20 360 540 90 183 0
165 30 49 229 90 0 67
166 10 703 883 90 0 109
167 10 227 407 90 0 2
168 -20 621 801 90 191 0
169 -20 435 615 90 135 0
170 20 511 691 90 0 106
171 10 65 245 90 0 43
172 30 92 272 90 0 52
173 -30 499 679 90 21 0
174 10 211 391 90 0 180
175 30 649 829 90 0 190
176 10 205 385 90 0 14
177 20 337 517 90 0 122
178 10 86 266 90 0 89
179 -10 25 205 90 46 0
180 -10 769 949 90 174 0
181 30 176 356 90 0 85
182 -10 654 834 90 19 0
183 20 176 356 90 0 164
184 -20 910 1090 90 50 0
185 -40 351 531 90 56 0
186 -10 364 544 90 162 0
187 20 372 552 90 0 128
188 -20 731 911 90 160 0
189 10 794 974 0 0 206
190 -30 838 1018 90 175 0
191 20 55 235 90 0 168
192 10 362 542 90 0 73
193 -20 223 403 90 20 0
194 20 248 428 90 0 159
195 20 452 632 90 0 53
196 -20 638 818 90 22 0
197 -10 317 497 90 121 0
198 30 164 344 90 0 70
199 -10 974 1154 90 134 0
200 10 446 626 90 0 38
201 20 540 720 0 0 202
202 -20 540 720 90 201 0
203 -20 724 904 90 139 0
204 -30 492 672 90 77 0
205 -10 558 738 90 8 0
206 -10 794 974 90 189 0
207 -10 525 705 90 107 0
208 -10 414 594 90 127 0
209 -20 250 430 90 157 0
210 -30 862 1042 90 110 0
211 -10 251 431 90 59 0
212 -30 918 1098 90 112 0
213 -10 53 233 90 58 0
214 -30 327 507 90 48 0
215 -20 487 667 90 3 0
DEPOT_SECTION
1
-1
EOF
