NAME: lc1_2_1
TYPE: PDPTW
COMMENT: Li & Lim PDPTW benchmark converted from SINTEF format
DIMENSION: 213
VEHICLES: 50
CAPACITY: 200
EDGE_WEIGHT_TYPE: EUC_2D
NODE_COORD_SECTION
1 70 70
2 33 78
3 59 52
4 10 137
5 4 28
6 25 26
7 86 37
8 1 109
9 6 135
10 32 79
11 24 26
12 86 36
13 95 35
14 63 50
15 100 106
16 99 112
17 36 135
18 57 59
19 8 124
20 85 106
21 103 69
22 109 131
23 43 140
24 115 134
25 98 70
26 112 67
27 102 104
28 93 75
29 90 104
30 127 108
31 84 99
32 113 69
33 129 9
34 18 38
35 30 27
36 25 80
37 17 37
38 32 106
39 43 135
40 61 59
41 104 106
42 109 71
43 121 110
44 61 48
45 74 99
46 89 73
47 21 25
48 99 28
49 101 96
50 9 114
51 121 112
52 137 6
53 118 131
54 34 82
55 4 125
56 26 105
57 35 123
58 21 48
59 21 115
60 99 108
61 1 34
62 94 70
63 74 93
64 32 128
65 94 73
66 135 3
67 97 28
68 59 56
69 80 97
70 134 31
71 103 34
72 30 79
73 4 30
74 87 39
75 90 101
76 119 136
77 78 92
78 110 66
79 62 58
80 127 112
81 113 71
82 34 104
83 2 28
84 17 43
85 1 24
86 112 71
87 135 0
88 125 108
89 8 138
90 103 111
91 57 53
92 98 31
93 116 132
94 28 99
95 137 3
96 29 28
97 94 105
98 92 107
99 10 134
100 34 79
101 94 72
102 35 76
103 76 99
104 127 28
105 8 119
106 102 110
107 24 24
108 64 61
109 22 38
110 88 72
111 107 63
112 33 131
113 123 112
114 67 55
115 39 128
116 136 0
117 93 36
118 7 115
119 21 44
120 28 74
121 86 102
122 19 37
123 84 36
124 118 108
125 132 24
126 6 25
127 28 78
128 2 132
129 22 22
130 88 35
131 94 104
132 74 96
133 0 117
134 99 96
135 119 114
136 28 107
137 133 12
138 35 102
139 36 105
140 84 39
141 34 138
142 136 29
143 33 133
144 16 39
145 32 77
146 122 131
147 77 100
148 96 26
149 127 29
150 91 95
151 42 136
152 36 132
153 103 106
154 107 105
155 96 74
156 63 57
157 122 113
158 14 131
159 30 31
160 40 132
161 99 26
162 10 118
163 102 60
164 120 136
165 97 29
166 19 39
167 27 77
168 30 24
169 126 112
170 105 110
171 118 114
172 135 6
173 111 66
174 95 77
175 139 10
176 61 54
177 16 38
178 16 138
179 91 78
180 91 71
181 0 27
182 6 113
183 119 139
184 35 99
185 31 112
186 5 119
187 3 135
188 30 136
189 20 39
190 131 11
191 28 33
192 4 23
193 87 108
194 21 26
195 121 134
196 119 130
197 91 108
198 130 27
199 101 107
200 34 108
201 131 31
202 34 82
203 21 115
204 130 27
205 34 138
206 127 112
207 17 37
208 30 24
209 77 100
210 96 74
211 97 29
212 1 34
213 64 61
PICKUP_AND_DELIVERY_SECTION
1 0 0 1351 0 0 0
2 -20 750 809 90 72 0
3 -20 553 602 90 44 0
4 30 147 219 90 0 99
5 10 616 661 90 0 18
6 20 128 179 90 0 129
7 10 478 531 90 0 140
8 -20 616 680 90 105 0
9 40 351 386 90 0 187
10 20 655 721 90 0 100
11 20 219 271 90 0 47
12 -10 384 443 90 13 0
13 10 196 252 90 0 12
14 10 364 416 90 0 68
15 10 567 626 90 0 150
16 20 846 911 90 0 60
17 10 598 669 90 0 57
18 -10 824 890 90 5 0
19 10 231 298 90 0 186
20 -10 186 253 90 121 0
21 30 33 93 90 0 78
22 20 72 141 90 0 196
23 10 410 470 90 0 64
24 30 140 199 90 0 93
25 -10 467 511 90 46 0
26 10 462 534 90 0 111
27 -10 201 258 90 134 0
28 30 178 238 90 0 62
29 -20 845 910 90 31 0
30 -10 677 743 90 171 0
31 20 32 102 90 0 29
32 -20 370 440 90 86 0
33 10 84 147 90 0 95
34 30 582 638 90 0 109
35 10 772 835 90 0 159
36 -10 380 440 90 167 0
37 30 493 544 0 0 207
38 10 602 657 90 0 82
39 -20 215 293 90 160 0
40 -10 931 971 90 114 0
41 20 390 434 90 0 170
42 20 95 163 90 0 173
43 -20 870 923 90 51 0
44 20 448 517 90 0 3
45 20 176 243 90 0 77
46 10 19 94 90 0 25
47 -20 405 453 90 11 0
48 30 392 442 90 0 71
49 10 101 160 90 0 154
50 -30 904 954 90 133 0
51 20 221 277 90 0 43
52 -10 611 678 90 87 0
53 -20 782 857 90 195 0
54 10 928 1000 0 0 202
55 -10 319 398 90 162 0
56 40 115 179 90 0 136
57 -10 1130 1198 90 17 0
58 10 53 123 90 0 119
59 10 306 376 0 0 203
60 -20 952 992 90 16 0
61 20 77 132 0 0 212
62 -30 556 610 90 28 0
63 20 23 66 90 0 132
64 -10 1079 1123 90 23 0
65 10 741 791 90 0 180
66 20 250 300 90 0 175
67 20 110 170 90 0 92
68 -10 745 780 90 14 0
69 -20 457 518 90 103 0
70 -10 508 566 90 125 0
71 -30 577 636 90 48 0
72 20 561 632 90 0 2
73 -10 693 768 90 192 0
74 20 35 92 90 0 130
75 -10 933 1008 90 131 0
76 30 334 384 90 0 146
77 -20 555 610 90 45 0
78 -30 650 710 90 21 0
79 20 173 229 90 0 91
80 20 595 636 0 0 206
81 10 286 341 90 0 163
82 -10 683 760 90 38 0
83 10 148 199 90 0 181
84 10 205 279 90 0 177
85 10 333 385 90 0 126
86 20 193 252 90 0 32
87 10 331 405 90 0 52
88 -10 778 825 90 169 0
89 30 234 316 90 0 128
90 20 668 719 90 0 106
91 -20 641 697 90 79 0
92 -20 480 541 90 67 0
93 -30 870 953 90 24 0
94 10 51 93 90 0 185
95 -10 522 581 90 33 0
96 -20 865 925 90 191 0
97 -30 656 728 90 98 0
98 30 465 532 90 0 97
99 -30 629 677 90 4 0
100 -20 841 902 90 10 0
101 -10 647 703 90 174 0
102 10 35 91 90 0 127
103 20 273 330 90 0 69
104 -20 128 195 90 149 0
105 20 142 197 90 0 8
106 -20 754 814 90 90 0
107 -20 583 647 90 194 0
108 20 1011 1077 0 0 213
109 -30 950 1003 90 34 0
110 -10 925 979 90 179 0
111 -10 748 800 90 26 0
112 -20 979 1037 90 143 0
113 -20 405 459 90 135 0
114 10 15 62 90 0 40
115 10 65 133 90 0 151
116 30 426 491 90 0 137
117 20 98 166 90 0 123
118 -20 801 872 90 182 0
119 -10 115 180 90 58 0
120 -20 188 260 90 145 0
121 10 93 159 90 0 20
122 20 665 738 90 0 189
123 -20 568 626 90 117 0
124 -20 972 1008 90 157 0
125 10 311 384 90 0 70
126 -10 516 574 90 85 0
127 -10 479 529 90 102 0
128 -30 526 584 90 89 0
129 -20 494 550 90 6 0
130 -20 285 358 90 74 0
131 10 754 813 90 0 75
132 -20 80 153 90 63 0
133 30 515 585 90 0 50
134 10 38 93 90 0 27
135 20 128 185 90 0 113
136 -40 206 275 90 56 0
137 -30 797 874 90 116 0
138 10 877 938 90 0 184
139 -10 776 852 90 200 0
140 -10 659 720 90 7 0
141 20 704 749 0 0 205
142 10 406 482 90 0 201
143 20 890 941 90 0 112
144 20 314 358 90 0 166
145 20 100 157 90 0 120
146 -30 608 661 90 76 0
147 20 356 429 0 0 209
148 10 202 262 90 0 161
149 20 70 141 90 0 104
150 -10 1036 1097 90 15 0
151 -10 310 381 90 115 0
152 10 509 571 90 0 188
153 30 296 347 90 0 199
154 -10 472 539 90 49 0
155 10 351 437 0 0 210
156 10 79 140 90 0 176
157 20 307 374 90 0 124
158 -10 712 784 90 178 0
159 -10 960 1016 90 35 0
160 20 137 182 90 0 39
161 -10 287 363 90 148 0
162 10 76 144 90 0 55
163 -10 840 900 90 81 0
164 -20 417 482 90 183 0
165 30 49 119 0 0 211
166 -20 764 823 90 144 0
167 10 284 349 90 0 36
168 20 673 748 0 0 208
169 10 507 543 90 0 88
170 -20 567 634 90 41 0
171 10 65 126 90 0 30
172 30 153 210 90 0 190
173 -20 561 617 90 42 0
174 10 278 325 90 0 101
175 -20 723 756 90 66 0
176 -10 262 329 90 156 0
177 -10 387 466 90 84 0
178 10 86 142 90 0 158
179 10 88 141 90 0 110
180 -10 829 890 90 65 0
181 -10 241 292 90 83 0
182 20 720 768 90 0 118
183 20 234 298 90 0 164
184 -10 976 1025 90 138 0
185 -10 401 481 90 94 0
186 -10 425 484 90 19 0
187 -40 433 491 90 9 0
188 -10 792 850 90 152 0
189 -20 855 913 90 122 0
190 -30 895 960 90 172 0
191 20 55 128 90 0 96
192 10 414 491 90 0 73
193 20 275 350 90 0 197
194 20 311 365 90 0 107
195 20 517 567 90 0 53
196 -20 692 765 90 22 0
197 -20 384 430 90 193 0
198 30 229 280 0 0 204
199 -30 1038 1090 90 153 0
200 10 506 566 90 0 139
201 -10 604 657 90 142 0
202 -10 928 1000 90 54 0
203 -10 306 376 90 59 0
204 -30 229 280 90 198 0
205 -20 704 749 90 141 0
206 -20 595 636 90 80 0
207 -30 493 544 90 37 0
208 -20 673 748 90 168 0
209 -20 356 429 90 147 0
210 -10 351 437 90 155 0
211 -30 49 119 90 165 0
212 -20 77 132 90 61 0
213 -20 1011 1077 90 108 0
DEPOT_SECTION
1
-1
EOF
