NAME: lc1_2_10
TYPE: PDPTW
COMMENT: Li & Lim PDPTW benchmark converted from SINTEF format
DIMENSION: 209
VEHICLES: 50
CAPACITY: 200
EDGE_WEIGHT_TYPE: EUC_2D
NODE_COORD_SECTION
1 70 70
2 33 78
3 59 52
4 10 137
5 4 28
6 25 26
7 86 37
8 1 109
9 6 135
10 32 79
11 24 26
12 86 36
13 95 35
14 63 50
15 100 106
16 99 112
17 36 135
18 57 59
19 8 124
20 85 106
21 103 69
22 109 131
23 43 140
24 115 134
25 98 70
26 112 67
27 102 104
28 93 75
29 90 104
30 127 108
31 84 99
32 113 69
33 129 9
34 18 38
35 30 27
36 25 80
37 17 37
38 32 106
39 43 135
40 61 59
41 104 106
42 109 71
43 121 110
44 61 48
45 74 99
46 89 73
47 21 25
48 99 28
49 101 96
50 9 114
51 121 112
52 137 6
53 118 131
54 34 82
55 4 125
56 26 105
57 35 123
58 21 48
59 21 115
60 99 108
61 1 34
62 94 70
63 74 93
64 32 128
65 94 73
66 135 3
67 97 28
68 59 56
69 80 97
70 134 31
71 103 34
72 30 79
73 4 30
74 87 39
75 90 101
76 119 136
77 78 92
78 110 66
79 62 58
80 127 112
81 113 71
82 34 104
83 2 28
84 17 43
85 1 24
86 112 71
87 135 0
88 125 108
89 8 138
90 103 111
91 57 53
92 98 31
93 116 132
94 28 99
95 137 3
96 29 28
97 94 105
98 92 107
99 10 134
100 34 79
101 94 72
102 35 76
103 76 99
104 127 28
105 8 119
106 102 110
107 24 24
108 64 61
109 22 38
110 88 72
111 107 63
112 33 131
113 123 112
114 67 55
115 39 128
116 136 0
117 93 36
118 7 115
119 21 44
120 28 74
121 86 102
122 19 37
123 84 36
124 118 108
125 132 24
126 6 25
127 28 78
128 2 132
129 22 22
130 88 35
131 94 104
132 74 96
133 0 117
134 99 96
135 119 114
136 28 107
137 133 12
138 35 102
139 36 105
140 84 39
141 34 138
142 136 29
143 33 133
144 16 39
145 32 77
146 122 131
147 77 100
148 96 26
149 127 29
150 91 95
151 42 136
152 36 132
153 103 106
154 107 105
155 96 74
156 63 57
157 122 113
158 14 131
159 30 31
160 40 132
161 99 26
162 10 118
163 102 60
164 120 136
165 97 29
166 19 39
167 27 77
168 30 24
169 126 112
170 105 110
171 118 114
172 135 6
173 111 66
174 95 77
175 139 10
176 61 54
177 16 38
178 16 138
179 91 78
180 91 71
181 0 27
182 6 113
183 119 139
184 35 99
185 31 112
186 5 119
187 3 135
188 30 136
189 20 39
190 131 11
191 28 33
192 4 23
193 87 108
194 21 26
195 121 134
196 119 130
197 91 108
198 130 27
199 101 107
200 34 108
201 131 31
202 109 71
203 10 118
204 32 128
205 61 54
206 137 3
207 91 71
208 102 60
209 36 105
PICKUP_AND_DELIVERY_SECTION
1 0 0 1351 0 0 0
2 -20 563 997 90 36 0
3 -20 332 822 90 130 0
4 30 89 743 90 0 138
5 10 374 904 90 0 109
6 20 62 444 90 0 11
7 10 313 696 90 0 44
8 -20 392 904 90 186 0
9 -10 119 618 90 59 0
10 -20 461 915 90 120 0
11 -20 63 506 90 6 0
12 20 175 652 90 0 14
13 10 43 429 90 0 140
14 -20 115 664 90 12 0
15 -30 443 749 90 153 0
16 20 619 1137 90 0 199
17 -10 389 877 90 152 0
18 -20 633 1081 90 177 0
19 10 82 651 90 0 50
20 20 39 467 90 0 193
21 30 33 502 90 0 32
22 20 72 596 90 0 183
23 10 222 658 90 0 141
24 30 78 585 90 0 76
25 -10 148 830 90 46 0
26 10 178 818 90 0 173
27 20 46 512 90 0 106
28 30 23 481 90 0 77
29 -10 657 1098 90 131 0
30 -20 451 969 90 51 0
31 20 32 579 90 0 197
32 -30 149 662 90 21 0
33 10 84 572 90 0 52
34 -20 367 853 90 119 0
35 -20 595 1012 90 47 0
36 20 180 640 90 0 2
37 30 199 838 90 0 166
38 10 380 878 90 0 82
39 10 70 690 90 0 160
40 -10 699 1203 90 91 0
41 20 187 637 90 0 154
42 20 39 606 0 0 202
43 30 726 1067 90 0 124
44 -10 237 729 90 7 0
45 -30 29 503 90 132 0
46 10 19 474 90 0 25
47 20 175 683 90 0 35
48 -20 132 703 90 67 0
49 10 40 488 90 0 113
50 -10 624 1186 90 19 0
51 20 66 591 90 0 30
52 -10 446 843 90 33 0
53 20 586 1052 90 0 93
54 10 714 1214 90 0 184
55 -20 117 599 90 136 0
56 -10 56 587 90 94 0
57 -20 611 1198 90 147 0
58 10 53 630 90 0 85
59 10 75 607 90 0 9
60 -20 752 1192 90 170 0
61 -10 77 384 90 84 0
62 -10 351 815 90 69 0
63 20 23 512 90 0 98
64 20 654 1192 0 0 204
65 10 561 971 90 0 110
66 20 93 726 90 0 116
67 20 49 564 90 0 48
68 20 478 1047 90 0 108
69 10 352 622 90 0 62
70 -30 337 737 90 198 0
71 -30 473 739 90 165 0
72 -10 349 844 90 167 0
73 -10 501 961 90 192 0
74 20 35 439 90 0 123
75 -10 752 1188 90 121 0
76 -30 158 560 90 24 0
77 -30 393 771 90 28 0
78 10 430 929 90 0 111
79 20 14 467 90 0 144
80 -20 408 823 90 135 0
81 10 123 503 90 0 86
82 -10 385 1058 90 38 0
83 10 79 644 90 0 126
84 10 59 595 90 0 61
85 -10 94 624 90 58 0
86 -10 42 685 90 81 0
87 -40 95 649 90 161 0
88 -20 626 978 90 157 0
89 -10 92 600 90 178 0
90 -10 416 970 90 134 0
91 10 470 869 90 0 40
92 -20 306 715 90 117 0
93 -20 713 1110 90 53 0
94 10 51 492 90 0 56
95 20 286 818 0 0 206
96 -10 738 1052 90 129 0
97 10 468 916 90 0 150
98 -20 283 714 90 63 0
99 10 432 874 90 0 158
100 -10 542 1201 90 102 0
101 -10 381 969 90 174 0
102 10 35 437 90 0 100
103 20 56 547 90 0 200
104 30 70 664 90 0 125
105 20 79 607 90 0 182
106 -20 507 1062 90 27 0
107 10 337 892 90 0 168
108 -20 771 1251 90 68 0
109 -10 714 1204 90 5 0
110 -10 739 1166 90 65 0
111 -10 491 1058 90 78 0
112 -10 843 1172 90 151 0
113 -10 168 695 90 49 0
114 10 15 510 90 0 191
115 -20 65 485 90 185 0
116 -20 191 727 90 66 0
117 20 41 484 90 0 92
118 -30 540 1132 90 133 0
119 20 55 374 90 0 34
120 20 42 533 90 0 10
121 10 35 618 90 0 75
122 -10 410 993 90 156 0
123 -20 370 823 90 74 0
124 -30 767 1200 90 43 0
125 -30 77 674 90 104 0
126 -10 286 805 90 83 0
127 -20 271 738 90 145 0
128 -20 320 789 90 187 0
129 10 329 714 90 0 96
130 20 39 665 90 0 3
131 10 500 1066 90 0 29
132 30 26 572 90 0 45
133 30 367 733 90 0 118
134 10 38 455 90 0 90
135 20 65 545 90 0 80
136 20 94 387 90 0 55
137 -10 531 1141 90 148 0
138 -30 706 1109 90 4 0
139 20 521 1107 0 0 209
140 -10 464 915 90 13 0
141 -10 437 1016 90 23 0
142 -20 272 616 90 149 0
143 -10 705 1126 90 188 0
144 -20 116 556 90 79 0
145 20 38 487 90 0 127
146 -10 383 886 90 164 0
147 20 261 525 90 0 57
148 10 51 490 90 0 137
149 20 70 502 90 0 142
150 -10 761 1229 90 97 0
151 10 92 599 90 0 112
152 10 335 746 90 0 17
153 30 124 518 90 0 15
154 -20 262 749 90 41 0
155 -10 197 592 90 179 0
156 10 14 408 90 0 122
157 20 129 551 90 0 88
158 -10 499 998 90 99 0
159 -20 661 1206 90 194 0
160 -10 68 573 90 39 0
161 40 111 540 90 0 87
162 10 76 621 0 0 203
163 30 600 1140 0 0 208
164 10 281 619 90 0 146
165 30 49 427 90 0 71
166 -30 654 932 90 37 0
167 10 43 616 90 0 72
168 -10 479 942 90 107 0
169 -10 316 733 90 171 0
170 20 418 783 90 0 60
171 10 65 533 90 0 169
172 30 91 492 90 0 190
173 -10 348 829 90 26 0
174 10 25 594 90 0 101
175 30 574 904 90 0 201
176 10 125 466 0 0 205
177 20 236 618 90 0 18
178 10 86 514 90 0 89
179 10 22 480 90 0 155
180 20 537 1181 0 0 207
181 30 82 600 90 0 189
182 -20 569 920 90 105 0
183 -20 84 730 90 22 0
184 -10 704 1216 90 54 0
185 20 142 740 90 0 115
186 20 220 688 90 0 8
187 20 209 715 90 0 128
188 10 498 1144 90 0 143
189 -30 627 1141 90 181 0
190 -30 684 1171 90 172 0
191 -10 55 626 90 114 0
192 10 215 690 90 0 73
193 -20 95 530 90 20 0
194 20 65 615 90 0 159
195 20 338 746 90 0 196
196 -20 451 1006 90 195 0
197 -20 117 696 90 31 0
198 30 73 663 90 0 70
199 -20 710 1213 90 16 0
200 -20 304 769 90 103 0
201 -30 413 847 90 175 0
202 -20 39 606 90 42 0
203 -10 76 621 90 162 0
204 -20 654 1192 90 64 0
205 -10 125 466 90 176 0
206 -20 286 818 90 95 0
207 -20 537 1181 90 180 0
208 -30 600 1140 90 163 0
209 -20 521 1107 90 139 0
DEPOT_SECTION
1
-1
EOF
