NAME: lc1_2_8
TYPE: PDPTW
COMMENT: Li & Lim PDPTW benchmark converted from SINTEF format
DIMENSION: 211
VEHICLES: 50
CAPACITY: 200
EDGE_WEIGHT_TYPE: EUC_2D
NODE_COORD_SECTION
1 70 70
2 33 78
3 59 52
4 10 137
5 4 28
6 25 26
7 86 37
8 1 109
9 6 135
10 32 79
11 24 26
12 86 36
13 95 35
14 63 50
15 100 106
16 99 112
17 36 135
18 57 59
19 8 124
20 85 106
21 103 69
22 109 131
23 43 140
24 115 134
25 98 70
26 112 67
27 102 104
28 93 75
29 90 104
30 127 108
31 84 99
32 113 69
33 129 9
34 18 38
35 30 27
36 25 80
37 17 37
38 32 106
39 43 135
40 61 59
41 104 106
42 109 71
43 121 110
44 61 48
45 74 99
46 89 73
47 21 25
48 99 28
49 101 96
50 9 114
51 121 112
52 137 6
53 118 131
54 34 82
55 4 125
56 26 105
57 35 123
58 21 48
59 21 115
60 99 108
61 1 34
62 94 70
63 74 93
64 32 128
65 94 73
66 135 3
67 97 28
68 59 56
69 80 97
70 134 31
71 103 34
72 30 79
73 4 30
74 87 39
75 90 101
76 119 136
77 78 92
78 110 66
79 62 58
80 127 112
81 113 71
82 34 104
83 2 28
84 17 43
85 1 24
86 112 71
87 135 0
88 125 108
89 8 138
90 103 111
91 57 53
92 98 31
93 116 132
94 28 99
95 137 3
96 29 28
97 94 105
98 92 107
99 10 134
100 34 79
101 94 72
102 35 76
103 76 99
104 127 28
105 8 119
106 102 110
107 24 24
108 64 61
109 22 38
110 88 72
111 107 63
112 33 131
113 123 112
114 67 55
115 39 128
116 136 0
117 93 36
118 7 115
119 21 44
120 28 74
121 86 102
122 19 37
123 84 36
124 118 108
125 132 24
126 6 25
127 28 78
128 2 132
129 22 22
130 88 35
131 94 104
132 74 96
133 0 117
134 99 96
135 119 114
136 28 107
137 133 12
138 35 102
139 36 105
140 84 39
141 34 138
142 136 29
143 33 133
144 16 39
145 32 77
146 122 131
147 77 100
148 96 26
149 127 29
150 91 95
151 42 136
152 36 132
153 103 106
154 107 105
155 96 74
156 63 57
157 122 113
158 14 131
159 30 31
160 40 132
161 99 26
162 10 118
163 102 60
164 120 136
165 97 29
166 19 39
167 27 77
168 30 24
169 126 112
170 105 110
171 118 114
172 135 6
173 111 66
174 95 77
175 139 10
176 61 54
177 16 38
178 16 138
179 91 78
180 91 71
181 0 27
182 6 113
183 119 139
184 35 99
185 31 112
186 5 119
187 3 135
188 30 136
189 20 39
190 131 11
191 28 33
192 4 23
193 87 108
194 21 26
195 121 134
196 119 130
197 91 108
198 130 27
199 101 107
200 34 108
201 131 31
202 34 104
203 33 131
204 36 105
205 29 28
206 77 100
207 84 36
208 102 60
209 25 80
210 94 105
211 35 99
PICKUP_AND_DELIVERY_SECTION
1 0 0 1351 0 0 0
2 20 672 888 90 0 100
3 20 452 702 90 0 40
4 30 89 301 90 0 128
5 10 509 769 90 0 73
6 20 62 254 90 0 107
7 -20 373 636 90 130 0
8 -10 557 739 90 162 0
9 -10 249 488 90 178 0
10 -10 562 814 90 127 0
11 20 122 367 90 0 194
12 20 262 565 90 0 140
13 10 79 369 90 0 71
14 10 285 494 90 0 108
15 -20 480 713 90 41 0
16 -10 766 991 90 134 0
17 -10 506 760 90 115 0
18 -10 734 980 90 189 0
19 10 164 364 90 0 182
20 20 75 364 90 0 193
21 30 33 217 90 0 111
22 20 72 312 90 0 183
23 -20 334 546 90 160 0
24 30 78 263 90 0 93
25 -10 386 591 90 155 0
26 -20 386 609 90 86 0
27 20 111 347 90 0 154
28 -10 81 335 90 179 0
29 -20 739 1015 90 31 0
30 -20 597 822 90 80 0
31 20 32 287 90 0 29
32 -10 286 525 90 46 0
33 10 84 385 90 0 175
34 -30 500 720 90 37 0
35 10 709 899 90 0 159
36 20 289 531 0 0 209
37 30 417 619 90 0 34
38 -40 501 758 90 56 0
39 10 186 322 90 0 151
40 -20 832 1070 90 3 0
41 20 297 527 90 0 15
42 20 39 285 90 0 173
43 -20 751 1042 90 88 0
44 -20 348 617 90 79 0
45 20 96 323 90 0 77
46 10 19 197 90 0 32
47 20 343 514 90 0 168
48 30 288 547 90 0 92
49 10 40 301 90 0 135
50 -20 823 1034 90 105 0
51 20 108 389 90 0 124
52 -10 542 748 90 87 0
53 -20 684 954 90 146 0
54 -20 824 1105 90 72 0
55 30 239 478 90 0 118
56 40 56 313 90 0 38
57 -10 973 1198 90 188 0
58 10 53 312 90 0 83
59 -20 213 469 90 136 0
60 -10 826 1118 90 106 0
61 20 77 317 90 0 181
62 20 448 718 90 0 180
63 20 23 246 90 0 103
64 -20 928 1192 90 143 0
65 10 658 874 90 0 110
66 20 185 364 90 0 116
67 20 49 400 90 0 161
68 -10 640 885 90 91 0
69 -30 337 637 90 132 0
70 -20 421 654 90 149 0
71 -10 483 729 90 13 0
72 20 461 732 90 0 54
73 -10 588 873 90 5 0
74 -10 35 255 90 114 0
75 -10 860 1080 90 121 0
76 30 250 467 90 0 196
77 -20 488 677 90 45 0
78 -10 557 803 90 81 0
79 20 53 350 90 0 44
80 20 477 755 90 0 30
81 10 185 442 90 0 78
82 10 559 885 0 0 202
83 -10 79 399 90 58 0
84 10 93 391 90 0 177
85 10 247 471 90 0 192
86 20 99 346 90 0 26
87 10 249 487 90 0 52
88 20 674 929 90 0 43
89 30 165 385 90 0 187
90 20 581 805 90 0 199
91 10 546 793 90 0 68
92 -30 349 671 90 48 0
93 -30 805 1018 90 24 0
94 10 51 270 90 0 185
95 20 425 679 90 0 137
96 10 771 1019 0 0 205
97 10 578 806 0 0 210
98 30 396 601 90 0 150
99 10 548 758 90 0 158
100 -20 745 997 90 2 0
101 -10 559 790 90 174 0
102 10 35 258 90 0 120
103 -20 181 421 90 63 0
104 30 70 284 90 0 142
105 20 79 406 90 0 50
106 10 675 894 90 0 60
107 -20 492 738 90 6 0
108 -10 932 1157 90 14 0
109 -10 866 1086 90 126 0
110 -10 817 1088 90 65 0
111 -30 650 898 90 21 0
112 30 885 1131 0 0 203
113 -10 331 532 90 171 0
114 10 15 188 90 0 74
115 10 65 297 90 0 17
116 -20 346 571 90 66 0
117 20 41 257 90 0 148
118 -30 711 961 90 55 0
119 20 55 334 90 0 166
120 -10 107 341 90 102 0
121 10 35 233 90 0 75
122 -20 597 805 90 144 0
123 10 481 713 0 0 207
124 -20 879 1100 90 51 0
125 -30 233 462 90 198 0
126 10 435 656 90 0 109
127 10 399 609 90 0 10
128 -30 434 675 90 4 0
129 -20 398 646 90 191 0
130 20 217 426 90 0 7
131 -10 667 900 90 197 0
132 30 26 257 90 0 69
133 -20 434 666 90 186 0
134 10 38 247 90 0 16
135 -10 65 308 90 49 0
136 20 96 385 90 0 59
137 -20 700 971 90 95 0
138 -10 786 1028 90 200 0
139 20 663 965 0 0 204
140 -20 611 769 90 12 0
141 -10 591 863 90 152 0
142 -30 344 545 90 104 0
143 20 820 1012 90 0 64
144 20 199 473 90 0 122
145 20 38 322 90 0 167
146 20 478 791 90 0 53
147 20 277 508 0 0 206
148 -20 93 371 90 117 0
149 20 70 290 90 0 70
150 -30 914 1218 90 98 0
151 -10 227 465 90 39 0
152 10 412 669 90 0 141
153 30 204 439 90 0 170
154 -20 355 655 90 27 0
155 10 306 482 90 0 25
156 10 14 272 90 0 176
157 20 236 445 90 0 169
158 -10 628 869 90 99 0
159 -10 889 1088 90 35 0
160 20 68 351 90 0 23
161 -20 223 428 90 67 0
162 10 76 282 90 0 8
163 30 764 977 0 0 208
164 10 351 548 90 0 195
165 30 49 355 90 0 201
166 -20 691 896 90 119 0
167 -20 177 456 90 145 0
168 -20 595 827 90 47 0
169 -20 390 660 90 157 0
170 -30 502 700 90 153 0
171 10 65 289 90 0 113
172 30 91 282 90 0 190
173 -20 439 738 90 42 0
174 10 201 401 90 0 101
175 -10 646 832 90 33 0
176 -10 168 422 90 156 0
177 -10 349 505 90 84 0
178 10 86 325 90 0 9
179 10 22 248 90 0 28
180 -20 748 970 90 62 0
181 -20 155 378 90 61 0
182 -10 580 908 90 19 0
183 -20 174 357 90 22 0
184 20 870 1130 0 0 211
185 -10 351 532 90 94 0
186 20 323 585 90 0 133
187 -30 327 597 90 89 0
188 10 716 926 90 0 57
189 10 761 1007 90 0 18
190 -30 818 1037 90 172 0
191 20 55 268 90 0 129
192 -10 308 596 90 85 0
193 -20 192 434 90 20 0
194 -20 217 458 90 11 0
195 -10 437 647 90 164 0
196 -30 586 871 90 76 0
197 10 271 542 90 0 131
198 30 109 400 90 0 125
199 -20 970 1158 90 90 0
200 10 414 658 90 0 138
201 -30 526 734 90 165 0
202 -10 559 885 90 82 0
203 -30 885 1131 90 112 0
204 -20 663 965 90 139 0
205 -10 771 1019 90 96 0
206 -20 277 508 90 147 0
207 -10 481 713 90 123 0
208 -30 764 977 90 163 0
209 -20 289 531 90 36 0
210 -10 578 806 90 97 0
211 -20 870 1130 90 184 0
DEPOT_SECTION
1
-1
EOF
