NAME: lc1_2_5
TYPE: PDPTW
COMMENT: Li & Lim PDPTW benchmark converted from SINTEF format
DIMENSION: 215
VEHICLES: 50
CAPACITY: 200
EDGE_WEIGHT_TYPE: EUC_2D
NODE_COORD_SECTION
1 70 70
2 33 78
3 59 52
4 10 137
5 4 28
6 25 26
7 86 37
8 1 109
9 6 135
10 32 79
11 24 26
12 86 36
13 95 35
14 63 50
15 100 106
16 99 112
17 36 135
18 57 59
19 8 124
20 85 106
21 103 69
22 109 131
23 43 140
24 115 134
25 98 70
26 112 67
27 102 104
28 93 75
29 90 104
30 127 108
31 84 99
32 113 69
33 129 9
34 18 38
35 30 27
36 25 80
37 17 37
38 32 106
39 43 135
40 61 59
41 104 106
42 109 71
43 121 110
44 61 48
45 74 99
46 89 73
47 21 25
48 99 28
49 101 96
50 9 114
51 121 112
52 137 6
53 118 131
54 34 82
55 4 125
56 26 105
57 35 123
58 21 48
59 21 115
60 99 108
61 1 34
62 94 70
63 74 93
64 32 128
65 94 73
66 135 3
67 97 28
68 59 56
69 80 97
70 134 31
71 103 34
72 30 79
73 4 30
74 87 39
75 90 101
76 119 136
77 78 92
78 110 66
79 62 58
80 127 112
81 113 71
82 34 104
83 2 28
84 17 43
85 1 24
86 112 71
87 135 0
88 125 108
89 8 138
90 103 111
91 57 53
92 98 31
93 116 132
94 28 99
95 137 3
96 29 28
97 94 105
98 92 107
99 10 134
100 34 79
101 94 72
102 35 76
103 76 99
104 127 28
105 8 119
106 102 110
107 24 24
108 64 61
109 22 38
110 88 72
111 107 63
112 33 131
113 123 112
114 67 55
115 39 128
116 136 0
117 93 36
118 7 115
119 21 44
120 28 74
121 86 102
122 19 37
123 84 36
124 118 108
125 132 24
126 6 25
127 28 78
128 2 132
129 22 22
130 88 35
131 94 104
132 74 96
133 0 117
134 99 96
135 119 114
136 28 107
137 133 12
138 35 102
139 36 105
140 84 39
141 34 138
142 136 29
143 33 133
144 16 39
145 32 77
146 122 131
147 77 100
148 96 26
149 127 29
150 91 95
151 42 136
152 36 132
153 103 106
154 107 105
155 96 74
156 63 57
157 122 113
158 14 131
159 30 31
160 40 132
161 99 26
162 10 118
163 102 60
164 120 136
165 97 29
166 19 39
167 27 77
168 30 24
169 126 112
170 105 110
171 118 114
172 135 6
173 111 66
174 95 77
175 139 10
176 61 54
177 16 38
178 16 138
179 91 78
180 91 71
181 0 27
182 6 113
183 119 139
184 35 99
185 31 112
186 5 119
187 3 135
188 30 136
189 20 39
190 131 11
191 28 33
192 4 23
193 87 108
194 21 26
195 121 134
196 119 130
197 91 108
198 130 27
199 101 107
200 34 108
201 131 31
202 78 92
203 33 131
204 4 28
205 61 59
206 121 110
207 10 137
208 30 24
209 34 82
210 1 109
211 91 71
212 28 99
213 99 28
214 132 24
215 17 37
PICKUP_AND_DELIVERY_SECTION
1 0 0 1351 0 0 0
2 -20 731 829 90 72 0
3 20 518 637 90 0 91
4 30 105 261 0 0 207
5 10 578 699 0 0 204
6 20 87 221 90 0 129
7 -20 448 561 90 74 0
8 10 580 715 0 0 210
9 40 293 445 90 0 99
10 -20 637 739 90 36 0
11 20 194 296 90 0 47
12 20 349 479 90 0 140
13 10 144 305 90 0 123
14 -20 330 449 90 79 0
15 10 525 667 90 0 131
16 20 820 937 90 0 199
17 -10 578 688 90 115 0
18 -10 799 915 90 83 0
19 10 205 323 90 0 182
20 -10 166 273 90 121 0
21 30 33 165 90 0 86
22 20 72 194 90 0 53
23 -20 380 499 90 160 0
24 30 113 226 90 0 183
25 10 429 548 90 0 65
26 -20 438 558 90 42 0
27 20 156 302 90 0 153
28 30 150 267 90 0 101
29 -20 833 921 90 193 0
30 10 654 766 90 0 124
31 20 32 175 90 0 75
32 20 345 466 90 0 111
33 10 84 231 90 0 87
34 30 527 692 90 0 109
35 10 743 865 90 0 159
36 20 362 458 90 0 10
37 30 457 579 0 0 215
38 10 578 680 90 0 138
39 10 206 303 90 0 151
40 20 888 1014 0 0 205
41 20 351 474 90 0 60
42 20 73 186 90 0 26
43 30 840 952 0 0 206
44 -10 419 546 90 156 0
45 20 172 247 90 0 69
46 10 19 123 90 0 110
47 -20 363 494 90 11 0
48 30 360 475 0 0 213
49 10 67 194 90 0 90
50 -20 851 1006 90 105 0
51 20 188 309 90 0 80
52 10 606 684 90 0 175
53 -20 762 877 90 22 0
54 10 923 1006 0 0 209
55 30 306 411 90 0 118
56 40 94 200 90 0 136
57 -10 1090 1198 90 188 0
58 10 53 197 90 0 144
59 10 280 401 90 0 200
60 -20 913 1031 90 41 0
61 20 77 193 90 0 85
62 -10 510 656 90 179 0
63 20 23 152 90 0 132
64 -20 1065 1137 90 143 0
65 -10 710 822 90 25 0
66 20 219 331 90 0 116
67 -30 92 189 90 165 0
68 20 686 839 90 0 108
69 -20 405 569 90 45 0
70 20 475 600 90 0 201
71 -10 542 671 90 148 0
72 20 528 664 90 0 2
73 -10 679 783 90 126 0
74 20 35 137 90 0 7
75 -20 905 1036 90 31 0
76 30 294 424 90 0 164
77 30 517 648 0 0 202
78 10 617 742 90 0 163
79 20 137 265 90 0 14
80 -20 569 663 90 51 0
81 10 265 362 90 0 173
82 -20 659 785 90 185 0
83 10 123 224 90 0 18
84 10 175 308 90 0 177
85 -20 289 430 90 61 0
86 -30 144 300 90 21 0
87 -10 309 426 90 33 0
88 -20 733 871 90 157 0
89 30 206 345 90 0 158
90 -10 636 750 90 49 0
91 -20 620 718 90 3 0
92 -40 456 565 90 161 0
93 -20 853 970 90 196 0
94 10 51 187 0 0 212
95 -30 481 623 90 172 0
96 -20 842 948 90 191 0
97 10 635 750 90 0 150
98 -10 439 557 90 197 0
99 -40 610 697 90 9 0
100 -10 804 938 90 127 0
101 -30 597 753 90 28 0
102 10 35 174 90 0 145
103 20 251 352 90 0 147
104 -20 98 225 90 149 0
105 20 104 234 90 0 50
106 -20 715 853 90 170 0
107 -20 561 669 90 194 0
108 -20 976 1112 90 68 0
109 -30 909 1043 90 34 0
110 -10 877 1028 90 46 0
111 -20 714 835 90 32 0
112 30 934 1081 0 0 203
113 20 366 498 90 0 169
114 10 15 101 90 0 176
115 10 65 166 90 0 17
116 -20 419 499 90 66 0
117 20 73 191 90 0 130
118 -30 796 877 90 55 0
119 20 95 200 90 0 166
120 20 167 281 90 0 167
121 10 75 176 90 0 20
122 20 649 754 90 0 189
123 -10 532 661 90 13 0
124 -10 925 1055 90 30 0
125 10 281 415 0 0 214
126 10 487 604 90 0 73
127 10 447 562 90 0 100
128 -10 467 642 90 178 0
129 -20 466 577 90 6 0
130 -20 260 383 90 117 0
131 -10 721 845 90 15 0
132 -20 54 178 90 63 0
133 -20 483 617 90 186 0
134 10 38 203 90 0 154
135 -10 87 226 90 171 0
136 -40 182 298 90 56 0
137 10 778 894 90 0 190
138 -10 852 963 90 38 0
139 -20 756 873 90 187 0
140 -20 636 743 90 12 0
141 -10 698 756 90 152 0
142 -30 392 497 90 198 0
143 20 868 963 90 0 64
144 -10 299 372 90 58 0
145 -10 73 185 90 102 0
146 -20 575 694 90 195 0
147 -20 310 475 90 103 0
148 10 181 284 90 0 71
149 20 70 187 90 0 104
150 -10 1012 1120 90 97 0
151 -10 292 400 90 39 0
152 10 478 602 90 0 141
153 -20 259 383 90 27 0
154 -10 444 566 90 134 0
155 -10 331 457 90 174 0
156 10 54 165 90 0 44
157 20 287 393 90 0 88
158 -30 666 831 90 89 0
159 -10 929 1047 90 35 0
160 20 106 214 90 0 23
161 40 275 375 90 0 92
162 10 76 175 90 0 184
163 -10 819 922 90 78 0
164 -30 375 525 90 76 0
165 30 49 154 90 0 67
166 -20 748 838 90 119 0
167 -20 258 376 90 120 0
168 20 643 778 0 0 208
169 -20 471 578 90 113 0
170 20 529 672 90 0 106
171 10 65 174 90 0 135
172 30 109 255 90 0 95
173 -10 536 642 90 81 0
174 10 237 365 90 0 155
175 -10 681 797 90 52 0
176 -10 219 372 90 114 0
177 -10 368 486 90 84 0
178 10 86 171 90 0 128
179 10 54 175 90 0 62
180 20 806 912 0 0 211
181 30 209 323 90 0 192
182 -10 682 807 90 19 0
183 -30 195 336 90 24 0
184 -10 931 1069 90 162 0
185 20 396 486 90 0 82
186 20 393 516 90 0 133
187 20 407 517 90 0 139
188 10 748 894 90 0 57
189 -20 830 939 90 122 0
190 -10 858 998 90 137 0
191 20 55 162 90 0 96
192 -30 391 514 90 181 0
193 20 269 356 90 0 29
194 20 286 389 90 0 107
195 20 477 606 90 0 146
196 20 686 770 90 0 93
197 10 347 467 90 0 98
198 30 203 306 90 0 142
199 -20 1023 1105 90 16 0
200 -10 473 599 90 59 0
201 -20 567 694 90 70 0
202 -30 517 648 90 77 0
203 -30 934 1081 90 112 0
204 -10 578 699 90 5 0
205 -20 888 1014 90 40 0
206 -30 840 952 90 43 0
207 -30 105 261 90 4 0
208 -20 643 778 90 168 0
209 -10 923 1006 90 54 0
210 -10 580 715 90 8 0
211 -20 806 912 90 180 0
212 -10 51 187 90 94 0
213 -30 360 475 90 48 0
214 -10 281 415 90 125 0
215 -30 457 579 90 37 0
DEPOT_SECTION
1
-1
EOF
