NAME: lc1_2_6
TYPE: PDPTW
COMMENT: Li & Lim PDPTW benchmark converted from SINTEF format
DIMENSION: 215
VEHICLES: 50
CAPACITY: 200
EDGE_WEIGHT_TYPE: EUC_2D
NODE_COORD_SECTION
1 70 70
2 33 78
3 59 52
4 10 137
5 4 28
6 25 26
7 86 37
8 1 109
9 6 135
10 32 79
11 24 26
12 86 36
13 95 35
14 63 50
15 100 106
16 99 112
17 36 135
18 57 59
19 8 124
20 85 106
21 103 69
22 109 131
23 43 140
24 115 134
25 98 70
26 112 67
27 102 104
28 93 75
29 90 104
30 127 108
31 84 99
32 113 69
33 129 9
34 18 38
35 30 27
36 25 80
37 17 37
38 32 106
39 43 135
40 61 59
41 104 106
42 109 71
43 121 110
44 61 48
45 74 99
46 89 73
47 21 25
48 99 28
49 101 96
50 9 114
51 121 112
52 137 6
53 118 131
54 34 82
55 4 125
56 26 105
57 35 123
58 21 48
59 21 115
60 99 108
61 1 34
62 94 70
63 74 93
64 32 128
65 94 73
66 135 3
67 97 28
68 59 56
69 80 97
70 134 31
71 103 34
72 30 79
73 4 30
74 87 39
75 90 101
76 119 136
77 78 92
78 110 66
79 62 58
80 127 112
81 113 71
82 34 104
83 2 28
84 17 43
85 1 24
86 112 71
87 135 0
88 125 108
89 8 138
90 103 111
91 57 53
92 98 31
93 116 132
94 28 99
95 137 3
96 29 28
97 94 105
98 92 107
99 10 134
100 34 79
101 94 72
102 35 76
103 76 99
104 127 28
105 8 119
106 102 110
107 24 24
108 64 61
109 22 38
110 88 72
111 107 63
112 33 131
113 123 112
114 67 55
115 39 128
116 136 0
117 93 36
118 7 115
119 21 44
120 28 74
121 86 102
122 19 37
123 84 36
124 118 108
125 132 24
126 6 25
127 28 78
128 2 132
129 22 22
130 88 35
131 94 104
132 74 96
133 0 117
134 99 96
135 119 114
136 28 107
137 133 12
138 35 102
139 36 105
140 84 39
141 34 138
142 136 29
143 33 133
144 16 39
145 32 77
146 122 131
147 77 100
148 96 26
149 127 29
150 91 95
151 42 136
152 36 132
153 103 106
154 107 105
155 96 74
156 63 57
157 122 113
158 14 131
159 30 31
160 40 132
161 99 26
162 10 118
163 102 60
164 120 136
165 97 29
166 19 39
167 27 77
168 30 24
169 126 112
170 105 110
171 118 114
172 135 6
173 111 66
174 95 77
175 139 10
176 61 54
177 16 38
178 16 138
179 91 78
180 91 71
181 0 27
182 6 113
183 119 139
184 35 99
185 31 112
186 5 119
187 3 135
188 30 136
189 20 39
190 131 11
191 28 33
192 4 23
193 87 108
194 21 26
195 121 134
196 119 130
197 91 108
198 130 27
199 101 107
200 34 108
201 131 31
202 22 38
203 6 135
204 34 138
205 126 112
206 24 24
207 32 106
208 57 53
209 77 100
210 9 114
211 94 73
212 33 78
213 132 24
214 99 28
215 21 48
PICKUP_AND_DELIVERY_SECTION
1 0 0 1351 0 0 0
2 20 672 887 0 0 212
3 -10 476 678 90 114 0
4 30 110 256 90 0 89
5 10 442 836 90 0 166
6 20 81 226 90 0 129
7 10 475 535 90 0 123
8 -30 582 714 90 133 0
9 40 296 442 0 0 203
10 20 660 716 90 0 100
11 20 127 363 90 0 168
12 -10 299 528 90 13 0
13 10 115 333 90 0 12
14 -10 304 475 90 176 0
15 -20 594 599 90 31 0
16 20 854 902 90 0 199
17 -10 485 782 90 23 0
18 -30 790 924 90 37 0
19 10 200 328 90 0 186
20 20 165 274 90 0 193
21 30 33 291 90 0 81
22 20 72 107 90 0 76
23 10 333 547 90 0 17
24 30 148 190 90 0 146
25 -10 408 570 90 155 0
26 10 444 552 90 0 78
27 -10 56 402 90 134 0
28 30 38 378 90 0 180
29 20 810 945 90 0 150
30 -20 625 794 90 113 0
31 20 32 126 90 0 15
32 -20 297 514 90 86 0
33 10 84 223 90 0 175
34 -20 530 689 90 144 0
35 -20 692 916 90 194 0
36 -10 338 483 90 167 0
37 30 475 562 90 0 18
38 10 519 740 0 0 207
39 -10 176 332 90 115 0
40 20 876 1026 90 0 108
41 20 326 499 90 0 90
42 20 83 175 90 0 111
43 -20 838 955 90 88 0
44 -20 298 667 90 79 0
45 -20 47 371 90 63 0
46 10 19 121 90 0 174
47 20 368 490 90 0 96
48 30 327 508 0 0 214
49 10 56 206 90 0 170
50 20 889 969 0 0 210
51 -20 209 288 90 135 0
52 -10 631 659 90 87 0
53 -20 720 918 90 196 0
54 -20 880 1049 90 72 0
55 30 348 369 90 0 182
56 -10 118 177 90 94 0
57 -20 1056 1198 90 160 0
58 10 53 274 0 0 215
59 10 211 471 90 0 82
60 -10 904 1041 90 106 0
61 20 77 319 90 0 126
62 20 531 634 90 0 110
63 20 23 203 90 0 45
64 -10 1020 1181 90 152 0
65 10 701 830 0 0 211
66 20 260 290 90 0 116
67 -30 89 192 90 165 0
68 -10 713 812 90 156 0
69 -30 438 536 90 132 0
70 20 519 556 90 0 201
71 -10 556 657 90 148 0
72 20 516 676 90 0 54
73 40 619 842 90 0 189
74 20 35 331 90 0 117
75 -10 941 1000 90 97 0
76 -20 317 400 90 22 0
77 -20 446 719 90 103 0
78 -10 561 798 90 26 0
79 20 106 297 90 0 44
80 -10 510 722 90 171 0
81 -30 169 458 90 21 0
82 -10 706 737 90 59 0
83 10 79 299 90 0 181
84 10 232 251 90 0 122
85 10 303 416 90 0 192
86 20 102 343 90 0 32
87 10 339 397 90 0 52
88 20 741 862 90 0 43
89 -30 191 360 90 4 0
90 -20 600 786 90 41 0
91 10 597 742 0 0 208
92 -40 486 534 90 161 0
93 -20 829 994 90 195 0
94 10 51 226 90 0 56
95 20 382 722 90 0 137
96 -20 864 925 90 47 0
97 10 673 712 90 0 75
98 30 433 563 90 0 131
99 10 522 785 90 0 158
100 -20 811 931 90 10 0
101 -10 671 678 90 179 0
102 10 35 275 90 0 145
103 20 135 468 90 0 77
104 30 86 236 90 0 142
105 20 100 238 90 0 118
106 10 712 857 90 0 60
107 10 497 732 0 0 206
108 -20 1036 1052 90 40 0
109 20 911 1042 0 0 202
110 -20 927 977 90 62 0
111 -20 734 814 90 42 0
112 -10 987 1028 90 188 0
113 20 293 571 90 0 30
114 10 15 203 90 0 3
115 10 65 367 90 0 39
116 -20 429 488 90 66 0
117 -20 41 288 90 74 0
118 -20 763 910 90 105 0
119 20 104 192 90 0 177
120 20 57 391 90 0 127
121 10 35 252 90 0 197
122 -10 613 790 90 84 0
123 -10 502 692 90 7 0
124 -20 949 1031 90 157 0
125 10 323 372 0 0 213
126 -20 448 642 90 61 0
127 -20 457 552 90 120 0
128 10 472 637 90 0 139
129 -20 450 593 90 6 0
130 20 213 429 90 0 140
131 -30 729 838 90 98 0
132 30 26 284 90 0 69
133 30 398 702 90 0 8
134 10 38 309 90 0 27
135 20 126 187 90 0 51
136 20 170 311 90 0 185
137 -20 710 961 90 95 0
138 -10 848 966 90 200 0
139 -10 753 876 90 128 0
140 -20 622 757 90 130 0
141 20 661 793 0 0 204
142 -30 347 542 90 104 0
143 -10 798 1034 90 151 0
144 20 286 386 90 0 34
145 -10 90 167 90 102 0
146 -30 529 741 90 24 0
147 20 302 484 0 0 209
148 10 152 312 90 0 71
149 20 70 236 90 0 198
150 -20 1021 1112 90 29 0
151 10 222 470 90 0 143
152 10 500 581 90 0 64
153 30 258 385 90 0 154
154 -30 404 607 90 153 0
155 10 381 408 90 0 25
156 10 14 413 90 0 68
157 20 168 512 90 0 124
158 -10 620 876 90 99 0
159 -20 962 1014 90 191 0
160 20 68 285 90 0 57
161 40 285 366 90 0 92
162 10 76 181 90 0 184
163 -20 787 953 90 173 0
164 -20 329 571 90 183 0
165 30 49 346 90 0 67
166 -10 683 903 90 5 0
167 10 226 407 90 0 36
168 -20 601 820 90 11 0
169 10 403 647 0 0 205
170 -10 557 645 90 49 0
171 10 65 87 90 0 80
172 30 91 333 90 0 190
173 20 572 606 90 0 163
174 -10 220 382 90 46 0
175 -10 713 766 90 33 0
176 10 228 363 90 0 14
177 -20 307 547 90 119 0
178 10 86 142 90 0 187
179 10 66 163 90 0 101
180 -30 769 949 90 28 0
181 -10 199 333 90 83 0
182 -30 688 800 90 55 0
183 20 198 334 90 0 164
184 -10 951 1049 90 162 0
185 -20 317 565 90 136 0
186 -10 350 558 90 19 0
187 -10 443 481 90 178 0
188 10 709 934 90 0 112
189 -40 810 958 90 73 0
190 -30 805 1050 90 172 0
191 20 55 135 90 0 159
192 -10 420 485 90 85 0
193 -20 193 432 90 20 0
194 20 241 435 90 0 35
195 20 475 608 90 0 93
196 20 715 742 90 0 53
197 -10 237 577 90 121 0
198 -20 198 311 90 149 0
199 -20 1038 1090 90 16 0
200 10 534 539 90 0 138
201 -20 529 732 90 70 0
202 -20 911 1042 90 109 0
203 -40 296 442 90 9 0
204 -20 661 793 90 141 0
205 -10 403 647 90 169 0
206 -10 497 732 90 107 0
207 -10 519 740 90 38 0
208 -10 597 742 90 91 0
209 -20 302 484 90 147 0
210 -20 889 969 90 50 0
211 -10 701 830 90 65 0
212 -20 672 887 90 2 0
213 -10 323 372 90 125 0
214 -30 327 508 90 48 0
215 -10 53 274 90 58 0
DEPOT_SECTION
1
-1
EOF
