NAME: lc1_2_4
TYPE: PDPTW
COMMENT: Li & Lim PDPTW benchmark converted from SINTEF format
DIMENSION: 211
VEHICLES: 50
CAPACITY: 200
EDGE_WEIGHT_TYPE: EUC_2D
NODE_COORD_SECTION
1 70 70
2 33 78
3 59 52
4 10 137
5 4 28
6 25 26
7 86 37
8 1 109
9 6 135
10 32 79
11 24 26
12 86 36
13 95 35
14 63 50
15 100 106
16 99 112
17 36 135
18 57 59
19 8 124
20 85 106
21 103 69
22 109 131
23 43 140
24 115 134
25 98 70
26 112 67
27 102 104
28 93 75
29 90 104
30 127 108
31 84 99
32 113 69
33 129 9
34 18 38
35 30 27
36 25 80
37 17 37
38 32 106
39 43 135
40 61 59
41 104 106
42 109 71
43 121 110
44 61 48
45 74 99
46 89 73
47 21 25
48 99 28
49 101 96
50 9 114
51 121 112
52 137 6
53 118 131
54 34 82
55 4 125
56 26 105
57 35 123
58 21 48
59 21 115
60 99 108
61 1 34
62 94 70
63 74 93
64 32 128
65 94 73
66 135 3
67 97 28
68 59 56
69 80 97
70 134 31
71 103 34
72 30 79
73 4 30
74 87 39
75 90 101
76 119 136
77 78 92
78 110 66
79 62 58
80 127 112
81 113 71
82 34 104
83 2 28
84 17 43
85 1 24
86 112 71
87 135 0
88 125 108
89 8 138
90 103 111
91 57 53
92 98 31
93 116 132
94 28 99
95 137 3
96 29 28
97 94 105
98 92 107
99 10 134
100 34 79
101 94 72
102 35 76
103 76 99
104 127 28
105 8 119
106 102 110
107 24 24
108 64 61
109 22 38
110 88 72
111 107 63
112 33 131
113 123 112
114 67 55
115 39 128
116 136 0
117 93 36
118 7 115
119 21 44
120 28 74
121 86 102
122 19 37
123 84 36
124 118 108
125 132 24
126 6 25
127 28 78
128 2 132
129 22 22
130 88 35
131 94 104
132 74 96
133 0 117
134 99 96
135 119 114
136 28 107
137 133 12
138 35 102
139 36 105
140 84 39
141 34 138
142 136 29
143 33 133
144 16 39
145 32 77
146 122 131
147 77 100
148 96 26
149 127 29
150 91 95
151 42 136
152 36 132
153 103 106
154 107 105
155 96 74
156 63 57
157 122 113
158 14 131
159 30 31
160 40 132
161 99 26
162 10 118
163 102 60
164 120 136
165 97 29
166 19 39
167 27 77
168 30 24
169 126 112
170 105 110
171 118 114
172 135 6
173 111 66
174 95 77
175 139 10
176 61 54
177 16 38
178 16 138
179 91 78
180 91 71
181 0 27
182 6 113
183 119 139
184 35 99
185 31 112
186 5 119
187 3 135
188 30 136
189 20 39
190 131 11
191 28 33
192 4 23
193 87 108
194 21 26
195 121 134
196 119 130
197 91 108
198 130 27
199 101 107
200 34 108
201 131 31
202 98 31
203 19 37
204 127 28
205 34 82
206 30 27
207 6 135
208 33 131
209 91 71
210 4 28
211 97 28
PICKUP_AND_DELIVERY_SECTION
1 0 0 1351 0 0 0
2 -20 750 809 90 36 0
3 -40 0 1240 90 161 0
4 30 0 1172 90 0 128
5 10 0 1183 0 0 210
6 20 128 179 90 0 11
7 10 478 531 90 0 165
8 10 0 1182 90 0 133
9 40 351 386 0 0 207
10 -10 655 721 90 127 0
11 -20 0 1198 90 6 0
12 20 0 1224 90 0 130
13 -10 0 1218 90 114 0
14 10 0 1240 90 0 108
15 -20 0 1215 90 41 0
16 -20 0 1210 90 27 0
17 -20 598 669 90 160 0
18 -10 0 1244 90 129 0
19 10 0 1179 90 0 50
20 20 0 1222 90 0 193
21 -10 0 1228 90 81 0
22 20 0 1189 90 0 196
23 10 0 1186 90 0 141
24 30 140 199 90 0 93
25 -10 467 511 90 179 0
26 10 462 534 90 0 78
27 20 0 1215 90 0 16
28 30 0 1238 90 0 150
29 20 0 1222 90 0 121
30 10 0 1193 90 0 43
31 20 0 1229 90 0 77
32 -20 370 440 90 86 0
33 10 84 147 90 0 95
34 30 0 1200 90 0 119
35 10 0 1203 0 0 206
36 20 380 440 90 0 2
37 30 0 1199 90 0 166
38 -10 0 1209 90 82 0
39 -10 0 1191 90 115 0
40 20 0 1247 90 0 109
41 20 0 1212 90 0 15
42 -10 0 1222 90 46 0
43 -10 0 1197 90 30 0
44 -10 448 517 90 148 0
45 -20 0 1232 90 185 0
46 10 19 94 90 0 42
47 20 0 1195 90 0 168
48 -30 0 1210 90 71 0
49 -10 0 1221 90 169 0
50 -10 0 1186 90 19 0
51 20 221 277 90 0 113
52 10 0 1169 90 0 137
53 -10 782 857 90 164 0
54 10 0 1224 0 0 205
55 -10 0 1176 90 59 0
56 40 0 1205 90 0 200
57 -20 1130 1198 90 143 0
58 10 0 1208 90 0 144
59 10 306 376 90 0 55
60 -30 0 1214 90 153 0
61 -10 0 1184 90 85 0
62 -10 556 610 90 155 0
63 20 23 66 90 0 75
64 -10 0 1192 90 188 0
65 10 0 1237 90 0 69
66 -30 0 1168 90 172 0
67 20 0 1212 0 0 211
68 20 0 1244 90 0 79
69 -10 0 1233 90 65 0
70 20 0 1187 90 0 163
71 30 0 1213 90 0 48
72 20 0 1220 90 0 100
73 -30 0 1184 90 181 0
74 -10 0 1226 90 123 0
75 -20 0 1225 90 63 0
76 30 0 1179 90 0 146
77 -20 0 1238 90 31 0
78 -10 0 1221 90 26 0
79 -20 0 1247 90 68 0
80 20 595 636 90 0 124
81 10 0 1218 90 0 21
82 10 0 1212 90 0 38
83 10 0 1182 90 0 84
84 -10 0 1202 90 83 0
85 10 0 1179 90 0 61
86 20 0 1219 90 0 32
87 10 0 1166 90 0 116
88 -20 0 1195 90 135 0
89 30 0 1169 90 0 187
90 -20 0 1209 90 170 0
91 -10 0 1240 90 96 0
92 20 0 1213 0 0 202
93 -30 0 1184 90 24 0
94 10 51 93 90 0 136
95 -10 0 1167 90 33 0
96 10 865 925 90 0 91
97 -20 0 1219 90 147 0
98 -20 0 1218 90 103 0
99 10 0 1174 90 0 138
100 -20 841 902 90 72 0
101 20 647 703 90 0 174
102 10 0 1226 90 0 167
103 20 0 1232 90 0 98
104 30 0 1191 0 0 204
105 -10 0 1182 90 158 0
106 -10 0 1210 90 134 0
107 10 0 1196 90 0 159
108 -10 0 1251 90 14 0
109 -20 0 1204 90 40 0
110 -30 0 1243 90 198 0
111 -20 748 800 90 173 0
112 30 0 1190 0 0 208
113 -20 0 1194 90 51 0
114 10 15 62 90 0 13
115 10 0 1196 90 0 39
116 -10 0 1165 90 87 0
117 -20 0 1220 90 140 0
118 10 0 1184 90 0 184
119 -30 0 1206 90 34 0
120 -20 0 1219 90 145 0
121 -20 0 1226 90 29 0
122 20 665 738 0 0 203
123 10 568 626 90 0 74
124 -20 972 1008 90 80 0
125 10 0 1184 90 0 201
126 -10 516 574 90 192 0
127 10 0 1219 90 0 10
128 -30 0 1169 90 4 0
129 10 0 1194 90 0 18
130 -20 285 358 90 12 0
131 -10 0 1220 90 197 0
132 -20 0 1235 90 139 0
133 -10 515 585 90 8 0
134 10 0 1223 90 0 106
135 20 0 1196 90 0 88
136 -10 0 1206 90 94 0
137 -10 797 874 90 52 0
138 -10 0 1214 90 99 0
139 20 0 1213 90 0 132
140 20 0 1227 90 0 117
141 -10 0 1185 90 23 0
142 -20 0 1184 90 149 0
143 20 890 941 90 0 57
144 -10 314 358 90 58 0
145 20 0 1223 90 0 120
146 -30 0 1181 90 76 0
147 20 0 1231 90 0 97
148 10 0 1210 90 0 44
149 20 70 141 90 0 142
150 -30 0 1229 90 28 0
151 10 0 1190 90 0 152
152 -10 509 571 90 151 0
153 30 0 1213 90 0 60
154 10 472 539 90 0 199
155 10 0 1235 90 0 62
156 -10 0 1247 90 176 0
157 -10 0 1194 90 171 0
158 10 0 1179 90 0 105
159 -10 960 1016 90 107 0
160 20 137 182 90 0 17
161 40 287 363 90 0 3
162 -10 0 1185 90 178 0
163 -20 840 900 90 70 0
164 10 0 1179 90 0 53
165 -10 0 1212 90 7 0
166 -30 764 823 90 37 0
167 -10 0 1218 90 102 0
168 -20 0 1201 90 47 0
169 10 0 1191 90 0 49
170 20 0 1208 90 0 90
171 10 0 1196 90 0 157
172 30 0 1170 90 0 66
173 20 0 1220 90 0 111
174 -20 0 1236 90 101 0
175 30 0 1170 90 0 190
176 10 0 1243 90 0 156
177 20 0 1199 90 0 189
178 10 86 142 90 0 162
179 10 0 1239 90 0 25
180 20 0 1240 0 0 209
181 30 241 292 90 0 73
182 -20 0 1184 90 186 0
183 20 234 298 90 0 195
184 -10 0 1216 90 118 0
185 20 401 481 90 0 45
186 20 0 1180 90 0 182
187 -30 0 1168 90 89 0
188 10 0 1184 90 0 64
189 -20 0 1203 90 177 0
190 -30 0 1177 90 175 0
191 20 0 1206 90 0 194
192 10 0 1180 90 0 126
193 -20 0 1220 90 20 0
194 -20 0 1196 90 191 0
195 -20 517 567 90 183 0
196 -20 0 1184 90 22 0
197 10 0 1218 90 0 131
198 30 0 1188 90 0 110
199 -10 1038 1090 90 154 0
200 -40 0 1209 90 56 0
201 -10 0 1189 90 125 0
202 -20 0 1213 90 92 0
203 -20 665 738 90 122 0
204 -30 0 1191 90 104 0
205 -10 0 1224 90 54 0
206 -10 0 1203 90 35 0
207 -40 351 386 90 9 0
208 -30 0 1190 90 112 0
209 -20 0 1240 90 180 0
210 -10 0 1183 90 5 0
211 -20 0 1212 90 67 0
DEPOT_SECTION
1
-1
EOF
