NAME: lc2_2_4
TYPE: PDPTW
COMMENT: Li & Lim PDPTW benchmark converted from SINTEF format
DIMENSION: 205
VEHICLES: 50
CAPACITY: 700
EDGE_WEIGHT_TYPE: EUC_2D
NODE_COORD_SECTION
1 70 70
2 38 105
3 100 5
4 111 78
5 96 62
6 122 11
7 94 18
8 60 89
9 67 123
10 99 53
11 26 24
12 93 61
13 27 32
14 25 31
15 98 36
16 101 68
17 49 48
18 56 95
19 14 107
20 98 46
21 131 4
22 94 89
23 70 113
24 94 59
25 64 59
26 112 3
27 20 108
28 10 118
29 76 65
30 103 12
31 44 62
32 96 138
33 27 44
34 21 28
35 26 91
36 98 75
37 69 48
38 19 116
39 60 111
40 54 102
41 63 103
42 91 91
43 77 15
44 77 117
45 115 41
46 12 33
47 44 82
48 117 55
49 116 10
50 57 77
51 29 36
52 90 91
53 62 73
54 6 121
55 105 49
56 28 115
57 4 137
58 11 100
59 67 84
60 23 22
61 41 64
62 56 56
63 80 40
64 60 66
65 16 90
66 104 82
67 64 78
68 47 36
69 46 80
70 86 124
71 48 72
72 121 9
73 60 52
74 25 46
75 26 15
76 98 116
77 66 131
78 15 30
79 66 117
80 111 70
81 123 19
82 17 18
83 57 87
84 102 33
85 7 113
86 37 115
87 17 25
88 83 105
89 51 115
90 96 55
91 112 2
92 116 23
93 57 70
94 15 23
95 45 68
96 19 41
97 38 16
98 81 135
99 62 128
100 49 70
101 24 19
102 119 20
103 62 125
104 29 10
105 13 80
106 65 73
107 109 25
108 91 71
109 47 57
110 9 42
111 96 23
112 26 102
113 4 15
114 3 98
115 35 88
116 18 107
117 95 68
118 58 85
119 11 23
120 61 107
121 3 17
122 26 104
123 74 56
124 24 105
125 30 106
126 4 33
127 106 0
128 120 10
129 106 5
130 30 58
131 9 9
132 7 92
133 50 29
134 46 52
135 70 110
136 37 111
137 75 64
138 20 93
139 94 1
140 41 12
141 20 109
142 28 14
143 87 63
144 101 4
145 80 22
146 117 10
147 103 33
148 104 51
149 103 19
150 7 52
151 73 119
152 79 128
153 10 50
154 26 23
155 95 103
156 101 59
157 113 67
158 25 94
159 120 20
160 105 26
161 59 77
162 116 34
163 45 71
164 86 109
165 15 96
166 64 88
167 60 115
168 63 100
169 94 104
170 8 102
171 64 89
172 61 66
173 95 121
174 47 63
175 19 96
176 103 55
177 36 94
178 75 103
179 65 80
180 94 56
181 18 123
182 92 123
183 12 31
184 106 81
185 98 28
186 14 133
187 101 32
188 25 66
189 78 61
190 123 64
191 126 20
192 72 117
193 10 105
194 128 0
195 130 16
196 114 63
197 80 63
198 113 36
199 15 94
200 129 77
201 85 85
202 62 73
203 44 82
204 24 19
205 83 105
PICKUP_AND_DELIVERY_SECTION
1 0 0 3598 0 0 0
2 -40 0 3461 90 112 0
3 20 668 828 90 0 144
4 -20 0 3467 90 80 0
5 -10 0 3481 90 108 0
6 30 0 3430 90 0 160
7 30 0 3451 90 0 37
8 -30 0 3487 90 109 0
9 20 906 1066 90 0 157
10 -10 0 3475 90 36 0
11 20 0 3445 90 0 183
12 -10 0 3484 90 147 0
13 20 1209 1369 90 0 113
14 20 1117 1277 90 0 33
15 -40 0 3464 90 189 0
16 -20 0 3477 90 22 0
17 -10 0 3478 90 35 0
18 10 0 3480 90 0 167
19 -10 0 3441 90 106 0
20 20 0 3472 90 0 139
21 40 0 3419 90 0 92
22 20 0 3478 90 0 16
23 30 0 3465 90 0 164
24 -30 3002 3162 90 156 0
25 -20 1920 2080 90 73 0
26 10 0 3429 90 0 63
27 10 0 3446 90 0 141
28 20 0 3432 90 0 122
29 -20 0 3501 90 187 0
30 20 0 3442 90 0 107
31 -10 0 3481 90 138 0
32 10 0 3436 90 0 155
33 -20 1406 1566 90 14 0
34 -10 0 3444 90 133 0
35 10 0 3460 90 0 17
36 10 0 3480 90 0 10
37 -30 3120 3280 90 7 0
38 -10 0 3440 90 170 0
39 10 0 3466 90 0 44
40 20 0 3473 90 0 77
41 -10 0 3475 90 168 0
42 -20 0 3479 90 201 0
43 10 0 3453 90 0 137
44 -10 0 3461 90 39 0
45 20 2688 2848 90 0 197
46 -30 831 991 90 94 0
47 20 0 3480 0 0 203
48 -20 0 3459 90 176 0
49 20 0 3433 90 0 81
50 -10 0 3494 90 93 0
51 20 0 3455 90 0 97
52 10 0 3479 90 0 148
53 20 3070 3230 0 0 202
54 20 0 3427 90 0 57
55 -20 2324 2484 90 117 0
56 -10 0 3447 90 116 0
57 -20 0 3414 90 54 0
58 20 933 1093 90 0 85
59 -10 2877 3037 90 171 0
60 20 0 3441 90 0 121
61 -20 0 3479 90 65 0
62 40 0 3489 90 0 67
63 -10 0 3477 90 26 0
64 30 223 383 90 0 163
65 20 0 3451 90 0 61
66 30 0 3472 90 0 184
67 -40 0 3498 90 62 0
68 20 41 201 90 0 154
69 -20 3322 3482 90 136 0
70 20 0 3452 90 0 169
71 20 0 3486 90 0 158
72 -20 0 3429 90 128 0
73 20 0 3488 90 0 25
74 20 1313 1473 90 0 150
75 20 0 3438 90 0 126
76 -20 0 3455 90 99 0
77 -20 0 3447 90 40 0
78 20 925 1085 90 0 110
79 30 0 3461 90 0 135
80 20 2710 2870 90 0 4
81 -20 0 3435 90 49 0
82 -30 2191 2351 90 104 0
83 -30 0 3487 90 105 0
84 -10 2987 3147 90 198 0
85 -20 1421 1581 90 58 0
86 -30 0 3453 90 125 0
87 10 0 3439 90 0 131
88 30 0 3471 0 0 205
89 -30 2607 2767 90 186 0
90 -30 0 3478 90 180 0
91 -10 0 3429 90 127 0
92 -40 0 3443 90 21 0
93 10 2023 2183 90 0 50
94 30 0 3436 90 0 46
95 -20 0 3483 90 153 0
96 -20 2986 3146 90 142 0
97 -20 0 3446 90 51 0
98 20 0 3443 90 0 178
99 20 0 3450 90 0 76
100 -20 0 3487 90 130 0
101 10 0 3440 0 0 204
102 10 2395 2555 90 0 145
103 30 620 780 90 0 151
104 30 0 3436 90 0 82
105 30 0 3451 90 0 83
106 10 0 3503 90 0 19
107 -20 0 3449 90 30 0
108 10 0 3487 90 0 5
109 30 0 3482 90 0 8
110 -20 2689 2849 90 78 0
111 30 177 337 90 0 123
112 40 0 3454 90 0 2
113 -20 0 3423 90 13 0
114 10 1031 1191 90 0 132
115 -10 0 3469 90 172 0
116 10 0 3445 90 0 56
117 20 821 981 90 0 55
118 10 2310 2470 90 0 166
119 10 0 3433 90 0 140
120 10 0 3470 90 0 192
121 -20 2483 2643 90 60 0
122 -20 0 3453 90 28 0
123 -30 0 3494 90 111 0
124 -30 2118 2278 90 177 0
125 30 2305 2465 90 0 86
126 -20 0 3433 90 75 0
127 10 0 3430 90 0 91
128 20 0 3430 90 0 72
129 -30 0 3434 90 149 0
130 20 3096 3256 90 0 100
131 -10 2293 2453 90 87 0
132 -10 1128 1288 90 114 0
133 10 0 3463 90 0 34
134 -30 0 3478 90 174 0
135 -30 0 3468 90 79 0
136 20 0 3456 90 0 69
137 -10 0 3501 90 43 0
138 10 0 3453 90 0 31
139 -20 0 3435 90 20 0
140 -10 0 3444 90 119 0
141 -10 0 3445 90 27 0
142 20 1907 2067 90 0 96
143 -20 0 3490 90 162 0
144 -20 0 3436 90 3 0
145 -10 0 3459 90 102 0
146 -10 0 3432 90 185 0
147 10 0 3459 90 0 12
148 -10 0 3470 90 52 0
149 30 0 3448 90 0 129
150 -20 0 3443 90 74 0
151 -30 1487 1647 90 103 0
152 30 0 3450 90 0 196
153 20 0 3445 90 0 95
154 -20 0 3444 90 68 0
155 -10 0 3467 90 32 0
156 30 1533 1693 90 0 24
157 -20 2616 2776 90 9 0
158 -20 0 3457 90 71 0
159 -10 0 3438 90 194 0
160 -30 0 3452 90 6 0
161 20 0 3495 90 0 175
162 20 0 3450 90 0 143
163 -30 0 3483 90 64 0
164 -30 0 3466 90 23 0
165 10 0 3448 90 0 193
166 -10 2782 2942 90 118 0
167 -10 0 3462 90 18 0
168 10 0 3478 90 0 41
169 -20 0 3467 90 70 0
170 10 1228 1388 90 0 38
171 10 2691 2851 90 0 59
172 10 132 292 90 0 115
173 -10 0 3452 90 182 0
174 30 0 3484 90 0 134
175 -20 0 3451 90 161 0
176 20 0 3472 90 0 48
177 30 0 3467 90 0 124
178 -20 0 3475 90 98 0
179 -10 0 3497 90 188 0
180 30 0 3481 90 0 90
181 -30 0 3434 90 199 0
182 10 2094 2254 90 0 173
183 -20 0 3439 90 11 0
184 -30 0 3471 90 66 0
185 10 0 3458 90 0 146
186 30 1818 1978 90 0 89
187 20 0 3459 90 0 29
188 10 0 3463 90 0 179
189 40 0 3496 90 0 15
190 -10 0 3455 90 200 0
191 -30 0 3433 90 195 0
192 -10 0 3461 90 120 0
193 -10 0 3439 90 165 0
194 10 0 3418 90 0 159
195 30 0 3428 90 0 191
196 -30 0 3464 90 152 0
197 -20 0 3496 90 45 0
198 10 0 3454 90 0 84
199 30 268 428 90 0 181
200 10 0 3449 90 0 190
201 20 0 3487 90 0 42
202 -20 3070 3230 90 53 0
203 -20 0 3480 90 47 0
204 -10 0 3440 90 101 0
205 -30 0 3471 90 88 0
DEPOT_SECTION
1
-1
EOF
