NAME: lc2_2_9
TYPE: PDPTW
COMMENT: Li & Lim PDPTW benchmark converted from SINTEF format
DIMENSION: 203
VEHICLES: 50
CAPACITY: 700
EDGE_WEIGHT_TYPE: EUC_2D
NODE_COORD_SECTION
1 70 70
2 38 105
3 100 5
4 111 78
5 96 62
6 122 11
7 94 18
8 60 89
9 67 123
10 99 53
11 26 24
12 93 61
13 27 32
14 25 31
15 98 36
16 101 68
17 49 48
18 56 95
19 14 107
20 98 46
21 131 4
22 94 89
23 70 113
24 94 59
25 64 59
26 112 3
27 20 108
28 10 118
29 76 65
30 103 12
31 44 62
32 96 138
33 27 44
34 21 28
35 26 91
36 98 75
37 69 48
38 19 116
39 60 111
40 54 102
41 63 103
42 91 91
43 77 15
44 77 117
45 115 41
46 12 33
47 44 82
48 117 55
49 116 10
50 57 77
51 29 36
52 90 91
53 62 73
54 6 121
55 105 49
56 28 115
57 4 137
58 11 100
59 67 84
60 23 22
61 41 64
62 56 56
63 80 40
64 60 66
65 16 90
66 104 82
67 64 78
68 47 36
69 46 80
70 86 124
71 48 72
72 121 9
73 60 52
74 25 46
75 26 15
76 98 116
77 66 131
78 15 30
79 66 117
80 111 70
81 123 19
82 17 18
83 57 87
84 102 33
85 7 113
86 37 115
87 17 25
88 83 105
89 51 115
90 96 55
91 112 2
92 116 23
93 57 70
94 15 23
95 45 68
96 19 41
97 38 16
98 81 135
99 62 128
100 49 70
101 24 19
102 119 20
103 62 125
104 29 10
105 13 80
106 65 73
107 109 25
108 91 71
109 47 57
110 9 42
111 96 23
112 26 102
113 4 15
114 3 98
115 35 88
116 18 107
117 95 68
118 58 85
119 11 23
120 61 107
121 3 17
122 26 104
123 74 56
124 24 105
125 30 106
126 4 33
127 106 0
128 120 10
129 106 5
130 30 58
131 9 9
132 7 92
133 50 29
134 46 52
135 70 110
136 37 111
137 75 64
138 20 93
139 94 1
140 41 12
141 20 109
142 28 14
143 87 63
144 101 4
145 80 22
146 117 10
147 103 33
148 104 51
149 103 19
150 7 52
151 73 119
152 79 128
153 10 50
154 26 23
155 95 103
156 101 59
157 113 67
158 25 94
159 120 20
160 105 26
161 59 77
162 116 34
163 45 71
164 86 109
165 15 96
166 64 88
167 60 115
168 63 100
169 94 104
170 8 102
171 64 89
172 61 66
173 95 121
174 47 63
175 19 96
176 103 55
177 36 94
178 75 103
179 65 80
180 94 56
181 18 123
182 92 123
183 12 31
184 106 81
185 98 28
186 14 133
187 101 32
188 25 66
189 78 61
190 123 64
191 126 20
192 72 117
193 10 105
194 128 0
195 130 16
196 114 63
197 80 63
198 113 36
199 15 94
200 129 77
201 85 85
202 79 128
203 4 15
PICKUP_AND_DELIVERY_SECTION
1 0 0 3598 0 0 0
2 20 2318 3457 90 0 86
3 20 523 973 90 0 91
4 10 892 1310 90 0 162
5 10 2118 3481 90 0 24
6 30 1476 2528 90 0 84
7 -10 111 595 90 145 0
8 -30 2335 3019 90 31 0
9 -20 527 1445 90 40 0
10 20 1216 2579 90 0 147
11 -20 63 1177 90 68 0
12 -10 2000 3484 90 196 0
13 20 684 1894 90 0 82
14 20 764 1630 90 0 74
15 10 2647 3464 90 0 37
16 10 369 1625 90 0 148
17 -20 1232 1733 90 71 0
18 -20 2263 2898 90 61 0
19 -10 384 1447 90 27 0
20 20 1532 2456 90 0 157
21 40 1393 2041 90 0 195
22 -30 2458 3292 90 103 0
23 30 985 1776 90 0 178
24 -10 2862 3302 90 5 0
25 10 1465 2535 90 0 171
26 10 975 1875 90 0 146
27 10 370 1268 90 0 19
28 20 908 2284 90 0 136
29 40 7 558 90 0 197
30 -10 126 1175 90 185 0
31 30 587 1806 90 0 8
32 -20 1358 2778 90 98 0
33 -10 928 2043 90 87 0
34 40 1027 1177 90 0 121
35 10 2127 3460 90 0 69
36 10 289 1317 90 0 190
37 -10 3164 3235 90 15 0
38 10 1330 2863 90 0 125
39 10 468 544 90 0 135
40 20 72 554 90 0 9
41 20 33 411 90 0 120
42 10 29 1319 90 0 156
43 10 55 1080 90 0 111
44 30 1197 2126 90 0 155
45 -30 2237 3299 90 143 0
46 10 621 1201 90 0 104
47 -30 457 1307 90 64 0
48 20 1064 1764 90 0 176
49 20 777 1695 90 0 159
50 -20 1903 2497 90 90 0
51 -20 851 2317 90 60 0
52 -30 2529 3410 90 88 0
53 -10 2783 3500 90 85 0
54 20 1533 1849 90 0 122
55 -20 1730 3079 90 187 0
56 -10 2075 2894 90 114 0
57 30 1216 2380 90 0 89
58 -10 436 1590 90 141 0
59 30 2524 3390 90 0 67
60 20 196 679 90 0 51
61 20 756 1450 90 0 18
62 -20 868 2299 90 100 0
63 -30 1470 2115 90 109 0
64 30 10 804 90 0 47
65 20 57 1026 90 0 165
66 -40 217 1191 90 189 0
67 -30 2269 3498 90 59 0
68 20 41 285 90 0 11
69 -10 2424 3482 90 35 0
70 -30 1303 2419 90 151 0
71 20 155 1220 90 0 17
72 10 1273 2364 90 0 194
73 20 1172 2185 90 0 180
74 -20 658 2128 90 14 0
75 -30 1715 2443 90 94 0
76 30 1955 3198 90 0 169
77 10 256 1521 90 0 164
78 20 714 1296 90 0 140
79 30 744 1421 90 0 99
80 -10 2661 2919 90 200 0
81 -10 1749 2833 90 144 0
82 -20 1946 2595 90 13 0
83 -10 2127 2838 90 118 0
84 -30 2794 3339 90 6 0
85 10 1076 1926 90 0 53
86 -20 2388 2778 90 2 0
87 10 69 1411 90 0 33
88 30 2135 2620 90 0 52
89 -30 2152 3222 90 57 0
90 20 1318 2100 90 0 50
91 -20 772 2261 90 3 0
92 -20 1921 3217 90 191 0
93 10 1655 2551 90 0 166
94 30 518 736 90 0 75
95 -30 204 799 90 174 0
96 -20 2828 3303 90 153 0
97 10 1219 2173 90 0 130
98 20 1801 2125 90 0 32
99 -30 212 1375 90 79 0
100 20 21 1288 90 0 62
101 -20 1931 2417 90 142 0
102 10 2031 2919 90 0 107
103 30 304 1096 90 0 22
104 -10 1617 2170 90 46 0
105 30 57 825 90 0 123
106 -10 2985 3500 90 172 0
107 -10 1981 3449 90 102 0
108 10 21 1437 90 0 198
109 30 813 1772 90 0 63
110 -20 2705 2834 90 183 0
111 -10 139 376 90 43 0
112 -20 2793 3188 90 181 0
113 20 2405 2537 0 0 203
114 10 746 1476 90 0 56
115 -10 2746 3469 90 170 0
116 -10 507 764 90 138 0
117 -20 576 1226 90 137 0
118 10 1962 2818 90 0 83
119 -10 271 1170 90 133 0
120 -20 201 623 90 41 0
121 -40 2254 2872 90 34 0
122 -20 1964 2618 90 54 0
123 -30 1296 2502 90 105 0
124 -30 2037 2359 90 199 0
125 -10 1976 2794 90 38 0
126 -50 2190 3149 90 154 0
127 -10 740 1340 90 139 0
128 -30 1528 2292 90 149 0
129 30 819 1450 90 0 160
130 -10 2258 3467 90 97 0
131 10 2052 2694 90 0 150
132 20 660 1757 90 0 186
133 10 45 1322 90 0 119
134 10 1015 1760 90 0 161
135 -10 561 2014 90 39 0
136 -20 2402 3181 90 28 0
137 20 7 923 90 0 117
138 10 55 1152 90 0 116
139 10 573 1118 90 0 127
140 -20 1331 2250 90 78 0
141 10 520 936 90 0 58
142 20 1983 1992 90 0 101
143 30 18 1587 90 0 45
144 10 488 1398 90 0 81
145 10 49 851 90 0 7
146 -10 818 1836 90 26 0
147 -20 1607 2589 90 10 0
148 -10 1890 3102 90 16 0
149 30 60 1526 90 0 128
150 -10 2352 3388 90 131 0
151 30 1136 1999 90 0 70
152 30 1433 2093 0 0 202
153 20 2732 3194 90 0 96
154 50 64 1185 90 0 126
155 -30 2090 3451 90 44 0
156 -10 1371 1854 90 42 0
157 -20 2487 2905 90 20 0
158 -20 2623 3457 90 193 0
159 -20 1903 2865 90 49 0
160 -30 2546 3391 90 129 0
161 -10 2119 2464 90 134 0
162 -10 1924 2668 90 4 0
163 10 45 1517 90 0 188
164 -10 2302 2644 90 77 0
165 -20 265 616 90 65 0
166 -10 2454 3271 90 93 0
167 20 46 1184 90 0 192
168 10 30 1128 90 0 182
169 -30 2190 3169 90 76 0
170 10 1072 1544 90 0 115
171 -10 2165 3378 90 25 0
172 10 9 660 90 0 106
173 -10 1949 2587 90 179 0
174 30 162 650 90 0 95
175 10 57 1392 90 0 177
176 -20 1241 1795 90 48 0
177 -10 2946 3467 90 175 0
178 -30 355 2023 90 23 0
179 10 11 480 90 0 173
180 -20 1347 2256 90 73 0
181 20 1109 2889 90 0 112
182 -10 1681 2666 90 168 0
183 20 466 1171 90 0 110
184 -20 184 1039 90 201 0
185 10 50 1293 90 0 30
186 -20 1759 2037 90 132 0
187 20 1939 2442 90 0 55
188 -10 468 1525 90 163 0
189 40 12 400 90 0 66
190 -10 313 2315 90 36 0
191 20 1838 2556 90 0 92
192 -20 715 2236 90 167 0
193 20 1197 1607 90 0 158
194 -10 1259 1986 90 72 0
195 -40 1737 2466 90 21 0
196 10 2209 2995 90 0 12
197 -40 12 644 90 29 0
198 -10 2185 3159 90 108 0
199 30 60 1025 90 0 124
200 10 945 1473 90 0 80
201 20 21 1007 90 0 184
202 -30 1433 2093 90 152 0
203 -20 2405 2537 90 113 0
DEPOT_SECTION
1
-1
EOF
