NAME: lc2_2_6
TYPE: PDPTW
COMMENT: Li & Lim PDPTW benchmark converted from SINTEF format
DIMENSION: 203
VEHICLES: 50
CAPACITY: 700
EDGE_WEIGHT_TYPE: EUC_2D
NODE_COORD_SECTION
1 70 70
2 38 105
3 100 5
4 111 78
5 96 62
6 122 11
7 94 18
8 60 89
9 67 123
10 99 53
11 26 24
12 93 61
13 27 32
14 25 31
15 98 36
16 101 68
17 49 48
18 56 95
19 14 107
20 98 46
21 131 4
22 94 89
23 70 113
24 94 59
25 64 59
26 112 3
27 20 108
28 10 118
29 76 65
30 103 12
31 44 62
32 96 138
33 27 44
34 21 28
35 26 91
36 98 75
37 69 48
38 19 116
39 60 111
40 54 102
41 63 103
42 91 91
43 77 15
44 77 117
45 115 41
46 12 33
47 44 82
48 117 55
49 116 10
50 57 77
51 29 36
52 90 91
53 62 73
54 6 121
55 105 49
56 28 115
57 4 137
58 11 100
59 67 84
60 23 22
61 41 64
62 56 56
63 80 40
64 60 66
65 16 90
66 104 82
67 64 78
68 47 36
69 46 80
70 86 124
71 48 72
72 121 9
73 60 52
74 25 46
75 26 15
76 98 116
77 66 131
78 15 30
79 66 117
80 111 70
81 123 19
82 17 18
83 57 87
84 102 33
85 7 113
86 37 115
87 17 25
88 83 105
89 51 115
90 96 55
91 112 2
92 116 23
93 57 70
94 15 23
95 45 68
96 19 41
97 38 16
98 81 135
99 62 128
100 49 70
101 24 19
102 119 20
103 62 125
104 29 10
105 13 80
106 65 73
107 109 25
108 91 71
109 47 57
110 9 42
111 96 23
112 26 102
113 4 15
114 3 98
115 35 88
116 18 107
117 95 68
118 58 85
119 11 23
120 61 107
121 3 17
122 26 104
123 74 56
124 24 105
125 30 106
126 4 33
127 106 0
128 120 10
129 106 5
130 30 58
131 9 9
132 7 92
133 50 29
134 46 52
135 70 110
136 37 111
137 75 64
138 20 93
139 94 1
140 41 12
141 20 109
142 28 14
143 87 63
144 101 4
145 80 22
146 117 10
147 103 33
148 104 51
149 103 19
150 7 52
151 73 119
152 79 128
153 10 50
154 26 23
155 95 103
156 101 59
157 113 67
158 25 94
159 120 20
160 105 26
161 59 77
162 116 34
163 45 71
164 86 109
165 15 96
166 64 88
167 60 115
168 63 100
169 94 104
170 8 102
171 64 89
172 61 66
173 95 121
174 47 63
175 19 96
176 103 55
177 36 94
178 75 103
179 65 80
180 94 56
181 18 123
182 92 123
183 12 31
184 106 81
185 98 28
186 14 133
187 101 32
188 25 66
189 78 61
190 123 64
191 126 20
192 72 117
193 10 105
194 128 0
195 130 16
196 114 63
197 80 63
198 113 36
199 15 94
200 129 77
201 85 85
202 95 103
203 103 55
PICKUP_AND_DELIVERY_SECTION
1 0 0 3598 0 0 0
2 -10 2629 3147 90 170 0
3 -30 424 1073 90 149 0
4 10 881 1322 90 0 55
5 -30 2668 3125 90 143 0
6 30 1754 2251 90 0 159
7 30 143 562 90 0 26
8 10 2357 2998 90 0 166
9 -10 704 1269 90 77 0
10 20 1667 2128 90 0 12
11 20 63 539 90 0 126
12 -20 2690 3290 90 10 0
13 20 1029 1549 90 0 140
14 20 875 1519 90 0 82
15 -10 2900 3423 90 194 0
16 10 847 1147 90 0 180
17 -20 1216 1749 90 100 0
18 -10 2361 2800 90 83 0
19 20 682 1148 90 0 58
20 20 1648 2341 90 0 196
21 40 1496 1938 90 0 195
22 -30 2627 3122 90 79 0
23 -10 1177 1584 90 120 0
24 -20 2770 3395 90 187 0
25 -30 1747 2253 90 31 0
26 -30 1149 1701 90 7 0
27 10 596 1043 90 0 181
28 -10 1350 1842 90 141 0
29 40 7 571 90 0 42
30 20 429 872 90 0 127
31 30 963 1430 90 0 25
32 10 1904 2232 90 0 182
33 20 1186 1786 90 0 104
34 -10 792 1412 90 119 0
35 -20 2933 3429 90 54 0
36 -10 487 1119 90 108 0
37 -20 2889 3486 90 128 0
38 -10 1886 2306 90 175 0
39 -10 252 760 90 168 0
40 20 35 646 90 0 173
41 20 33 556 90 0 52
42 -40 273 734 90 29 0
43 10 55 498 90 0 72
44 -20 1422 1902 90 178 0
45 -30 2542 2994 90 160 0
46 -10 652 1169 90 87 0
47 20 627 1137 90 0 188
48 20 1268 1561 90 0 157
49 20 1047 1425 90 0 198
50 -30 1933 2467 90 64 0
51 -20 1398 1770 90 60 0
52 -20 2595 3344 90 41 0
53 -10 2889 3410 90 97 0
54 20 1401 1982 90 0 35
55 -10 2199 2610 90 4 0
56 10 2211 2758 90 0 112
57 -10 1638 1958 90 138 0
58 -20 720 1306 90 19 0
59 -20 2676 3238 90 73 0
60 20 161 714 90 0 51
61 -30 807 1400 90 95 0
62 -10 1327 1840 90 134 0
63 20 1545 2040 90 0 123
64 30 129 477 90 0 50
65 20 57 556 90 0 114
66 30 432 977 90 0 162
67 -10 2809 3300 90 93 0
68 20 41 536 90 0 74
69 -20 2986 3482 90 136 0
70 -20 1639 2083 90 167 0
71 20 474 901 90 0 109
72 -10 1571 2066 90 43 0
73 20 1437 1921 90 0 59
74 -20 1148 1638 90 68 0
75 -20 1828 2330 90 137 0
76 30 2311 2842 90 0 88
77 10 626 1150 90 0 9
78 -30 784 1226 90 94 0
79 30 894 1270 90 0 22
80 -20 2601 2978 90 117 0
81 -30 2046 2535 90 129 0
82 -20 1950 2592 90 14 0
83 10 2258 2707 90 0 18
84 -10 2819 3314 90 144 0
85 10 1199 1802 90 0 124
86 20 2296 2871 90 0 115
87 10 286 782 90 0 46
88 -30 2083 2673 90 76 0
89 -30 2498 2876 90 186 0
90 -30 1476 1942 90 156 0
91 20 1295 1738 90 0 191
92 -10 2294 2843 90 102 0
93 10 1834 2372 90 0 67
94 30 434 819 90 0 78
95 30 205 798 90 0 61
96 -20 2794 3338 90 150 0
97 10 1469 1923 90 0 53
98 -30 1719 2208 90 135 0
99 20 564 1022 90 0 164
100 20 295 897 90 0 17
101 10 1884 2463 90 0 113
102 10 2182 2767 90 0 92
103 -10 512 888 90 179 0
104 -20 1684 2103 90 33 0
105 30 57 574 90 0 158
106 -20 2926 3503 90 130 0
107 -10 2619 3130 90 146 0
108 10 21 615 90 0 36
109 -20 1006 1579 90 71 0
110 20 2503 3036 90 0 153
111 30 53 478 90 0 139
112 -10 2740 3241 90 56 0
113 -10 2129 2813 90 101 0
114 -20 906 1317 90 65 0
115 -20 2973 3469 90 86 0
116 -30 381 890 90 199 0
117 20 575 1227 90 0 80
118 10 2179 2600 90 0 171
119 10 583 859 90 0 34
120 10 169 654 90 0 23
121 -20 2273 2854 90 142 0
122 -20 2061 2521 90 132 0
123 -20 1628 2170 90 63 0
124 -10 1902 2494 90 85 0
125 -10 2194 2575 90 165 0
126 -20 2334 3005 90 11 0
127 -20 748 1332 90 30 0
128 20 1676 2145 90 0 37
129 30 877 1393 90 0 81
130 20 2877 3467 90 0 106
131 -10 2113 2634 90 133 0
132 20 947 1470 90 0 122
133 10 45 546 90 0 131
134 10 1117 1658 90 0 62
135 30 1052 1524 90 0 98
136 20 2502 3082 90 0 69
137 20 7 590 90 0 75
138 10 55 643 90 0 57
139 -30 553 1139 90 111 0
140 -20 1483 2098 90 13 0
141 10 507 949 90 0 28
142 20 1768 2206 90 0 121
143 30 18 607 90 0 5
144 10 699 1188 90 0 84
145 10 49 649 90 0 185
146 10 1092 1561 90 0 107
147 -20 1864 2332 90 197 0
148 -20 2296 2696 90 201 0
149 30 199 909 90 0 3
150 20 2659 3080 90 0 96
151 -10 1343 1791 90 192 0
152 30 1519 2008 90 0 169
153 -20 2773 3154 90 110 0
154 50 64 683 90 0 183
155 20 2529 3012 0 0 202
156 30 1350 1875 90 0 90
157 -20 2462 2930 90 48 0
158 -30 2809 3367 90 105 0
159 -30 2110 2657 90 6 0
160 30 2759 3178 90 0 45
161 -10 2071 2513 90 172 0
162 -30 2090 2502 90 66 0
163 -30 458 1105 90 174 0
164 -20 2168 2778 90 99 0
165 10 220 660 90 0 125
166 -10 2627 3098 90 8 0
167 20 350 850 90 0 70
168 10 30 691 90 0 39
169 -30 2491 2867 90 152 0
170 10 1057 1560 90 0 2
171 -10 2458 3084 90 118 0
172 10 69 354 90 0 161
173 -20 2067 2469 90 40 0
174 30 260 551 90 0 163
175 10 203 865 90 0 38
176 20 1246 1790 0 0 203
177 -20 2881 3467 90 193 0
178 20 983 1395 90 0 44
179 10 11 628 90 0 103
180 -10 1548 2054 90 16 0
181 -10 1774 2224 90 27 0
182 -10 1893 2455 90 32 0
183 -50 622 1016 90 154 0
184 20 428 795 90 0 190
185 -10 173 733 90 145 0
186 30 1551 2246 90 0 89
187 20 1885 2497 90 0 24
188 -20 758 1235 90 47 0
189 40 12 417 90 0 200
190 -20 1077 1551 90 184 0
191 -20 1933 2462 90 91 0
192 10 1303 1648 90 0 151
193 20 1243 1562 90 0 177
194 10 1315 1930 90 0 15
195 -40 1819 2385 90 21 0
196 -20 2327 2877 90 20 0
197 20 12 651 90 0 147
198 -20 2405 2939 90 49 0
199 30 80 616 90 0 116
200 -40 999 1419 90 189 0
201 20 132 678 90 0 148
202 -20 2529 3012 90 155 0
203 -20 1246 1790 90 176 0
DEPOT_SECTION
1
-1
EOF
