NAME: lc2_2_3
TYPE: PDPTW
COMMENT: Li & Lim PDPTW benchmark converted from SINTEF format
DIMENSION: 203
VEHICLES: 50
CAPACITY: 700
EDGE_WEIGHT_TYPE: EUC_2D
NODE_COORD_SECTION
1 70 70
2 38 105
3 100 5
4 111 78
5 96 62
6 122 11
7 94 18
8 60 89
9 67 123
10 99 53
11 26 24
12 93 61
13 27 32
14 25 31
15 98 36
16 101 68
17 49 48
18 56 95
19 14 107
20 98 46
21 131 4
22 94 89
23 70 113
24 94 59
25 64 59
26 112 3
27 20 108
28 10 118
29 76 65
30 103 12
31 44 62
32 96 138
33 27 44
34 21 28
35 26 91
36 98 75
37 69 48
38 19 116
39 60 111
40 54 102
41 63 103
42 91 91
43 77 15
44 77 117
45 115 41
46 12 33
47 44 82
48 117 55
49 116 10
50 57 77
51 29 36
52 90 91
53 62 73
54 6 121
55 105 49
56 28 115
57 4 137
58 11 100
59 67 84
60 23 22
61 41 64
62 56 56
63 80 40
64 60 66
65 16 90
66 104 82
67 64 78
68 47 36
69 46 80
70 86 124
71 48 72
72 121 9
73 60 52
74 25 46
75 26 15
76 98 116
77 66 131
78 15 30
79 66 117
80 111 70
81 123 19
82 17 18
83 57 87
84 102 33
85 7 113
86 37 115
87 17 25
88 83 105
89 51 115
90 96 55
91 112 2
92 116 23
93 57 70
94 15 23
95 45 68
96 19 41
97 38 16
98 81 135
99 62 128
100 49 70
101 24 19
102 119 20
103 62 125
104 29 10
105 13 80
106 65 73
107 109 25
108 91 71
109 47 57
110 9 42
111 96 23
112 26 102
113 4 15
114 3 98
115 35 88
116 18 107
117 95 68
118 58 85
119 11 23
120 61 107
121 3 17
122 26 104
123 74 56
124 24 105
125 30 106
126 4 33
127 106 0
128 120 10
129 106 5
130 30 58
131 9 9
132 7 92
133 50 29
134 46 52
135 70 110
136 37 111
137 75 64
138 20 93
139 94 1
140 41 12
141 20 109
142 28 14
143 87 63
144 101 4
145 80 22
146 117 10
147 103 33
148 104 51
149 103 19
150 7 52
151 73 119
152 79 128
153 10 50
154 26 23
155 95 103
156 101 59
157 113 67
158 25 94
159 120 20
160 105 26
161 59 77
162 116 34
163 45 71
164 86 109
165 15 96
166 64 88
167 60 115
168 63 100
169 94 104
170 8 102
171 64 89
172 61 66
173 95 121
174 47 63
175 19 96
176 103 55
177 36 94
178 75 103
179 65 80
180 94 56
181 18 123
182 92 123
183 12 31
184 106 81
185 98 28
186 14 133
187 101 32
188 25 66
189 78 61
190 123 64
191 126 20
192 72 117
193 10 105
194 128 0
195 130 16
196 114 63
197 80 63
198 113 36
199 15 94
200 129 77
201 85 85
202 64 78
203 92 123
PICKUP_AND_DELIVERY_SECTION
1 0 0 3598 0 0 0
2 -30 0 3461 90 125 0
3 20 668 828 90 0 26
4 10 0 3467 90 0 48
5 -20 0 3481 90 157 0
6 -10 0 3430 90 72 0
7 30 0 3451 90 0 159
8 10 2597 2757 90 0 166
9 -10 906 1066 90 77 0
10 -20 0 3475 90 184 0
11 20 0 3445 90 0 183
12 -20 0 3484 90 20 0
13 20 1209 1369 90 0 140
14 20 1117 1277 90 0 150
15 10 0 3464 90 0 187
16 10 917 1077 90 0 196
17 -20 1403 1563 90 47 0
18 10 0 3480 90 0 39
19 -30 835 995 90 105 0
20 20 0 3472 90 0 12
21 40 1637 1797 90 0 195
22 -30 2795 2955 90 169 0
23 30 0 3465 90 0 135
24 -20 3002 3162 90 190 0
25 10 1920 2080 90 0 93
26 -20 0 3429 90 3 0
27 10 0 3446 90 0 132
28 -10 1516 1676 90 170 0
29 -30 0 3501 90 143 0
30 -30 0 3442 90 111 0
31 30 0 3481 90 0 171
32 -20 0 3436 90 70 0
33 -10 1406 1566 90 119 0
34 40 1022 1182 90 0 110
35 -10 0 3460 90 56 0
36 -20 0 3480 90 197 0
37 -20 3120 3280 90 130 0
38 -20 2016 2176 90 58 0
39 -10 426 586 90 18 0
40 -10 0 3473 90 118 0
41 -10 0 3475 90 168 0
42 -30 0 3479 90 88 0
43 10 67 227 90 0 102
44 -10 0 3461 90 120 0
45 20 2688 2848 90 0 147
46 10 831 991 90 0 75
47 20 0 3480 90 0 17
48 -10 0 3459 90 4 0
49 20 1156 1316 90 0 128
50 20 0 3494 90 0 59
51 -30 1504 1664 90 94 0
52 -20 2889 3049 90 155 0
53 -10 3070 3230 90 134 0
54 -10 0 3427 90 114 0
55 10 2324 2484 90 0 80
56 10 0 3447 90 0 35
57 30 1718 1878 90 0 177
58 20 933 1093 90 0 38
59 -20 2877 3037 90 50 0
60 -50 357 517 90 154 0
61 -10 1023 1183 90 172 0
62 -20 0 3489 90 73 0
63 20 0 3477 90 0 189
64 30 223 383 90 0 163
65 -10 0 3451 90 188 0
66 -20 0 3472 90 137 0
67 10 0 3498 0 0 202
68 20 41 201 90 0 123
69 -20 3322 3482 90 136 0
70 20 1781 1941 90 0 32
71 20 0 3486 90 0 89
72 10 1739 1899 90 0 6
73 20 0 3488 90 0 62
74 20 1313 1473 90 0 113
75 -10 0 3438 90 46 0
76 30 0 3455 90 0 201
77 10 0 3447 90 0 9
78 -10 925 1085 90 87 0
79 -10 0 3461 90 179 0
80 -10 2710 2870 90 55 0
81 20 2211 2371 90 0 107
82 30 2191 2351 90 0 96
83 -30 2402 2562 90 95 0
84 -20 2987 3147 90 92 0
85 -30 1421 1581 90 199 0
86 20 0 3453 90 0 112
87 10 454 614 90 0 78
88 30 0 3471 90 0 42
89 -20 2607 2767 90 71 0
90 -30 0 3478 90 156 0
91 20 0 3429 90 0 191
92 20 0 3443 90 0 84
93 -10 2023 2183 90 25 0
94 30 547 707 90 0 51
95 30 0 3483 90 0 83
96 -30 2986 3146 90 82 0
97 10 1616 1776 90 0 142
98 -20 0 3443 90 99 0
99 20 713 873 90 0 98
100 20 0 3487 90 0 106
101 10 0 3440 90 0 153
102 -10 2395 2555 90 43 0
103 30 620 780 90 0 192
104 30 1813 1973 90 0 131
105 30 0 3451 90 0 19
106 -20 3163 3323 90 100 0
107 -20 0 3449 90 81 0
108 10 0 3487 90 0 117
109 -30 0 3482 90 174 0
110 -40 2689 2849 90 34 0
111 30 177 337 90 0 30
112 -20 0 3454 90 86 0
113 -20 2391 2551 90 74 0
114 10 1031 1191 90 0 54
115 -10 3298 3458 90 175 0
116 -10 0 3445 90 141 0
117 -10 821 981 90 108 0
118 10 2310 2470 90 0 40
119 10 0 3433 90 0 33
120 10 0 3470 90 0 44
121 10 2483 2643 90 0 126
122 -10 0 3453 90 124 0
123 -20 0 3494 90 68 0
124 10 2118 2278 90 0 122
125 30 2305 2465 90 0 2
126 -10 2589 2749 90 121 0
127 -30 0 3430 90 149 0
128 -20 0 3430 90 49 0
129 30 0 3434 90 0 146
130 20 3096 3256 90 0 37
131 -30 2293 2453 90 104 0
132 -10 1128 1288 90 27 0
133 10 0 3463 90 0 161
134 10 1308 1468 90 0 53
135 -30 0 3468 90 23 0
136 20 0 3456 90 0 69
137 20 7 167 90 0 66
138 10 0 3453 90 0 158
139 10 0 3435 90 0 144
140 -20 0 3444 90 13 0
141 10 648 808 90 0 116
142 -10 1907 2067 90 97 0
143 30 0 3490 90 0 29
144 -10 863 1023 90 139 0
145 -10 0 3459 90 194 0
146 -30 0 3432 90 129 0
147 -20 0 3459 90 45 0
148 -10 2416 2576 90 200 0
149 30 0 3448 90 0 127
150 -20 0 3443 90 14 0
151 30 1487 1647 90 0 164
152 30 0 3450 90 0 173
153 -10 0 3445 90 101 0
154 50 0 3444 90 0 60
155 20 2691 2851 90 0 52
156 30 1533 1693 90 0 90
157 20 2616 2776 90 0 5
158 -10 0 3457 90 138 0
159 -30 2304 2464 90 7 0
160 30 2889 3049 90 0 185
161 -10 0 3495 90 133 0
162 20 2216 2376 90 0 198
163 -30 701 861 90 64 0
164 -30 2393 2553 90 151 0
165 10 360 520 90 0 193
166 -10 2782 2942 90 8 0
167 20 0 3462 90 0 178
168 10 0 3478 90 0 41
169 30 0 3467 90 0 22
170 10 1228 1388 90 0 28
171 -30 2691 2851 90 31 0
172 10 132 292 90 0 61
173 -30 0 3452 90 152 0
174 30 0 3484 90 0 109
175 10 0 3451 90 0 115
176 -30 0 3472 90 180 0
177 -30 3202 3362 90 57 0
178 -20 0 3475 90 167 0
179 10 11 171 90 0 79
180 30 0 3481 90 0 176
181 -30 0 3434 90 186 0
182 10 2094 2254 0 0 203
183 -20 739 899 90 11 0
184 20 0 3471 90 0 10
185 -30 0 3458 90 160 0
186 30 1818 1978 90 0 181
187 -10 0 3459 90 15 0
188 10 0 3463 90 0 65
189 -20 0 3496 90 63 0
190 20 1234 1394 90 0 24
191 -20 0 3433 90 91 0
192 -30 0 3461 90 103 0
193 -10 0 3439 90 165 0
194 10 1542 1702 90 0 145
195 -40 2022 2182 90 21 0
196 -10 0 3464 90 16 0
197 20 22 182 90 0 36
198 -20 0 3454 90 162 0
199 30 268 428 90 0 85
200 10 1129 1289 90 0 148
201 -30 0 3487 90 76 0
202 -10 0 3498 90 67 0
203 -10 2094 2254 90 182 0
DEPOT_SECTION
1
-1
EOF
