NAME: lc2_2_1
TYPE: PDPTW
COMMENT: Li & Lim PDPTW benchmark converted from SINTEF format
DIMENSION: 205
VEHICLES: 50
CAPACITY: 700
EDGE_WEIGHT_TYPE: EUC_2D
NODE_COORD_SECTION
1 70 70
2 38 105
3 100 5
4 111 78
5 96 62
6 122 11
7 94 18
8 60 89
9 67 123
10 99 53
11 26 24
12 93 61
13 27 32
14 25 31
15 98 36
16 101 68
17 49 48
18 56 95
19 14 107
20 98 46
21 131 4
22 94 89
23 70 113
24 94 59
25 64 59
26 112 3
27 20 108
28 10 118
29 76 65
30 103 12
31 44 62
32 96 138
33 27 44
34 21 28
35 26 91
36 98 75
37 69 48
38 19 116
39 60 111
40 54 102
41 63 103
42 91 91
43 77 15
44 77 117
45 115 41
46 12 33
47 44 82
48 117 55
49 116 10
50 57 77
51 29 36
52 90 91
53 62 73
54 6 121
55 105 49
56 28 115
57 4 137
58 11 100
59 67 84
60 23 22
61 41 64
62 56 56
63 80 40
64 60 66
65 16 90
66 104 82
67 64 78
68 47 36
69 46 80
70 86 124
71 48 72
72 121 9
73 60 52
74 25 46
75 26 15
76 98 116
77 66 131
78 15 30
79 66 117
80 111 70
81 123 19
82 17 18
83 57 87
84 102 33
85 7 113
86 37 115
87 17 25
88 83 105
89 51 115
90 96 55
91 112 2
92 116 23
93 57 70
94 15 23
95 45 68
96 19 41
97 38 16
98 81 135
99 62 128
100 49 70
101 24 19
102 119 20
103 62 125
104 29 10
105 13 80
106 65 73
107 109 25
108 91 71
109 47 57
110 9 42
111 96 23
112 26 102
113 4 15
114 3 98
115 35 88
116 18 107
117 95 68
118 58 85
119 11 23
120 61 107
121 3 17
122 26 104
123 74 56
124 24 105
125 30 106
126 4 33
127 106 0
128 120 10
129 106 5
130 30 58
131 9 9
132 7 92
133 50 29
134 46 52
135 70 110
136 37 111
137 75 64
138 20 93
139 94 1
140 41 12
141 20 109
142 28 14
143 87 63
144 101 4
145 80 22
146 117 10
147 103 33
148 104 51
149 103 19
150 7 52
151 73 119
152 79 128
153 10 50
154 26 23
155 95 103
156 101 59
157 113 67
158 25 94
159 120 20
160 105 26
161 59 77
162 116 34
163 45 71
164 86 109
165 15 96
166 64 88
167 60 115
168 63 100
169 94 104
170 8 102
171 64 89
172 61 66
173 95 121
174 47 63
175 19 96
176 103 55
177 36 94
178 75 103
179 65 80
180 94 56
181 18 123
182 92 123
183 12 31
184 106 81
185 98 28
186 14 133
187 101 32
188 25 66
189 78 61
190 123 64
191 126 20
192 72 117
193 10 105
194 128 0
195 130 16
196 114 63
197 80 63
198 113 36
199 15 94
200 129 77
201 85 85
202 90 91
203 103 33
204 94 18
205 10 50
PICKUP_AND_DELIVERY_SECTION
1 0 0 3598 0 0 0
2 -10 2808 2968 90 170 0
3 20 668 828 90 0 26
4 10 1021 1181 90 0 180
5 -20 2817 2977 90 20 0
6 30 1922 2082 90 0 195
7 30 273 433 0 0 204
8 -30 2597 2757 90 64 0
9 20 906 1066 90 0 88
10 20 1817 1977 90 0 12
11 20 173 333 90 0 183
12 -20 2910 3070 90 10 0
13 20 1209 1369 90 0 131
14 20 1117 1277 90 0 33
15 -20 3082 3242 90 128 0
16 -30 917 1077 90 66 0
17 -30 1403 1563 90 95 0
18 -20 2500 2660 90 61 0
19 20 835 995 90 0 58
20 20 1914 2074 90 0 5
21 -20 1637 1797 90 91 0
22 -30 2795 2955 90 76 0
23 -20 1301 1461 90 99 0
24 -20 3002 3162 90 190 0
25 10 1920 2080 90 0 50
26 -20 1345 1505 90 3 0
27 -10 739 899 90 138 0
28 -10 1516 1676 90 141 0
29 40 7 167 90 0 172
30 20 571 731 90 0 194
31 30 1117 1277 90 0 134
32 -30 1988 2148 90 103 0
33 -20 1406 1566 90 14 0
34 -10 1022 1182 90 133 0
35 -20 3101 3261 90 54 0
36 -40 723 883 90 189 0
37 -20 3120 3280 90 201 0
38 -10 2016 2176 90 175 0
39 -20 426 586 90 41 0
40 20 233 393 90 0 151
41 20 134 294 90 0 39
42 10 424 584 90 0 117
43 10 67 227 90 0 81
44 -10 1582 1742 90 120 0
45 -10 2688 2848 90 72 0
46 -30 831 991 90 94 0
47 20 802 962 90 0 123
48 20 1334 1494 90 0 80
49 -10 1156 1316 90 185 0
50 -10 2120 2280 90 25 0
51 20 1504 1664 90 0 97
52 10 2889 3049 0 0 202
53 -20 3070 3230 90 73 0
54 20 1611 1771 90 0 35
55 -20 2324 2484 90 176 0
56 10 2404 2564 90 0 112
57 -10 1718 1878 90 165 0
58 -20 933 1093 90 19 0
59 30 2877 3037 90 0 67
60 20 357 517 90 0 113
61 20 1023 1183 90 0 18
62 -30 1503 1663 90 174 0
63 -10 1712 1872 90 188 0
64 30 223 383 90 0 8
65 20 78 238 90 0 132
66 30 624 784 90 0 16
67 -30 2974 3134 90 59 0
68 20 41 201 90 0 154
69 -20 3322 3482 90 136 0
70 20 1781 1941 90 0 173
71 -20 608 768 90 137 0
72 10 1739 1899 90 0 45
73 20 1599 1759 90 0 53
74 20 1313 1473 90 0 110
75 20 1999 2159 90 0 121
76 30 2496 2656 90 0 22
77 10 808 968 90 0 182
78 20 925 1085 90 0 126
79 -10 1002 1162 90 168 0
80 -20 2710 2870 90 48 0
81 -10 2211 2371 90 43 0
82 -10 2191 2351 90 87 0
83 10 2402 2562 90 0 106
84 -10 2987 3147 90 107 0
85 10 1421 1581 90 0 124
86 20 2503 2663 90 0 115
87 10 454 614 90 0 82
88 -20 2298 2458 90 9 0
89 -30 2607 2767 90 186 0
90 20 1629 1789 90 0 196
91 20 1436 1596 90 0 21
92 20 2489 2649 90 0 198
93 -20 2023 2183 90 100 0
94 30 547 707 90 0 46
95 30 421 581 90 0 17
96 10 2986 3146 90 0 130
97 -20 1616 1776 90 51 0
98 20 1883 2043 90 0 164
99 20 713 873 90 0 23
100 20 516 676 90 0 93
101 -30 2094 2254 90 104 0
102 -10 2395 2555 90 139 0
103 30 620 780 90 0 32
104 30 1813 1973 90 0 101
105 30 57 217 90 0 158
106 -10 3163 3323 90 83 0
107 10 2795 2955 90 0 84
108 -20 220 380 90 197 0
109 30 1213 1373 90 0 161
110 -20 2689 2849 90 74 0
111 30 177 337 90 0 149
112 -10 2910 3070 90 56 0
113 -20 2391 2551 90 60 0
114 10 1031 1191 90 0 122
115 -20 3298 3458 90 86 0
116 10 555 715 90 0 181
117 -10 821 981 90 42 0
118 10 2310 2470 90 0 166
119 10 641 801 90 0 140
120 10 332 492 90 0 44
121 -20 2483 2643 90 75 0
122 -10 2211 2371 90 114 0
123 -20 1819 1979 90 47 0
124 -10 2118 2278 90 85 0
125 -30 2305 2465 90 199 0
126 -20 2589 2749 90 78 0
127 10 960 1120 90 0 160
128 20 1830 1990 90 0 15
129 -10 1055 1215 90 144 0
130 -10 3096 3256 90 96 0
131 -20 2293 2453 90 13 0
132 -20 1128 1288 90 65 0
133 10 59 219 90 0 34
134 -30 1308 1468 90 31 0
135 -10 1208 1368 90 179 0
136 20 2712 2872 90 0 69
137 20 7 167 90 0 71
138 10 173 333 90 0 27
139 10 766 926 90 0 102
140 -10 1711 1871 90 119 0
141 10 648 808 90 0 28
142 20 1907 2067 90 0 150
143 30 121 281 90 0 162
144 10 863 1023 90 0 129
145 10 49 209 90 0 159
146 10 1247 1407 90 0 191
147 10 2018 2178 0 0 203
148 20 2416 2576 90 0 157
149 -30 474 634 90 111 0
150 -20 2790 2950 90 142 0
151 -20 1487 1647 90 40 0
152 -20 1683 1843 90 178 0
153 20 2883 3043 0 0 205
154 -20 264 424 90 68 0
155 -10 2691 2851 90 192 0
156 -20 1533 1693 90 184 0
157 -20 2616 2776 90 148 0
158 -30 3008 3168 90 105 0
159 -10 2304 2464 90 145 0
160 -10 2889 3049 90 127 0
161 -30 2212 2372 90 109 0
162 -30 2216 2376 90 143 0
163 10 701 861 90 0 171
164 -20 2393 2553 90 98 0
165 10 360 520 90 0 57
166 -10 2782 2942 90 118 0
167 20 520 680 90 0 169
168 10 41 201 90 0 79
169 -20 2599 2759 90 167 0
170 10 1228 1388 90 0 2
171 -10 2691 2851 90 163 0
172 -40 132 292 90 29 0
173 -20 2188 2348 90 70 0
174 30 326 486 90 0 62
175 10 454 614 90 0 38
176 20 1438 1598 90 0 55
177 -20 3202 3362 90 193 0
178 20 1109 1269 90 0 152
179 10 11 171 90 0 135
180 -10 1721 1881 90 4 0
181 -10 1919 2079 90 116 0
182 -10 2094 2254 90 77 0
183 -20 739 899 90 11 0
184 20 532 692 90 0 156
185 10 373 533 90 0 49
186 30 1818 1978 90 0 89
187 -10 2111 2271 90 200 0
188 10 917 1077 90 0 63
189 40 22 182 90 0 36
190 20 1234 1394 90 0 24
191 -10 2117 2277 90 146 0
192 10 1395 1555 90 0 155
193 20 1322 1482 90 0 177
194 -20 1542 1702 90 30 0
195 -30 2022 2182 90 6 0
196 -20 2522 2682 90 90 0
197 20 22 182 90 0 108
198 -20 2592 2752 90 92 0
199 30 268 428 90 0 125
200 10 1129 1289 90 0 187
201 20 325 485 90 0 37
202 -10 2889 3049 90 52 0
203 -10 2018 2178 90 147 0
204 -30 273 433 90 7 0
205 -20 2883 3043 90 153 0
DEPOT_SECTION
1
-1
EOF
