NAME: lc2_2_8
TYPE: PDPTW
COMMENT: Li & Lim PDPTW benchmark converted from SINTEF format
DIMENSION: 205
VEHICLES: 50
CAPACITY: 700
EDGE_WEIGHT_TYPE: EUC_2D
NODE_COORD_SECTION
1 70 70
2 38 105
3 100 5
4 111 78
5 96 62
6 122 11
7 94 18
8 60 89
9 67 123
10 99 53
11 26 24
12 93 61
13 27 32
14 25 31
15 98 36
16 101 68
17 49 48
18 56 95
19 14 107
20 98 46
21 131 4
22 94 89
23 70 113
24 94 59
25 64 59
26 112 3
27 20 108
28 10 118
29 76 65
30 103 12
31 44 62
32 96 138
33 27 44
34 21 28
35 26 91
36 98 75
37 69 48
38 19 116
39 60 111
40 54 102
41 63 103
42 91 91
43 77 15
44 77 117
45 115 41
46 12 33
47 44 82
48 117 55
49 116 10
50 57 77
51 29 36
52 90 91
53 62 73
54 6 121
55 105 49
56 28 115
57 4 137
58 11 100
59 67 84
60 23 22
61 41 64
62 56 56
63 80 40
64 60 66
65 16 90
66 104 82
67 64 78
68 47 36
69 46 80
70 86 124
71 48 72
72 121 9
73 60 52
74 25 46
75 26 15
76 98 116
77 66 131
78 15 30
79 66 117
80 111 70
81 123 19
82 17 18
83 57 87
84 102 33
85 7 113
86 37 115
87 17 25
88 83 105
89 51 115
90 96 55
91 112 2
92 116 23
93 57 70
94 15 23
95 45 68
96 19 41
97 38 16
98 81 135
99 62 128
100 49 70
101 24 19
102 119 20
103 62 125
104 29 10
105 13 80
106 65 73
107 109 25
108 91 71
109 47 57
110 9 42
111 96 23
112 26 102
113 4 15
114 3 98
115 35 88
116 18 107
117 95 68
118 58 85
119 11 23
120 61 107
121 3 17
122 26 104
123 74 56
124 24 105
125 30 106
126 4 33
127 106 0
128 120 10
129 106 5
130 30 58
131 9 9
132 7 92
133 50 29
134 46 52
135 70 110
136 37 111
137 75 64
138 20 93
139 94 1
140 41 12
141 20 109
142 28 14
143 87 63
144 101 4
145 80 22
146 117 10
147 103 33
148 104 51
149 103 19
150 7 52
151 73 119
152 79 128
153 10 50
154 26 23
155 95 103
156 101 59
157 113 67
158 25 94
159 120 20
160 105 26
161 59 77
162 116 34
163 45 71
164 86 109
165 15 96
166 64 88
167 60 115
168 63 100
169 94 104
170 8 102
171 64 89
172 61 66
173 95 121
174 47 63
175 19 96
176 103 55
177 36 94
178 75 103
179 65 80
180 94 56
181 18 123
182 92 123
183 12 31
184 106 81
185 98 28
186 14 133
187 101 32
188 25 66
189 78 61
190 123 64
191 126 20
192 72 117
193 10 105
194 128 0
195 130 16
196 114 63
197 80 63
198 113 36
199 15 94
200 129 77
201 85 85
202 104 51
203 62 73
204 116 10
205 79 128
PICKUP_AND_DELIVERY_SECTION
1 0 0 3598 0 0 0
2 -20 2568 3208 90 28 0
3 20 428 1068 90 0 129
4 -40 781 1421 90 189 0
5 -30 2577 3217 90 156 0
6 30 1682 2322 90 0 159
7 30 57 697 90 0 26
8 -20 2357 2997 90 50 0
9 20 666 1306 90 0 192
10 -10 1577 2217 90 42 0
11 20 63 703 90 0 113
12 -20 2670 3310 90 190 0
13 20 969 1609 90 0 131
14 -20 877 1517 90 183 0
15 -10 2824 3464 90 102 0
16 10 677 1317 90 0 147
17 10 1163 1803 90 0 63
18 10 2260 2900 90 0 59
19 -10 595 1235 90 165 0
20 -20 1674 2314 90 201 0
21 -10 1397 2037 90 144 0
22 -30 2555 3195 90 76 0
23 30 1061 1701 90 0 164
24 -20 2762 3402 90 45 0
25 -20 1680 2320 90 47 0
26 -30 1105 1745 90 7 0
27 10 499 1139 90 0 132
28 20 1276 1916 90 0 2
29 40 7 647 90 0 80
30 20 331 971 90 0 81
31 30 877 1517 90 0 123
32 10 1748 2388 90 0 155
33 -10 1166 1806 90 133 0
34 -10 782 1422 90 119 0
35 -40 2820 3460 90 112 0
36 10 483 1123 90 0 117
37 -10 2846 3486 90 194 0
38 -30 1776 2416 90 105 0
39 -20 186 826 90 41 0
40 20 35 675 90 0 135
41 20 33 673 90 0 39
42 10 184 824 90 0 10
43 10 55 695 90 0 139
44 30 1342 1982 90 0 70
45 20 2448 3088 90 0 24
46 -20 591 1231 90 60 0
47 20 562 1202 90 0 25
48 20 1094 1734 90 0 187
49 20 916 1556 0 0 204
50 20 1880 2520 90 0 8
51 20 1264 1904 90 0 142
52 -10 2649 3289 90 182 0
53 20 2830 3470 0 0 203
54 20 1371 2011 90 0 57
55 -20 2084 2724 90 90 0
56 10 2164 2804 90 0 136
57 -20 1478 2118 90 54 0
58 20 693 1333 90 0 186
59 -10 2637 3277 90 18 0
60 20 117 757 90 0 46
61 -10 783 1423 90 188 0
62 40 1263 1903 90 0 166
63 -10 1472 2112 90 17 0
64 30 10 650 90 0 161
65 20 57 697 90 0 181
66 30 384 1024 90 0 176
67 -20 2734 3374 90 73 0
68 20 41 681 90 0 101
69 -20 2842 3482 90 86 0
70 -30 1541 2181 90 44 0
71 20 368 1008 90 0 109
72 -20 1499 2139 90 128 0
73 20 1359 1999 90 0 67
74 20 1073 1713 90 0 104
75 20 1759 2399 90 0 126
76 30 2256 2896 90 0 22
77 10 568 1208 90 0 173
78 -30 685 1325 90 94 0
79 -10 762 1402 90 120 0
80 -40 2470 3110 90 29 0
81 -20 1971 2611 90 30 0
82 30 1951 2591 90 0 121
83 -30 2162 2802 90 174 0
84 -10 2747 3387 90 146 0
85 -10 1181 1821 90 114 0
86 20 2263 2903 90 0 69
87 10 214 854 90 0 97
88 -30 2058 2698 90 103 0
89 -30 2367 3007 90 125 0
90 20 1389 2029 90 0 55
91 -20 1196 1836 90 137 0
92 -30 2249 2889 90 111 0
93 10 1783 2423 90 0 171
94 30 307 947 90 0 78
95 -10 181 821 90 172 0
96 -20 2746 3386 90 150 0
97 -10 1376 2016 90 87 0
98 -20 1643 2283 90 99 0
99 20 473 1113 90 0 98
100 20 276 916 90 0 118
101 -20 1854 2494 90 68 0
102 10 2155 2795 90 0 15
103 30 380 1020 90 0 88
104 -20 1573 2213 90 74 0
105 30 57 697 90 0 38
106 -10 2863 3503 90 140 0
107 -30 2555 3195 90 195 0
108 10 21 661 90 0 180
109 -20 973 1613 90 71 0
110 -50 2449 3089 90 154 0
111 30 53 693 90 0 92
112 40 2670 3310 90 0 35
113 -20 2151 2791 90 11 0
114 10 791 1431 90 0 85
115 -30 2829 3469 90 177 0
116 -10 315 955 90 141 0
117 -10 581 1221 90 36 0
118 -20 2070 2710 90 100 0
119 10 401 1041 90 0 34
120 10 92 732 90 0 79
121 -30 2243 2883 90 82 0
122 -10 1971 2611 90 124 0
123 -30 1579 2219 90 31 0
124 10 1878 2518 90 0 122
125 30 2065 2705 90 0 89
126 -20 2349 2989 90 75 0
127 -30 720 1360 90 149 0
128 20 1590 2230 90 0 72
129 -20 815 1455 90 3 0
130 -20 2827 3467 90 153 0
131 -20 2053 2693 90 13 0
132 -10 888 1528 90 27 0
133 10 45 685 90 0 33
134 -10 1068 1708 90 163 0
135 -20 968 1608 90 40 0
136 -10 2472 3112 90 56 0
137 20 7 647 90 0 91
138 -30 55 695 90 199 0
139 -10 526 1166 90 43 0
140 10 1471 2111 90 0 106
141 10 408 1048 90 0 116
142 -20 1667 2307 90 51 0
143 30 18 658 90 0 198
144 10 623 1263 90 0 21
145 10 49 689 90 0 185
146 10 1007 1647 90 0 84
147 -10 1778 2418 90 16 0
148 20 2176 2816 0 0 202
149 30 234 874 90 0 127
150 20 2550 3190 90 0 96
151 -20 1247 1887 90 178 0
152 30 1443 2083 0 0 205
153 20 2643 3283 90 0 130
154 50 64 704 90 0 110
155 -10 2451 3091 90 32 0
156 30 1293 1933 90 0 5
157 -20 2376 3016 90 162 0
158 -10 2768 3408 90 170 0
159 -30 2064 2704 90 6 0
160 -20 2649 3289 90 191 0
161 -30 1972 2612 90 64 0
162 20 1976 2616 90 0 157
163 10 461 1101 90 0 134
164 -30 2153 2793 90 23 0
165 10 120 760 90 0 19
166 -40 2542 3182 90 62 0
167 -10 280 920 90 168 0
168 10 30 670 90 0 167
169 -10 2359 2999 90 179 0
170 10 988 1628 90 0 158
171 -10 2451 3091 90 93 0
172 10 9 649 90 0 95
173 -10 1948 2588 90 77 0
174 30 86 726 90 0 83
175 10 214 854 90 0 193
176 -30 1198 1838 90 66 0
177 30 2827 3467 90 0 115
178 20 869 1509 90 0 151
179 10 11 651 90 0 169
180 -10 1481 2121 90 108 0
181 -20 1679 2319 90 65 0
182 10 1854 2494 90 0 52
183 20 499 1139 90 0 14
184 -20 292 932 90 197 0
185 -10 133 773 90 145 0
186 -20 1578 2218 90 58 0
187 -20 1871 2511 90 48 0
188 10 677 1317 90 0 61
189 40 12 652 90 0 4
190 20 994 1634 90 0 12
191 20 1877 2517 90 0 160
192 -20 1155 1795 90 9 0
193 -10 1082 1722 90 175 0
194 10 1302 1942 90 0 37
195 30 1782 2422 90 0 107
196 -10 2282 2922 90 200 0
197 20 12 652 90 0 184
198 -30 2352 2992 90 143 0
199 30 60 700 90 0 138
200 10 889 1529 90 0 196
201 20 85 725 90 0 20
202 -20 2176 2816 90 148 0
203 -20 2830 3470 90 53 0
204 -20 916 1556 90 49 0
205 -30 1443 2083 90 152 0
DEPOT_SECTION
1
-1
EOF
