NAME: lc2_2_10
TYPE: PDPTW
COMMENT: Li & Lim PDPTW benchmark converted from SINTEF format
DIMENSION: 203
VEHICLES: 50
CAPACITY: 700
EDGE_WEIGHT_TYPE: EUC_2D
NODE_COORD_SECTION
1 70 70
2 38 105
3 100 5
4 111 78
5 96 62
6 122 11
7 94 18
8 60 89
9 67 123
10 99 53
11 26 24
12 93 61
13 27 32
14 25 31
15 98 36
16 101 68
17 49 48
18 56 95
19 14 107
20 98 46
21 131 4
22 94 89
23 70 113
24 94 59
25 64 59
26 112 3
27 20 108
28 10 118
29 76 65
30 103 12
31 44 62
32 96 138
33 27 44
34 21 28
35 26 91
36 98 75
37 69 48
38 19 116
39 60 111
40 54 102
41 63 103
42 91 91
43 77 15
44 77 117
45 115 41
46 12 33
47 44 82
48 117 55
49 116 10
50 57 77
51 29 36
52 90 91
53 62 73
54 6 121
55 105 49
56 28 115
57 4 137
58 11 100
59 67 84
60 23 22
61 41 64
62 56 56
63 80 40
64 60 66
65 16 90
66 104 82
67 64 78
68 47 36
69 46 80
70 86 124
71 48 72
72 121 9
73 60 52
74 25 46
75 26 15
76 98 116
77 66 131
78 15 30
79 66 117
80 111 70
81 123 19
82 17 18
83 57 87
84 102 33
85 7 113
86 37 115
87 17 25
88 83 105
89 51 115
90 96 55
91 112 2
92 116 23
93 57 70
94 15 23
95 45 68
96 19 41
97 38 16
98 81 135
99 62 128
100 49 70
101 24 19
102 119 20
103 62 125
104 29 10
105 13 80
106 65 73
107 109 25
108 91 71
109 47 57
110 9 42
111 96 23
112 26 102
113 4 15
114 3 98
115 35 88
116 18 107
117 95 68
118 58 85
119 11 23
120 61 107
121 3 17
122 26 104
123 74 56
124 24 105
125 30 106
126 4 33
127 106 0
128 120 10
129 106 5
130 30 58
131 9 9
132 7 92
133 50 29
134 46 52
135 70 110
136 37 111
137 75 64
138 20 93
139 94 1
140 41 12
141 20 109
142 28 14
143 87 63
144 101 4
145 80 22
146 117 10
147 103 33
148 104 51
149 103 19
150 7 52
151 73 119
152 79 128
153 10 50
154 26 23
155 95 103
156 101 59
157 113 67
158 25 94
159 120 20
160 105 26
161 59 77
162 116 34
163 45 71
164 86 109
165 15 96
166 64 88
167 60 115
168 63 100
169 94 104
170 8 102
171 64 89
172 61 66
173 95 121
174 47 63
175 19 96
176 103 55
177 36 94
178 75 103
179 65 80
180 94 56
181 18 123
182 92 123
183 12 31
184 106 81
185 98 28
186 14 133
187 101 32
188 25 66
189 78 61
190 123 64
191 126 20
192 72 117
193 10 105
194 128 0
195 130 16
196 114 63
197 80 63
198 113 36
199 15 94
200 129 77
201 85 85
202 26 91
203 95 103
PICKUP_AND_DELIVERY_SECTION
1 0 0 3598 0 0 0
2 -10 2448 3328 90 38 0
3 -10 308 1188 90 43 0
4 10 661 1541 90 0 45
5 -20 2457 3337 90 10 0
6 -20 1562 2442 90 49 0
7 -10 57 937 90 145 0
8 -20 2237 3117 90 63 0
9 -10 546 1426 90 77 0
10 20 1457 2337 90 0 5
11 20 63 943 90 0 113
12 -30 2550 3430 90 24 0
13 -10 849 1729 90 133 0
14 20 757 1637 90 0 126
15 10 2584 3464 90 0 37
16 10 557 1437 90 0 90
17 10 1043 1923 90 0 123
18 -10 2140 3020 90 118 0
19 20 475 1355 90 0 58
20 20 1554 2434 90 0 187
21 -40 1277 2157 90 189 0
22 -30 2435 3315 90 44 0
23 -30 941 1821 90 103 0
24 30 2602 3482 90 0 12
25 10 1560 2440 90 0 50
26 10 985 1865 90 0 84
27 10 379 1259 90 0 54
28 20 1156 2036 90 0 56
29 40 7 887 90 0 117
30 -30 211 1091 90 149 0
31 30 757 1637 90 0 83
32 10 1628 2508 90 0 173
33 -20 1046 1926 90 47 0
34 40 662 1542 90 0 142
35 10 2580 3460 0 0 202
36 -30 363 1243 90 143 0
37 -10 2606 3486 90 15 0
38 10 1656 2536 90 0 2
39 10 66 946 90 0 152
40 20 35 915 90 0 79
41 20 33 913 90 0 135
42 10 64 944 90 0 167
43 10 55 935 90 0 3
44 30 1222 2102 90 0 22
45 -10 2328 3208 90 4 0
46 -20 471 1351 90 60 0
47 20 442 1322 90 0 33
48 -30 974 1854 90 66 0
49 20 796 1676 90 0 6
50 -10 1760 2640 90 25 0
51 -20 1144 2024 90 183 0
52 -10 2529 3409 90 120 0
53 -10 2620 3500 90 101 0
54 -10 1251 2131 90 27 0
55 -30 1964 2844 90 156 0
56 -20 2044 2924 90 28 0
57 30 1358 2238 90 0 125
58 -20 573 1453 90 19 0
59 -20 2517 3397 90 100 0
60 20 67 947 90 0 46
61 20 663 1543 90 0 188
62 40 1143 2023 90 0 73
63 20 1352 2232 90 0 8
64 30 10 890 90 0 163
65 20 57 937 90 0 138
66 30 264 1144 90 0 48
67 -10 2614 3494 90 171 0
68 20 41 921 90 0 94
69 -10 2602 3482 90 131 0
70 -20 1421 2301 90 178 0
71 20 248 1128 90 0 161
72 -10 1379 2259 90 139 0
73 -40 1239 2119 90 62 0
74 20 953 1833 90 0 166
75 -30 1639 2519 90 104 0
76 30 2136 3016 90 0 88
77 10 448 1328 90 0 9
78 20 565 1445 90 0 96
79 -20 642 1522 90 40 0
80 -10 2350 3230 90 200 0
81 -10 1851 2731 90 194 0
82 30 1831 2711 90 0 150
83 -30 2042 2922 90 31 0
84 -10 2580 3460 90 26 0
85 -10 1061 1941 90 141 0
86 -10 2143 3023 90 124 0
87 10 94 974 90 0 110
88 -30 1938 2818 90 76 0
89 -10 2247 3127 90 116 0
90 -10 1269 2149 90 16 0
91 -30 1076 1956 90 129 0
92 20 2129 3009 90 0 160
93 -30 1663 2543 90 95 0
94 -20 187 1067 90 68 0
95 30 61 941 90 0 93
96 -20 2570 3450 90 78 0
97 10 1256 2136 90 0 153
98 -10 1523 2403 90 168 0
99 20 353 1233 90 0 192
100 20 156 1036 90 0 59
101 10 1734 2614 90 0 53
102 -20 2035 2915 90 159 0
103 30 260 1140 90 0 23
104 30 1453 2333 90 0 75
105 30 57 937 90 0 165
106 -10 2623 3503 90 140 0
107 -20 2435 3315 90 191 0
108 -20 21 901 90 197 0
109 -10 853 1733 90 134 0
110 -10 2329 3209 90 87 0
111 30 53 933 90 0 127
112 -10 2550 3430 90 122 0
113 -20 2031 2911 90 11 0
114 -30 671 1551 90 199 0
115 -10 2589 3469 90 175 0
116 10 195 1075 90 0 89
117 -40 461 1341 90 29 0
118 10 1950 2830 90 0 18
119 10 281 1161 90 0 121
120 10 38 918 90 0 52
121 -10 2123 3003 90 119 0
122 10 1851 2731 90 0 112
123 -10 1459 2339 90 17 0
124 10 1758 2638 90 0 86
125 -30 1945 2825 90 57 0
126 -20 2229 3109 90 14 0
127 -30 600 1480 90 111 0
128 -10 1470 2350 90 146 0
129 30 695 1575 90 0 91
130 -50 2587 3467 90 154 0
131 10 1933 2813 90 0 69
132 20 768 1648 90 0 193
133 10 45 925 90 0 13
134 10 948 1828 90 0 109
135 -20 848 1728 90 41 0
136 20 2352 3232 90 0 177
137 20 7 887 90 0 195
138 -20 55 935 90 65 0
139 10 406 1286 90 0 72
140 10 1351 2231 90 0 106
141 10 288 1168 90 0 85
142 -40 1547 2427 90 34 0
143 30 18 898 90 0 36
144 -10 503 1383 90 185 0
145 10 49 929 90 0 7
146 10 887 1767 90 0 128
147 10 1658 2538 90 0 198
148 20 2056 2936 90 0 157
149 30 114 994 90 0 30
150 -30 2430 3310 90 82 0
151 30 1127 2007 90 0 182
152 -10 1323 2203 90 39 0
153 -10 2523 3403 90 97 0
154 50 64 944 90 0 130
155 20 2331 3211 0 0 203
156 30 1173 2053 90 0 55
157 -20 2256 3136 90 148 0
158 -30 2577 3457 90 186 0
159 20 1944 2824 90 0 102
160 -20 2529 3409 90 92 0
161 -20 1852 2732 90 71 0
162 20 1856 2736 90 0 196
163 -30 341 1221 90 64 0
164 10 2033 2913 90 0 169
165 -30 60 940 90 105 0
166 -20 2422 3302 90 74 0
167 -10 160 1040 90 42 0
168 10 30 910 90 0 98
169 -10 2239 3119 90 164 0
170 10 868 1748 90 0 181
171 10 2331 3211 90 0 67
172 10 9 889 90 0 174
173 -10 1828 2708 90 32 0
174 -10 24 904 90 172 0
175 10 94 974 90 0 115
176 20 1078 1958 90 0 180
177 -20 2587 3467 90 136 0
178 20 749 1629 90 0 70
179 10 11 891 90 0 201
180 -20 1361 2241 90 176 0
181 -10 1559 2439 90 170 0
182 -30 1734 2614 90 151 0
183 20 379 1259 90 0 51
184 20 172 1052 90 0 190
185 10 50 930 90 0 144
186 30 1458 2338 90 0 158
187 -20 1751 2631 90 20 0
188 -20 557 1437 90 61 0
189 40 12 892 90 0 21
190 -20 874 1754 90 184 0
191 20 1757 2637 90 0 107
192 -20 1035 1915 90 99 0
193 -20 962 1842 90 132 0
194 10 1182 2062 90 0 81
195 -20 1662 2542 90 137 0
196 -20 2162 3042 90 162 0
197 20 12 892 90 0 108
198 -10 2232 3112 90 147 0
199 30 60 940 90 0 114
200 10 769 1649 90 0 80
201 -10 21 901 90 179 0
202 -10 2580 3460 90 35 0
203 -20 2331 3211 90 155 0
DEPOT_SECTION
1
-1
EOF
