NAME: lc2_2_7
TYPE: PDPTW
COMMENT: Li & Lim PDPTW benchmark converted from SINTEF format
DIMENSION: 203
VEHICLES: 50
CAPACITY: 700
EDGE_WEIGHT_TYPE: EUC_2D
NODE_COORD_SECTION
1 70 70
2 38 105
3 100 5
4 111 78
5 96 62
6 122 11
7 94 18
8 60 89
9 67 123
10 99 53
11 26 24
12 93 61
13 27 32
14 25 31
15 98 36
16 101 68
17 49 48
18 56 95
19 14 107
20 98 46
21 131 4
22 94 89
23 70 113
24 94 59
25 64 59
26 112 3
27 20 108
28 10 118
29 76 65
30 103 12
31 44 62
32 96 138
33 27 44
34 21 28
35 26 91
36 98 75
37 69 48
38 19 116
39 60 111
40 54 102
41 63 103
42 91 91
43 77 15
44 77 117
45 115 41
46 12 33
47 44 82
48 117 55
49 116 10
50 57 77
51 29 36
52 90 91
53 62 73
54 6 121
55 105 49
56 28 115
57 4 137
58 11 100
59 67 84
60 23 22
61 41 64
62 56 56
63 80 40
64 60 66
65 16 90
66 104 82
67 64 78
68 47 36
69 46 80
70 86 124
71 48 72
72 121 9
73 60 52
74 25 46
75 26 15
76 98 116
77 66 131
78 15 30
79 66 117
80 111 70
81 123 19
82 17 18
83 57 87
84 102 33
85 7 113
86 37 115
87 17 25
88 83 105
89 51 115
90 96 55
91 112 2
92 116 23
93 57 70
94 15 23
95 45 68
96 19 41
97 38 16
98 81 135
99 62 128
100 49 70
101 24 19
102 119 20
103 62 125
104 29 10
105 13 80
106 65 73
107 109 25
108 91 71
109 47 57
110 9 42
111 96 23
112 26 102
113 4 15
114 3 98
115 35 88
116 18 107
117 95 68
118 58 85
119 11 23
120 61 107
121 3 17
122 26 104
123 74 56
124 24 105
125 30 106
126 4 33
127 106 0
128 120 10
129 106 5
130 30 58
131 9 9
132 7 92
133 50 29
134 46 52
135 70 110
136 37 111
137 75 64
138 20 93
139 94 1
140 41 12
141 20 109
142 28 14
143 87 63
144 101 4
145 80 22
146 117 10
147 103 33
148 104 51
149 103 19
150 7 52
151 73 119
152 79 128
153 10 50
154 26 23
155 95 103
156 101 59
157 113 67
158 25 94
159 120 20
160 105 26
161 59 77
162 116 34
163 45 71
164 86 109
165 15 96
166 64 88
167 60 115
168 63 100
169 94 104
170 8 102
171 64 89
172 61 66
173 95 121
174 47 63
175 19 96
176 103 55
177 36 94
178 75 103
179 65 80
180 94 56
181 18 123
182 92 123
183 12 31
184 106 81
185 98 28
186 14 133
187 101 32
188 25 66
189 78 61
190 123 64
191 126 20
192 72 117
193 10 105
194 128 0
195 130 16
196 114 63
197 80 63
198 113 36
199 15 94
200 129 77
201 85 85
202 65 73
203 77 117
PICKUP_AND_DELIVERY_SECTION
1 0 0 3598 0 0 0
2 -20 2690 3085 90 181 0
3 20 708 788 90 0 91
4 10 786 1417 90 0 45
5 -20 2541 3253 90 157 0
6 30 1435 2570 90 0 84
7 30 57 940 90 0 30
8 -20 2255 3100 90 137 0
9 -10 427 1546 90 120 0
10 20 1815 1980 90 0 148
11 20 63 1274 90 0 183
12 -20 2654 3325 90 187 0
13 20 935 1642 90 0 131
14 20 1148 1245 90 0 33
15 10 2519 3464 90 0 37
16 10 672 1322 90 0 200
17 10 1058 1908 90 0 62
18 -10 2326 2834 90 118 0
19 -30 691 1139 90 105 0
20 -30 1903 2086 90 143 0
21 40 1349 2085 90 0 195
22 -10 2540 3210 90 164 0
23 -10 1095 1666 90 168 0
24 -20 2732 3433 90 117 0
25 10 1915 2085 90 0 93
26 10 958 1893 90 0 146
27 10 544 1094 90 0 38
28 20 1313 1879 90 0 122
29 40 7 551 90 0 95
30 -30 131 1171 90 7 0
31 30 678 1716 90 0 50
32 10 1902 2235 90 0 182
33 -20 1290 1681 90 14 0
34 -10 762 1441 90 133 0
35 10 2885 3460 90 0 69
36 -40 495 1112 90 189 0
37 -10 2796 3486 90 15 0
38 -10 1912 2280 90 27 0
39 10 109 904 90 0 167
40 20 182 445 90 0 173
41 -10 155 274 90 179 0
42 10 394 614 90 0 180
43 10 76 217 90 0 111
44 30 1418 1906 0 0 203
45 -10 2562 2974 90 4 0
46 -30 766 1056 90 94 0
47 -30 541 1224 90 64 0
48 20 1188 1641 90 0 80
49 20 849 1623 90 0 159
50 -30 1880 2519 90 31 0
51 20 1055 2113 90 0 97
52 -20 2771 3168 90 155 0
53 -10 2649 3500 90 96 0
54 -10 1293 2090 90 138 0
55 10 2160 2649 90 0 162
56 -30 2295 2673 90 125 0
57 30 1471 2125 90 0 177
58 -10 921 1104 90 175 0
59 -10 2880 3035 90 83 0
60 20 154 721 90 0 113
61 20 887 1320 90 0 134
62 -10 1207 1960 90 17 0
63 20 1536 2048 90 0 67
64 30 93 512 90 0 47
65 20 57 1181 90 0 132
66 30 361 1047 90 0 90
67 -20 2757 3352 90 63 0
68 20 41 380 90 0 154
69 -10 2689 3482 90 35 0
70 20 1511 2212 90 0 76
71 -20 327 1048 90 100 0
72 -30 1681 1957 90 149 0
73 -10 1376 1981 90 188 0
74 20 1138 1647 90 0 110
75 20 1567 2591 90 0 121
76 -20 2043 3110 90 70 0
77 -20 414 1363 90 99 0
78 20 574 1436 90 0 126
79 -30 552 1612 90 103 0
80 -20 2584 2995 90 48 0
81 -10 1823 2759 90 144 0
82 -10 1940 2602 90 87 0
83 10 1940 3025 90 0 59
84 -30 2907 3226 90 6 0
85 -20 1222 1779 90 193 0
86 -10 2454 2712 90 124 0
87 10 106 963 90 0 82
88 30 2029 2726 90 0 169
89 10 2386 2989 90 0 136
90 -30 1483 1936 90 66 0
91 -20 1089 1943 90 3 0
92 -20 2263 2874 90 191 0
93 -10 1596 2610 90 25 0
94 30 339 914 90 0 46
95 -40 25 1186 90 29 0
96 10 2790 3342 90 0 53
97 -20 1403 1989 90 51 0
98 -30 1892 2035 90 135 0
99 20 501 1085 90 0 77
100 20 204 988 90 0 71
101 -30 1883 2464 90 104 0
102 10 2139 2811 90 0 107
103 30 213 1187 90 0 79
104 30 1517 2270 90 0 101
105 30 57 197 90 0 19
106 10 2620 3503 0 0 202
107 -10 2548 3202 90 102 0
108 -20 21 928 90 197 0
109 -10 981 1605 90 163 0
110 -20 2643 2895 90 74 0
111 -10 53 896 90 43 0
112 -10 2608 3372 90 116 0
113 -20 2177 2765 90 60 0
114 10 756 1467 90 0 158
115 -30 2626 3469 90 199 0
116 10 136 1135 90 0 112
117 20 553 1250 90 0 24
118 10 2053 2727 90 0 18
119 10 554 888 90 0 140
120 10 102 721 90 0 9
121 -20 2087 3040 90 75 0
122 -20 2116 2465 90 28 0
123 10 1691 2108 90 0 171
124 10 1969 2427 90 0 86
125 30 2089 2681 90 0 56
126 -20 2517 2822 90 78 0
127 -10 394 1685 90 139 0
128 20 1874 1946 90 0 194
129 30 1061 1209 90 0 160
130 -20 2794 3467 90 150 0
131 -20 2089 2658 90 13 0
132 -20 925 1492 90 65 0
133 10 45 732 90 0 34
134 -20 1121 1655 90 61 0
135 30 919 1657 90 0 98
136 -10 2467 3117 90 89 0
137 20 7 262 90 0 8
138 10 55 1105 90 0 54
139 10 442 1250 90 0 127
140 -10 1730 1851 90 119 0
141 10 449 1007 90 0 170
142 20 1665 2310 90 0 153
143 30 105 297 90 0 20
144 10 735 1152 90 0 81
145 10 49 142 90 0 185
146 -10 960 1693 90 26 0
147 10 1739 2457 90 0 196
148 -20 2304 2689 90 10 0
149 30 157 950 90 0 72
150 20 2457 3283 90 0 130
151 30 1074 2060 90 0 152
152 -30 1451 2076 90 151 0
153 -20 2888 3038 90 142 0
154 -20 231 458 90 68 0
155 20 2614 2927 90 0 52
156 -20 1461 1764 90 184 0
157 20 2450 2942 90 0 5
158 -10 2764 3413 90 114 0
159 -20 1866 2901 90 49 0
160 -30 2541 3397 90 129 0
161 -30 1985 2598 90 174 0
162 -10 1842 2749 90 55 0
163 10 311 1252 90 0 109
164 10 1866 3079 90 0 22
165 10 306 575 90 0 186
166 -10 2324 3401 90 172 0
167 -10 446 755 90 39 0
168 10 41 202 90 0 23
169 -30 2449 2909 90 88 0
170 -10 1111 1505 90 141 0
171 -10 2300 3242 90 123 0
172 10 9 594 90 0 166
173 -20 2040 2495 90 40 0
174 30 24 804 90 0 161
175 10 57 1027 90 0 58
176 20 942 2094 90 0 198
177 -30 2705 3467 90 57 0
178 20 920 1458 90 0 192
179 10 11 801 90 0 41
180 -10 1632 1971 90 42 0
181 20 1608 2391 90 0 2
182 -10 1923 2424 90 32 0
183 -20 251 1387 90 11 0
184 20 269 955 90 0 156
185 -10 50 1216 90 145 0
186 -10 1590 2207 90 165 0
187 20 1630 2751 90 0 12
188 10 400 1593 90 0 73
189 40 12 1033 90 0 36
190 -20 1123 1504 90 201 0
191 20 1950 2444 90 0 92
192 -20 1279 1672 90 178 0
193 20 906 1898 90 0 85
194 -20 1204 2040 90 128 0
195 -40 1766 2437 90 21 0
196 -10 2234 2970 90 147 0
197 20 57 148 90 0 108
198 -20 2392 2952 90 176 0
199 30 220 477 90 0 115
200 -10 665 1754 90 16 0
201 20 91 719 90 0 190
202 -10 2620 3503 90 106 0
203 -30 1418 1906 90 44 0
DEPOT_SECTION
1
-1
EOF
