NAME: lc2_2_5
TYPE: PDPTW
COMMENT: Li & Lim PDPTW benchmark converted from SINTEF format
DIMENSION: 203
VEHICLES: 50
CAPACITY: 700
EDGE_WEIGHT_TYPE: EUC_2D
NODE_COORD_SECTION
1 70 70
2 38 105
3 100 5
4 111 78
5 96 62
6 122 11
7 94 18
8 60 89
9 67 123
10 99 53
11 26 24
12 93 61
13 27 32
14 25 31
15 98 36
16 101 68
17 49 48
18 56 95
19 14 107
20 98 46
21 131 4
22 94 89
23 70 113
24 94 59
25 64 59
26 112 3
27 20 108
28 10 118
29 76 65
30 103 12
31 44 62
32 96 138
33 27 44
34 21 28
35 26 91
36 98 75
37 69 48
38 19 116
39 60 111
40 54 102
41 63 103
42 91 91
43 77 15
44 77 117
45 115 41
46 12 33
47 44 82
48 117 55
49 116 10
50 57 77
51 29 36
52 90 91
53 62 73
54 6 121
55 105 49
56 28 115
57 4 137
58 11 100
59 67 84
60 23 22
61 41 64
62 56 56
63 80 40
64 60 66
65 16 90
66 104 82
67 64 78
68 47 36
69 46 80
70 86 124
71 48 72
72 121 9
73 60 52
74 25 46
75 26 15
76 98 116
77 66 131
78 15 30
79 66 117
80 111 70
81 123 19
82 17 18
83 57 87
84 102 33
85 7 113
86 37 115
87 17 25
88 83 105
89 51 115
90 96 55
91 112 2
92 116 23
93 57 70
94 15 23
95 45 68
96 19 41
97 38 16
98 81 135
99 62 128
100 49 70
101 24 19
102 119 20
103 62 125
104 29 10
105 13 80
106 65 73
107 109 25
108 91 71
109 47 57
110 9 42
111 96 23
112 26 102
113 4 15
114 3 98
115 35 88
116 18 107
117 95 68
118 58 85
119 11 23
120 61 107
121 3 17
122 26 104
123 74 56
124 24 105
125 30 106
126 4 33
127 106 0
128 120 10
129 106 5
130 30 58
131 9 9
132 7 92
133 50 29
134 46 52
135 70 110
136 37 111
137 75 64
138 20 93
139 94 1
140 41 12
141 20 109
142 28 14
143 87 63
144 101 4
145 80 22
146 117 10
147 103 33
148 104 51
149 103 19
150 7 52
151 73 119
152 79 128
153 10 50
154 26 23
155 95 103
156 101 59
157 113 67
158 25 94
159 120 20
160 105 26
161 59 77
162 116 34
163 45 71
164 86 109
165 15 96
166 64 88
167 60 115
168 63 100
169 94 104
170 8 102
171 64 89
172 61 66
173 95 121
174 47 63
175 19 96
176 103 55
177 36 94
178 75 103
179 65 80
180 94 56
181 18 123
182 92 123
183 12 31
184 106 81
185 98 28
186 14 133
187 101 32
188 25 66
189 78 61
190 123 64
191 126 20
192 72 117
193 10 105
194 128 0
195 130 16
196 114 63
197 80 63
198 113 36
199 15 94
200 129 77
201 85 85
202 51 115
203 72 117
PICKUP_AND_DELIVERY_SECTION
1 0 0 3598 0 0 0
2 -20 2728 3048 90 28 0
3 20 588 908 90 0 144
4 10 941 1261 90 0 147
5 -20 2737 3057 90 184 0
6 -10 1842 2162 90 26 0
7 30 193 513 90 0 21
8 -10 2517 2837 90 188 0
9 -10 826 1146 90 120 0
10 20 1737 2057 90 0 80
11 20 93 413 90 0 82
12 -30 2830 3150 90 180 0
13 20 1129 1449 90 0 140
14 20 1037 1357 90 0 51
15 -20 3002 3322 90 159 0
16 10 837 1157 90 0 90
17 -30 1323 1643 90 31 0
18 -10 2420 2740 90 93 0
19 -10 755 1075 90 175 0
20 -20 1834 2154 90 201 0
21 -30 1557 1877 90 7 0
22 -30 2715 3035 90 88 0
23 30 1221 1541 90 0 151
24 -20 2922 3242 90 176 0
25 10 1840 2160 90 0 166
26 10 1265 1585 90 0 6
27 10 659 979 90 0 141
28 20 1436 1756 90 0 2
29 40 7 327 90 0 64
30 -10 491 811 90 185 0
31 30 1037 1357 90 0 17
32 10 1908 2228 90 0 76
33 20 1326 1646 90 0 130
34 -10 942 1262 90 133 0
35 -40 3021 3341 90 112 0
36 10 643 963 90 0 48
37 -20 3040 3360 90 92 0
38 -30 1936 2256 90 105 0
39 10 346 666 90 0 167
40 20 153 473 90 0 173
41 -10 54 374 90 179 0
42 10 344 664 90 0 66
43 10 55 375 90 0 129
44 30 1502 1822 90 0 70
45 -20 2608 2928 90 49 0
46 -30 751 1071 90 94 0
47 -10 722 1042 90 163 0
48 -10 1254 1574 90 36 0
49 20 1076 1396 90 0 45
50 -10 2040 2360 90 123 0
51 -20 1424 1744 90 14 0
52 -20 2809 3129 90 155 0
53 -10 2990 3310 90 67 0
54 20 1531 1851 90 0 57
55 -20 2244 2564 90 117 0
56 10 2324 2644 90 0 136
57 -20 1638 1958 90 54 0
58 20 853 1173 90 0 186
59 30 2797 3117 90 0 106
60 20 277 597 90 0 74
61 -20 943 1263 90 137 0
62 40 1423 1743 90 0 73
63 -20 1632 1952 90 100 0
64 -40 143 463 90 29 0
65 20 57 377 90 0 181
66 -10 544 864 90 42 0
67 10 2894 3214 90 0 53
68 20 41 361 90 0 142
69 -10 3162 3482 90 96 0
70 -30 1701 2021 90 44 0
71 -10 528 848 90 172 0
72 10 1659 1979 90 0 102
73 -40 1519 1839 90 62 0
74 -20 1233 1553 90 60 0
75 20 1919 2239 90 0 113
76 -10 2416 2736 90 32 0
77 -20 728 1048 90 99 0
78 20 845 1165 90 0 101
79 -30 922 1242 90 103 0
80 -20 2630 2950 90 10 0
81 20 2131 2451 90 0 198
82 -20 2111 2431 90 11 0
83 -30 2322 2642 90 174 0
84 -10 2907 3227 90 146 0
85 -10 1341 1661 90 114 0
86 -10 2423 2743 90 124 0
87 10 374 694 90 0 183
88 30 2218 2538 90 0 22
89 10 2527 2847 0 0 202
90 -10 1549 1869 90 16 0
91 -30 1356 1676 90 149 0
92 20 2409 2729 90 0 37
93 10 1943 2263 90 0 18
94 30 467 787 90 0 46
95 30 341 661 90 0 161
96 10 2906 3226 90 0 69
97 10 1536 1856 90 0 121
98 20 1803 2123 90 0 182
99 20 633 953 90 0 77
100 20 436 756 90 0 63
101 -20 2014 2334 90 78 0
102 -10 2315 2635 90 72 0
103 30 540 860 90 0 79
104 30 1733 2053 90 0 131
105 30 57 377 90 0 38
106 -30 3083 3403 90 59 0
107 -10 2715 3035 90 145 0
108 10 140 460 90 0 156
109 30 1133 1453 90 0 118
110 20 2609 2929 90 0 153
111 30 97 417 90 0 191
112 40 2830 3150 90 0 35
113 -20 2311 2631 90 75 0
114 10 951 1271 90 0 85
115 -30 3149 3469 90 177 0
116 10 475 795 90 0 132
117 20 741 1061 90 0 55
118 -30 2230 2550 90 109 0
119 -50 561 881 90 154 0
120 10 252 572 90 0 9
121 -10 2403 2723 90 97 0
122 10 2131 2451 90 0 125
123 10 1739 2059 90 0 50
124 10 2038 2358 90 0 86
125 -10 2225 2545 90 122 0
126 20 2509 2829 90 0 150
127 10 880 1200 90 0 128
128 -10 1750 2070 90 127 0
129 -10 975 1295 90 43 0
130 -20 3016 3336 90 33 0
131 -30 2213 2533 90 104 0
132 -10 1048 1368 90 116 0
133 10 45 365 90 0 34
134 10 1228 1548 90 0 171
135 -10 1128 1448 90 168 0
136 -10 2632 2952 90 56 0
137 20 7 327 90 0 61
138 10 93 413 90 0 199
139 10 686 1006 90 0 195
140 -20 1631 1951 90 13 0
141 -10 568 888 90 27 0
142 -20 1827 2147 90 68 0
143 30 41 361 90 0 187
144 -20 783 1103 90 3 0
145 10 49 369 90 0 107
146 10 1167 1487 90 0 84
147 -10 1938 2258 90 4 0
148 20 2336 2656 90 0 196
149 30 394 714 90 0 91
150 -20 2710 3030 90 126 0
151 -30 1407 1727 90 23 0
152 -20 1603 1923 90 178 0
153 -20 2803 3123 90 110 0
154 50 184 504 90 0 119
155 20 2611 2931 90 0 52
156 -10 1453 1773 90 108 0
157 -20 2536 2856 90 197 0
158 -10 2928 3248 90 170 0
159 20 2224 2544 90 0 15
160 -10 2809 3129 90 194 0
161 -30 2132 2452 90 95 0
162 -40 2136 2456 90 189 0
163 10 621 941 90 0 47
164 10 2313 2633 90 0 169
165 10 280 600 90 0 193
166 -10 2702 3022 90 25 0
167 -10 440 760 90 39 0
168 10 30 350 90 0 135
169 -10 2519 2839 90 164 0
170 10 1148 1468 90 0 158
171 -10 2611 2931 90 134 0
172 10 52 372 90 0 71
173 -20 2108 2428 90 40 0
174 30 246 566 90 0 83
175 10 374 694 90 0 19
176 20 1358 1678 90 0 24
177 30 3122 3442 90 0 115
178 20 1029 1349 90 0 152
179 10 11 331 90 0 41
180 30 1641 1961 90 0 12
181 -20 1839 2159 90 65 0
182 -20 2014 2334 90 98 0
183 -10 659 979 90 87 0
184 20 452 772 90 0 5
185 10 293 613 90 0 30
186 -20 1738 2058 90 58 0
187 -30 2031 2351 90 143 0
188 10 837 1157 90 0 8
189 40 12 332 90 0 162
190 -10 1154 1474 90 200 0
191 -30 2037 2357 90 111 0
192 10 1315 1635 0 0 203
193 -10 1242 1562 90 165 0
194 10 1462 1782 90 0 160
195 -10 1942 2262 90 139 0
196 -20 2442 2762 90 148 0
197 20 12 332 90 0 157
198 -20 2512 2832 90 81 0
199 -10 188 508 90 138 0
200 10 1049 1369 90 0 190
201 20 245 565 90 0 20
202 -10 2527 2847 90 89 0
203 -10 1315 1635 90 192 0
DEPOT_SECTION
1
-1
EOF
