NAME: lr1_2_8
TYPE: PDPTW
COMMENT: Li & Lim PDPTW benchmark converted from SINTEF format
DIMENSION: 207
VEHICLES: 50
CAPACITY: 200
EDGE_WEIGHT_TYPE: EUC_2D
NODE_COORD_SECTION
1 70 70
2 107 77
3 109 139
4 120 22
5 48 47
6 116 22
7 12 138
8 86 40
9 121 124
10 61 57
11 40 113
12 129 24
13 12 84
14 44 116
15 102 52
16 41 36
17 132 133
18 104 139
19 104 54
20 22 104
21 46 133
22 138 78
23 16 92
24 18 104
25 66 82
26 107 25
27 139 73
28 101 0
29 90 14
30 20 69
31 64 132
32 115 82
33 54 106
34 30 21
35 63 129
36 82 100
37 108 30
38 37 73
39 50 112
40 47 83
41 92 138
42 81 36
43 115 124
44 13 48
45 113 35
46 60 84
47 44 58
48 8 87
49 116 105
50 117 4
51 140 42
52 139 68
53 58 95
54 103 119
55 32 52
56 89 39
57 54 41
58 39 100
59 5 99
60 67 96
61 73 96
62 112 13
63 55 127
64 103 44
65 97 12
66 16 62
67 140 36
68 90 44
69 113 32
70 104 73
71 36 38
72 15 4
73 54 33
74 70 94
75 35 90
76 88 29
77 109 131
78 10 111
79 138 105
80 113 45
81 92 22
82 85 75
83 10 86
84 51 92
85 46 112
86 12 48
87 137 7
88 79 80
89 69 116
90 28 62
91 50 106
92 83 38
93 120 102
94 65 0
95 4 71
96 19 120
97 18 70
98 58 80
99 49 140
100 69 115
101 36 124
102 84 88
103 17 138
104 103 82
105 38 122
106 70 83
107 29 60
108 61 34
109 54 78
110 83 12
111 34 72
112 80 103
113 78 111
114 116 83
115 29 94
116 137 137
117 110 28
118 116 13
119 59 115
120 71 70
121 120 60
122 85 111
123 121 123
124 137 84
125 103 86
126 30 57
127 139 72
128 2 106
129 64 138
130 23 39
131 126 23
132 138 24
133 78 63
134 98 4
135 103 77
136 58 11
137 26 130
138 104 32
139 55 102
140 137 101
141 65 80
142 26 50
143 56 139
144 119 73
145 9 19
146 82 103
147 107 102
148 60 23
149 123 84
150 79 72
151 99 34
152 27 46
153 64 115
154 32 6
155 86 80
156 81 57
157 135 65
158 66 40
159 120 47
160 37 125
161 120 14
162 114 109
163 137 127
164 37 138
165 36 54
166 109 78
167 34 20
168 39 13
169 137 96
170 110 99
171 136 123
172 133 130
173 120 52
174 33 117
175 37 79
176 60 54
177 125 68
178 13 129
179 20 106
180 15 9
181 106 10
182 100 99
183 89 24
184 67 120
185 42 29
186 117 92
187 15 18
188 139 110
189 44 36
190 8 138
191 33 0
192 4 44
193 97 115
194 23 19
195 56 129
196 105 2
197 66 91
198 93 61
199 27 104
200 69 6
201 95 135
202 104 54
203 84 88
204 70 94
205 12 48
206 18 104
207 116 22
PICKUP_AND_DELIVERY_SECTION
1 0 0 634 0 0 0
2 34 0 587 10 0 104
3 8 0 545 10 0 201
4 39 114 144 10 0 51
5 -15 0 593 10 44 0
6 32 0 558 0 0 207
7 14 275 305 10 0 174
8 -9 0 590 10 50 0
9 -16 0 550 10 162 0
10 -9 0 609 10 151 0
11 -34 0 572 10 101 0
12 -8 0 550 10 156 0
13 16 0 565 10 0 59
14 27 0 572 10 0 39
15 -4 0 588 10 80 0
16 13 51 81 10 0 71
17 24 0 536 10 0 171
18 -25 0 548 10 193 0
19 13 0 587 0 0 202
20 -17 0 566 10 48 0
21 -3 0 557 10 99 0
22 43 0 556 10 0 27
23 -5 0 566 10 175 0
24 18 337 367 0 0 206
25 -35 0 612 10 53 0
26 -12 0 566 10 64 0
27 -43 0 555 10 22 0
28 -10 0 548 10 65 0
29 -29 0 565 10 110 0
30 13 378 408 10 0 111
31 8 62 92 10 0 84
32 30 0 578 10 0 155
33 -10 0 585 10 85 0
34 12 0 561 10 0 187
35 7 206 236 10 0 63
36 -12 0 592 10 41 0
37 18 0 569 10 0 56
38 33 0 591 10 0 83
39 -27 0 578 10 14 0
40 -16 0 598 10 128 0
41 12 402 432 10 0 36
42 -33 0 589 10 76 0
43 -27 411 441 10 116 0
44 15 0 563 10 0 5
45 9 0 569 10 0 138
46 23 0 607 10 0 139
47 -7 0 596 10 142 0
48 17 0 560 10 0 20
49 23 0 567 10 0 149
50 9 0 543 10 0 8
51 -39 0 549 10 4 0
52 -17 0 555 10 70 0
53 35 485 515 10 0 25
54 18 0 565 10 0 77
55 32 0 582 10 0 66
56 -18 0 588 10 37 0
57 9 0 591 10 0 130
58 31 0 581 10 0 98
59 -16 0 553 10 13 0
60 26 0 598 10 0 89
61 9 0 598 10 0 82
62 27 0 554 10 0 181
63 -7 0 566 10 35 0
64 12 42 72 10 0 26
65 10 0 561 10 0 28
66 -32 0 570 10 55 0
67 1 0 547 10 0 159
68 6 52 82 10 0 173
69 36 144 174 10 0 117
70 17 0 590 10 0 52
71 -13 0 578 10 16 0
72 -12 101 131 10 185 0
73 -15 0 584 10 167 0
74 32 24 54 0 0 204
75 -1 446 476 10 115 0
76 33 550 580 10 0 42
77 -18 226 256 10 54 0
78 21 0 552 10 0 199
79 -18 0 548 10 93 0
80 4 0 575 10 0 15
81 -20 0 572 10 94 0
82 -9 0 609 10 61 0
83 -33 0 562 10 38 0
84 -8 0 595 10 31 0
85 10 286 316 10 0 33
86 4 0 562 0 0 205
87 -1 0 533 10 196 0
88 -9 0 611 10 123 0
89 -26 0 578 10 60 0
90 -14 0 582 10 107 0
91 -20 0 583 10 141 0
92 22 0 590 10 0 134
93 18 97 127 10 0 79
94 20 0 554 10 0 81
95 19 0 558 10 0 97
96 16 261 291 10 0 178
97 -19 391 421 10 95 0
98 -31 0 609 10 58 0
99 3 0 551 10 0 21
100 20 0 579 10 0 184
101 34 0 561 10 0 11
102 16 0 602 0 0 203
103 8 0 538 10 0 190
104 -34 0 589 10 2 0
105 -5 0 563 10 164 0
106 23 0 611 10 0 170
107 14 42 72 10 0 90
108 7 0 587 10 0 158
109 11 0 607 10 0 179
110 29 230 260 10 0 29
111 -13 0 588 10 30 0
112 -26 372 402 10 119 0
113 -21 0 583 10 195 0
114 -21 0 577 10 166 0
115 1 0 577 10 0 75
116 27 100 130 10 0 43
117 -36 305 335 10 69 0
118 -20 0 551 10 161 0
119 26 314 344 10 0 112
120 -9 480 510 10 169 0
121 -3 0 574 10 157 0
122 -15 0 581 10 146 0
123 9 0 551 10 0 88
124 -12 0 556 10 140 0
125 -17 0 588 10 182 0
126 -15 230 260 10 165 0
127 23 0 555 10 0 198
128 16 0 548 10 0 40
129 -15 0 556 10 153 0
130 -9 0 568 10 57 0
131 13 0 551 10 0 132
132 -13 0 542 10 131 0
133 19 10 40 10 0 135
134 -22 0 553 10 92 0
135 -19 0 591 10 133 0
136 9 0 564 10 0 200
137 -16 268 298 10 197 0
138 -9 0 574 10 45 0
139 -23 0 589 10 46 0
140 12 0 551 10 0 124
141 20 11 41 10 0 91
142 7 0 576 10 0 47
143 18 0 554 10 0 160
144 15 0 575 10 0 177
145 10 0 545 10 0 194
146 15 35 65 10 0 122
147 12 0 576 10 0 150
148 16 0 576 10 0 183
149 -23 0 570 10 49 0
150 -12 0 615 10 147 0
151 9 0 578 10 0 10
152 -24 0 575 10 192 0
153 15 0 579 10 0 129
154 11 0 550 10 0 191
155 -30 0 606 10 32 0
156 8 17 47 10 0 12
157 3 0 559 10 0 121
158 -7 0 594 10 108 0
159 -1 0 569 10 67 0
160 -18 343 373 10 143 0
161 20 0 549 10 0 118
162 16 0 566 10 0 9
163 28 196 226 10 0 172
164 5 210 240 10 0 105
165 15 0 587 10 0 126
166 21 0 585 10 0 114
167 15 0 563 10 0 73
168 -2 0 560 10 180 0
169 9 0 553 10 0 120
170 -23 0 575 10 106 0
171 -24 319 349 10 17 0
172 -28 222 252 10 163 0
173 -6 374 404 10 68 0
174 -14 0 565 10 7 0
175 5 0 590 10 0 23
176 3 0 606 10 0 189
177 -15 0 569 10 144 0
178 -16 351 381 10 96 0
179 -11 0 563 10 109 0
180 2 410 440 10 0 168
181 -27 0 555 10 62 0
182 17 299 329 10 0 125
183 -16 0 575 10 148 0
184 -20 0 574 10 100 0
185 12 60 90 10 0 72
186 25 0 573 10 0 188
187 -12 0 549 10 34 0
188 -25 0 545 10 186 0
189 -3 0 582 10 176 0
190 -8 0 532 10 103 0
191 -11 482 512 10 154 0
192 24 0 554 10 0 152
193 25 0 572 10 0 18
194 -10 0 555 10 145 0
195 21 0 564 10 0 113
196 1 0 548 10 0 87
197 16 21 51 10 0 137
198 -23 521 551 10 127 0
199 -21 0 570 10 78 0
200 -9 83 113 10 136 0
201 -8 401 431 10 3 0
202 -13 0 587 10 19 0
203 -16 0 602 10 102 0
204 -32 24 54 10 74 0
205 -4 0 562 10 86 0
206 -18 337 367 10 24 0
207 -32 0 558 10 6 0
DEPOT_SECTION
1
-1
EOF
