NAME: lr1_2_5
TYPE: PDPTW
COMMENT: Li & Lim PDPTW benchmark converted from SINTEF format
DIMENSION: 213
VEHICLES: 50
CAPACITY: 200
EDGE_WEIGHT_TYPE: EUC_2D
NODE_COORD_SECTION
1 70 70
2 107 77
3 109 139
4 120 22
5 48 47
6 116 22
7 12 138
8 86 40
9 121 124
10 61 57
11 40 113
12 129 24
13 12 84
14 44 116
15 102 52
16 41 36
17 132 133
18 104 139
19 104 54
20 22 104
21 46 133
22 138 78
23 16 92
24 18 104
25 66 82
26 107 25
27 139 73
28 101 0
29 90 14
30 20 69
31 64 132
32 115 82
33 54 106
34 30 21
35 63 129
36 82 100
37 108 30
38 37 73
39 50 112
40 47 83
41 92 138
42 81 36
43 115 124
44 13 48
45 113 35
46 60 84
47 44 58
48 8 87
49 116 105
50 117 4
51 140 42
52 139 68
53 58 95
54 103 119
55 32 52
56 89 39
57 54 41
58 39 100
59 5 99
60 67 96
61 73 96
62 112 13
63 55 127
64 103 44
65 97 12
66 16 62
67 140 36
68 90 44
69 113 32
70 104 73
71 36 38
72 15 4
73 54 33
74 70 94
75 35 90
76 88 29
77 109 131
78 10 111
79 138 105
80 113 45
81 92 22
82 85 75
83 10 86
84 51 92
85 46 112
86 12 48
87 137 7
88 79 80
89 69 116
90 28 62
91 50 106
92 83 38
93 120 102
94 65 0
95 4 71
96 19 120
97 18 70
98 58 80
99 49 140
100 69 115
101 36 124
102 84 88
103 17 138
104 103 82
105 38 122
106 70 83
107 29 60
108 61 34
109 54 78
110 83 12
111 34 72
112 80 103
113 78 111
114 116 83
115 29 94
116 137 137
117 110 28
118 116 13
119 59 115
120 71 70
121 120 60
122 85 111
123 121 123
124 137 84
125 103 86
126 30 57
127 139 72
128 2 106
129 64 138
130 23 39
131 126 23
132 138 24
133 78 63
134 98 4
135 103 77
136 58 11
137 26 130
138 104 32
139 55 102
140 137 101
141 65 80
142 26 50
143 56 139
144 119 73
145 9 19
146 82 103
147 107 102
148 60 23
149 123 84
150 79 72
151 99 34
152 27 46
153 64 115
154 32 6
155 86 80
156 81 57
157 135 65
158 66 40
159 120 47
160 37 125
161 120 14
162 114 109
163 137 127
164 37 138
165 36 54
166 109 78
167 34 20
168 39 13
169 137 96
170 110 99
171 136 123
172 133 130
173 120 52
174 33 117
175 37 79
176 60 54
177 125 68
178 13 129
179 20 106
180 15 9
181 106 10
182 100 99
183 89 24
184 67 120
185 42 29
186 117 92
187 15 18
188 139 110
189 44 36
190 8 138
191 33 0
192 4 44
193 97 115
194 23 19
195 56 129
196 105 2
197 66 91
198 93 61
199 27 104
200 69 6
201 95 135
202 136 123
203 110 28
204 4 44
205 12 138
206 107 25
207 12 48
208 23 19
209 80 103
210 90 14
211 55 102
212 139 72
213 58 11
PICKUP_AND_DELIVERY_SECTION
1 0 0 634 0 0 0
2 34 37 67 10 0 114
3 8 113 143 10 0 49
4 39 114 144 10 0 6
5 19 31 61 10 0 126
6 -39 138 168 10 4 0
7 14 275 305 0 0 205
8 22 34 64 10 0 134
9 -4 150 180 10 88 0
10 -18 375 405 10 37 0
11 23 477 507 10 0 60
12 18 335 365 10 0 62
13 16 199 229 10 0 83
14 -20 53 83 10 141 0
15 15 159 189 10 0 104
16 13 51 81 10 0 55
17 -27 140 170 10 116 0
18 -16 336 366 10 162 0
19 13 53 83 10 0 50
20 11 231 261 10 0 115
21 7 76 106 10 0 98
22 43 202 232 10 0 149
23 -18 359 389 10 24 0
24 18 337 367 10 0 23
25 -9 501 531 10 33 0
26 13 274 304 0 0 206
27 -25 87 117 10 52 0
28 -18 498 528 10 159 0
29 31 464 494 0 0 210
30 -26 378 408 10 97 0
31 -32 62 92 10 74 0
32 -15 267 297 10 144 0
33 9 294 324 10 0 25
34 12 322 352 10 0 191
35 7 206 236 10 0 63
36 -22 104 134 10 150 0
37 18 96 126 10 0 10
38 33 336 366 10 0 175
39 -20 232 262 10 100 0
40 -9 318 348 10 57 0
41 -16 402 432 10 77 0
42 17 62 92 10 0 151
43 -13 411 441 10 172 0
44 15 420 450 10 0 111
45 9 55 85 10 0 80
46 -35 482 512 10 152 0
47 30 28 58 10 0 128
48 17 401 431 10 0 109
49 -8 144 174 10 3 0
50 -13 418 448 10 19 0
51 -37 101 131 10 82 0
52 25 78 108 10 0 27
53 -25 485 515 10 91 0
54 18 334 364 10 0 193
55 -13 151 181 10 16 0
56 23 36 66 10 0 161
57 9 281 311 10 0 40
58 31 66 96 10 0 103
59 24 324 354 10 0 75
60 -23 492 522 10 11 0
61 9 166 196 10 0 85
62 -18 524 554 10 12 0
63 -7 258 288 10 35 0
64 12 42 72 10 0 131
65 -36 206 236 10 69 0
66 -16 396 426 10 96 0
67 1 176 206 10 0 132
68 -8 52 82 10 156 0
69 36 144 174 10 0 65
70 17 249 279 10 0 155
71 -29 438 468 10 110 0
72 23 101 131 10 0 176
73 20 40 70 10 0 154
74 32 24 54 10 0 31
75 -24 446 476 10 59 0
76 -10 550 580 10 145 0
77 16 226 256 10 0 41
78 -13 493 523 10 105 0
79 -18 403 433 10 121 0
80 -9 299 329 10 45 0
81 -18 190 220 10 138 0
82 37 15 45 10 0 51
83 -16 411 441 10 13 0
84 -12 448 478 10 185 0
85 -9 286 316 10 61 0
86 4 62 92 0 0 207
87 -5 156 186 10 118 0
88 4 13 43 10 0 9
89 -25 344 374 10 122 0
90 23 196 226 10 0 142
91 25 320 350 10 0 53
92 -20 476 506 10 168 0
93 18 97 127 10 0 123
94 -20 74 104 10 158 0
95 -14 160 190 10 107 0
96 16 261 291 10 0 66
97 26 391 421 10 0 30
98 -7 460 490 10 21 0
99 -16 234 264 10 197 0
100 20 215 245 10 0 39
101 34 234 264 10 0 178
102 -17 356 386 10 182 0
103 -31 433 463 10 58 0
104 -15 326 356 10 15 0
105 13 234 264 10 0 78
106 -5 485 515 10 184 0
107 14 42 72 10 0 95
108 -15 473 503 10 183 0
109 -17 550 580 10 48 0
110 29 230 260 10 0 71
111 -15 549 579 10 44 0
112 15 372 402 0 0 209
113 22 41 71 10 0 147
114 -34 179 209 10 2 0
115 -11 277 307 10 20 0
116 27 100 130 10 0 17
117 20 305 335 0 0 203
118 5 73 103 10 0 87
119 -15 314 344 10 146 0
120 -19 480 510 10 133 0
121 18 54 84 10 0 79
122 25 253 283 10 0 89
123 -18 257 287 10 93 0
124 41 104 134 10 0 157
125 -20 258 288 10 177 0
126 -19 230 260 10 5 0
127 23 337 367 0 0 212
128 -30 387 417 10 47 0
129 -27 440 470 10 201 0
130 20 352 382 10 0 187
131 -12 263 293 10 64 0
132 -1 180 210 10 67 0
133 19 10 40 10 0 120
134 -22 178 208 10 8 0
135 -21 291 321 10 166 0
136 9 127 157 0 0 213
137 20 268 298 10 0 190
138 18 135 165 10 0 81
139 4 315 345 0 0 211
140 12 169 199 10 0 163
141 20 11 41 10 0 14
142 -23 387 417 10 90 0
143 -21 310 340 10 195 0
144 15 117 147 10 0 32
145 10 373 403 10 0 76
146 15 35 65 10 0 119
147 -22 219 249 10 113 0
148 16 54 84 10 0 180
149 -43 416 446 10 22 0
150 22 9 39 10 0 36
151 -17 76 106 10 42 0
152 35 209 239 10 0 46
153 15 135 165 10 0 160
154 -20 95 125 10 73 0
155 -17 374 404 10 70 0
156 8 17 47 10 0 68
157 -41 339 369 10 124 0
158 20 30 60 10 0 94
159 18 55 85 10 0 28
160 -15 343 373 10 153 0
161 -23 259 289 10 56 0
162 16 77 107 10 0 18
163 -12 196 226 10 140 0
164 5 210 240 10 0 179
165 -9 372 402 10 189 0
166 21 238 268 10 0 135
167 -8 151 181 10 200 0
168 20 376 406 10 0 92
169 9 71 101 10 0 188
170 -25 303 333 10 186 0
171 31 319 349 0 0 202
172 13 222 252 10 0 43
173 20 374 404 10 0 198
174 20 94 124 10 0 199
175 -33 428 458 10 38 0
176 -23 239 269 10 72 0
177 20 192 222 10 0 125
178 -34 351 381 10 101 0
179 -5 275 305 10 164 0
180 -16 410 440 10 148 0
181 -1 299 329 10 196 0
182 17 299 329 10 0 102
183 15 301 331 10 0 108
184 5 359 389 10 0 106
185 12 60 90 10 0 84
186 25 283 313 10 0 170
187 -20 400 430 10 130 0
188 -9 191 221 10 169 0
189 9 48 78 10 0 165
190 -20 291 321 10 137 0
191 -12 482 512 10 34 0
192 24 416 446 0 0 204
193 -18 368 398 10 54 0
194 16 172 202 0 0 208
195 21 287 317 10 0 143
196 1 224 254 10 0 181
197 16 21 51 10 0 99
198 -20 521 551 10 173 0
199 -20 502 532 10 174 0
200 8 83 113 10 0 167
201 27 401 431 10 0 129
202 -31 319 349 10 171 0
203 -20 305 335 10 117 0
204 -24 416 446 10 192 0
205 -14 275 305 10 7 0
206 -13 274 304 10 26 0
207 -4 62 92 10 86 0
208 -16 172 202 10 194 0
209 -15 372 402 10 112 0
210 -31 464 494 10 29 0
211 -4 315 345 10 139 0
212 -23 337 367 10 127 0
213 -9 127 157 10 136 0
DEPOT_SECTION
1
-1
EOF
