NAME: lr1_2_7
TYPE: PDPTW
COMMENT: Li & Lim PDPTW benchmark converted from SINTEF format
DIMENSION: 207
VEHICLES: 50
CAPACITY: 200
EDGE_WEIGHT_TYPE: EUC_2D
NODE_COORD_SECTION
1 70 70
2 107 77
3 109 139
4 120 22
5 48 47
6 116 22
7 12 138
8 86 40
9 121 124
10 61 57
11 40 113
12 129 24
13 12 84
14 44 116
15 102 52
16 41 36
17 132 133
18 104 139
19 104 54
20 22 104
21 46 133
22 138 78
23 16 92
24 18 104
25 66 82
26 107 25
27 139 73
28 101 0
29 90 14
30 20 69
31 64 132
32 115 82
33 54 106
34 30 21
35 63 129
36 82 100
37 108 30
38 37 73
39 50 112
40 47 83
41 92 138
42 81 36
43 115 124
44 13 48
45 113 35
46 60 84
47 44 58
48 8 87
49 116 105
50 117 4
51 140 42
52 139 68
53 58 95
54 103 119
55 32 52
56 89 39
57 54 41
58 39 100
59 5 99
60 67 96
61 73 96
62 112 13
63 55 127
64 103 44
65 97 12
66 16 62
67 140 36
68 90 44
69 113 32
70 104 73
71 36 38
72 15 4
73 54 33
74 70 94
75 35 90
76 88 29
77 109 131
78 10 111
79 138 105
80 113 45
81 92 22
82 85 75
83 10 86
84 51 92
85 46 112
86 12 48
87 137 7
88 79 80
89 69 116
90 28 62
91 50 106
92 83 38
93 120 102
94 65 0
95 4 71
96 19 120
97 18 70
98 58 80
99 49 140
100 69 115
101 36 124
102 84 88
103 17 138
104 103 82
105 38 122
106 70 83
107 29 60
108 61 34
109 54 78
110 83 12
111 34 72
112 80 103
113 78 111
114 116 83
115 29 94
116 137 137
117 110 28
118 116 13
119 59 115
120 71 70
121 120 60
122 85 111
123 121 123
124 137 84
125 103 86
126 30 57
127 139 72
128 2 106
129 64 138
130 23 39
131 126 23
132 138 24
133 78 63
134 98 4
135 103 77
136 58 11
137 26 130
138 104 32
139 55 102
140 137 101
141 65 80
142 26 50
143 56 139
144 119 73
145 9 19
146 82 103
147 107 102
148 60 23
149 123 84
150 79 72
151 99 34
152 27 46
153 64 115
154 32 6
155 86 80
156 81 57
157 135 65
158 66 40
159 120 47
160 37 125
161 120 14
162 114 109
163 137 127
164 37 138
165 36 54
166 109 78
167 34 20
168 39 13
169 137 96
170 110 99
171 136 123
172 133 130
173 120 52
174 33 117
175 37 79
176 60 54
177 125 68
178 13 129
179 20 106
180 15 9
181 106 10
182 100 99
183 89 24
184 67 120
185 42 29
186 117 92
187 15 18
188 139 110
189 44 36
190 8 138
191 33 0
192 4 44
193 97 115
194 23 19
195 56 129
196 105 2
197 66 91
198 93 61
199 27 104
200 69 6
201 95 135
202 54 78
203 73 96
204 33 117
205 102 52
206 67 96
207 132 133
PICKUP_AND_DELIVERY_SECTION
1 0 0 634 0 0 0
2 34 0 587 10 0 120
3 -18 113 143 10 54 0
4 39 114 144 10 0 80
5 19 31 61 10 0 90
6 32 0 558 10 0 69
7 -21 275 305 10 195 0
8 -10 0 590 10 65 0
9 -16 0 550 10 162 0
10 -33 375 405 10 38 0
11 -25 477 507 10 178 0
12 -9 0 550 10 45 0
13 -14 199 229 10 83 0
14 -15 0 572 10 129 0
15 15 0 588 0 0 205
16 13 51 81 10 0 175
17 24 0 536 0 0 207
18 29 0 548 10 0 201
19 -9 0 587 10 151 0
20 -16 0 566 10 197 0
21 7 76 106 10 0 137
22 -23 202 232 10 127 0
23 -21 0 566 10 78 0
24 -9 337 367 10 33 0
25 27 0 612 10 0 105
26 13 274 304 10 0 134
27 -18 87 117 10 121 0
28 9 0 548 10 0 81
29 31 0 565 10 0 76
30 -26 378 408 10 97 0
31 8 62 92 10 0 160
32 30 0 578 10 0 125
33 9 0 585 10 0 24
34 12 0 561 10 0 145
35 7 206 236 10 0 101
36 18 104 134 10 0 166
37 -6 96 126 10 68 0
38 33 0 591 10 0 10
39 18 232 262 10 0 96
40 -16 318 348 10 128 0
41 -16 402 432 10 77 0
42 17 0 589 10 0 92
43 -31 411 441 10 171 0
44 15 0 563 10 0 66
45 9 55 85 10 0 12
46 -3 0 607 10 99 0
47 30 28 58 10 0 95
48 -7 0 560 10 142 0
49 -25 144 174 10 186 0
50 9 0 543 10 0 132
51 -1 0 549 10 67 0
52 25 78 108 10 0 114
53 -15 485 515 10 153 0
54 18 0 565 10 0 3
55 32 151 181 10 0 111
56 23 36 66 10 0 138
57 9 0 591 10 0 192
58 31 66 96 10 0 139
59 -14 0 553 10 107 0
60 26 0 598 0 0 206
61 9 0 598 0 0 203
62 27 0 554 10 0 196
63 -20 0 566 10 141 0
64 12 42 72 10 0 87
65 10 0 561 10 0 8
66 -15 0 570 10 44 0
67 1 0 547 10 0 51
68 6 52 82 10 0 37
69 -32 144 174 10 6 0
70 -27 249 279 10 104 0
71 5 0 578 10 0 152
72 23 101 131 10 0 168
73 20 0 584 10 0 108
74 32 24 54 10 0 135
75 -1 446 476 10 115 0
76 -31 550 580 10 29 0
77 16 226 256 10 0 41
78 21 0 552 10 0 23
79 -41 403 433 10 124 0
80 -39 299 329 10 4 0
81 -9 0 572 10 28 0
82 -13 0 609 10 149 0
83 14 0 562 10 0 13
84 -8 0 595 10 103 0
85 10 286 316 10 0 100
86 -9 0 562 10 189 0
87 -12 156 186 10 64 0
88 4 13 43 10 0 163
89 -26 344 374 10 119 0
90 -19 0 582 10 5 0
91 25 0 583 10 0 106
92 -17 0 590 10 42 0
93 -22 97 127 10 150 0
94 -16 74 104 10 148 0
95 -30 160 190 10 47 0
96 -18 261 291 10 39 0
97 26 391 421 10 0 30
98 18 0 609 10 0 112
99 3 0 551 10 0 46
100 -10 0 579 10 85 0
101 -7 0 561 10 35 0
102 -21 356 386 10 155 0
103 8 433 463 10 0 84
104 27 0 589 10 0 70
105 -27 234 264 10 25 0
106 -25 485 515 10 91 0
107 14 42 72 10 0 59
108 -20 0 587 10 73 0
109 11 550 580 0 0 202
110 29 230 260 10 0 183
111 -32 0 588 10 55 0
112 -18 372 402 10 98 0
113 -15 0 583 10 146 0
114 -25 0 577 10 52 0
115 1 0 577 10 0 75
116 27 100 130 10 0 123
117 20 305 335 10 0 181
118 -20 0 551 10 161 0
119 26 314 344 10 0 89
120 -34 480 510 10 2 0
121 18 54 84 10 0 27
122 25 0 581 10 0 193
123 -27 0 551 10 116 0
124 41 0 556 10 0 79
125 -30 258 288 10 32 0
126 -15 230 260 10 165 0
127 23 0 555 10 0 22
128 16 0 548 10 0 40
129 15 0 556 10 0 14
130 -3 0 568 10 176 0
131 13 0 551 10 0 173
132 -9 0 542 10 50 0
133 19 10 40 10 0 156
134 -13 0 553 10 26 0
135 -32 291 321 10 74 0
136 9 0 564 10 0 200
137 -7 268 298 10 21 0
138 -23 135 165 10 56 0
139 -31 315 345 10 58 0
140 -15 0 551 10 144 0
141 20 11 41 10 0 63
142 7 0 576 10 0 48
143 -5 310 340 10 184 0
144 15 117 147 10 0 140
145 -12 373 403 10 34 0
146 15 35 65 10 0 113
147 -13 0 576 10 172 0
148 16 0 576 10 0 94
149 13 416 446 10 0 82
150 22 0 615 10 0 93
151 9 0 578 10 0 19
152 -5 209 239 10 71 0
153 15 0 579 10 0 53
154 -12 95 125 10 185 0
155 21 0 606 10 0 102
156 -19 17 47 10 133 0
157 3 0 559 10 0 169
158 20 30 60 10 0 194
159 18 0 569 10 0 198
160 -8 343 373 10 31 0
161 20 0 549 10 0 118
162 16 0 566 10 0 9
163 -4 196 226 10 88 0
164 5 210 240 10 0 190
165 15 0 587 10 0 126
166 -18 238 268 10 36 0
167 15 151 181 10 0 187
168 -23 0 560 10 72 0
169 -3 0 553 10 157 0
170 21 303 333 10 0 182
171 31 319 349 10 0 43
172 13 222 252 10 0 147
173 -13 374 404 10 131 0
174 20 0 565 0 0 204
175 -13 0 590 10 16 0
176 3 0 606 10 0 130
177 20 192 222 10 0 188
178 25 351 381 10 0 11
179 24 0 563 10 0 199
180 2 410 440 10 0 191
181 -20 0 555 10 117 0
182 -21 299 329 10 170 0
183 -29 301 331 10 110 0
184 5 0 574 10 0 143
185 12 60 90 10 0 154
186 25 0 573 10 0 49
187 -15 0 549 10 167 0
188 -20 0 545 10 177 0
189 9 0 582 10 0 86
190 -5 0 532 10 164 0
191 -2 482 512 10 180 0
192 -9 0 554 10 57 0
193 -25 0 572 10 122 0
194 -20 0 555 10 158 0
195 21 0 564 10 0 7
196 -27 0 548 10 62 0
197 16 21 51 10 0 20
198 -18 521 551 10 159 0
199 -24 0 570 10 179 0
200 -9 83 113 10 136 0
201 -29 401 431 10 18 0
202 -11 550 580 10 109 0
203 -9 0 598 10 61 0
204 -20 0 565 10 174 0
205 -15 0 588 10 15 0
206 -26 0 598 10 60 0
207 -24 0 536 10 17 0
DEPOT_SECTION
1
-1
EOF
