NAME: lr1_2_2
TYPE: PDPTW
COMMENT: Li & Lim PDPTW benchmark converted from SINTEF format
DIMENSION: 211
VEHICLES: 50
CAPACITY: 200
EDGE_WEIGHT_TYPE: EUC_2D
NODE_COORD_SECTION
1 70 70
2 107 77
3 109 139
4 120 22
5 48 47
6 116 22
7 12 138
8 86 40
9 121 124
10 61 57
11 40 113
12 129 24
13 12 84
14 44 116
15 102 52
16 41 36
17 132 133
18 104 139
19 104 54
20 22 104
21 46 133
22 138 78
23 16 92
24 18 104
25 66 82
26 107 25
27 139 73
28 101 0
29 90 14
30 20 69
31 64 132
32 115 82
33 54 106
34 30 21
35 63 129
36 82 100
37 108 30
38 37 73
39 50 112
40 47 83
41 92 138
42 81 36
43 115 124
44 13 48
45 113 35
46 60 84
47 44 58
48 8 87
49 116 105
50 117 4
51 140 42
52 139 68
53 58 95
54 103 119
55 32 52
56 89 39
57 54 41
58 39 100
59 5 99
60 67 96
61 73 96
62 112 13
63 55 127
64 103 44
65 97 12
66 16 62
67 140 36
68 90 44
69 113 32
70 104 73
71 36 38
72 15 4
73 54 33
74 70 94
75 35 90
76 88 29
77 109 131
78 10 111
79 138 105
80 113 45
81 92 22
82 85 75
83 10 86
84 51 92
85 46 112
86 12 48
87 137 7
88 79 80
89 69 116
90 28 62
91 50 106
92 83 38
93 120 102
94 65 0
95 4 71
96 19 120
97 18 70
98 58 80
99 49 140
100 69 115
101 36 124
102 84 88
103 17 138
104 103 82
105 38 122
106 70 83
107 29 60
108 61 34
109 54 78
110 83 12
111 34 72
112 80 103
113 78 111
114 116 83
115 29 94
116 137 137
117 110 28
118 116 13
119 59 115
120 71 70
121 120 60
122 85 111
123 121 123
124 137 84
125 103 86
126 30 57
127 139 72
128 2 106
129 64 138
130 23 39
131 126 23
132 138 24
133 78 63
134 98 4
135 103 77
136 58 11
137 26 130
138 104 32
139 55 102
140 137 101
141 65 80
142 26 50
143 56 139
144 119 73
145 9 19
146 82 103
147 107 102
148 60 23
149 123 84
150 79 72
151 99 34
152 27 46
153 64 115
154 32 6
155 86 80
156 81 57
157 135 65
158 66 40
159 120 47
160 37 125
161 120 14
162 114 109
163 137 127
164 37 138
165 36 54
166 109 78
167 34 20
168 39 13
169 137 96
170 110 99
171 136 123
172 133 130
173 120 52
174 33 117
175 37 79
176 60 54
177 125 68
178 13 129
179 20 106
180 15 9
181 106 10
182 100 99
183 89 24
184 67 120
185 42 29
186 117 92
187 15 18
188 139 110
189 44 36
190 8 138
191 33 0
192 4 44
193 97 115
194 23 19
195 56 129
196 105 2
197 66 91
198 93 61
199 27 104
200 69 6
201 95 135
202 95 135
203 117 4
204 37 79
205 51 92
206 17 138
207 33 0
208 10 86
209 73 96
210 115 124
211 120 102
PICKUP_AND_DELIVERY_SECTION
1 0 0 634 0 0 0
2 34 0 587 10 0 182
3 -18 123 133 10 54 0
4 39 124 134 10 0 87
5 19 31 41 10 0 185
6 32 148 158 10 0 92
7 14 285 295 10 0 178
8 -11 0 590 10 154 0
9 -15 160 170 10 146 0
10 -15 385 395 10 183 0
11 -16 487 497 10 197 0
12 -13 0 550 10 51 0
13 16 209 219 10 0 75
14 -5 0 572 10 164 0
15 -12 0 588 10 132 0
16 -30 61 71 10 47 0
17 -4 150 160 10 88 0
18 -25 346 356 10 193 0
19 13 63 73 10 0 144
20 -15 241 251 10 66 0
21 -21 86 96 10 195 0
22 -10 212 222 10 27 0
23 -19 369 379 10 95 0
24 -24 347 357 10 179 0
25 -15 511 521 10 112 0
26 -17 284 294 10 42 0
27 10 97 107 10 0 22
28 -20 0 548 10 134 0
29 -6 0 565 10 68 0
30 13 388 398 10 0 44
31 8 67 77 10 0 128
32 -20 277 287 10 177 0
33 9 0 585 10 0 139
34 -9 332 342 10 189 0
35 -32 216 226 10 74 0
36 18 114 124 10 0 91
37 18 106 116 10 0 117
38 -3 0 591 10 176 0
39 18 242 252 10 0 63
40 -20 328 338 10 94 0
41 12 412 422 10 0 106
42 17 72 82 10 0 26
43 11 421 431 0 0 210
44 -13 430 440 10 30 0
45 9 60 70 10 0 173
46 -20 492 502 10 100 0
47 30 28 38 10 0 16
48 -4 411 421 10 86 0
49 23 154 164 10 0 79
50 9 0 543 0 0 203
51 13 0 549 10 0 12
52 25 88 98 10 0 161
53 -19 495 505 10 125 0
54 18 0 565 10 0 3
55 32 161 171 10 0 126
56 23 36 46 10 0 196
57 -35 0 591 10 152 0
58 31 76 86 10 0 119
59 -10 0 553 10 190 0
60 -21 0 598 10 166 0
61 9 0 598 0 0 209
62 -13 535 545 10 181 0
63 -18 268 278 10 39 0
64 12 42 52 10 0 157
65 -36 216 226 10 69 0
66 15 0 570 10 0 20
67 -18 186 196 10 159 0
68 6 62 72 10 0 29
69 36 154 164 10 0 65
70 17 259 269 10 0 104
71 5 448 458 10 0 108
72 23 111 121 10 0 187
73 -20 0 584 10 158 0
74 32 24 34 10 0 35
75 -16 456 466 10 13 0
76 -13 570 580 10 131 0
77 16 236 246 10 0 122
78 -3 503 513 10 99 0
79 -23 413 423 10 49 0
80 4 309 319 10 0 198
81 -5 0 572 10 118 0
82 -19 0 609 10 188 0
83 14 421 431 0 0 208
84 9 458 468 0 0 205
85 10 296 306 10 0 89
86 4 68 78 10 0 48
87 -39 166 176 10 4 0
88 4 13 23 10 0 17
89 -10 354 364 10 85 0
90 -15 206 216 10 165 0
91 -18 0 583 10 36 0
92 -32 486 496 10 6 0
93 18 107 117 0 0 211
94 20 84 94 10 0 40
95 19 170 180 10 0 23
96 16 271 281 10 0 174
97 26 401 411 10 0 192
98 -16 470 480 10 148 0
99 3 244 254 10 0 78
100 20 0 579 10 0 46
101 -13 0 561 10 105 0
102 -17 366 376 10 135 0
103 8 443 453 0 0 206
104 -17 336 346 10 70 0
105 13 244 254 10 0 101
106 -12 495 505 10 41 0
107 14 42 52 10 0 109
108 -5 483 493 10 71 0
109 -14 560 570 10 107 0
110 -18 240 250 10 138 0
111 -7 559 569 10 142 0
112 15 382 392 10 0 25
113 -15 0 583 10 153 0
114 -13 0 577 10 149 0
115 -15 0 577 10 129 0
116 27 110 120 10 0 147
117 -18 315 325 10 37 0
118 5 0 551 10 0 81
119 -31 324 334 10 58 0
120 -23 490 500 10 127 0
121 18 64 74 10 0 124
122 -16 0 581 10 77 0
123 -16 0 551 10 162 0
124 -18 114 124 10 121 0
125 19 268 278 10 0 53
126 -32 240 250 10 55 0
127 23 347 357 10 0 120
128 -8 0 548 10 31 0
129 15 0 556 10 0 115
130 20 0 568 10 0 145
131 13 0 551 10 0 76
132 12 190 200 10 0 15
133 19 10 20 10 0 155
134 20 188 198 10 0 28
135 17 301 311 10 0 102
136 -8 137 147 10 200 0
137 20 278 288 10 0 160
138 18 145 155 10 0 110
139 -9 325 335 10 33 0
140 -21 0 551 10 170 0
141 20 11 21 10 0 184
142 7 0 576 10 0 111
143 18 320 330 10 0 199
144 -13 127 137 10 19 0
145 -20 383 393 10 130 0
146 15 45 55 10 0 9
147 -27 0 576 10 116 0
148 16 0 576 10 0 98
149 13 426 436 10 0 114
150 -31 0 615 10 171 0
151 -8 0 578 10 156 0
152 35 219 229 10 0 57
153 15 0 579 10 0 113
154 11 105 115 10 0 8
155 -19 384 394 10 133 0
156 8 17 27 10 0 151
157 -12 349 359 10 64 0
158 20 30 40 10 0 73
159 18 55 65 10 0 67
160 -20 353 363 10 137 0
161 -25 269 279 10 52 0
162 16 0 566 10 0 123
163 28 206 216 10 0 172
164 5 220 230 10 0 14
165 15 0 587 10 0 90
166 21 248 258 10 0 60
167 15 161 171 10 0 168
168 -15 386 396 10 167 0
169 9 71 81 10 0 186
170 21 313 323 10 0 140
171 31 329 339 10 0 150
172 -28 232 242 10 163 0
173 -9 384 394 10 45 0
174 -16 0 565 10 96 0
175 5 438 448 0 0 204
176 3 249 259 10 0 38
177 20 202 212 10 0 32
178 -14 361 371 10 7 0
179 24 285 295 10 0 24
180 -16 420 430 10 194 0
181 13 309 319 10 0 62
182 -34 309 319 10 2 0
183 15 311 321 10 0 10
184 -20 369 379 10 141 0
185 -19 70 80 10 5 0
186 -9 0 573 10 169 0
187 -23 0 549 10 72 0
188 19 0 545 10 0 82
189 9 58 68 10 0 34
190 10 0 532 10 0 59
191 20 492 502 0 0 207
192 -26 0 554 10 97 0
193 25 0 572 10 0 18
194 16 182 192 10 0 180
195 21 0 564 10 0 21
196 -23 234 244 10 56 0
197 16 21 31 10 0 11
198 -4 531 541 10 80 0
199 -18 512 522 10 143 0
200 8 93 103 10 0 136
201 27 411 421 0 0 202
202 -27 411 421 10 201 0
203 -9 0 543 10 50 0
204 -5 438 448 10 175 0
205 -9 458 468 10 84 0
206 -8 443 453 10 103 0
207 -20 492 502 10 191 0
208 -14 421 431 10 83 0
209 -9 0 598 10 61 0
210 -11 421 431 10 43 0
211 -18 107 117 10 93 0
DEPOT_SECTION
1
-1
EOF
