NAME: lr1_2_10
TYPE: PDPTW
COMMENT: Li & Lim PDPTW benchmark converted from SINTEF format
DIMENSION: 209
VEHICLES: 50
CAPACITY: 200
EDGE_WEIGHT_TYPE: EUC_2D
NODE_COORD_SECTION
1 70 70
2 107 77
3 109 139
4 120 22
5 48 47
6 116 22
7 12 138
8 86 40
9 121 124
10 61 57
11 40 113
12 129 24
13 12 84
14 44 116
15 102 52
16 41 36
17 132 133
18 104 139
19 104 54
20 22 104
21 46 133
22 138 78
23 16 92
24 18 104
25 66 82
26 107 25
27 139 73
28 101 0
29 90 14
30 20 69
31 64 132
32 115 82
33 54 106
34 30 21
35 63 129
36 82 100
37 108 30
38 37 73
39 50 112
40 47 83
41 92 138
42 81 36
43 115 124
44 13 48
45 113 35
46 60 84
47 44 58
48 8 87
49 116 105
50 117 4
51 140 42
52 139 68
53 58 95
54 103 119
55 32 52
56 89 39
57 54 41
58 39 100
59 5 99
60 67 96
61 73 96
62 112 13
63 55 127
64 103 44
65 97 12
66 16 62
67 140 36
68 90 44
69 113 32
70 104 73
71 36 38
72 15 4
73 54 33
74 70 94
75 35 90
76 88 29
77 109 131
78 10 111
79 138 105
80 113 45
81 92 22
82 85 75
83 10 86
84 51 92
85 46 112
86 12 48
87 137 7
88 79 80
89 69 116
90 28 62
91 50 106
92 83 38
93 120 102
94 65 0
95 4 71
96 19 120
97 18 70
98 58 80
99 49 140
100 69 115
101 36 124
102 84 88
103 17 138
104 103 82
105 38 122
106 70 83
107 29 60
108 61 34
109 54 78
110 83 12
111 34 72
112 80 103
113 78 111
114 116 83
115 29 94
116 137 137
117 110 28
118 116 13
119 59 115
120 71 70
121 120 60
122 85 111
123 121 123
124 137 84
125 103 86
126 30 57
127 139 72
128 2 106
129 64 138
130 23 39
131 126 23
132 138 24
133 78 63
134 98 4
135 103 77
136 58 11
137 26 130
138 104 32
139 55 102
140 137 101
141 65 80
142 26 50
143 56 139
144 119 73
145 9 19
146 82 103
147 107 102
148 60 23
149 123 84
150 79 72
151 99 34
152 27 46
153 64 115
154 32 6
155 86 80
156 81 57
157 135 65
158 66 40
159 120 47
160 37 125
161 120 14
162 114 109
163 137 127
164 37 138
165 36 54
166 109 78
167 34 20
168 39 13
169 137 96
170 110 99
171 136 123
172 133 130
173 120 52
174 33 117
175 37 79
176 60 54
177 125 68
178 13 129
179 20 106
180 15 9
181 106 10
182 100 99
183 89 24
184 67 120
185 42 29
186 117 92
187 15 18
188 139 110
189 44 36
190 8 138
191 33 0
192 4 44
193 97 115
194 23 19
195 56 129
196 105 2
197 66 91
198 93 61
199 27 104
200 69 6
201 95 135
202 107 25
203 15 9
204 103 77
205 50 106
206 109 131
207 117 4
208 38 122
209 47 83
PICKUP_AND_DELIVERY_SECTION
1 0 0 634 0 0 0
2 34 37 197 10 0 127
3 -4 79 250 10 88 0
4 -12 69 207 10 64 0
5 19 31 163 10 0 191
6 32 106 199 10 0 10
7 14 236 343 10 0 84
8 22 34 201 10 0 111
9 -23 92 237 10 49 0
10 -32 334 446 10 6 0
11 -8 431 553 10 103 0
12 18 311 388 10 0 80
13 16 150 278 10 0 48
14 -32 52 144 10 74 0
15 -8 106 242 10 156 0
16 13 44 153 10 0 154
17 -18 88 231 10 93 0
18 29 284 417 10 0 193
19 13 37 155 10 0 132
20 -31 189 304 10 58 0
21 7 67 154 10 0 137
22 -10 168 267 10 27 0
23 10 311 437 10 0 175
24 -20 271 433 10 174 0
25 -17 450 582 10 182 0
26 13 220 358 0 0 202
27 10 69 137 10 0 22
28 -20 412 548 10 117 0
29 -16 412 545 10 148 0
30 -15 338 448 10 66 0
31 8 62 144 10 0 35
32 -17 204 361 10 70 0
33 9 219 400 10 0 160
34 -9 268 406 10 189 0
35 -8 183 260 10 31 0
36 18 61 177 10 0 106
37 18 77 145 10 0 45
38 33 279 423 10 0 97
39 18 188 305 10 0 101
40 1 277 388 0 0 209
41 12 353 480 10 0 201
42 17 35 165 10 0 57
43 -13 353 499 10 172 0
44 15 388 482 10 0 71
45 -18 55 136 10 37 0
46 -4 404 590 10 139 0
47 30 28 144 10 0 59
48 -16 360 473 10 13 0
49 23 123 195 10 0 9
50 9 384 482 0 0 207
51 13 75 216 10 0 67
52 -20 69 200 10 177 0
53 -17 438 562 10 63 0
54 -19 306 393 10 188 0
55 32 129 203 10 0 86
56 23 36 206 10 0 158
57 -17 259 334 10 42 0
58 31 43 212 10 0 20
59 -30 267 411 10 47 0
60 -9 443 572 10 61 0
61 9 139 223 10 0 60
62 -1 410 554 10 196 0
63 17 204 342 10 0 53
64 12 42 157 10 0 4
65 -8 142 300 10 200 0
66 15 348 475 10 0 30
67 -13 124 257 10 51 0
68 6 32 143 10 0 138
69 36 86 233 10 0 181
70 17 196 332 10 0 32
71 -15 395 510 10 44 0
72 -15 85 208 10 167 0
73 20 40 149 10 0 94
74 32 24 127 10 0 14
75 -1 388 534 10 199 0
76 -29 455 580 10 110 0
77 16 168 314 0 0 206
78 -16 467 549 10 96 0
79 -12 369 468 10 140 0
80 -18 257 371 10 12 0
81 -5 140 270 10 118 0
82 -22 15 171 10 150 0
83 -19 364 488 10 95 0
84 -14 396 530 10 7 0
85 10 204 397 10 0 129
86 -32 62 164 10 55 0
87 -18 119 222 10 159 0
88 4 13 142 10 0 3
89 -15 272 447 10 153 0
90 23 158 265 10 0 107
91 25 276 395 0 0 205
92 -9 433 549 10 151 0
93 18 68 156 10 0 17
94 -20 70 215 10 73 0
95 19 108 243 10 0 83
96 16 237 316 10 0 78
97 -33 360 452 10 38 0
98 -11 419 531 10 109 0
99 3 178 320 10 0 190
100 -16 164 296 10 197 0
101 -18 196 302 10 39 0
102 -25 312 430 10 122 0
103 8 403 493 10 0 11
104 27 285 397 10 0 155
105 13 190 309 0 0 208
106 -18 432 567 10 36 0
107 -23 42 199 10 90 0
108 -16 402 573 10 194 0
109 11 458 607 10 0 98
110 29 201 290 10 0 76
111 -22 421 588 10 8 0
112 -16 318 456 10 162 0
113 22 41 164 10 0 147
114 30 141 247 10 0 125
115 1 220 364 10 0 128
116 -28 94 230 10 163 0
117 20 232 408 10 0 28
118 5 73 200 10 0 81
119 -5 261 397 10 184 0
120 -41 438 553 10 124 0
121 -19 50 164 10 133 0
122 25 206 329 10 0 102
123 -31 209 335 10 171 0
124 41 68 194 10 0 120
125 -30 229 316 10 114 0
126 20 194 297 10 0 142
127 -34 301 403 10 2 0
128 -1 333 470 10 115 0
129 -10 389 520 10 85 0
130 20 307 427 10 0 165
131 -20 214 343 10 161 0
132 -13 152 237 10 19 0
133 19 10 124 10 0 121
134 -9 140 245 10 136 0
135 17 235 377 0 0 204
136 9 72 212 10 0 134
137 -7 243 323 10 21 0
138 -6 100 200 10 68 0
139 4 249 411 10 0 46
140 12 78 290 10 0 79
141 20 11 118 10 0 179
142 -20 312 492 10 126 0
143 -21 254 395 10 195 0
144 15 74 191 10 0 157
145 10 327 449 10 0 187
146 15 35 220 10 0 170
147 -22 159 310 10 113 0
148 16 48 229 10 0 29
149 -9 373 490 10 169 0
150 22 9 133 10 0 82
151 9 46 162 10 0 92
152 35 171 276 10 0 192
153 15 107 194 10 0 89
154 -13 74 201 10 16 0
155 -27 316 462 10 104 0
156 8 17 204 10 0 15
157 -15 279 429 10 144 0
158 -23 30 147 10 56 0
159 18 55 156 10 0 87
160 -9 292 424 10 33 0
161 20 224 324 10 0 131
162 16 58 183 10 0 112
163 28 171 250 10 0 116
164 5 170 280 10 0 178
165 -20 306 467 10 130 0
166 21 200 305 10 0 186
167 15 121 210 10 0 72
168 -12 318 463 10 185 0
169 9 71 204 10 0 149
170 -15 240 395 10 146 0
171 31 260 408 10 0 123
172 13 163 311 10 0 43
173 20 338 440 10 0 198
174 20 59 195 10 0 24
175 -10 383 503 10 23 0
176 -15 193 316 10 183 0
177 20 140 274 10 0 52
178 -5 318 415 10 164 0
179 -20 218 362 10 141 0
180 2 368 483 0 0 203
181 -36 228 400 10 69 0
182 17 253 374 10 0 25
183 15 263 370 10 0 176
184 5 331 417 10 0 119
185 12 49 135 10 0 168
186 -21 241 354 10 166 0
187 -10 344 486 10 145 0
188 19 130 282 10 0 54
189 9 42 161 10 0 34
190 -3 240 373 10 99 0
191 -19 424 545 10 5 0
192 -35 372 490 10 152 0
193 -29 312 455 10 18 0
194 16 118 256 10 0 108
195 21 250 353 10 0 143
196 1 195 282 10 0 62
197 16 21 151 10 0 100
198 -20 465 600 10 173 0
199 1 476 558 10 0 75
200 8 64 175 10 0 65
201 -12 350 482 10 41 0
202 -13 220 358 10 26 0
203 -2 368 483 10 180 0
204 -17 235 377 10 135 0
205 -25 276 395 10 91 0
206 -16 168 314 10 77 0
207 -9 384 482 10 50 0
208 -13 190 309 10 105 0
209 -1 277 388 10 40 0
DEPOT_SECTION
1
-1
EOF
