NAME: lr1_2_9
TYPE: PDPTW
COMMENT: Li & Lim PDPTW benchmark converted from SINTEF format
DIMENSION: 211
VEHICLES: 50
CAPACITY: 200
EDGE_WEIGHT_TYPE: EUC_2D
NODE_COORD_SECTION
1 70 70
2 107 77
3 109 139
4 120 22
5 48 47
6 116 22
7 12 138
8 86 40
9 121 124
10 61 57
11 40 113
12 129 24
13 12 84
14 44 116
15 102 52
16 41 36
17 132 133
18 104 139
19 104 54
20 22 104
21 46 133
22 138 78
23 16 92
24 18 104
25 66 82
26 107 25
27 139 73
28 101 0
29 90 14
30 20 69
31 64 132
32 115 82
33 54 106
34 30 21
35 63 129
36 82 100
37 108 30
38 37 73
39 50 112
40 47 83
41 92 138
42 81 36
43 115 124
44 13 48
45 113 35
46 60 84
47 44 58
48 8 87
49 116 105
50 117 4
51 140 42
52 139 68
53 58 95
54 103 119
55 32 52
56 89 39
57 54 41
58 39 100
59 5 99
60 67 96
61 73 96
62 112 13
63 55 127
64 103 44
65 97 12
66 16 62
67 140 36
68 90 44
69 113 32
70 104 73
71 36 38
72 15 4
73 54 33
74 70 94
75 35 90
76 88 29
77 109 131
78 10 111
79 138 105
80 113 45
81 92 22
82 85 75
83 10 86
84 51 92
85 46 112
86 12 48
87 137 7
88 79 80
89 69 116
90 28 62
91 50 106
92 83 38
93 120 102
94 65 0
95 4 71
96 19 120
97 18 70
98 58 80
99 49 140
100 69 115
101 36 124
102 84 88
103 17 138
104 103 82
105 38 122
106 70 83
107 29 60
108 61 34
109 54 78
110 83 12
111 34 72
112 80 103
113 78 111
114 116 83
115 29 94
116 137 137
117 110 28
118 116 13
119 59 115
120 71 70
121 120 60
122 85 111
123 121 123
124 137 84
125 103 86
126 30 57
127 139 72
128 2 106
129 64 138
130 23 39
131 126 23
132 138 24
133 78 63
134 98 4
135 103 77
136 58 11
137 26 130
138 104 32
139 55 102
140 137 101
141 65 80
142 26 50
143 56 139
144 119 73
145 9 19
146 82 103
147 107 102
148 60 23
149 123 84
150 79 72
151 99 34
152 27 46
153 64 115
154 32 6
155 86 80
156 81 57
157 135 65
158 66 40
159 120 47
160 37 125
161 120 14
162 114 109
163 137 127
164 37 138
165 36 54
166 109 78
167 34 20
168 39 13
169 137 96
170 110 99
171 136 123
172 133 130
173 120 52
174 33 117
175 37 79
176 60 54
177 125 68
178 13 129
179 20 106
180 15 9
181 106 10
182 100 99
183 89 24
184 67 120
185 42 29
186 117 92
187 15 18
188 139 110
189 44 36
190 8 138
191 33 0
192 4 44
193 97 115
194 23 19
195 56 129
196 105 2
197 66 91
198 93 61
199 27 104
200 69 6
201 95 135
202 15 18
203 8 138
204 71 70
205 69 116
206 112 13
207 66 82
208 125 68
209 113 32
210 137 7
211 95 135
PICKUP_AND_DELIVERY_SECTION
1 0 0 634 0 0 0
2 34 37 124 10 0 52
3 8 94 162 10 0 43
4 -9 97 160 10 45 0
5 19 31 106 10 0 30
6 -8 119 187 10 156 0
7 -34 272 307 10 101 0
8 22 34 54 10 0 29
9 21 147 183 10 0 18
10 -20 368 411 10 134 0
11 -8 466 517 10 31 0
12 -12 309 390 10 64 0
13 -4 175 253 10 86 0
14 -16 52 140 10 197 0
15 -23 140 208 10 56 0
16 13 44 115 10 0 57
17 -15 113 197 10 146 0
18 -21 325 376 10 9 0
19 13 41 94 10 0 67
20 11 209 283 10 0 115
21 7 67 115 10 0 35
22 43 176 259 10 0 127
23 10 339 409 10 0 48
24 18 324 379 10 0 128
25 27 497 534 0 0 207
26 13 249 329 10 0 117
27 10 71 134 10 0 124
28 -9 483 543 10 50 0
29 -22 461 496 10 8 0
30 -19 353 434 10 5 0
31 8 62 121 10 0 11
32 -15 252 312 10 144 0
33 -18 277 342 10 36 0
34 12 304 371 10 0 192
35 -7 202 240 10 21 0
36 18 94 145 10 0 33
37 -9 82 140 10 151 0
38 -24 325 376 10 179 0
39 18 212 282 10 0 103
40 -20 301 364 10 174 0
41 -16 381 452 10 77 0
42 17 43 111 10 0 138
43 -8 399 454 10 3 0
44 -15 393 477 10 167 0
45 9 55 139 10 0 4
46 -5 447 547 10 164 0
47 30 28 93 10 0 126
48 -10 387 446 10 23 0
49 -16 132 187 10 162 0
50 9 407 459 10 0 28
51 13 79 152 10 0 131
52 -34 69 139 10 2 0
53 -22 460 539 10 150 0
54 18 315 383 10 0 112
55 32 142 190 10 0 97
56 23 36 67 10 0 15
57 -13 266 327 10 16 0
58 31 43 121 10 0 96
59 24 319 359 10 0 98
60 -20 491 523 10 100 0
61 9 144 219 10 0 184
62 27 481 554 0 0 206
63 -3 253 294 10 99 0
64 12 42 72 10 0 12
65 10 183 260 10 0 196
66 -23 355 467 10 90 0
67 -13 162 220 10 19 0
68 -19 33 102 10 133 0
69 36 130 189 0 0 209
70 17 238 290 10 0 104
71 -7 413 492 10 142 0
72 23 85 166 10 0 176
73 20 40 117 10 0 168
74 32 24 104 10 0 137
75 -14 423 499 10 83 0
76 -18 514 580 10 121 0
77 16 206 276 10 0 41
78 21 465 551 10 0 199
79 -19 399 437 10 188 0
80 -5 264 364 10 118 0
81 18 178 231 10 0 183
82 37 15 85 10 0 139
83 14 375 477 10 0 75
84 -18 422 503 10 143 0
85 -15 283 318 10 153 0
86 4 62 159 10 0 13
87 40 156 186 0 0 210
88 4 13 56 10 0 93
89 26 339 379 0 0 205
90 23 182 241 10 0 66
91 25 314 356 10 0 129
92 -29 478 505 10 110 0
93 -4 76 148 10 88 0
94 -16 70 135 10 148 0
95 -14 131 219 10 107 0
96 -31 236 317 10 58 0
97 -32 378 433 10 55 0
98 -24 441 509 10 59 0
99 3 224 275 10 0 63
100 20 214 246 10 0 60
101 34 237 261 10 0 7
102 -30 329 414 10 114 0
103 -18 409 487 10 39 0
104 -17 307 376 10 70 0
105 13 212 287 10 0 178
106 -26 479 521 10 119 0
107 14 42 126 10 0 95
108 -20 449 527 10 191 0
109 -5 533 597 10 175 0
110 29 226 264 10 0 92
111 -9 542 586 10 136 0
112 -18 361 414 10 54 0
113 22 41 118 10 0 122
114 30 157 231 10 0 102
115 -11 266 318 10 20 0
116 27 94 150 10 0 123
117 -13 291 349 10 26 0
118 5 73 147 10 0 80
119 26 289 368 10 0 106
120 9 472 518 0 0 204
121 18 50 136 10 0 76
122 -22 230 306 10 113 0
123 -27 239 306 10 116 0
124 -10 91 147 10 27 0
125 -17 236 309 10 135 0
126 -30 219 272 10 47 0
127 -43 333 371 10 22 0
128 -18 365 438 10 24 0
129 -25 410 500 10 91 0
130 -9 335 398 10 189 0
131 -13 260 297 10 51 0
132 -18 164 226 10 159 0
133 19 10 41 10 0 68
134 20 165 220 10 0 10
135 17 282 329 10 0 125
136 9 110 175 10 0 111
137 -32 266 300 10 74 0
138 -17 120 179 10 42 0
139 -37 285 374 10 82 0
140 12 156 212 10 0 147
141 20 11 66 10 0 165
142 7 359 445 10 0 71
143 18 287 362 10 0 84
144 15 101 164 10 0 32
145 10 368 408 10 0 180
146 15 35 65 10 0 17
147 -12 196 272 10 140 0
148 16 48 116 10 0 94
149 -13 386 476 10 172 0
150 22 9 51 10 0 53
151 9 65 117 10 0 37
152 -16 196 252 10 194 0
153 15 114 186 10 0 85
154 -12 97 123 10 185 0
155 -3 362 416 10 157 0
156 8 17 40 10 0 6
157 3 325 382 10 0 155
158 20 30 82 10 0 200
159 18 55 113 10 0 132
160 -21 339 377 10 195 0
161 20 245 303 10 0 181
162 16 75 110 10 0 49
163 28 190 231 10 0 171
164 5 193 256 10 0 46
165 -20 364 410 10 141 0
166 -9 206 300 10 169 0
167 15 145 186 10 0 44
168 -20 369 413 10 73 0
169 9 71 100 10 0 166
170 21 288 348 10 0 182
171 -28 311 357 10 163 0
172 13 217 258 10 0 149
173 20 350 429 10 0 198
174 20 79 138 10 0 40
175 5 421 466 10 0 109
176 -23 233 275 10 72 0
177 20 178 236 0 0 208
178 -13 345 387 10 105 0
179 24 266 315 10 0 38
180 -10 394 457 10 145 0
181 -20 288 340 10 161 0
182 -21 291 337 10 170 0
183 -18 280 353 10 81 0
184 -9 347 400 10 61 0
185 12 49 111 10 0 154
186 25 262 333 10 0 193
187 10 396 435 0 0 202
188 19 166 247 10 0 79
189 9 42 103 10 0 130
190 10 275 337 0 0 203
191 20 463 532 10 0 108
192 -12 414 447 10 34 0
193 -25 367 400 10 186 0
194 16 175 198 10 0 152
195 21 289 315 10 0 160
196 -10 208 269 10 65 0
197 16 21 78 10 0 14
198 -20 506 567 10 173 0
199 -21 480 554 10 78 0
200 -20 73 122 10 158 0
201 27 376 456 0 0 211
202 -10 396 435 10 187 0
203 -10 275 337 10 190 0
204 -9 472 518 10 120 0
205 -26 339 379 10 89 0
206 -27 481 554 10 62 0
207 -27 497 534 10 25 0
208 -20 178 236 10 177 0
209 -36 130 189 10 69 0
210 -40 156 186 10 87 0
211 -27 376 456 10 201 0
DEPOT_SECTION
1
-1
EOF
