NAME: lr2_2_9
TYPE: PDPTW
COMMENT: Li & Lim PDPTW benchmark converted from SINTEF format
DIMENSION: 201
VEHICLES: 50
CAPACITY: 1000
EDGE_WEIGHT_TYPE: EUC_2D
NODE_COORD_SECTION
1 70 70
2 101 0
3 26 50
4 30 57
5 29 60
6 69 116
7 137 137
8 103 119
9 78 111
10 107 25
11 17 138
12 37 138
13 20 69
14 121 123
15 22 104
16 137 7
17 50 106
18 46 112
19 79 72
20 104 32
21 8 87
22 109 139
23 80 103
24 78 63
25 95 135
26 37 79
27 64 132
28 133 130
29 39 13
30 120 14
31 10 86
32 140 42
33 121 124
34 42 29
35 44 58
36 32 6
37 41 36
38 106 10
39 107 102
40 83 38
41 132 133
42 81 57
43 120 52
44 113 32
45 137 101
46 82 103
47 10 111
48 90 44
49 139 73
50 89 24
51 64 138
52 98 4
53 61 34
54 60 84
55 13 48
56 84 88
57 86 40
58 69 115
59 59 115
60 105 2
61 107 77
62 104 54
63 54 33
64 32 52
65 37 125
66 99 34
67 38 122
68 85 75
69 109 131
70 103 77
71 47 83
72 139 68
73 88 29
74 39 100
75 48 47
76 104 73
77 9 19
78 103 44
79 73 96
80 44 116
81 71 70
82 83 12
83 36 54
84 16 92
85 56 139
86 27 104
87 67 96
88 34 72
89 120 22
90 54 106
91 63 129
92 33 117
93 102 52
94 13 129
95 34 20
96 114 109
97 86 80
98 33 0
99 18 104
100 70 83
101 12 48
102 139 72
103 109 78
104 116 22
105 27 46
106 19 120
107 23 39
108 110 99
109 15 18
110 18 70
111 16 62
112 61 57
113 123 84
114 37 73
115 115 124
116 93 61
117 89 39
118 65 0
119 108 30
120 120 60
121 92 22
122 2 106
123 117 92
124 26 130
125 85 111
126 113 45
127 40 113
128 138 105
129 116 105
130 110 28
131 12 138
132 66 40
133 140 36
134 50 112
135 23 19
136 4 71
137 92 138
138 69 6
139 100 99
140 116 13
141 112 13
142 49 140
143 36 124
144 120 47
145 60 54
146 115 82
147 139 110
148 126 23
149 58 80
150 30 21
151 64 115
152 82 100
153 113 35
154 35 90
155 58 95
156 117 4
157 97 115
158 56 129
159 54 41
160 136 123
161 129 24
162 46 133
163 58 11
164 54 78
165 65 80
166 28 62
167 55 127
168 137 84
169 79 80
170 51 92
171 12 84
172 66 82
173 97 12
174 67 120
175 55 102
176 90 14
177 20 106
178 15 4
179 138 78
180 60 23
181 29 94
182 70 94
183 4 44
184 66 91
185 119 73
186 135 65
187 103 82
188 104 139
189 15 9
190 5 99
191 36 38
192 125 68
193 44 36
194 137 127
195 120 102
196 138 24
197 103 86
198 137 96
199 8 138
200 81 36
201 116 83
PICKUP_AND_DELIVERY_SECTION
1 0 0 2535 0 0 0
2 -16 1782 2321 10 171 0
3 7 1442 1778 10 0 40
4 -30 723 1239 10 35 0
5 -22 42 312 10 57 0
6 26 1383 1492 10 0 112
7 -16 319 598 10 184 0
8 -3 1106 1686 10 145 0
9 22 41 315 10 0 31
10 13 980 1330 10 0 130
11 8 1461 2120 10 0 86
12 -16 627 1170 10 96 0
13 13 1317 1828 10 0 88
14 -43 769 1408 10 179 0
15 -15 791 1178 10 95 0
16 -1 574 793 10 133 0
17 -17 1230 1452 10 167 0
18 10 1025 1383 10 0 67
19 22 9 93 10 0 194
20 18 462 736 10 0 172
21 -27 1424 1906 10 80 0
22 -15 227 796 10 46 0
23 -25 1141 1955 10 123 0
24 19 10 226 10 0 135
25 -18 1562 1762 10 144 0
26 -24 1719 1829 10 183 0
27 -20 198 382 10 92 0
28 -20 701 1198 10 192 0
29 -15 1378 1749 10 83 0
30 20 976 1213 10 0 161
31 -22 1431 1974 10 9 0
32 13 256 668 10 0 121
33 -41 550 769 10 168 0
34 12 222 379 10 0 178
35 30 28 380 10 0 4
36 -16 285 596 10 180 0
37 -6 97 435 10 48 0
38 13 1126 1384 10 0 160
39 12 632 1241 10 0 151
40 -7 1647 2285 10 3 0
41 24 414 824 10 0 94
42 8 17 482 10 0 77
43 -12 1465 1649 10 78 0
44 -32 431 841 10 104 0
45 12 470 1005 10 0 152
46 15 100 298 10 0 22
47 -24 1887 2176 10 190 0
48 6 32 682 10 0 37
49 10 150 667 10 0 149
50 15 989 1539 10 0 137
51 -34 1742 1897 10 61 0
52 20 606 935 10 0 186
53 -21 1703 2197 10 158 0
54 -9 1790 2183 10 170 0
55 -17 1554 1929 10 70 0
56 16 1455 1514 10 0 110
57 22 34 289 10 0 5
58 -25 630 1213 10 72 0
59 -16 1248 1382 10 106 0
60 1 597 1312 10 0 128
61 34 37 451 10 0 51
62 13 184 357 10 0 147
63 20 40 415 10 0 105
64 32 384 944 10 0 166
65 10 1199 1668 10 0 85
66 9 274 453 10 0 119
67 -10 805 1187 10 18 0
68 37 15 546 10 0 89
69 -30 913 1017 10 201 0
70 17 1087 1358 10 0 55
71 -1 1085 1576 10 181 0
72 25 159 587 10 0 58
73 -10 2146 2481 10 109 0
74 31 98 550 10 0 122
75 -17 31 566 10 200 0
76 17 759 1355 10 0 185
77 -8 1360 1742 10 42 0
78 12 42 420 10 0 43
79 -32 659 790 10 182 0
80 27 111 433 10 0 21
81 -9 1683 2280 10 156 0
82 29 813 1148 10 0 127
83 15 1305 1790 10 0 29
84 -14 1337 1653 10 131 0
85 -10 1227 1371 10 65 0
86 -8 1938 2200 10 11 0
87 -5 1909 2147 10 140 0
88 -13 1768 2489 10 13 0
89 -37 340 692 10 68 0
90 9 1000 1475 10 0 175
91 -20 762 1008 10 165 0
92 20 59 840 10 0 27
93 15 567 824 10 0 108
94 -24 1180 1750 10 41 0
95 15 641 683 10 0 15
96 16 147 591 10 0 12
97 21 1343 1772 10 0 191
98 -3 1749 2231 10 142 0
99 -34 1152 1661 10 143 0
100 -25 1895 2104 10 157 0
101 4 62 614 10 0 163
102 -13 1244 1572 10 148 0
103 21 820 1201 10 0 164
104 32 540 681 10 0 44
105 -20 673 1118 10 63 0
106 16 992 1218 10 0 59
107 -19 1426 1507 10 136 0
108 -15 1145 1397 10 93 0
109 10 1458 1862 10 0 73
110 -16 1410 1837 10 56 0
111 -5 1440 1848 10 174 0
112 -26 1392 1727 10 6 0
113 -29 1613 1838 10 188 0
114 33 1307 1501 10 0 116
115 11 1499 1909 10 0 155
116 -33 1871 2418 10 114 0
117 23 36 431 10 0 189
118 -8 106 607 10 138 0
119 -9 70 815 10 66 0
120 18 129 424 10 0 159
121 -13 601 1039 10 32 0
122 -31 1441 1774 10 74 0
123 25 1033 1350 10 0 23
124 -18 945 1315 10 134 0
125 25 1054 1090 10 0 197
126 4 1063 1449 10 0 139
127 -29 1660 2273 10 82 0
128 -1 1568 1780 10 60 0
129 23 352 922 10 0 195
130 -13 1067 1497 10 10 0
131 14 1085 1232 10 0 84
132 20 30 226 10 0 141
133 1 540 984 10 0 16
134 18 954 1020 10 0 124
135 -19 432 1060 10 24 0
136 19 539 865 10 0 107
137 -15 1469 1867 10 50 0
138 8 64 745 10 0 118
139 -4 956 1556 10 126 0
140 5 196 389 10 0 87
141 -20 2093 2226 10 132 0
142 3 607 1385 10 0 98
143 34 886 1105 10 0 99
144 18 55 494 10 0 25
145 3 854 1179 10 0 8
146 30 1028 1232 10 0 187
147 -13 740 912 10 62 0
148 13 831 1397 10 0 102
149 -10 1733 2064 10 49 0
150 -9 1134 1566 10 193 0
151 -12 332 868 10 39 0
152 -12 189 765 10 45 0
153 -4 55 671 10 169 0
154 -10 1624 2063 10 199 0
155 -11 1919 2080 10 115 0
156 9 1566 1902 10 0 81
157 25 1472 1595 10 0 100
158 21 960 1453 10 0 53
159 -18 940 1429 10 120 0
160 -13 1173 1495 10 38 0
161 -20 1199 1601 10 30 0
162 7 193 532 10 0 198
163 -4 365 772 10 101 0
164 -21 2204 2314 10 103 0
165 20 11 149 10 0 91
166 -32 661 1027 10 64 0
167 17 907 1280 10 0 17
168 41 472 484 10 0 33
169 4 13 509 10 0 153
170 9 1581 2121 10 0 54
171 16 697 1013 10 0 2
172 -18 1825 2303 10 20 0
173 -12 705 1065 10 196 0
174 5 1250 1740 10 0 111
175 -9 1108 1529 10 90 0
176 -24 1619 2212 10 177 0
177 24 1102 1220 10 0 176
178 -12 306 621 10 34 0
179 43 695 1044 10 0 14
180 16 99 451 10 0 36
181 1 967 1371 10 0 71
182 32 24 383 10 0 79
183 24 1715 1729 10 0 26
184 16 21 434 10 0 7
185 -17 175 881 10 76 0
186 -20 1343 1487 10 52 0
187 -30 1292 1438 10 146 0
188 29 1145 1659 10 0 113
189 -23 1596 1806 10 117 0
190 24 1027 1687 10 0 47
191 -21 1606 2016 10 97 0
192 20 539 1116 10 0 28
193 9 108 393 10 0 150
194 -22 688 996 10 19 0
195 -23 356 537 10 129 0
196 12 484 1072 10 0 173
197 -25 1017 1165 10 125 0
198 -7 116 459 10 162 0
199 10 1044 1406 10 0 154
200 17 35 600 10 0 75
201 30 691 865 10 0 69
DEPOT_SECTION
1
-1
EOF
