NAME: lr2_2_7
TYPE: PDPTW
COMMENT: Li & Lim PDPTW benchmark converted from SINTEF format
DIMENSION: 203
VEHICLES: 50
CAPACITY: 1000
EDGE_WEIGHT_TYPE: EUC_2D
NODE_COORD_SECTION
1 70 70
2 101 0
3 26 50
4 30 57
5 29 60
6 69 116
7 137 137
8 103 119
9 78 111
10 107 25
11 17 138
12 37 138
13 20 69
14 121 123
15 22 104
16 137 7
17 50 106
18 46 112
19 79 72
20 104 32
21 8 87
22 109 139
23 80 103
24 78 63
25 95 135
26 37 79
27 64 132
28 133 130
29 39 13
30 120 14
31 10 86
32 140 42
33 121 124
34 42 29
35 44 58
36 32 6
37 41 36
38 106 10
39 107 102
40 83 38
41 132 133
42 81 57
43 120 52
44 113 32
45 137 101
46 82 103
47 10 111
48 90 44
49 139 73
50 89 24
51 64 138
52 98 4
53 61 34
54 60 84
55 13 48
56 84 88
57 86 40
58 69 115
59 59 115
60 105 2
61 107 77
62 104 54
63 54 33
64 32 52
65 37 125
66 99 34
67 38 122
68 85 75
69 109 131
70 103 77
71 47 83
72 139 68
73 88 29
74 39 100
75 48 47
76 104 73
77 9 19
78 103 44
79 73 96
80 44 116
81 71 70
82 83 12
83 36 54
84 16 92
85 56 139
86 27 104
87 67 96
88 34 72
89 120 22
90 54 106
91 63 129
92 33 117
93 102 52
94 13 129
95 34 20
96 114 109
97 86 80
98 33 0
99 18 104
100 70 83
101 12 48
102 139 72
103 109 78
104 116 22
105 27 46
106 19 120
107 23 39
108 110 99
109 15 18
110 18 70
111 16 62
112 61 57
113 123 84
114 37 73
115 115 124
116 93 61
117 89 39
118 65 0
119 108 30
120 120 60
121 92 22
122 2 106
123 117 92
124 26 130
125 85 111
126 113 45
127 40 113
128 138 105
129 116 105
130 110 28
131 12 138
132 66 40
133 140 36
134 50 112
135 23 19
136 4 71
137 92 138
138 69 6
139 100 99
140 116 13
141 112 13
142 49 140
143 36 124
144 120 47
145 60 54
146 115 82
147 139 110
148 126 23
149 58 80
150 30 21
151 64 115
152 82 100
153 113 35
154 35 90
155 58 95
156 117 4
157 97 115
158 56 129
159 54 41
160 136 123
161 129 24
162 46 133
163 58 11
164 54 78
165 65 80
166 28 62
167 55 127
168 137 84
169 79 80
170 51 92
171 12 84
172 66 82
173 97 12
174 67 120
175 55 102
176 90 14
177 20 106
178 15 4
179 138 78
180 60 23
181 29 94
182 70 94
183 4 44
184 66 91
185 119 73
186 135 65
187 103 82
188 104 139
189 15 9
190 5 99
191 36 38
192 125 68
193 44 36
194 137 127
195 120 102
196 138 24
197 103 86
198 137 96
199 8 138
200 81 36
201 116 83
202 83 38
203 58 95
PICKUP_AND_DELIVERY_SECTION
1 0 0 2535 0 0 0
2 -1 1932 2172 10 133 0
3 7 1490 1730 10 0 109
4 20 0 2483 10 0 96
5 14 0 2483 10 0 21
6 -9 0 2479 10 79 0
7 27 339 579 10 0 192
8 -25 1276 1516 10 157 0
9 22 47 287 10 0 137
10 13 1035 1275 10 0 83
11 8 1670 1910 10 0 74
12 -22 0 2450 10 57 0
13 13 0 2475 10 0 165
14 9 0 2452 10 0 53
15 -23 0 2467 10 117 0
16 -13 0 2434 10 32 0
17 -15 1221 1461 10 46 0
18 -7 1084 1324 10 91 0
19 22 0 2516 10 0 139
20 -12 0 2475 10 39 0
21 -14 1545 1785 10 5 0
22 -31 392 632 10 160 0
23 -9 1428 1668 10 90 0
24 19 0 2515 10 0 111
25 -17 1542 1782 10 167 0
26 5 0 2491 10 0 88
27 8 170 410 10 0 174
28 13 0 2438 10 0 77
29 -2 1443 1683 10 189 0
30 -16 974 1214 10 184 0
31 -11 0 2463 10 36 0
32 13 0 2450 10 0 16
33 21 539 779 10 0 128
34 12 0 2476 10 0 193
35 -4 28 268 10 101 0
36 11 320 560 10 0 31
37 13 146 386 10 0 38
38 -13 1135 1375 10 37 0
39 12 0 2477 10 0 20
40 22 1846 2086 0 0 202
41 24 0 2437 10 0 73
42 8 17 257 10 0 199
43 20 0 2472 10 0 44
44 -20 0 2468 10 43 0
45 -19 617 857 10 75 0
46 15 0 2490 10 0 17
47 -3 1911 2151 10 142 0
48 6 149 389 10 0 166
49 -9 0 2456 10 153 0
50 -20 0 2476 10 52 0
51 15 0 2457 10 0 125
52 20 0 2454 10 0 50
53 -9 1830 2070 10 14 0
54 -26 1866 2106 10 110 0
55 -20 1622 1862 10 124 0
56 -13 1365 1605 10 67 0
57 22 0 2491 10 0 12
58 -23 0 2480 10 100 0
59 26 1195 1435 10 0 87
60 -43 0 2449 10 179 0
61 -32 0 2488 10 104 0
62 -15 150 390 10 93 0
63 -20 41 281 10 132 0
64 -11 0 2483 10 115 0
65 10 0 2461 10 0 80
66 9 243 483 10 0 121
67 13 876 1116 10 0 56
68 -4 0 2510 10 175 0
69 16 0 2453 10 0 159
70 -5 1102 1342 10 140 0
71 -33 0 2499 10 114 0
72 -10 0 2456 10 116 0
73 -24 0 2481 10 41 0
74 -8 0 2482 10 11 0
75 19 31 271 10 0 45
76 17 0 2491 10 0 170
77 -13 1431 1671 10 28 0
78 12 0 2483 10 0 95
79 9 604 844 10 0 6
80 -10 0 2473 10 65 0
81 9 0 2524 10 0 120
82 29 0 2466 10 0 84
83 -13 1428 1668 10 10 0
84 -29 0 2467 10 82 0
85 -23 1179 1419 10 178 0
86 -16 1949 2189 10 106 0
87 -26 1908 2148 10 59 0
88 -5 0 2489 10 26 0
89 39 396 636 10 0 123
90 9 1117 1357 10 0 23
91 7 765 1005 10 0 18
92 20 316 556 10 0 97
93 15 0 2489 10 0 62
94 25 1345 1585 10 0 190
95 -12 0 2464 10 78 0
96 -20 249 489 10 4 0
97 -20 0 2507 10 92 0
98 -9 1870 2110 10 198 0
99 -24 1287 1527 10 177 0
100 23 0 2512 10 0 58
101 4 172 412 10 0 35
102 -4 1288 1528 10 126 0
103 -13 0 2486 10 113 0
104 32 491 731 10 0 61
105 -27 0 2476 10 141 0
106 16 0 2454 10 0 86
107 20 1347 1587 10 0 180
108 -18 0 2476 10 119 0
109 -7 1540 1780 10 3 0
110 26 1504 1744 10 0 54
111 -19 1524 1764 10 24 0
112 35 0 2510 10 0 164
113 13 1606 1846 10 0 103
114 33 0 2492 10 0 71
115 11 0 2455 10 0 64
116 10 0 2501 10 0 72
117 23 36 276 10 0 15
118 -17 237 477 10 200 0
119 18 323 563 10 0 108
120 -9 156 396 10 81 0
121 -9 0 2473 10 66 0
122 16 1487 1727 10 0 172
123 -39 0 2474 10 89 0
124 20 0 2451 10 0 55
125 -15 952 1192 10 51 0
126 4 0 2476 10 0 102
127 -34 0 2473 10 143 0
128 -21 0 2449 10 33 0
129 -32 0 2468 10 182 0
130 20 0 2467 10 0 201
131 -24 1038 1278 10 183 0
132 20 30 270 10 0 63
133 1 0 2448 10 0 2
134 -15 867 1107 10 151 0
135 16 626 866 10 0 154
136 19 582 822 10 0 162
137 -22 0 2454 10 9 0
138 8 272 512 10 0 181
139 -22 1136 1376 10 19 0
140 5 173 413 10 0 70
141 27 0 2455 10 0 105
142 3 876 1116 10 0 47
143 34 0 2462 10 0 127
144 18 100 340 10 0 186
145 3 0 2507 10 0 191
146 -29 0 2479 10 188 0
147 19 706 946 10 0 150
148 -12 0 2452 10 196 0
149 -4 1778 2018 10 169 0
150 -19 0 2462 10 147 0
151 15 480 720 10 0 134
152 18 357 597 10 0 195
153 9 142 382 10 0 49
154 -16 0 2485 10 135 0
155 35 0 2498 0 0 203
156 -18 0 2444 10 161 0
157 25 1413 1653 10 0 8
158 21 0 2465 10 0 197
159 -16 1065 1305 10 69 0
160 31 0 2441 10 0 22
161 18 1280 1520 10 0 156
162 -19 0 2458 10 136 0
163 9 448 688 10 0 171
164 -35 0 2508 10 112 0
165 -13 0 2514 10 13 0
166 -6 0 2483 10 48 0
167 17 0 2467 10 0 25
168 41 358 598 10 0 176
169 4 0 2512 10 0 149
170 -17 1731 1971 10 76 0
171 -9 735 975 10 163 0
172 -16 0 2513 10 122 0
173 -28 765 1005 10 194 0
174 -8 1375 1615 10 27 0
175 4 0 2490 10 0 68
176 -41 0 2466 10 168 0
177 24 1041 1281 10 0 99
178 23 343 583 10 0 85
179 43 0 2457 10 0 60
180 -20 0 2477 10 107 0
181 -8 0 2478 10 138 0
182 32 0 2501 10 0 129
183 24 0 2455 10 0 131
184 16 0 2504 10 0 30
185 15 408 648 10 0 187
186 -18 0 2460 10 144 0
187 -15 0 2490 10 185 0
188 29 1282 1522 10 0 146
189 2 1581 1821 10 0 29
190 -25 0 2454 10 94 0
191 -3 0 2479 10 145 0
192 -27 708 948 10 7 0
193 -12 131 371 10 34 0
194 28 0 2438 10 0 173
195 -18 326 566 10 152 0
196 12 0 2443 10 0 148
197 -21 0 2489 10 158 0
198 9 0 2454 10 0 98
199 -8 1105 1345 10 42 0
200 17 190 430 10 0 118
201 -20 658 898 10 130 0
202 -22 1846 2086 10 40 0
203 -35 0 2498 10 155 0
DEPOT_SECTION
1
-1
EOF
