NAME: lr2_2_4
TYPE: PDPTW
COMMENT: Li & Lim PDPTW benchmark converted from SINTEF format
DIMENSION: 203
VEHICLES: 50
CAPACITY: 1000
EDGE_WEIGHT_TYPE: EUC_2D
NODE_COORD_SECTION
1 70 70
2 101 0
3 26 50
4 30 57
5 29 60
6 69 116
7 137 137
8 103 119
9 78 111
10 107 25
11 17 138
12 37 138
13 20 69
14 121 123
15 22 104
16 137 7
17 50 106
18 46 112
19 79 72
20 104 32
21 8 87
22 109 139
23 80 103
24 78 63
25 95 135
26 37 79
27 64 132
28 133 130
29 39 13
30 120 14
31 10 86
32 140 42
33 121 124
34 42 29
35 44 58
36 32 6
37 41 36
38 106 10
39 107 102
40 83 38
41 132 133
42 81 57
43 120 52
44 113 32
45 137 101
46 82 103
47 10 111
48 90 44
49 139 73
50 89 24
51 64 138
52 98 4
53 61 34
54 60 84
55 13 48
56 84 88
57 86 40
58 69 115
59 59 115
60 105 2
61 107 77
62 104 54
63 54 33
64 32 52
65 37 125
66 99 34
67 38 122
68 85 75
69 109 131
70 103 77
71 47 83
72 139 68
73 88 29
74 39 100
75 48 47
76 104 73
77 9 19
78 103 44
79 73 96
80 44 116
81 71 70
82 83 12
83 36 54
84 16 92
85 56 139
86 27 104
87 67 96
88 34 72
89 120 22
90 54 106
91 63 129
92 33 117
93 102 52
94 13 129
95 34 20
96 114 109
97 86 80
98 33 0
99 18 104
100 70 83
101 12 48
102 139 72
103 109 78
104 116 22
105 27 46
106 19 120
107 23 39
108 110 99
109 15 18
110 18 70
111 16 62
112 61 57
113 123 84
114 37 73
115 115 124
116 93 61
117 89 39
118 65 0
119 108 30
120 120 60
121 92 22
122 2 106
123 117 92
124 26 130
125 85 111
126 113 45
127 40 113
128 138 105
129 116 105
130 110 28
131 12 138
132 66 40
133 140 36
134 50 112
135 23 19
136 4 71
137 92 138
138 69 6
139 100 99
140 116 13
141 112 13
142 49 140
143 36 124
144 120 47
145 60 54
146 115 82
147 139 110
148 126 23
149 58 80
150 30 21
151 64 115
152 82 100
153 113 35
154 35 90
155 58 95
156 117 4
157 97 115
158 56 129
159 54 41
160 136 123
161 129 24
162 46 133
163 58 11
164 54 78
165 65 80
166 28 62
167 55 127
168 137 84
169 79 80
170 51 92
171 12 84
172 66 82
173 97 12
174 67 120
175 55 102
176 90 14
177 20 106
178 15 4
179 138 78
180 60 23
181 29 94
182 70 94
183 4 44
184 66 91
185 119 73
186 135 65
187 103 82
188 104 139
189 15 9
190 5 99
191 36 38
192 125 68
193 44 36
194 137 127
195 120 102
196 138 24
197 103 86
198 137 96
199 8 138
200 81 36
201 116 83
202 137 101
203 26 50
PICKUP_AND_DELIVERY_SECTION
1 0 0 2535 0 0 0
2 9 1973 2130 10 0 173
3 7 1552 1667 0 0 203
4 -16 0 2483 10 135 0
5 -3 0 2483 10 142 0
6 -29 0 2479 10 188 0
7 -24 0 2431 10 128 0
8 -15 1329 1463 10 185 0
9 -18 112 222 10 152 0
10 13 1133 1176 10 0 72
11 -20 0 2439 10 29 0
12 -11 0 2450 10 36 0
13 -20 0 2475 10 92 0
14 -9 0 2452 10 81 0
15 -24 0 2467 10 177 0
16 -30 0 2434 10 146 0
17 -24 1254 1429 10 183 0
18 10 1133 1274 10 0 154
19 22 0 2516 10 0 168
20 -36 0 2475 10 44 0
21 17 1615 1714 10 0 165
22 8 469 555 10 0 58
23 15 1484 1613 10 0 172
24 -6 0 2515 10 48 0
25 27 0 2456 10 0 200
26 -23 0 2491 10 129 0
27 8 0 2463 10 0 83
28 -9 0 2438 10 198 0
29 20 0 2461 10 0 11
30 -13 0 2450 10 62 0
31 -16 0 2463 10 180 0
32 13 0 2450 10 0 73
33 -28 0 2451 10 194 0
34 -21 0 2476 10 88 0
35 -15 0 2497 10 46 0
36 11 401 479 10 0 12
37 -19 0 2481 10 75 0
38 -9 0 2456 10 66 0
39 -17 0 2477 10 139 0
40 -12 1885 2046 10 150 0
41 -3 0 2437 10 186 0
42 8 33 104 10 0 144
43 20 0 2472 10 0 76
44 36 0 2468 10 0 20
45 12 720 755 0 0 202
46 15 0 2490 10 0 35
47 -4 0 2453 10 101 0
48 6 0 2493 10 0 24
49 -34 0 2456 10 61 0
50 -23 0 2476 10 102 0
51 15 0 2457 10 0 105
52 -39 0 2454 10 89 0
53 -9 1910 1991 10 159 0
54 -18 0 2508 10 149 0
55 15 0 2464 10 0 94
56 16 0 2503 10 0 79
57 -15 0 2491 10 151 0
58 -8 0 2480 10 22 0
59 -19 0 2479 10 147 0
60 1 0 2449 10 0 82
61 34 0 2488 10 0 49
62 13 208 333 10 0 30
63 20 118 204 10 0 98
64 -20 0 2483 10 107 0
65 10 0 2461 10 0 164
66 9 0 2479 10 0 38
67 13 941 1052 10 0 134
68 37 0 2510 10 0 103
69 -31 0 2453 10 160 0
70 -18 1203 1242 10 119 0
71 1 0 2499 10 0 95
72 -13 0 2456 10 10 0
73 -13 0 2481 10 32 0
74 31 0 2482 10 0 122
75 19 94 161 10 0 37
76 -20 0 2491 10 43 0
77 -16 1472 1631 10 96 0
78 12 0 2483 10 0 113
79 -16 0 2499 10 56 0
80 -23 0 2473 10 127 0
81 9 0 2524 10 0 14
82 -1 0 2466 10 60 0
83 -8 1482 1614 10 27 0
84 10 0 2467 10 0 166
85 18 0 2455 10 0 109
86 1 0 2471 10 0 99
87 -4 1975 2081 10 175 0
88 21 0 2489 10 0 34
89 39 440 591 10 0 52
90 -43 0 2486 10 179 0
91 -11 0 2466 10 115 0
92 20 0 2466 10 0 13
93 15 0 2489 10 0 121
94 -15 0 2443 10 55 0
95 -1 0 2464 10 71 0
96 16 0 2467 10 0 77
97 21 0 2507 10 0 197
98 -20 0 2446 10 63 0
99 -1 1350 1463 10 86 0
100 -25 0 2512 10 157 0
101 4 0 2463 10 0 47
102 23 1349 1466 10 0 50
103 -37 0 2486 10 68 0
104 32 0 2459 10 0 176
105 -15 0 2476 10 51 0
106 16 0 2454 10 0 111
107 20 1419 1514 10 0 64
108 21 0 2476 10 0 137
109 -18 0 2450 10 85 0
110 -20 1531 1717 10 118 0
111 -16 0 2471 10 106 0
112 35 0 2510 10 0 178
113 -12 0 2471 10 78 0
114 -17 0 2492 10 167 0
115 11 0 2455 10 0 91
116 10 0 2501 10 0 153
117 -4 0 2489 10 126 0
118 20 0 2455 10 0 110
119 18 381 504 10 0 70
120 18 216 337 10 0 156
121 -15 0 2473 10 93 0
122 -31 1541 1673 10 74 0
123 25 0 2474 10 0 158
124 20 0 2451 10 0 131
125 -18 1035 1109 10 195 0
126 4 0 2476 10 0 117
127 23 0 2473 10 0 80
128 24 0 2449 10 0 7
129 23 0 2468 10 0 26
130 20 0 2467 10 0 141
131 -20 1096 1221 10 124 0
132 20 40 202 10 0 136
133 1 0 2448 10 0 196
134 -13 0 2479 10 67 0
135 16 0 2456 10 0 4
136 -20 0 2459 10 132 0
137 -21 0 2454 10 108 0
138 8 328 456 10 0 162
139 17 0 2484 10 0 39
140 -18 0 2452 10 161 0
141 -20 0 2455 10 130 0
142 3 944 1048 10 0 5
143 -2 0 2462 10 189 0
144 -8 0 2470 10 42 0
145 3 0 2507 10 0 199
146 30 0 2479 10 0 16
147 19 0 2446 10 0 59
148 -30 0 2452 10 201 0
149 18 1820 1976 10 0 54
150 12 0 2462 10 0 40
151 15 514 687 10 0 57
152 18 0 2493 10 0 9
153 -10 166 357 10 116 0
154 -10 0 2485 10 18 0
155 35 0 2498 10 0 170
156 -18 0 2444 10 120 0
157 25 1478 1589 10 0 100
158 -25 0 2465 10 123 0
159 9 1124 1246 10 0 53
160 31 0 2441 10 0 69
161 18 1341 1458 10 0 140
162 -8 0 2458 10 138 0
163 9 533 604 10 0 171
164 -10 0 2508 10 65 0
165 -17 0 2514 10 21 0
166 -10 0 2483 10 84 0
167 17 0 2467 10 0 114
168 -22 0 2457 10 19 0
169 4 0 2512 10 0 182
170 -35 0 2496 10 155 0
171 -9 0 2466 10 163 0
172 -15 0 2513 10 23 0
173 -9 0 2462 10 2 0
174 5 1416 1574 10 0 184
175 4 0 2490 10 0 87
176 -32 0 2466 10 104 0
177 24 1095 1226 10 0 15
178 -35 406 520 10 112 0
179 43 0 2457 10 0 90
180 16 0 2477 10 0 31
181 1 0 2478 10 0 190
182 -4 0 2501 10 169 0
183 24 0 2455 10 0 17
184 -5 0 2504 10 174 0
185 15 476 581 10 0 8
186 3 0 2460 10 0 41
187 27 0 2490 10 0 192
188 29 1338 1466 10 0 6
189 2 0 2443 10 0 143
190 -1 0 2454 10 181 0
191 -9 0 2479 10 193 0
192 -27 0 2470 10 187 0
193 9 211 290 10 0 191
194 28 0 2438 10 0 33
195 18 407 486 10 0 125
196 -1 0 2443 10 133 0
197 -21 0 2489 10 97 0
198 9 0 2454 10 0 28
199 -3 0 2433 10 145 0
200 -27 0 2490 10 25 0
201 30 0 2478 10 0 148
202 -12 720 755 10 45 0
203 -7 1552 1667 10 3 0
DEPOT_SECTION
1
-1
EOF
