NAME: lr2_2_10
TYPE: PDPTW
COMMENT: Li & Lim PDPTW benchmark converted from SINTEF format
DIMENSION: 203
VEHICLES: 50
CAPACITY: 1000
EDGE_WEIGHT_TYPE: EUC_2D
NODE_COORD_SECTION
1 70 70
2 101 0
3 26 50
4 30 57
5 29 60
6 69 116
7 137 137
8 103 119
9 78 111
10 107 25
11 17 138
12 37 138
13 20 69
14 121 123
15 22 104
16 137 7
17 50 106
18 46 112
19 79 72
20 104 32
21 8 87
22 109 139
23 80 103
24 78 63
25 95 135
26 37 79
27 64 132
28 133 130
29 39 13
30 120 14
31 10 86
32 140 42
33 121 124
34 42 29
35 44 58
36 32 6
37 41 36
38 106 10
39 107 102
40 83 38
41 132 133
42 81 57
43 120 52
44 113 32
45 137 101
46 82 103
47 10 111
48 90 44
49 139 73
50 89 24
51 64 138
52 98 4
53 61 34
54 60 84
55 13 48
56 84 88
57 86 40
58 69 115
59 59 115
60 105 2
61 107 77
62 104 54
63 54 33
64 32 52
65 37 125
66 99 34
67 38 122
68 85 75
69 109 131
70 103 77
71 47 83
72 139 68
73 88 29
74 39 100
75 48 47
76 104 73
77 9 19
78 103 44
79 73 96
80 44 116
81 71 70
82 83 12
83 36 54
84 16 92
85 56 139
86 27 104
87 67 96
88 34 72
89 120 22
90 54 106
91 63 129
92 33 117
93 102 52
94 13 129
95 34 20
96 114 109
97 86 80
98 33 0
99 18 104
100 70 83
101 12 48
102 139 72
103 109 78
104 116 22
105 27 46
106 19 120
107 23 39
108 110 99
109 15 18
110 18 70
111 16 62
112 61 57
113 123 84
114 37 73
115 115 124
116 93 61
117 89 39
118 65 0
119 108 30
120 120 60
121 92 22
122 2 106
123 117 92
124 26 130
125 85 111
126 113 45
127 40 113
128 138 105
129 116 105
130 110 28
131 12 138
132 66 40
133 140 36
134 50 112
135 23 19
136 4 71
137 92 138
138 69 6
139 100 99
140 116 13
141 112 13
142 49 140
143 36 124
144 120 47
145 60 54
146 115 82
147 139 110
148 126 23
149 58 80
150 30 21
151 64 115
152 82 100
153 113 35
154 35 90
155 58 95
156 117 4
157 97 115
158 56 129
159 54 41
160 136 123
161 129 24
162 46 133
163 58 11
164 54 78
165 65 80
166 28 62
167 55 127
168 137 84
169 79 80
170 51 92
171 12 84
172 66 82
173 97 12
174 67 120
175 55 102
176 90 14
177 20 106
178 15 4
179 138 78
180 60 23
181 29 94
182 70 94
183 4 44
184 66 91
185 119 73
186 135 65
187 103 82
188 104 139
189 15 9
190 5 99
191 36 38
192 125 68
193 44 36
194 137 127
195 120 102
196 138 24
197 103 86
198 137 96
199 8 138
200 81 36
201 116 83
202 30 21
203 55 102
PICKUP_AND_DELIVERY_SECTION
1 0 0 2535 0 0 0
2 -7 1788 2316 10 53 0
3 -9 1382 1838 10 90 0
4 -16 799 1164 10 135 0
5 14 42 497 10 0 112
6 -12 1211 1664 10 137 0
7 27 269 648 10 0 121
8 -18 1156 1637 10 195 0
9 -15 41 629 10 46 0
10 13 928 1381 10 0 139
11 8 1561 2020 10 0 155
12 -1 594 1204 10 181 0
13 -24 1394 1750 10 177 0
14 9 850 1326 10 0 87
15 11 736 1234 10 0 85
16 40 483 883 10 0 196
17 -11 1092 1591 10 36 0
18 10 1009 1399 10 0 149
19 22 9 494 10 0 147
20 18 343 854 10 0 104
21 -14 1433 1897 10 131 0
22 8 299 725 10 0 52
23 -17 1310 1786 10 76 0
24 19 10 416 10 0 159
25 -1 1459 1865 10 133 0
26 -19 1527 2021 10 136 0
27 8 62 589 10 0 91
28 13 689 1209 10 0 70
29 -20 1375 1752 10 98 0
30 20 857 1332 10 0 126
31 14 1421 1984 10 0 109
32 -36 219 705 10 44 0
33 21 353 966 10 0 69
34 -22 51 550 10 57 0
35 30 28 387 10 0 64
36 11 221 659 10 0 17
37 -4 44 575 10 101 0
38 -30 954 1556 10 201 0
39 -4 670 1203 10 169 0
40 -10 1768 2163 10 84 0
41 24 346 892 10 0 130
42 8 17 473 10 0 75
43 20 1413 1701 10 0 102
44 36 376 896 10 0 32
45 12 515 960 10 0 188
46 15 35 475 10 0 9
47 -11 1790 2272 10 115 0
48 6 32 536 10 0 132
49 -25 150 666 10 72 0
50 -28 1033 1496 10 194 0
51 -39 1616 2023 10 89 0
52 -8 540 1001 10 22 0
53 7 1717 2183 10 0 2
54 -23 1744 2228 10 166 0
55 -20 1432 2051 10 92 0
56 16 1281 1688 10 0 97
57 22 34 407 10 0 34
58 -18 665 1177 10 152 0
59 -27 1078 1552 10 80 0
60 1 698 1212 10 0 197
61 34 37 542 10 0 187
62 13 37 567 10 0 119
63 20 40 633 10 0 143
64 -30 443 885 10 35 0
65 10 1195 1673 10 0 124
66 9 134 593 10 0 170
67 -35 727 1266 10 105 0
68 37 15 378 10 0 173
69 -21 761 1170 10 33 0
70 -13 942 1503 10 28 0
71 -16 1093 1568 10 180 0
72 25 122 625 10 0 49
73 33 2008 2481 10 0 116
74 31 155 493 10 0 94
75 -8 31 504 10 42 0
76 17 813 1300 10 0 23
77 -21 1294 1809 10 158 0
78 12 42 521 10 0 127
79 9 489 960 10 0 176
80 27 61 483 10 0 59
81 -9 1696 2266 10 156 0
82 -23 745 1216 10 129 0
83 15 1318 1777 10 0 88
84 10 1267 1723 10 0 40
85 -11 1072 1527 10 15 0
86 1 1822 2317 10 0 154
87 -9 1760 2296 10 14 0
88 -15 1988 2489 10 83 0
89 39 296 735 10 0 51
90 9 968 1507 10 0 3
91 -8 646 1124 10 27 0
92 20 169 702 10 0 55
93 15 423 969 10 0 148
94 -31 1224 1706 10 74 0
95 15 435 889 10 0 164
96 -15 132 606 10 185 0
97 -16 1320 1795 10 56 0
98 20 1722 2257 10 0 29
99 -25 1181 1632 10 125 0
100 -43 1777 2222 10 179 0
101 4 76 508 10 0 37
102 -20 1170 1646 10 43 0
103 21 757 1265 10 0 161
104 -18 341 881 10 20 0
105 35 687 1105 10 0 67
106 16 861 1349 10 0 111
107 -32 1275 1658 10 182 0
108 21 990 1552 10 0 128
109 -14 1428 1892 10 31 0
110 -7 1383 1864 10 162 0
111 -16 1397 1892 10 106 0
112 -14 1355 1764 10 5 0
113 -9 1484 1967 10 198 0
114 33 1161 1646 10 0 172
115 11 1485 1924 10 0 47
116 -33 1883 2405 10 73 0
117 23 36 451 10 0 163
118 -17 121 592 10 200 0
119 -13 164 722 10 62 0
120 18 50 618 10 0 144
121 -27 580 1059 10 7 0
122 16 1363 1852 10 0 183
123 25 971 1412 10 0 146
124 -10 916 1345 10 65 0
125 25 810 1334 10 0 99
126 -20 1062 1449 10 30 0
127 -12 1747 2186 10 78 0
128 -21 1439 1909 10 108 0
129 23 428 846 10 0 82
130 -24 1018 1545 10 41 0
131 14 912 1405 10 0 21
132 -6 30 577 10 48 0
133 1 524 1001 10 0 25
134 -23 768 1207 10 178 0
135 16 485 1007 10 0 4
136 19 438 965 10 0 26
137 12 1383 1953 10 0 6
138 8 158 625 10 0 145
139 -13 1037 1475 10 10 0
140 5 79 506 10 0 192
141 -5 1931 2388 10 191 0
142 3 770 1222 10 0 167
143 -20 792 1199 10 63 0
144 -18 55 543 10 120 0
145 -8 719 1313 10 138 0
146 -25 873 1387 10 123 0
147 -22 610 1042 10 19 0
148 -15 863 1364 10 93 0
149 -10 1701 2096 10 18 0
150 12 1089 1610 0 0 202
151 -20 327 873 10 165 0
152 18 255 700 10 0 58
153 9 55 634 10 0 174
154 -1 1605 2082 10 86 0
155 -8 1760 2240 10 11 0
156 9 1461 2007 10 0 81
157 -3 1257 1809 10 186 0
158 21 947 1466 10 0 77
159 -19 950 1420 10 24 0
160 -41 1132 1537 10 168 0
161 -21 1147 1652 10 103 0
162 7 166 558 10 0 110
163 -23 308 828 10 117 0
164 -15 2026 2492 10 95 0
165 20 11 415 10 0 151
166 23 581 1108 10 0 54
167 -3 832 1356 10 142 0
168 41 193 762 10 0 160
169 4 13 483 10 0 39
170 -9 1649 2053 10 66 0
171 -9 619 1091 10 193 0
172 -33 1835 2292 10 114 0
173 -37 631 1138 10 68 0
174 -9 1238 1753 10 153 0
175 4 1100 1536 0 0 203
176 -9 1718 2114 10 79 0
177 24 934 1387 10 0 13
178 23 198 729 10 0 134
179 43 619 1120 10 0 100
180 16 48 502 10 0 71
181 1 998 1340 10 0 12
182 32 24 470 10 0 107
183 -16 1529 1916 10 122 0
184 16 21 451 10 0 199
185 15 247 810 10 0 96
186 3 1190 1639 10 0 157
187 -34 1142 1587 10 61 0
188 -12 1146 1659 10 45 0
189 -24 1481 1921 10 190 0
190 24 1113 1601 10 0 189
191 5 1625 1996 10 0 141
192 -5 593 1063 10 140 0
193 9 42 557 10 0 171
194 28 622 1062 10 0 50
195 18 176 716 10 0 8
196 -40 495 1062 10 16 0
197 -1 833 1348 10 60 0
198 9 71 556 10 0 113
199 -16 990 1459 10 184 0
200 17 68 552 10 0 118
201 30 565 990 10 0 38
202 -12 1089 1610 10 150 0
203 -4 1100 1536 10 175 0
DEPOT_SECTION
1
-1
EOF
