NAME: lr2_2_1
TYPE: PDPTW
COMMENT: Li & Lim PDPTW benchmark converted from SINTEF format
DIMENSION: 203
VEHICLES: 50
CAPACITY: 1000
EDGE_WEIGHT_TYPE: EUC_2D
NODE_COORD_SECTION
1 70 70
2 101 0
3 26 50
4 30 57
5 29 60
6 69 116
7 137 137
8 103 119
9 78 111
10 107 25
11 17 138
12 37 138
13 20 69
14 121 123
15 22 104
16 137 7
17 50 106
18 46 112
19 79 72
20 104 32
21 8 87
22 109 139
23 80 103
24 78 63
25 95 135
26 37 79
27 64 132
28 133 130
29 39 13
30 120 14
31 10 86
32 140 42
33 121 124
34 42 29
35 44 58
36 32 6
37 41 36
38 106 10
39 107 102
40 83 38
41 132 133
42 81 57
43 120 52
44 113 32
45 137 101
46 82 103
47 10 111
48 90 44
49 139 73
50 89 24
51 64 138
52 98 4
53 61 34
54 60 84
55 13 48
56 84 88
57 86 40
58 69 115
59 59 115
60 105 2
61 107 77
62 104 54
63 54 33
64 32 52
65 37 125
66 99 34
67 38 122
68 85 75
69 109 131
70 103 77
71 47 83
72 139 68
73 88 29
74 39 100
75 48 47
76 104 73
77 9 19
78 103 44
79 73 96
80 44 116
81 71 70
82 83 12
83 36 54
84 16 92
85 56 139
86 27 104
87 67 96
88 34 72
89 120 22
90 54 106
91 63 129
92 33 117
93 102 52
94 13 129
95 34 20
96 114 109
97 86 80
98 33 0
99 18 104
100 70 83
101 12 48
102 139 72
103 109 78
104 116 22
105 27 46
106 19 120
107 23 39
108 110 99
109 15 18
110 18 70
111 16 62
112 61 57
113 123 84
114 37 73
115 115 124
116 93 61
117 89 39
118 65 0
119 108 30
120 120 60
121 92 22
122 2 106
123 117 92
124 26 130
125 85 111
126 113 45
127 40 113
128 138 105
129 116 105
130 110 28
131 12 138
132 66 40
133 140 36
134 50 112
135 23 19
136 4 71
137 92 138
138 69 6
139 100 99
140 116 13
141 112 13
142 49 140
143 36 124
144 120 47
145 60 54
146 115 82
147 139 110
148 126 23
149 58 80
150 30 21
151 64 115
152 82 100
153 113 35
154 35 90
155 58 95
156 117 4
157 97 115
158 56 129
159 54 41
160 136 123
161 129 24
162 46 133
163 58 11
164 54 78
165 65 80
166 28 62
167 55 127
168 137 84
169 79 80
170 51 92
171 12 84
172 66 82
173 97 12
174 67 120
175 55 102
176 90 14
177 20 106
178 15 4
179 138 78
180 60 23
181 29 94
182 70 94
183 4 44
184 66 91
185 119 73
186 135 65
187 103 82
188 104 139
189 15 9
190 5 99
191 36 38
192 125 68
193 44 36
194 137 127
195 120 102
196 138 24
197 103 86
198 137 96
199 8 138
200 81 36
201 116 83
202 34 72
203 66 82
PICKUP_AND_DELIVERY_SECTION
1 0 0 2535 0 0 0
2 9 1973 2130 10 0 73
3 -25 1552 1667 10 17 0
4 20 912 1050 10 0 114
5 14 138 199 10 0 80
6 -20 1381 1493 10 63 0
7 -8 378 539 10 22 0
8 -20 1329 1463 10 165 0
9 22 112 222 10 0 41
10 13 1133 1176 10 0 130
11 -16 1719 1861 10 122 0
12 5 866 932 10 0 142
13 -16 1472 1673 10 106 0
14 9 1009 1167 10 0 188
15 -9 952 1018 10 193 0
16 40 631 735 10 0 52
17 25 1254 1429 10 0 3
18 -10 1133 1274 10 199 0
19 22 9 147 10 0 179
20 18 528 670 10 0 176
21 -34 1615 1714 10 143 0
22 8 469 555 10 0 7
23 -20 1484 1613 10 132 0
24 19 10 128 10 0 196
25 -12 1622 1703 10 137 0
26 -23 1713 1834 10 178 0
27 8 168 411 10 0 46
28 13 900 998 10 0 69
29 20 1490 1637 10 0 77
30 -18 1030 1159 10 121 0
31 -15 1634 1771 10 151 0
32 13 412 512 10 0 168
33 21 575 744 10 0 108
34 12 238 362 10 0 36
35 30 47 182 10 0 79
36 -12 401 479 10 34 0
37 13 203 328 10 0 166
38 -1 1229 1282 10 133 0
39 -9 859 1015 10 153 0
40 -20 1885 2046 10 107 0
41 -22 571 667 10 9 0
42 8 33 104 10 0 102
43 -36 1517 1598 10 44 0
44 36 589 683 10 0 43
45 -18 720 755 10 195 0
46 -8 155 243 10 27 0
47 -1 1975 2088 10 86 0
48 6 240 298 10 0 66
49 10 339 477 10 0 185
50 15 1226 1302 10 0 186
51 -21 1755 1885 10 158 0
52 -40 694 847 10 16 0
53 -20 1910 1991 10 98 0
54 23 1914 2059 10 0 155
55 -24 1691 1793 10 183 0
56 -32 1428 1541 10 64 0
57 22 80 192 10 0 119
58 20 836 1006 10 0 127
59 -20 1239 1392 10 118 0
60 1 891 1019 10 0 141
61 34 83 219 10 0 120
62 13 208 333 10 0 144
63 20 118 204 10 0 6
64 32 557 771 10 0 56
65 10 1328 1540 10 0 164
66 -6 295 432 10 48 0
67 13 941 1052 10 0 124
68 37 22 186 10 0 109
69 -13 899 1031 10 28 0
70 17 1203 1242 10 0 157
71 -14 1280 1381 10 131 0
72 25 275 472 10 0 192
73 -9 2254 2377 10 2 0
74 31 274 374 10 0 92
75 19 94 161 10 0 162
76 -16 990 1124 10 96 0
77 -20 1472 1631 10 29 0
78 -4 107 229 10 169 0
79 -30 656 793 10 35 0
80 -14 199 345 10 5 0
81 -13 1916 2047 10 113 0
82 -32 911 1050 10 104 0
83 15 1482 1614 10 0 154
84 -25 1430 1561 10 94 0
85 -18 1284 1314 10 152 0
86 1 2014 2124 10 0 47
87 -35 1975 2081 10 112 0
88 21 2152 2357 0 0 202
89 -5 440 591 10 140 0
90 9 1204 1270 10 0 110
91 7 817 954 10 0 167
92 -31 365 507 10 74 0
93 -23 625 766 10 117 0
94 25 1414 1517 10 0 84
95 15 636 689 10 0 181
96 16 326 412 10 0 76
97 -35 1464 1652 10 105 0
98 20 1920 2060 10 0 53
99 -24 1350 1463 10 190 0
100 -9 1938 2061 10 170 0
101 4 234 351 10 0 134
102 -8 1349 1466 10 42 0
103 -30 923 1098 10 201 0
104 32 558 663 10 0 82
105 35 839 953 10 0 97
106 16 1102 1107 10 0 13
107 20 1419 1514 10 0 40
108 -21 1227 1315 10 33 0
109 -37 1581 1739 10 68 0
110 -9 1531 1717 10 90 0
111 -8 1589 1700 10 138 0
112 35 1486 1633 10 0 87
113 13 1652 1800 10 0 81
114 -20 1358 1449 10 4 0
115 -25 1634 1774 10 123 0
116 -2 2084 2205 10 189 0
117 23 101 190 10 0 93
118 20 282 432 10 0 59
119 -22 381 504 10 57 0
120 -34 216 337 10 61 0
121 18 758 882 10 0 30
122 16 1541 1673 10 0 11
123 25 1144 1240 10 0 115
124 -13 1089 1172 10 67 0
125 25 1035 1109 10 0 145
126 4 1195 1317 10 0 156
127 -20 1838 2094 10 58 0
128 -17 1589 1759 10 139 0
129 -9 582 691 10 198 0
130 -13 1236 1328 10 10 0
131 14 1096 1221 10 0 71
132 20 40 202 10 0 23
133 1 669 855 10 0 38
134 -4 929 1045 10 101 0
135 -9 669 824 10 163 0
136 -16 640 763 10 180 0
137 12 1598 1738 10 0 25
138 8 328 456 10 0 111
139 17 1216 1295 10 0 128
140 5 242 343 10 0 89
141 -1 2095 2224 10 60 0
142 -5 944 1048 10 12 0
143 34 935 1055 10 0 21
144 -13 129 312 10 62 0
145 -25 915 1118 10 125 0
146 -28 1064 1195 10 194 0
147 19 765 887 10 0 197
148 -10 1051 1177 10 173 0
149 -5 1820 1976 10 191 0
150 -9 1287 1413 10 159 0
151 15 514 687 10 0 31
152 18 411 543 10 0 85
153 9 166 357 10 0 39
154 -15 1790 1896 10 83 0
155 -23 1949 2050 10 54 0
156 -4 1658 1810 10 126 0
157 -17 1478 1589 10 70 0
158 21 1176 1237 10 0 51
159 9 1124 1246 10 0 150
160 -27 1272 1396 10 187 0
161 -17 1341 1458 10 200 0
162 -19 321 403 10 75 0
163 9 533 604 10 0 135
164 -10 2204 2315 10 65 0
165 20 11 101 10 0 8
166 -13 815 873 10 37 0
167 -7 1028 1160 10 91 0
168 -13 438 517 10 32 0
169 4 13 145 10 0 78
170 9 1797 1905 10 0 100
171 16 777 933 10 0 175
172 27 2040 2088 0 0 203
173 10 861 908 10 0 148
174 -24 1416 1574 10 177 0
175 -16 1294 1343 10 171 0
176 -18 1866 1965 10 20 0
177 24 1095 1226 10 0 174
178 23 406 520 10 0 26
179 -22 787 951 10 19 0
180 16 224 325 10 0 136
181 -15 1099 1240 10 95 0
182 -16 25 168 10 184 0
183 24 1665 1780 10 0 55
184 16 43 129 10 0 182
185 -10 476 581 10 49 0
186 -15 1313 1517 10 50 0
187 27 1282 1448 10 0 160
188 -9 1338 1466 10 14 0
189 2 1663 1738 10 0 116
190 24 1306 1407 10 0 99
191 5 1781 1841 10 0 149
192 -25 793 863 10 72 0
193 9 211 290 10 0 15
194 28 786 899 10 0 146
195 18 407 486 10 0 45
196 -19 705 851 10 24 0
197 -19 1047 1135 10 147 0
198 9 194 381 10 0 129
199 10 1138 1312 10 0 18
200 17 237 382 10 0 161
201 30 732 823 10 0 103
202 -21 2152 2357 10 88 0
203 -27 2040 2088 10 172 0
DEPOT_SECTION
1
-1
EOF
