NAME: lr2_2_8
TYPE: PDPTW
COMMENT: Li & Lim PDPTW benchmark converted from SINTEF format
DIMENSION: 201
VEHICLES: 50
CAPACITY: 1000
EDGE_WEIGHT_TYPE: EUC_2D
NODE_COORD_SECTION
1 70 70
2 101 0
3 26 50
4 30 57
5 29 60
6 69 116
7 137 137
8 103 119
9 78 111
10 107 25
11 17 138
12 37 138
13 20 69
14 121 123
15 22 104
16 137 7
17 50 106
18 46 112
19 79 72
20 104 32
21 8 87
22 109 139
23 80 103
24 78 63
25 95 135
26 37 79
27 64 132
28 133 130
29 39 13
30 120 14
31 10 86
32 140 42
33 121 124
34 42 29
35 44 58
36 32 6
37 41 36
38 106 10
39 107 102
40 83 38
41 132 133
42 81 57
43 120 52
44 113 32
45 137 101
46 82 103
47 10 111
48 90 44
49 139 73
50 89 24
51 64 138
52 98 4
53 61 34
54 60 84
55 13 48
56 84 88
57 86 40
58 69 115
59 59 115
60 105 2
61 107 77
62 104 54
63 54 33
64 32 52
65 37 125
66 99 34
67 38 122
68 85 75
69 109 131
70 103 77
71 47 83
72 139 68
73 88 29
74 39 100
75 48 47
76 104 73
77 9 19
78 103 44
79 73 96
80 44 116
81 71 70
82 83 12
83 36 54
84 16 92
85 56 139
86 27 104
87 67 96
88 34 72
89 120 22
90 54 106
91 63 129
92 33 117
93 102 52
94 13 129
95 34 20
96 114 109
97 86 80
98 33 0
99 18 104
100 70 83
101 12 48
102 139 72
103 109 78
104 116 22
105 27 46
106 19 120
107 23 39
108 110 99
109 15 18
110 18 70
111 16 62
112 61 57
113 123 84
114 37 73
115 115 124
116 93 61
117 89 39
118 65 0
119 108 30
120 120 60
121 92 22
122 2 106
123 117 92
124 26 130
125 85 111
126 113 45
127 40 113
128 138 105
129 116 105
130 110 28
131 12 138
132 66 40
133 140 36
134 50 112
135 23 19
136 4 71
137 92 138
138 69 6
139 100 99
140 116 13
141 112 13
142 49 140
143 36 124
144 120 47
145 60 54
146 115 82
147 139 110
148 126 23
149 58 80
150 30 21
151 64 115
152 82 100
153 113 35
154 35 90
155 58 95
156 117 4
157 97 115
158 56 129
159 54 41
160 136 123
161 129 24
162 46 133
163 58 11
164 54 78
165 65 80
166 28 62
167 55 127
168 137 84
169 79 80
170 51 92
171 12 84
172 66 82
173 97 12
174 67 120
175 55 102
176 90 14
177 20 106
178 15 4
179 138 78
180 60 23
181 29 94
182 70 94
183 4 44
184 66 91
185 119 73
186 135 65
187 103 82
188 104 139
189 15 9
190 5 99
191 36 38
192 125 68
193 44 36
194 137 127
195 120 102
196 138 24
197 103 86
198 137 96
199 8 138
200 81 36
201 116 83
PICKUP_AND_DELIVERY_SECTION
1 0 0 2535 0 0 0
2 9 1932 2172 10 0 40
3 7 1490 1730 10 0 150
4 20 0 2483 10 0 114
5 -10 0 2483 10 65 0
6 -4 0 2479 10 169 0
7 -20 0 2431 10 192 0
8 -12 1276 1516 10 39 0
9 22 47 287 10 0 25
10 13 1035 1275 10 0 20
11 -3 0 2439 10 142 0
12 5 0 2450 10 0 131
13 -18 0 2475 10 99 0
14 9 0 2452 10 0 49
15 -23 0 2467 10 127 0
16 40 0 2434 10 0 24
17 25 1221 1461 10 0 84
18 -7 1084 1324 10 91 0
19 22 0 2516 10 0 197
20 -13 0 2475 10 10 0
21 -31 1545 1785 10 74 0
22 -9 392 632 10 153 0
23 15 1428 1668 10 0 79
24 -40 0 2515 10 16 0
25 -22 0 2456 10 9 0
26 -21 0 2491 10 88 0
27 -26 0 2463 10 59 0
28 13 0 2438 10 0 161
29 20 0 2461 10 0 77
30 -27 0 2450 10 141 0
31 -35 0 2463 10 155 0
32 -24 0 2450 10 128 0
33 -18 0 2451 10 144 0
34 -31 0 2476 10 176 0
35 -5 0 2497 10 191 0
36 11 320 560 10 0 118
37 -9 0 2481 10 193 0
38 13 0 2456 10 0 89
39 12 0 2477 10 0 8
40 -9 1846 2086 10 2 0
41 -15 0 2437 10 185 0
42 8 17 257 10 0 168
43 20 0 2472 10 0 198
44 36 0 2468 10 0 115
45 -13 617 857 10 113 0
46 -18 0 2490 10 152 0
47 21 0 2453 10 0 111
48 -1 0 2493 10 133 0
49 -9 0 2456 10 14 0
50 -12 0 2476 10 196 0
51 -17 0 2457 10 167 0
52 20 0 2454 10 0 121
53 -10 1830 2070 10 109 0
54 23 0 2508 10 0 175
55 15 0 2464 10 0 112
56 -9 0 2503 10 81 0
57 -9 0 2491 10 156 0
58 -25 0 2480 10 157 0
59 26 0 2479 10 0 27
60 -18 0 2449 10 119 0
61 -21 0 2488 10 97 0
62 13 150 390 10 0 126
63 20 41 281 10 0 173
64 -8 0 2483 10 138 0
65 10 0 2461 10 0 5
66 -32 0 2479 10 104 0
67 13 876 1116 10 0 86
68 37 0 2510 10 0 103
69 -16 0 2453 10 96 0
70 17 1102 1342 10 0 100
71 -23 0 2499 10 166 0
72 25 0 2456 10 0 148
73 -28 0 2481 10 194 0
74 31 0 2482 10 0 21
75 19 31 271 10 0 95
76 -27 0 2491 10 187 0
77 -20 1431 1671 10 29 0
78 12 0 2483 10 0 186
79 -15 0 2499 10 23 0
80 -20 0 2473 10 92 0
81 9 0 2524 10 0 56
82 -23 0 2466 10 178 0
83 -9 1428 1668 10 159 0
84 -25 0 2467 10 17 0
85 -21 0 2455 10 158 0
86 -13 0 2471 10 67 0
87 -30 1908 2148 10 146 0
88 21 0 2489 10 0 26
89 -13 396 636 10 38 0
90 9 0 2486 10 0 124
91 7 0 2466 10 0 18
92 20 0 2466 10 0 80
93 15 0 2489 10 0 160
94 25 0 2443 10 0 149
95 -19 0 2464 10 75 0
96 16 0 2467 10 0 69
97 21 0 2507 10 0 61
98 -2 0 2446 10 189 0
99 18 1287 1527 10 0 13
100 -17 0 2512 10 70 0
101 4 0 2463 10 0 145
102 -43 1288 1528 10 179 0
103 -37 0 2486 10 68 0
104 32 0 2459 10 0 66
105 35 0 2476 10 0 183
106 16 0 2454 10 0 110
107 20 1347 1587 10 0 180
108 21 0 2476 10 0 174
109 10 0 2450 10 0 53
110 -16 1504 1744 10 106 0
111 -21 0 2471 10 47 0
112 -15 0 2510 10 55 0
113 13 0 2471 10 0 45
114 -20 0 2492 10 4 0
115 -36 0 2455 10 44 0
116 10 0 2501 10 0 129
117 -5 0 2489 10 140 0
118 -11 0 2455 10 36 0
119 18 323 563 10 0 60
120 -20 156 396 10 130 0
121 -20 0 2473 10 52 0
122 16 1487 1727 10 0 164
123 25 0 2474 10 0 137
124 -9 0 2451 10 90 0
125 25 952 1192 10 0 188
126 -13 0 2476 10 62 0
127 23 0 2473 10 0 15
128 24 0 2449 10 0 32
129 -10 0 2468 10 116 0
130 20 0 2467 10 0 120
131 -5 1038 1278 10 12 0
132 20 30 270 10 0 135
133 1 0 2448 10 0 48
134 -34 0 2479 10 143 0
135 -20 0 2456 10 132 0
136 -24 0 2459 10 190 0
137 -25 0 2454 10 123 0
138 8 272 512 10 0 64
139 17 0 2484 10 0 184
140 5 0 2452 10 0 117
141 27 0 2455 10 0 30
142 3 876 1116 10 0 11
143 34 0 2462 10 0 134
144 18 0 2470 10 0 33
145 -4 0 2507 10 101 0
146 30 0 2479 10 0 87
147 -18 0 2446 10 195 0
148 -25 0 2452 10 72 0
149 -25 1778 2018 10 94 0
150 -7 0 2462 10 3 0
151 15 480 720 10 0 177
152 18 0 2493 10 0 46
153 9 142 382 10 0 22
154 -10 0 2485 10 199 0
155 35 0 2498 10 0 31
156 9 0 2444 10 0 57
157 25 1413 1653 10 0 58
158 21 0 2465 10 0 85
159 9 1065 1305 10 0 83
160 -15 0 2441 10 93 0
161 -13 1280 1520 10 28 0
162 -20 0 2458 10 165 0
163 9 448 688 10 0 200
164 -16 0 2508 10 122 0
165 20 0 2514 10 0 162
166 23 0 2483 10 0 71
167 17 0 2467 10 0 51
168 -8 0 2457 10 42 0
169 4 0 2512 10 0 6
170 -27 0 2496 10 172 0
171 -1 0 2466 10 181 0
172 27 0 2513 10 0 170
173 -20 0 2462 10 63 0
174 -21 1375 1615 10 108 0
175 -23 0 2490 10 54 0
176 31 0 2466 10 0 34
177 -15 1041 1281 10 151 0
178 23 343 583 10 0 82
179 43 0 2457 10 0 102
180 -20 0 2477 10 107 0
181 1 0 2478 10 0 171
182 -30 0 2501 10 201 0
183 -35 0 2455 10 105 0
184 -17 0 2504 10 139 0
185 15 408 648 10 0 41
186 -12 0 2460 10 78 0
187 27 0 2490 10 0 76
188 -25 1282 1522 10 125 0
189 2 0 2443 10 0 98
190 24 0 2454 10 0 136
191 5 0 2479 10 0 35
192 20 0 2470 10 0 7
193 9 131 371 10 0 37
194 28 0 2438 10 0 73
195 18 326 566 10 0 147
196 12 0 2443 10 0 50
197 -22 0 2489 10 19 0
198 -20 0 2454 10 43 0
199 10 0 2433 10 0 154
200 -9 0 2490 10 163 0
201 30 0 2478 10 0 182
DEPOT_SECTION
1
-1
EOF
