NAME: lr2_2_5
TYPE: PDPTW
COMMENT: Li & Lim PDPTW benchmark converted from SINTEF format
DIMENSION: 205
VEHICLES: 50
CAPACITY: 1000
EDGE_WEIGHT_TYPE: EUC_2D
NODE_COORD_SECTION
1 70 70
2 101 0
3 26 50
4 30 57
5 29 60
6 69 116
7 137 137
8 103 119
9 78 111
10 107 25
11 17 138
12 37 138
13 20 69
14 121 123
15 22 104
16 137 7
17 50 106
18 46 112
19 79 72
20 104 32
21 8 87
22 109 139
23 80 103
24 78 63
25 95 135
26 37 79
27 64 132
28 133 130
29 39 13
30 120 14
31 10 86
32 140 42
33 121 124
34 42 29
35 44 58
36 32 6
37 41 36
38 106 10
39 107 102
40 83 38
41 132 133
42 81 57
43 120 52
44 113 32
45 137 101
46 82 103
47 10 111
48 90 44
49 139 73
50 89 24
51 64 138
52 98 4
53 61 34
54 60 84
55 13 48
56 84 88
57 86 40
58 69 115
59 59 115
60 105 2
61 107 77
62 104 54
63 54 33
64 32 52
65 37 125
66 99 34
67 38 122
68 85 75
69 109 131
70 103 77
71 47 83
72 139 68
73 88 29
74 39 100
75 48 47
76 104 73
77 9 19
78 103 44
79 73 96
80 44 116
81 71 70
82 83 12
83 36 54
84 16 92
85 56 139
86 27 104
87 67 96
88 34 72
89 120 22
90 54 106
91 63 129
92 33 117
93 102 52
94 13 129
95 34 20
96 114 109
97 86 80
98 33 0
99 18 104
100 70 83
101 12 48
102 139 72
103 109 78
104 116 22
105 27 46
106 19 120
107 23 39
108 110 99
109 15 18
110 18 70
111 16 62
112 61 57
113 123 84
114 37 73
115 115 124
116 93 61
117 89 39
118 65 0
119 108 30
120 120 60
121 92 22
122 2 106
123 117 92
124 26 130
125 85 111
126 113 45
127 40 113
128 138 105
129 116 105
130 110 28
131 12 138
132 66 40
133 140 36
134 50 112
135 23 19
136 4 71
137 92 138
138 69 6
139 100 99
140 116 13
141 112 13
142 49 140
143 36 124
144 120 47
145 60 54
146 115 82
147 139 110
148 126 23
149 58 80
150 30 21
151 64 115
152 82 100
153 113 35
154 35 90
155 58 95
156 117 4
157 97 115
158 56 129
159 54 41
160 136 123
161 129 24
162 46 133
163 58 11
164 54 78
165 65 80
166 28 62
167 55 127
168 137 84
169 79 80
170 51 92
171 12 84
172 66 82
173 97 12
174 67 120
175 55 102
176 90 14
177 20 106
178 15 4
179 138 78
180 60 23
181 29 94
182 70 94
183 4 44
184 66 91
185 119 73
186 135 65
187 103 82
188 104 139
189 15 9
190 5 99
191 36 38
192 125 68
193 44 36
194 137 127
195 120 102
196 138 24
197 103 86
198 137 96
199 8 138
200 81 36
201 116 83
202 10 111
203 83 38
204 82 100
205 44 36
PICKUP_AND_DELIVERY_SECTION
1 0 0 2535 0 0 0
2 9 1932 2172 10 0 73
3 -13 1490 1730 10 148 0
4 -19 861 1101 10 136 0
5 -19 49 289 10 75 0
6 26 1317 1557 10 0 56
7 27 339 579 10 0 201
8 18 1276 1516 10 0 97
9 22 47 287 10 0 12
10 13 1035 1275 10 0 83
11 -3 1670 1910 10 186 0
12 -22 779 1019 10 9 0
13 -16 1452 1692 10 122 0
14 -17 968 1208 10 76 0
15 -7 865 1105 10 91 0
16 40 563 803 10 0 81
17 -13 1221 1461 10 37 0
18 10 1084 1324 10 0 190
19 22 9 249 10 0 168
20 18 479 719 10 0 103
21 17 1545 1785 10 0 111
22 8 392 632 10 0 52
23 -4 1428 1668 10 101 0
24 19 10 250 10 0 125
25 27 1542 1782 10 0 88
26 -31 1654 1894 10 74 0
27 8 170 410 10 0 84
28 -18 829 1069 10 144 0
29 20 1443 1683 10 0 109
30 20 974 1214 10 0 189
31 -20 1582 1822 10 92 0
32 13 342 582 10 0 93
33 21 539 779 10 0 191
34 12 180 420 10 0 64
35 30 28 268 10 0 135
36 11 320 560 10 0 159
37 13 146 386 10 0 17
38 13 1135 1375 10 0 77
39 12 817 1057 10 0 113
40 22 1846 2086 0 0 203
41 24 499 739 10 0 129
42 8 17 257 10 0 128
43 20 1437 1677 10 0 127
44 36 516 756 10 0 51
45 12 617 857 10 0 194
46 15 79 319 10 0 158
47 21 1911 2151 0 0 202
48 6 149 389 10 0 139
49 10 288 528 10 0 195
50 -34 1144 1384 10 61 0
51 -36 1700 1940 10 44 0
52 -8 651 891 10 22 0
53 -1 1830 2070 10 133 0
54 23 1866 2106 10 0 172
55 -18 1622 1862 10 121 0
56 -26 1365 1605 10 6 0
57 22 34 274 10 0 66
58 20 801 1041 10 0 99
59 26 1195 1435 10 0 116
60 -18 835 1075 10 120 0
61 34 37 277 10 0 50
62 13 150 390 10 0 146
63 20 41 281 10 0 138
64 -12 544 784 10 34 0
65 -10 1314 1554 10 199 0
66 -22 243 483 10 57 0
67 13 876 1116 10 0 134
68 37 15 255 10 0 72
69 -19 845 1085 10 147 0
70 -39 1102 1342 10 89 0
71 -9 1211 1451 10 163 0
72 -37 253 493 10 68 0
73 -9 2195 2435 10 2 0
74 31 204 444 10 0 26
75 19 31 271 10 0 5
76 17 937 1177 10 0 14
77 -13 1431 1671 10 38 0
78 12 48 288 10 0 153
79 -32 604 844 10 182 0
80 27 152 392 10 0 142
81 -40 1861 2101 10 16 0
82 -9 861 1101 10 198 0
83 -13 1428 1668 10 10 0
84 -8 1375 1615 10 27 0
85 -7 1179 1419 10 162 0
86 -15 1949 2189 10 185 0
87 -14 1908 2148 10 131 0
88 -27 2134 2374 10 25 0
89 39 396 636 10 0 70
90 9 1117 1357 10 0 112
91 7 765 1005 10 0 15
92 20 316 556 10 0 31
93 -13 576 816 10 32 0
94 -20 1345 1585 10 165 0
95 15 542 782 10 0 174
96 16 249 489 10 0 98
97 -18 1438 1678 10 8 0
98 -16 1870 2110 10 96 0
99 -20 1287 1527 10 58 0
100 -18 1879 2119 10 149 0
101 4 172 412 10 0 23
102 -4 1288 1528 10 126 0
103 -18 891 1131 10 20 0
104 -17 491 731 10 200 0
105 35 776 1016 10 0 157
106 -16 985 1225 10 184 0
107 -12 1347 1587 10 196 0
108 21 1151 1391 10 0 160
109 -20 1540 1780 10 29 0
110 -4 1504 1744 10 169 0
111 -17 1524 1764 10 21 0
112 -9 1439 1679 10 90 0
113 -12 1606 1846 10 39 0
114 -3 1284 1524 10 145 0
115 11 1584 1824 10 0 164
116 -26 2024 2264 10 59 0
117 23 36 276 10 0 140
118 20 237 477 10 0 178
119 18 323 563 10 0 197
120 18 156 396 10 0 60
121 18 700 940 10 0 55
122 16 1487 1727 10 0 13
123 -43 1072 1312 10 179 0
124 20 1010 1250 10 0 154
125 -19 952 1192 10 24 0
126 4 1136 1376 10 0 102
127 -20 1846 2086 10 43 0
128 -8 1554 1794 10 42 0
129 -24 517 757 10 41 0
130 20 1162 1402 10 0 183
131 14 1038 1278 10 0 87
132 20 30 270 10 0 180
133 1 642 882 10 0 53
134 -13 867 1107 10 67 0
135 -30 626 866 10 35 0
136 19 582 822 10 0 4
137 -27 1548 1788 10 187 0
138 -20 272 512 10 63 0
139 -6 1136 1376 10 48 0
140 -23 173 413 10 117 0
141 -9 2040 2280 10 156 0
142 -27 876 1116 10 80 0
143 -15 875 1115 10 151 0
144 18 100 340 10 0 28
145 3 896 1136 10 0 114
146 -13 1010 1250 10 62 0
147 19 706 946 10 0 69
148 13 994 1234 10 0 3
149 18 1778 2018 10 0 100
150 -20 1230 1470 10 192 0
151 15 480 720 10 0 143
152 18 357 597 0 0 204
153 -12 142 382 10 78 0
154 -20 1723 1963 10 124 0
155 -9 1880 2120 10 170 0
156 9 1614 1854 10 0 141
157 -35 1413 1653 10 105 0
158 -15 1086 1326 10 46 0
159 -11 1065 1305 10 36 0
160 -21 1214 1454 10 108 0
161 -10 1280 1520 10 173 0
162 7 242 482 10 0 85
163 9 448 688 10 0 71
164 -11 2139 2379 10 115 0
165 20 11 251 10 0 94
166 23 724 964 10 0 188
167 -24 974 1214 10 177 0
168 -22 358 598 10 19 0
169 4 13 253 10 0 110
170 9 1731 1971 10 0 155
171 16 735 975 10 0 175
172 -23 1944 2184 10 54 0
173 10 765 1005 10 0 161
174 -15 1375 1615 10 95 0
175 -16 1198 1438 10 171 0
176 -1 1796 2036 10 181 0
177 24 1041 1281 10 0 167
178 -20 343 583 10 118 0
179 43 749 989 10 0 123
180 -20 155 395 10 132 0
181 1 1049 1289 10 0 176
182 32 24 264 10 0 79
183 -20 1602 1842 10 130 0
184 16 21 261 10 0 106
185 15 408 648 10 0 86
186 3 1295 1535 10 0 11
187 27 1245 1485 10 0 137
188 -23 1282 1522 10 166 0
189 -20 1581 1821 10 30 0
190 -10 1237 1477 10 18 0
191 -21 1691 1931 10 33 0
192 20 708 948 10 0 150
193 9 131 371 0 0 205
194 -12 722 962 10 45 0
195 -10 326 566 10 49 0
196 12 658 898 10 0 107
197 -18 971 1211 10 119 0
198 9 167 407 10 0 82
199 10 1105 1345 10 0 65
200 17 190 430 10 0 104
201 -27 658 898 10 7 0
202 -21 1911 2151 10 47 0
203 -22 1846 2086 10 40 0
204 -18 357 597 10 152 0
205 -9 131 371 10 193 0
DEPOT_SECTION
1
-1
EOF
