NAME: lrc1_2_10
TYPE: PDPTW
COMMENT: Li & Lim PDPTW benchmark converted from SINTEF format
DIMENSION: 211
VEHICLES: 50
CAPACITY: 200
EDGE_WEIGHT_TYPE: EUC_2D
NODE_COORD_SECTION
1 70 70
2 10 86
3 16 62
4 84 36
5 79 72
6 16 39
7 61 54
8 96 26
9 16 92
10 85 106
11 6 25
12 37 125
13 87 108
14 18 104
15 61 48
16 97 29
17 112 67
18 50 106
19 99 28
20 15 9
21 19 37
22 90 101
23 125 68
24 127 108
25 90 44
26 4 23
27 17 37
28 113 32
29 63 57
30 94 104
31 58 95
32 137 96
33 127 112
34 103 119
35 20 69
36 2 28
37 88 29
38 86 102
39 126 112
40 61 34
41 113 69
42 109 78
43 21 48
44 86 36
45 97 12
46 121 112
47 19 39
48 66 40
49 87 39
50 63 50
51 121 123
52 116 22
53 137 101
54 137 137
55 70 94
56 117 92
57 122 113
58 109 71
59 35 102
60 91 108
61 8 87
62 140 42
63 16 38
64 44 36
65 60 84
66 109 139
67 80 103
68 66 82
69 99 26
70 34 108
71 135 65
72 36 124
73 102 60
74 30 21
75 139 110
76 10 111
77 18 70
78 4 28
79 57 53
80 54 41
81 107 25
82 110 99
83 84 88
84 101 0
85 28 99
86 119 114
87 118 108
88 50 112
89 44 116
90 82 100
91 83 12
92 126 23
93 85 75
94 39 13
95 120 136
96 105 2
97 36 54
98 35 90
99 111 66
100 119 136
101 84 99
102 137 127
103 95 35
104 69 6
105 1 24
106 31 112
107 138 78
108 100 99
109 123 112
110 119 130
111 92 22
112 137 7
113 121 124
114 34 104
115 121 110
116 56 139
117 106 10
118 125 108
119 21 115
120 110 66
121 36 38
122 56 129
123 4 30
124 8 138
125 88 35
126 116 132
127 113 45
128 28 107
129 115 134
130 116 83
131 57 59
132 89 39
133 59 52
134 112 71
135 35 99
136 23 39
137 84 39
138 19 120
139 20 39
140 90 104
141 66 91
142 4 44
143 78 63
144 92 107
145 37 138
146 120 14
147 33 0
148 113 71
149 112 13
150 41 36
151 64 61
152 121 134
153 103 44
154 67 55
155 86 80
156 64 132
157 93 36
158 115 124
159 103 82
160 18 38
161 122 131
162 107 63
163 48 47
164 62 58
165 0 27
166 118 114
167 91 95
168 113 35
169 119 139
170 104 54
171 15 4
172 59 56
173 21 44
174 100 106
175 47 83
176 34 72
177 32 106
178 109 131
179 89 24
180 97 28
181 86 37
182 1 34
183 103 69
184 98 31
185 103 34
186 13 48
187 22 38
188 61 59
189 94 105
190 118 131
191 108 30
192 36 105
193 133 130
194 15 18
195 103 86
196 107 77
197 99 34
198 17 43
199 140 36
200 26 105
201 60 23
202 84 88
203 10 86
204 58 95
205 115 124
206 116 132
207 36 38
208 103 34
209 20 69
210 10 111
211 113 45
PICKUP_AND_DELIVERY_SECTION
1 0 0 634 0 0 0
2 14 351 501 0 0 203
3 15 336 486 10 0 77
4 -20 42 192 10 133 0
5 22 9 159 10 0 58
6 20 62 212 10 0 27
7 10 18 168 10 0 81
8 -10 51 201 10 154 0
9 -20 299 449 10 151 0
10 20 39 189 10 0 13
11 -20 78 228 10 48 0
12 -18 283 433 10 116 0
13 -20 41 191 10 10 0
14 -40 277 427 10 200 0
15 20 23 173 10 0 181
16 -20 49 199 10 137 0
17 10 42 192 10 0 155
18 -34 260 410 10 72 0
19 30 51 201 10 0 45
20 2 350 500 10 0 40
21 20 66 216 10 0 187
22 10 95 245 10 0 167
23 20 132 282 10 0 92
24 10 75 225 10 0 118
25 6 32 182 10 0 157
26 -30 81 231 10 165 0
27 -20 62 212 10 6 0
28 -9 84 234 10 168 0
29 10 14 164 10 0 125
30 10 68 218 10 0 190
31 35 425 575 0 0 204
32 9 71 221 10 0 87
33 -19 70 220 10 75 0
34 -20 274 424 10 161 0
35 13 318 468 0 0 209
36 -16 79 229 10 201 0
37 -18 430 580 10 111 0
38 10 35 185 10 0 60
39 10 70 220 10 0 109
40 -2 413 563 10 20 0
41 -10 43 193 10 120 0
42 -34 178 328 10 196 0
43 -19 53 203 10 163 0
44 20 37 187 10 0 191
45 -30 146 296 10 19 0
46 -12 66 216 10 53 0
47 -9 78 228 10 64 0
48 20 30 180 10 0 11
49 20 35 185 10 0 132
50 10 21 171 10 0 147
51 -21 197 347 10 113 0
52 -12 78 228 10 153 0
53 12 109 259 10 0 46
54 -20 94 244 10 169 0
55 32 24 174 10 0 88
56 -30 223 373 10 130 0
57 20 67 217 10 0 115
58 -22 39 189 10 5 0
59 10 112 262 10 0 177
60 -10 43 193 10 38 0
61 17 341 491 10 0 176
62 -30 75 225 10 183 0
63 20 62 212 10 0 160
64 9 42 192 10 0 47
65 -20 422 572 10 173 0
66 8 79 229 10 0 129
67 -17 312 462 10 108 0
68 -20 441 591 10 164 0
69 40 52 202 10 0 104
70 10 61 211 10 0 138
71 -20 279 429 10 178 0
72 34 174 324 10 0 18
73 30 75 225 10 0 195
74 -10 262 412 10 194 0
75 19 131 281 10 0 33
76 21 402 552 0 0 210
77 -15 331 481 10 3 0
78 10 84 234 10 0 94
79 10 34 184 10 0 175
80 -29 221 371 10 91 0
81 -10 214 364 10 7 0
82 -37 243 393 10 93 0
83 16 296 446 0 0 202
84 -1 398 548 10 96 0
85 -20 51 201 10 135 0
86 -10 65 215 10 174 0
87 -9 115 265 10 32 0
88 -32 172 322 10 55 0
89 27 52 202 10 0 122
90 18 44 194 10 0 101
91 29 170 320 10 0 80
92 -20 203 353 10 23 0
93 37 15 165 10 0 82
94 -10 316 466 10 78 0
95 10 82 232 10 0 193
96 1 164 314 10 0 84
97 -20 312 462 10 172 0
98 -20 386 536 10 128 0
99 -30 41 191 10 162 0
100 30 82 232 10 0 102
101 -18 32 182 10 90 0
102 -30 136 286 10 100 0
103 10 43 193 10 0 197
104 -40 64 214 10 69 0
105 10 82 232 10 0 171
106 20 57 207 10 0 119
107 -10 142 292 10 148 0
108 17 239 389 10 0 67
109 -10 67 217 10 39 0
110 -10 93 243 10 166 0
111 18 130 280 10 0 37
112 -20 96 246 10 146 0
113 21 90 240 10 0 51
114 10 87 237 10 0 192
115 -20 101 251 10 57 0
116 18 250 400 10 0 12
117 13 239 389 10 0 149
118 -10 87 237 10 24 0
119 -20 66 216 10 106 0
120 10 45 195 10 0 41
121 5 378 528 0 0 207
122 -27 227 377 10 89 0
123 -13 96 246 10 150 0
124 -16 231 381 10 141 0
125 -10 39 189 10 29 0
126 10 117 267 0 0 206
127 4 239 389 0 0 211
128 20 55 205 10 0 98
129 -8 78 228 10 66 0
130 30 119 269 10 0 56
131 -20 62 212 10 188 0
132 -20 36 186 10 49 0
133 20 22 172 10 0 4
134 20 42 192 10 0 199
135 20 125 275 10 0 85
136 -10 292 442 10 198 0
137 20 55 205 10 0 16
138 -10 201 351 10 70 0
139 10 89 239 10 0 186
140 -30 82 232 10 144 0
141 16 21 171 10 0 124
142 -20 356 506 10 182 0
143 19 10 160 10 0 184
144 30 43 193 10 0 140
145 -8 150 300 10 156 0
146 20 199 349 10 0 112
147 -10 395 545 10 50 0
148 10 43 193 10 0 107
149 -13 404 554 10 117 0
150 13 44 194 10 0 123
151 20 89 239 10 0 9
152 -10 81 231 10 189 0
153 12 42 192 10 0 52
154 10 15 165 10 0 8
155 -10 314 464 10 17 0
156 8 62 212 10 0 145
157 -6 41 191 10 25 0
158 11 351 501 0 0 205
159 -13 266 416 10 170 0
160 -20 61 211 10 63 0
161 20 80 230 10 0 34
162 30 59 209 10 0 99
163 19 31 181 10 0 43
164 20 14 164 10 0 68
165 30 82 232 10 0 26
166 10 65 215 10 0 110
167 -10 111 261 10 22 0
168 9 55 205 10 0 28
169 20 84 234 10 0 54
170 13 37 187 10 0 159
171 -10 85 235 10 105 0
172 20 48 198 10 0 97
173 20 55 205 10 0 65
174 10 46 196 10 0 86
175 -10 258 408 10 79 0
176 -17 438 588 10 61 0
177 -10 74 224 10 59 0
178 20 72 222 10 0 71
179 -20 241 391 10 180 0
180 20 49 199 10 0 179
181 -20 36 186 10 15 0
182 20 77 227 10 0 142
183 30 33 183 10 0 62
184 -19 48 198 10 143 0
185 30 51 201 0 0 208
186 -10 360 510 10 139 0
187 -20 101 251 10 21 0
188 20 76 226 10 0 131
189 10 57 207 10 0 152
190 -10 104 254 10 30 0
191 -20 55 205 10 44 0
192 -10 99 249 10 114 0
193 -10 162 312 10 95 0
194 10 340 490 10 0 74
195 -30 198 348 10 73 0
196 34 37 187 10 0 42
197 -10 46 196 10 103 0
198 10 59 209 10 0 136
199 -20 116 266 10 134 0
200 40 56 206 10 0 14
201 16 48 198 10 0 36
202 -16 296 446 10 83 0
203 -14 351 501 10 2 0
204 -35 425 575 10 31 0
205 -11 351 501 10 158 0
206 -10 117 267 10 126 0
207 -5 378 528 10 121 0
208 -30 51 201 10 185 0
209 -13 318 468 10 35 0
210 -21 402 552 10 76 0
211 -4 239 389 10 127 0
DEPOT_SECTION
1
-1
EOF
