NAME: lrc1_2_7
TYPE: PDPTW
COMMENT: Li & Lim PDPTW benchmark converted from SINTEF format
DIMENSION: 213
VEHICLES: 50
CAPACITY: 200
EDGE_WEIGHT_TYPE: EUC_2D
NODE_COORD_SECTION
1 70 70
2 10 86
3 16 62
4 84 36
5 79 72
6 16 39
7 61 54
8 96 26
9 16 92
10 85 106
11 6 25
12 37 125
13 87 108
14 18 104
15 61 48
16 97 29
17 112 67
18 50 106
19 99 28
20 15 9
21 19 37
22 90 101
23 125 68
24 127 108
25 90 44
26 4 23
27 17 37
28 113 32
29 63 57
30 94 104
31 58 95
32 137 96
33 127 112
34 103 119
35 20 69
36 2 28
37 88 29
38 86 102
39 126 112
40 61 34
41 113 69
42 109 78
43 21 48
44 86 36
45 97 12
46 121 112
47 19 39
48 66 40
49 87 39
50 63 50
51 121 123
52 116 22
53 137 101
54 137 137
55 70 94
56 117 92
57 122 113
58 109 71
59 35 102
60 91 108
61 8 87
62 140 42
63 16 38
64 44 36
65 60 84
66 109 139
67 80 103
68 66 82
69 99 26
70 34 108
71 135 65
72 36 124
73 102 60
74 30 21
75 139 110
76 10 111
77 18 70
78 4 28
79 57 53
80 54 41
81 107 25
82 110 99
83 84 88
84 101 0
85 28 99
86 119 114
87 118 108
88 50 112
89 44 116
90 82 100
91 83 12
92 126 23
93 85 75
94 39 13
95 120 136
96 105 2
97 36 54
98 35 90
99 111 66
100 119 136
101 84 99
102 137 127
103 95 35
104 69 6
105 1 24
106 31 112
107 138 78
108 100 99
109 123 112
110 119 130
111 92 22
112 137 7
113 121 124
114 34 104
115 121 110
116 56 139
117 106 10
118 125 108
119 21 115
120 110 66
121 36 38
122 56 129
123 4 30
124 8 138
125 88 35
126 116 132
127 113 45
128 28 107
129 115 134
130 116 83
131 57 59
132 89 39
133 59 52
134 112 71
135 35 99
136 23 39
137 84 39
138 19 120
139 20 39
140 90 104
141 66 91
142 4 44
143 78 63
144 92 107
145 37 138
146 120 14
147 33 0
148 113 71
149 112 13
150 41 36
151 64 61
152 121 134
153 103 44
154 67 55
155 86 80
156 64 132
157 93 36
158 115 124
159 103 82
160 18 38
161 122 131
162 107 63
163 48 47
164 62 58
165 0 27
166 118 114
167 91 95
168 113 35
169 119 139
170 104 54
171 15 4
172 59 56
173 21 44
174 100 106
175 47 83
176 34 72
177 32 106
178 109 131
179 89 24
180 97 28
181 86 37
182 1 34
183 103 69
184 98 31
185 103 34
186 13 48
187 22 38
188 61 59
189 94 105
190 118 131
191 108 30
192 36 105
193 133 130
194 15 18
195 103 86
196 107 77
197 99 34
198 17 43
199 140 36
200 26 105
201 60 23
202 121 134
203 64 61
204 108 30
205 17 37
206 89 24
207 18 104
208 50 106
209 0 27
210 66 82
211 36 38
212 88 29
213 36 54
PICKUP_AND_DELIVERY_SECTION
1 0 0 634 0 0 0
2 14 370 482 10 0 35
3 -40 380 443 10 123 0
4 10 80 154 10 0 91
5 22 9 78 10 0 116
6 -19 73 119 10 163 0
7 10 18 110 10 0 171
8 -40 51 161 10 69 0
9 10 340 407 10 0 61
10 20 39 109 10 0 13
11 10 106 184 10 0 20
12 -18 310 407 10 88 0
13 -20 41 185 10 10 0
14 18 314 390 0 0 207
15 20 35 131 10 0 98
16 -10 49 90 10 103 0
17 10 42 166 10 0 23
18 25 291 380 0 0 208
19 -23 79 116 10 132 0
20 -10 379 471 10 11 0
21 20 112 171 10 0 186
22 10 148 192 10 0 167
23 -10 124 289 10 17 0
24 -20 126 174 10 33 0
25 6 32 124 10 0 162
26 -13 86 179 10 150 0
27 30 95 141 0 0 205
28 36 110 208 10 0 52
29 10 14 61 10 0 64
30 10 94 193 10 0 83
31 35 463 537 10 0 65
32 9 71 193 10 0 195
33 20 95 176 10 0 24
34 -13 312 387 10 193 0
35 -14 358 429 10 2 0
36 -10 79 183 10 105 0
37 33 472 580 0 0 212
38 -20 35 151 10 101 0
39 10 83 167 10 0 118
40 -12 469 506 10 74 0
41 20 43 131 10 0 107
42 -13 193 313 10 170 0
43 10 53 152 10 0 173
44 20 56 131 10 0 184
45 -20 162 280 10 180 0
46 -20 66 179 10 86 0
47 10 90 217 10 0 136
48 20 30 112 10 0 117
49 20 35 136 10 0 73
50 -20 40 99 10 164 0
51 -28 210 334 10 102 0
52 -36 99 207 10 28 0
53 12 155 213 10 0 56
54 27 94 213 10 0 158
55 32 24 89 10 0 70
56 -12 260 335 10 53 0
57 -10 67 195 10 166 0
58 20 39 138 10 0 82
59 10 153 221 10 0 114
60 10 43 222 10 0 178
61 -10 338 495 10 9 0
62 -30 83 148 10 183 0
63 20 83 130 10 0 187
64 -10 42 120 10 29 0
65 -35 430 564 10 31 0
66 8 79 189 10 0 95
67 -21 347 428 10 122 0
68 27 459 572 0 0 210
69 40 65 105 10 0 8
70 -32 91 181 10 55 0
71 -1 280 428 10 199 0
72 -10 195 303 10 177 0
73 -20 103 197 10 49 0
74 12 291 383 10 0 40
75 -20 160 252 10 109 0
76 -5 461 552 10 145 0
77 -10 354 457 10 119 0
78 -10 106 212 10 198 0
79 -10 50 168 10 131 0
80 -20 268 325 10 137 0
81 -9 257 320 10 168 0
82 -20 290 345 10 58 0
83 -10 333 410 10 30 0
84 -8 455 548 10 104 0
85 10 51 103 10 0 200
86 20 65 154 10 0 46
87 10 147 232 10 0 108
88 18 194 299 10 0 12
89 27 52 135 10 0 156
90 18 77 161 10 0 113
91 -10 212 279 10 4 0
92 -12 208 349 10 153 0
93 37 15 132 10 0 125
94 -10 344 438 10 154 0
95 -8 82 196 10 66 0
96 -40 190 288 10 112 0
97 15 306 467 0 0 213
98 -20 424 498 10 15 0
99 -34 41 178 10 196 0
100 30 82 214 10 0 129
101 20 32 106 10 0 38
102 28 176 246 10 0 51
103 10 43 191 10 0 16
104 8 64 148 10 0 84
105 10 82 197 10 0 36
106 -16 57 200 10 141 0
107 -20 157 278 10 41 0
108 -10 270 357 10 87 0
109 20 67 181 10 0 75
110 -20 100 236 10 169 0
111 -20 187 222 10 157 0
112 40 145 197 10 0 96
113 -18 144 186 10 90 0
114 -10 111 213 10 59 0
115 30 144 208 10 0 161
116 -22 284 365 10 5 0
117 -20 247 380 10 48 0
118 -10 108 216 10 39 0
119 10 66 149 10 0 77
120 10 109 130 10 0 130
121 5 441 465 0 0 211
122 21 246 358 10 0 67
123 40 144 197 10 0 3
124 -16 258 354 10 138 0
125 -37 47 116 10 93 0
126 -20 148 236 10 190 0
127 -20 277 350 10 146 0
128 20 55 111 10 0 176
129 -30 78 219 10 100 0
130 -10 108 281 10 120 0
131 10 74 200 10 0 79
132 23 36 94 10 0 19
133 20 69 126 10 0 172
134 20 42 162 10 0 148
135 -20 165 236 10 192 0
136 -10 363 371 10 47 0
137 20 78 181 10 0 80
138 16 259 294 10 0 124
139 -30 107 221 10 160 0
140 -10 121 194 10 189 0
141 16 21 115 10 0 106
142 -20 375 487 10 182 0
143 19 10 159 10 0 181
144 30 43 178 10 0 174
145 5 190 260 10 0 76
146 20 248 299 10 0 127
147 -10 449 545 10 194 0
148 -20 43 172 10 134 0
149 -16 437 554 10 201 0
150 13 44 139 10 0 26
151 20 142 187 0 0 203
152 20 81 208 0 0 202
153 12 42 129 10 0 92
154 10 15 109 10 0 94
155 -27 376 402 10 159 0
156 -27 62 175 10 89 0
157 20 41 133 10 0 111
158 -27 393 460 10 54 0
159 27 307 375 10 0 155
160 30 74 185 10 0 139
161 -30 119 191 10 115 0
162 -6 102 167 10 25 0
163 19 31 151 10 0 6
164 20 14 97 10 0 50
165 30 82 171 0 0 209
166 10 65 189 10 0 57
167 -10 100 272 10 22 0
168 9 55 123 10 0 81
169 20 84 146 10 0 110
170 13 37 157 10 0 42
171 -10 85 198 10 7 0
172 -20 79 166 10 133 0
173 -10 55 182 10 43 0
174 -30 76 156 10 144 0
175 -20 290 376 10 188 0
176 -20 492 588 10 128 0
177 10 92 207 10 0 72
178 -10 72 145 10 60 0
179 15 264 369 0 0 206
180 20 49 161 10 0 45
181 -19 64 146 10 143 0
182 20 77 241 10 0 142
183 30 33 92 10 0 62
184 -20 73 148 10 44 0
185 -9 85 168 10 197 0
186 -20 376 494 10 21 0
187 -20 112 240 10 63 0
188 20 106 195 10 0 175
189 10 93 171 10 0 140
190 20 121 238 10 0 126
191 18 67 154 0 0 204
192 20 113 236 10 0 135
193 13 208 267 10 0 34
194 10 361 469 10 0 147
195 -9 231 315 10 32 0
196 34 37 110 10 0 99
197 9 46 142 10 0 185
198 10 59 133 10 0 78
199 1 172 209 10 0 71
200 -10 56 164 10 85 0
201 16 48 90 10 0 149
202 -20 81 208 10 152 0
203 -20 142 187 10 151 0
204 -18 67 154 10 191 0
205 -30 95 141 10 27 0
206 -15 264 369 10 179 0
207 -18 314 390 10 14 0
208 -25 291 380 10 18 0
209 -30 82 171 10 165 0
210 -27 459 572 10 68 0
211 -5 441 465 10 121 0
212 -33 472 580 10 37 0
213 -15 306 467 10 97 0
DEPOT_SECTION
1
-1
EOF
