NAME: lrc1_2_8
TYPE: PDPTW
COMMENT: Li & Lim PDPTW benchmark converted from SINTEF format
DIMENSION: 209
VEHICLES: 50
CAPACITY: 200
EDGE_WEIGHT_TYPE: EUC_2D
NODE_COORD_SECTION
1 70 70
2 10 86
3 16 62
4 84 36
5 79 72
6 16 39
7 61 54
8 96 26
9 16 92
10 85 106
11 6 25
12 37 125
13 87 108
14 18 104
15 61 48
16 97 29
17 112 67
18 50 106
19 99 28
20 15 9
21 19 37
22 90 101
23 125 68
24 127 108
25 90 44
26 4 23
27 17 37
28 113 32
29 63 57
30 94 104
31 58 95
32 137 96
33 127 112
34 103 119
35 20 69
36 2 28
37 88 29
38 86 102
39 126 112
40 61 34
41 113 69
42 109 78
43 21 48
44 86 36
45 97 12
46 121 112
47 19 39
48 66 40
49 87 39
50 63 50
51 121 123
52 116 22
53 137 101
54 137 137
55 70 94
56 117 92
57 122 113
58 109 71
59 35 102
60 91 108
61 8 87
62 140 42
63 16 38
64 44 36
65 60 84
66 109 139
67 80 103
68 66 82
69 99 26
70 34 108
71 135 65
72 36 124
73 102 60
74 30 21
75 139 110
76 10 111
77 18 70
78 4 28
79 57 53
80 54 41
81 107 25
82 110 99
83 84 88
84 101 0
85 28 99
86 119 114
87 118 108
88 50 112
89 44 116
90 82 100
91 83 12
92 126 23
93 85 75
94 39 13
95 120 136
96 105 2
97 36 54
98 35 90
99 111 66
100 119 136
101 84 99
102 137 127
103 95 35
104 69 6
105 1 24
106 31 112
107 138 78
108 100 99
109 123 112
110 119 130
111 92 22
112 137 7
113 121 124
114 34 104
115 121 110
116 56 139
117 106 10
118 125 108
119 21 115
120 110 66
121 36 38
122 56 129
123 4 30
124 8 138
125 88 35
126 116 132
127 113 45
128 28 107
129 115 134
130 116 83
131 57 59
132 89 39
133 59 52
134 112 71
135 35 99
136 23 39
137 84 39
138 19 120
139 20 39
140 90 104
141 66 91
142 4 44
143 78 63
144 92 107
145 37 138
146 120 14
147 33 0
148 113 71
149 112 13
150 41 36
151 64 61
152 121 134
153 103 44
154 67 55
155 86 80
156 64 132
157 93 36
158 115 124
159 103 82
160 18 38
161 122 131
162 107 63
163 48 47
164 62 58
165 0 27
166 118 114
167 91 95
168 113 35
169 119 139
170 104 54
171 15 4
172 59 56
173 21 44
174 100 106
175 47 83
176 34 72
177 32 106
178 109 131
179 89 24
180 97 28
181 86 37
182 1 34
183 103 69
184 98 31
185 103 34
186 13 48
187 22 38
188 61 59
189 94 105
190 118 131
191 108 30
192 36 105
193 133 130
194 15 18
195 103 86
196 107 77
197 99 34
198 17 43
199 140 36
200 26 105
201 60 23
202 103 119
203 137 137
204 117 92
205 2 28
206 112 13
207 32 106
208 93 36
209 125 68
PICKUP_AND_DELIVERY_SECTION
1 0 0 634 0 0 0
2 -10 368 483 10 9 0
3 -10 361 461 10 50 0
4 10 50 184 10 0 137
5 22 9 90 10 0 189
6 -10 62 180 10 43 0
7 -20 18 156 10 164 0
8 10 51 123 10 0 45
9 10 315 433 10 0 2
10 20 39 193 10 0 67
11 -10 81 209 10 105 0
12 -5 285 432 10 145 0
13 -18 41 157 10 90 0
14 -20 286 418 10 106 0
15 20 23 167 10 0 48
16 -40 49 120 10 69 0
17 10 89 107 10 0 153
18 -18 308 362 10 116 0
19 -20 51 197 10 184 0
20 -10 358 493 10 78 0
21 20 79 203 10 0 186
22 -37 112 228 10 93 0
23 20 144 270 0 0 209
24 -20 81 218 10 109 0
25 6 32 143 10 0 197
26 -40 84 180 10 123 0
27 30 62 203 10 0 182
28 36 86 232 10 0 112
29 10 14 160 10 0 156
30 -34 77 209 10 196 0
31 -10 449 551 10 124 0
32 9 71 170 10 0 118
33 -20 106 165 10 46 0
34 18 305 394 0 0 202
35 -10 337 449 10 154 0
36 10 79 203 0 0 205
37 -9 427 580 10 84 0
38 10 35 204 10 0 140
39 10 70 224 10 0 115
40 -19 405 570 10 163 0
41 -10 43 167 10 148 0
42 -13 172 334 10 62 0
43 10 53 202 10 0 6
44 20 37 190 10 0 180
45 -10 201 242 10 8 0
46 20 66 190 10 0 33
47 10 83 224 10 0 136
48 -20 30 190 10 15 0
49 20 35 163 10 0 125
50 10 21 127 10 0 3
51 9 185 359 10 0 108
52 32 117 188 10 0 146
53 12 140 228 10 0 87
54 27 94 269 0 0 203
55 32 24 176 10 0 68
56 25 214 381 0 0 204
57 20 67 165 10 0 75
58 20 39 99 10 0 134
59 10 129 246 10 0 72
60 -30 43 162 10 144 0
61 -40 383 450 10 200 0
62 13 75 180 10 0 42
63 20 62 177 10 0 142
64 -20 42 163 10 133 0
65 -20 436 557 10 98 0
66 8 79 227 10 0 169
67 -20 320 455 10 10 0
68 -32 461 570 10 55 0
69 40 52 147 10 0 16
70 -20 75 198 10 192 0
71 -10 257 450 10 103 0
72 -10 211 287 10 59 0
73 30 108 193 10 0 120
74 -20 268 406 10 187 0
75 -20 116 297 10 57 0
76 -10 450 552 10 119 0
77 26 354 458 10 0 176
78 10 122 196 10 0 20
79 10 25 194 10 0 150
80 -19 236 357 10 143 0
81 -4 242 335 10 127 0
82 21 269 367 10 0 195
83 -20 316 427 10 167 0
84 9 455 548 10 0 37
85 -10 51 189 10 114 0
86 20 65 174 10 0 193
87 -12 116 263 10 53 0
88 -27 201 292 10 89 0
89 27 52 189 10 0 88
90 18 49 190 10 0 13
91 29 190 301 10 0 96
92 13 197 360 10 0 117
93 37 15 135 10 0 22
94 -10 356 425 10 139 0
95 -20 82 187 10 178 0
96 -29 198 279 10 91 0
97 -16 331 442 10 201 0
98 20 405 517 10 0 65
99 -30 46 172 10 183 0
100 30 82 227 10 0 110
101 -16 32 104 10 141 0
102 -20 139 283 10 152 0
103 10 43 174 10 0 71
104 -18 64 214 10 111 0
105 10 82 172 10 0 11
106 20 59 183 10 0 14
107 -9 165 270 10 168 0
108 -9 284 344 10 51 0
109 20 67 205 10 0 24
110 -30 77 259 10 100 0
111 18 153 256 10 0 104
112 -36 111 230 10 28 0
113 21 111 218 10 0 161
114 10 97 227 10 0 85
115 -10 109 244 10 39 0
116 18 275 374 10 0 18
117 -13 286 341 10 92 0
118 -9 97 226 10 32 0
119 10 66 179 10 0 76
120 -30 56 184 10 73 0
121 -30 391 514 10 165 0
122 -20 240 364 10 135 0
123 40 88 253 10 0 26
124 10 270 342 10 0 31
125 -20 39 133 10 49 0
126 10 150 233 10 0 190
127 4 264 364 10 0 81
128 20 55 168 10 0 138
129 30 78 252 10 0 158
130 -30 138 251 10 162 0
131 -20 60 213 10 172 0
132 23 36 161 10 0 159
133 20 52 142 10 0 64
134 -20 42 177 10 58 0
135 20 147 254 10 0 122
136 -10 303 431 10 47 0
137 -10 96 164 10 4 0
138 -20 203 350 10 128 0
139 10 114 214 10 0 94
140 -10 110 204 10 38 0
141 16 21 133 10 0 101
142 -20 383 479 10 63 0
143 19 10 112 10 0 80
144 30 52 145 10 0 60
145 5 148 302 10 0 12
146 -32 188 360 10 52 0
147 20 362 545 10 0 194
148 10 43 196 10 0 41
149 27 446 554 0 0 206
150 -10 44 193 10 79 0
151 -10 105 223 10 181 0
152 20 87 196 10 0 102
153 -10 42 149 10 17 0
154 10 15 110 10 0 35
155 -13 337 441 10 170 0
156 -10 62 248 10 29 0
157 20 41 210 0 0 208
158 -30 368 484 10 129 0
159 -23 275 407 10 132 0
160 -10 93 167 10 198 0
161 -21 80 268 10 113 0
162 30 104 164 10 0 130
163 19 31 164 10 0 40
164 20 14 156 10 0 7
165 30 86 126 10 0 121
166 -10 65 187 10 174 0
167 20 130 242 10 0 83
168 9 55 175 10 0 107
169 -8 84 146 10 66 0
170 13 37 156 10 0 155
171 -20 85 203 10 173 0
172 20 54 192 10 0 131
173 20 55 174 10 0 171
174 10 46 215 10 0 166
175 -20 272 393 10 188 0
176 -26 432 588 10 77 0
177 10 72 227 0 0 207
178 20 72 151 10 0 95
179 -18 268 364 10 191 0
180 -20 49 255 10 44 0
181 10 47 163 10 0 151
182 -30 77 171 10 27 0
183 30 33 121 10 0 99
184 20 48 173 10 0 19
185 30 92 160 10 0 199
186 -20 396 475 10 21 0
187 20 117 236 10 0 74
188 20 92 210 10 0 175
189 -22 50 215 10 5 0
190 -10 137 221 10 126 0
191 18 55 215 10 0 179
192 20 91 258 10 0 70
193 -20 178 297 10 86 0
194 -20 377 454 10 147 0
195 -21 232 314 10 82 0
196 34 37 176 10 0 30
197 -6 46 185 10 25 0
198 10 59 151 10 0 160
199 -30 139 242 10 185 0
200 40 56 180 10 0 61
201 16 48 211 10 0 97
202 -18 305 394 10 34 0
203 -27 94 269 10 54 0
204 -25 214 381 10 56 0
205 -10 79 203 10 36 0
206 -27 446 554 10 149 0
207 -10 72 227 10 177 0
208 -20 41 210 10 157 0
209 -20 144 270 10 23 0
DEPOT_SECTION
1
-1
EOF
