NAME: lrc2_2_7
TYPE: PDPTW
COMMENT: Li & Lim PDPTW benchmark converted from SINTEF format
DIMENSION: 203
VEHICLES: 50
CAPACITY: 1000
EDGE_WEIGHT_TYPE: EUC_2D
NODE_COORD_SECTION
1 70 70
2 10 86
3 16 62
4 84 36
5 79 72
6 16 39
7 61 54
8 96 26
9 16 92
10 85 106
11 6 25
12 37 125
13 87 108
14 18 104
15 61 48
16 97 29
17 112 67
18 50 106
19 99 28
20 15 9
21 19 37
22 90 101
23 125 68
24 127 108
25 90 44
26 4 23
27 17 37
28 113 32
29 63 57
30 94 104
31 58 95
32 137 96
33 127 112
34 103 119
35 20 69
36 2 28
37 88 29
38 86 102
39 126 112
40 61 34
41 113 69
42 109 78
43 21 48
44 86 36
45 97 12
46 121 112
47 19 39
48 66 40
49 87 39
50 63 50
51 121 123
52 116 22
53 137 101
54 137 137
55 70 94
56 117 92
57 122 113
58 109 71
59 35 102
60 91 108
61 8 87
62 140 42
63 16 38
64 44 36
65 60 84
66 109 139
67 80 103
68 66 82
69 99 26
70 34 108
71 135 65
72 36 124
73 102 60
74 30 21
75 139 110
76 10 111
77 18 70
78 4 28
79 57 53
80 54 41
81 107 25
82 110 99
83 84 88
84 101 0
85 28 99
86 119 114
87 118 108
88 50 112
89 44 116
90 82 100
91 83 12
92 126 23
93 85 75
94 39 13
95 120 136
96 105 2
97 36 54
98 35 90
99 111 66
100 119 136
101 84 99
102 137 127
103 95 35
104 69 6
105 1 24
106 31 112
107 138 78
108 100 99
109 123 112
110 119 130
111 92 22
112 137 7
113 121 124
114 34 104
115 121 110
116 56 139
117 106 10
118 125 108
119 21 115
120 110 66
121 36 38
122 56 129
123 4 30
124 8 138
125 88 35
126 116 132
127 113 45
128 28 107
129 115 134
130 116 83
131 57 59
132 89 39
133 59 52
134 112 71
135 35 99
136 23 39
137 84 39
138 19 120
139 20 39
140 90 104
141 66 91
142 4 44
143 78 63
144 92 107
145 37 138
146 120 14
147 33 0
148 113 71
149 112 13
150 41 36
151 64 61
152 121 134
153 103 44
154 67 55
155 86 80
156 64 132
157 93 36
158 115 124
159 103 82
160 18 38
161 122 131
162 107 63
163 48 47
164 62 58
165 0 27
166 118 114
167 91 95
168 113 35
169 119 139
170 104 54
171 15 4
172 59 56
173 21 44
174 100 106
175 47 83
176 34 72
177 32 106
178 109 131
179 89 24
180 97 28
181 86 37
182 1 34
183 103 69
184 98 31
185 103 34
186 13 48
187 22 38
188 61 59
189 94 105
190 118 131
191 108 30
192 36 105
193 133 130
194 15 18
195 103 86
196 107 77
197 99 34
198 17 43
199 140 36
200 26 105
201 60 23
202 126 23
203 58 95
PICKUP_AND_DELIVERY_SECTION
1 0 0 2535 0 0 0
2 -16 1577 1828 10 138 0
3 -20 1547 1742 10 21 0
4 10 329 605 10 0 199
5 22 9 415 10 0 46
6 20 330 437 10 0 47
7 -10 209 234 10 50 0
8 10 230 349 10 0 201
9 -8 1384 1606 10 156 0
10 20 39 447 10 0 51
11 10 363 800 10 0 136
12 -10 1281 1587 10 70 0
13 20 100 482 10 0 39
14 -10 1291 1523 10 85 0
15 20 73 588 10 0 123
16 -20 49 399 10 184 0
17 -10 216 564 10 148 0
18 -30 1229 1454 10 162 0
19 30 209 569 10 0 45
20 -12 1492 1910 10 74 0
21 20 376 754 10 0 3
22 10 532 830 10 0 87
23 -30 700 956 10 100 0
24 10 417 782 10 0 115
25 6 124 415 10 0 157
26 -20 359 701 10 133 0
27 -23 204 743 10 171 0
28 -13 506 767 10 62 0
29 10 14 530 10 0 131
30 10 208 939 10 0 122
31 35 1764 2236 0 0 203
32 9 200 374 10 0 86
33 20 280 806 10 0 116
34 -30 1191 1601 10 129 0
35 13 1346 1799 10 0 147
36 -19 160 592 10 163 0
37 -15 1891 2481 10 186 0
38 -18 35 484 10 90 0
39 -20 366 632 10 13 0
40 -13 1850 2050 10 81 0
41 20 176 507 10 0 172
42 21 869 1152 10 0 195
43 10 98 332 10 0 105
44 20 200 548 10 0 48
45 -30 828 942 10 19 0
46 -22 178 534 10 5 0
47 -20 297 929 10 6 0
48 -20 30 584 10 44 0
49 20 66 217 10 0 52
50 10 89 470 10 0 7
51 -20 776 1400 10 10 0
52 -20 489 733 10 49 0
53 12 342 1133 10 0 155
54 -20 252 666 10 161 0
55 32 24 197 10 0 60
56 25 862 1522 10 0 108
57 -10 128 675 10 119 0
58 20 88 306 10 0 192
59 10 425 1073 10 0 177
60 -32 242 452 10 55 0
61 -20 1419 1911 10 190 0
62 13 251 673 10 0 28
63 20 416 439 10 0 182
64 -20 132 370 10 164 0
65 23 1811 2162 10 0 68
66 -37 359 665 10 93 0
67 -10 1216 1881 10 95 0
68 -23 1880 2248 10 65 0
69 40 223 459 10 0 191
70 10 398 692 10 0 12
71 -10 1109 1721 10 166 0
72 34 875 1116 10 0 175
73 -20 422 779 10 134 0
74 12 1070 1629 10 0 20
75 -20 728 924 10 152 0
76 21 1785 2277 10 0 176
77 26 1483 1764 10 0 97
78 10 407 865 10 0 149
79 10 167 707 10 0 150
80 -13 1081 1288 10 117 0
81 13 992 1318 10 0 40
82 -30 1221 1321 10 130 0
83 -11 1334 1635 10 158 0
84 -5 2011 2093 10 121 0
85 10 51 418 10 0 14
86 -9 65 586 10 32 0
87 -10 547 971 10 22 0
88 -10 897 1077 10 120 0
89 -20 52 766 10 106 0
90 18 383 571 10 0 38
91 -8 925 1036 10 104 0
92 13 893 1335 0 0 202
93 37 15 214 10 0 66
94 20 1460 1666 10 0 194
95 10 470 566 10 0 67
96 -19 682 1228 10 143 0
97 -26 1330 1766 10 77 0
98 -5 1574 2113 10 145 0
99 -30 195 677 10 183 0
100 30 208 741 10 0 23
101 -20 32 476 10 128 0
102 -13 689 996 10 193 0
103 10 73 442 10 0 125
104 8 180 603 10 0 91
105 -10 363 592 10 43 0
106 20 266 704 10 0 89
107 43 823 915 10 0 159
108 -25 1175 1337 10 56 0
109 20 120 774 10 0 118
110 -20 484 861 10 169 0
111 18 636 1003 10 0 179
112 -9 500 866 10 168 0
113 -40 551 767 10 200 0
114 -20 297 998 10 188 0
115 -10 467 942 10 24 0
116 -20 951 1648 10 33 0
117 13 1000 1511 10 0 80
118 -20 519 776 10 109 0
119 10 217 589 10 0 57
120 10 382 577 10 0 88
121 5 1723 1899 10 0 84
122 -10 873 1540 10 30 0
123 -20 471 896 10 15 0
124 -10 1109 1340 10 126 0
125 -10 144 507 10 103 0
126 10 724 810 10 0 124
127 -20 1156 1356 10 146 0
128 20 106 536 10 0 101
129 30 78 658 10 0 34
130 30 569 986 10 0 82
131 -10 459 633 10 29 0
132 -12 36 334 10 153 0
133 20 132 644 10 0 26
134 20 64 434 10 0 73
135 -20 594 1009 10 151 0
136 -10 1102 1832 10 11 0
137 -10 255 783 10 181 0
138 16 968 1241 10 0 2
139 10 513 800 10 0 142
140 -30 426 833 10 144 0
141 16 21 280 10 0 167
142 -10 1392 2053 10 139 0
143 19 10 442 10 0 96
144 30 120 665 10 0 140
145 5 725 1072 10 0 98
146 20 942 1247 10 0 127
147 -13 1885 2095 10 35 0
148 10 43 621 10 0 17
149 -10 2029 2290 10 78 0
150 -10 167 364 10 79 0
151 20 442 871 10 0 135
152 20 181 952 10 0 75
153 12 42 316 10 0 132
154 10 15 398 10 0 198
155 -12 1379 1736 10 53 0
156 8 62 611 10 0 9
157 -6 69 347 10 25 0
158 11 1570 1838 10 0 83
159 -43 992 1738 10 107 0
160 -30 396 643 10 165 0
161 20 408 832 10 0 54
162 30 422 652 10 0 18
163 19 31 243 10 0 36
164 20 54 276 10 0 64
165 30 266 583 10 0 160
166 10 190 330 10 0 71
167 -16 516 975 10 141 0
168 9 82 442 10 0 112
169 20 186 659 10 0 110
170 13 70 471 10 0 180
171 23 342 584 10 0 27
172 -20 478 505 10 41 0
173 20 55 778 10 0 187
174 -10 306 624 10 189 0
175 -34 1002 1659 10 72 0
176 -21 2118 2391 10 76 0
177 -10 336 857 10 59 0
178 -34 121 458 10 196 0
179 -18 1016 1513 10 111 0
180 -13 153 327 10 170 0
181 10 305 531 10 0 137
182 -20 152 470 10 63 0
183 30 33 506 10 0 99
184 20 209 674 10 0 16
185 30 328 682 10 0 197
186 15 1633 1851 10 0 37
187 -20 629 783 10 173 0
188 20 283 921 10 0 114
189 10 286 773 10 0 174
190 20 464 972 10 0 61
191 -40 278 607 10 69 0
192 -20 558 836 10 58 0
193 13 675 1223 10 0 102
194 -20 1338 1983 10 94 0
195 -21 950 1231 10 42 0
196 34 37 401 10 0 178
197 -30 311 415 10 185 0
198 -10 102 553 10 154 0
199 -10 571 954 10 4 0
200 40 86 453 10 0 113
201 -10 48 519 10 8 0
202 -13 893 1335 10 92 0
203 -35 1764 2236 10 31 0
DEPOT_SECTION
1
-1
EOF
