NAME: lrc2_2_6
TYPE: PDPTW
COMMENT: Li & Lim PDPTW benchmark converted from SINTEF format
DIMENSION: 203
VEHICLES: 50
CAPACITY: 1000
EDGE_WEIGHT_TYPE: EUC_2D
NODE_COORD_SECTION
1 70 70
2 10 86
3 16 62
4 84 36
5 79 72
6 16 39
7 61 54
8 96 26
9 16 92
10 85 106
11 6 25
12 37 125
13 87 108
14 18 104
15 61 48
16 97 29
17 112 67
18 50 106
19 99 28
20 15 9
21 19 37
22 90 101
23 125 68
24 127 108
25 90 44
26 4 23
27 17 37
28 113 32
29 63 57
30 94 104
31 58 95
32 137 96
33 127 112
34 103 119
35 20 69
36 2 28
37 88 29
38 86 102
39 126 112
40 61 34
41 113 69
42 109 78
43 21 48
44 86 36
45 97 12
46 121 112
47 19 39
48 66 40
49 87 39
50 63 50
51 121 123
52 116 22
53 137 101
54 137 137
55 70 94
56 117 92
57 122 113
58 109 71
59 35 102
60 91 108
61 8 87
62 140 42
63 16 38
64 44 36
65 60 84
66 109 139
67 80 103
68 66 82
69 99 26
70 34 108
71 135 65
72 36 124
73 102 60
74 30 21
75 139 110
76 10 111
77 18 70
78 4 28
79 57 53
80 54 41
81 107 25
82 110 99
83 84 88
84 101 0
85 28 99
86 119 114
87 118 108
88 50 112
89 44 116
90 82 100
91 83 12
92 126 23
93 85 75
94 39 13
95 120 136
96 105 2
97 36 54
98 35 90
99 111 66
100 119 136
101 84 99
102 137 127
103 95 35
104 69 6
105 1 24
106 31 112
107 138 78
108 100 99
109 123 112
110 119 130
111 92 22
112 137 7
113 121 124
114 34 104
115 121 110
116 56 139
117 106 10
118 125 108
119 21 115
120 110 66
121 36 38
122 56 129
123 4 30
124 8 138
125 88 35
126 116 132
127 113 45
128 28 107
129 115 134
130 116 83
131 57 59
132 89 39
133 59 52
134 112 71
135 35 99
136 23 39
137 84 39
138 19 120
139 20 39
140 90 104
141 66 91
142 4 44
143 78 63
144 92 107
145 37 138
146 120 14
147 33 0
148 113 71
149 112 13
150 41 36
151 64 61
152 121 134
153 103 44
154 67 55
155 86 80
156 64 132
157 93 36
158 115 124
159 103 82
160 18 38
161 122 131
162 107 63
163 48 47
164 62 58
165 0 27
166 118 114
167 91 95
168 113 35
169 119 139
170 104 54
171 15 4
172 59 56
173 21 44
174 100 106
175 47 83
176 34 72
177 32 106
178 109 131
179 89 24
180 97 28
181 86 37
182 1 34
183 103 69
184 98 31
185 103 34
186 13 48
187 22 38
188 61 59
189 94 105
190 118 131
191 108 30
192 36 105
193 133 130
194 15 18
195 103 86
196 107 77
197 99 34
198 17 43
199 140 36
200 26 105
201 60 23
202 36 105
203 110 66
PICKUP_AND_DELIVERY_SECTION
1 0 0 2535 0 0 0
2 -20 1582 1822 10 106 0
3 -18 1524 1764 10 88 0
4 -19 347 587 10 143 0
5 22 9 249 10 0 33
6 20 264 504 10 0 171
7 10 101 341 10 0 21
8 10 169 409 10 0 157
9 -15 1375 1615 10 97 0
10 20 120 360 10 0 119
11 -10 461 701 10 36 0
12 -10 1314 1554 10 124 0
13 20 171 411 10 0 144
14 -20 1287 1527 10 101 0
15 20 210 450 10 0 162
16 30 76 316 10 0 28
17 -20 270 510 10 48 0
18 25 1221 1461 10 0 98
19 30 269 509 10 0 52
20 -9 1581 1821 10 197 0
21 -10 445 685 10 7 0
22 -30 561 801 10 27 0
23 -21 708 948 10 42 0
24 -27 479 719 10 54 0
25 6 149 389 10 0 45
26 -10 410 650 10 198 0
27 30 353 593 10 0 22
28 -30 516 756 10 16 0
29 10 14 254 10 0 163
30 -20 453 693 10 128 0
31 -10 1880 2120 10 148 0
32 9 167 407 10 0 34
33 -22 423 663 10 5 0
34 -9 1276 1516 10 32 0
35 13 1452 1692 10 0 61
36 10 256 496 10 0 11
37 -27 2195 2435 10 149 0
38 10 63 303 10 0 141
39 10 379 619 10 0 110
40 -20 1830 2070 10 147 0
41 -20 221 461 10 134 0
42 21 891 1131 10 0 23
43 10 95 335 10 0 165
44 20 254 494 10 0 181
45 -6 765 1005 10 25 0
46 -30 236 476 10 183 0
47 -10 493 733 10 105 0
48 20 30 270 10 0 17
49 20 35 275 10 0 168
50 10 159 399 10 0 79
51 -20 968 1208 10 109 0
52 -30 491 731 10 19 0
53 12 617 857 10 0 190
54 27 339 579 10 0 24
55 32 24 264 10 0 60
56 -30 1072 1312 10 160 0
57 20 281 521 10 0 95
58 20 77 317 10 0 87
59 10 629 869 10 0 116
60 -32 227 467 10 55 0
61 -13 1545 1785 10 35 0
62 -20 342 582 10 180 0
63 20 308 548 10 0 151
64 -20 131 371 10 164 0
65 -21 1866 2106 10 113 0
66 8 392 632 10 0 161
67 -11 1428 1668 10 158 0
68 -20 1944 2184 10 152 0
69 -12 221 461 10 153 0
70 -8 425 665 10 156 0
71 -8 1295 1535 10 104 0
72 -18 875 1115 10 90 0
73 -10 480 720 10 131 0
74 12 1230 1470 10 0 136
75 19 706 946 10 0 193
76 21 1911 2151 10 0 176
77 -40 1504 1744 10 200 0
78 10 516 756 10 0 82
79 -10 317 557 10 50 0
80 9 1065 1305 10 0 94
81 -13 1035 1275 10 117 0
82 -10 1151 1391 10 78 0
83 -17 1365 1605 10 108 0
84 -43 1932 2172 10 107 0
85 10 84 324 10 0 175
86 20 184 424 10 0 169
87 -20 639 879 10 58 0
88 18 867 1107 10 0 3
89 27 152 392 10 0 122
90 18 357 597 10 0 72
91 -13 861 1101 10 170 0
92 13 994 1234 10 0 179
93 37 15 255 10 0 100
94 -9 1443 1683 10 80 0
95 -20 398 638 10 57 0
96 -20 835 1075 10 125 0
97 15 1428 1668 10 0 9
98 -25 1723 1963 10 18 0
99 20 316 556 10 0 127
100 -37 354 594 10 93 0
101 20 32 272 10 0 14
102 -20 722 962 10 178 0
103 10 137 377 10 0 185
104 8 272 512 10 0 71
105 10 357 597 10 0 47
106 20 365 605 10 0 2
107 43 749 989 10 0 84
108 17 1136 1376 10 0 83
109 20 327 567 10 0 51
110 -10 552 792 10 39 0
111 18 700 940 10 0 142
112 -20 563 803 10 137 0
113 21 539 779 10 0 65
114 -10 528 768 10 174 0
115 -34 585 825 10 196 0
116 -10 1179 1419 10 59 0
117 13 1135 1375 10 0 81
118 -10 527 767 10 166 0
119 -20 283 523 10 10 0
120 10 360 600 0 0 203
121 -18 1691 1931 10 191 0
122 -27 1086 1326 10 89 0
123 40 564 804 10 0 187
124 10 1105 1345 10 0 12
125 20 205 445 10 0 96
126 -30 647 887 10 129 0
127 -20 1136 1376 10 99 0
128 20 201 441 10 0 30
129 30 236 476 10 0 126
130 30 658 898 10 0 159
131 10 426 666 10 0 73
132 23 36 276 10 0 184
133 -10 268 508 10 154 0
134 20 129 369 10 0 41
135 -10 681 921 10 177 0
136 -12 1347 1587 10 74 0
137 20 399 639 10 0 112
138 -10 985 1225 10 189 0
139 10 537 777 10 0 188
140 20 509 749 10 0 145
141 -10 21 261 10 38 0
142 -18 1602 1842 10 111 0
143 19 10 250 10 0 4
144 -20 273 513 10 13 0
145 -20 779 1019 10 140 0
146 20 974 1214 10 0 186
147 20 1870 2110 10 0 40
148 10 173 413 10 0 31
149 27 2040 2280 10 0 37
150 13 146 386 10 0 167
151 -20 537 777 10 63 0
152 20 447 687 10 0 68
153 12 48 288 10 0 69
154 10 15 255 10 0 133
155 -19 1438 1678 10 195 0
156 8 170 410 10 0 70
157 -10 88 328 10 8 0
158 11 1584 1824 10 0 67
159 -30 1245 1485 10 130 0
160 30 399 639 10 0 56
161 -8 500 740 10 66 0
162 -20 417 657 10 15 0
163 -10 31 271 10 29 0
164 20 45 285 10 0 64
165 -10 305 545 10 43 0
166 10 140 380 10 0 118
167 -13 626 866 10 150 0
168 -20 142 382 10 49 0
169 -20 302 542 10 86 0
170 13 150 390 10 0 91
171 -20 343 583 10 6 0
172 -16 372 612 10 201 0
173 20 151 391 10 0 182
174 10 345 585 10 0 114
175 -10 1211 1451 10 85 0
176 -21 2134 2374 10 76 0
177 10 476 716 10 0 135
178 20 170 410 10 0 102
179 -13 1144 1384 10 92 0
180 20 120 360 10 0 62
181 -20 298 538 10 44 0
182 -20 191 431 10 173 0
183 30 33 273 10 0 46
184 -23 322 562 10 132 0
185 -10 385 625 10 103 0
186 -20 1622 1862 10 146 0
187 -40 586 826 10 123 0
188 -10 482 722 10 139 0
189 10 409 649 10 0 138
190 -12 598 838 10 53 0
191 18 323 563 10 0 121
192 20 577 817 0 0 202
193 -19 829 1069 10 75 0
194 -1 1540 1780 10 199 0
195 19 971 1211 10 0 155
196 34 37 277 10 0 115
197 9 243 483 10 0 20
198 10 207 447 10 0 26
199 1 642 882 10 0 194
200 40 149 389 10 0 77
201 16 155 395 10 0 172
202 -20 577 817 10 192 0
203 -10 360 600 10 120 0
DEPOT_SECTION
1
-1
EOF
