NAME: lrc2_2_2
TYPE: PDPTW
COMMENT: Li & Lim PDPTW benchmark converted from SINTEF format
DIMENSION: 205
VEHICLES: 50
CAPACITY: 1000
EDGE_WEIGHT_TYPE: EUC_2D
NODE_COORD_SECTION
1 70 70
2 10 86
3 16 62
4 84 36
5 79 72
6 16 39
7 61 54
8 96 26
9 16 92
10 85 106
11 6 25
12 37 125
13 87 108
14 18 104
15 61 48
16 97 29
17 112 67
18 50 106
19 99 28
20 15 9
21 19 37
22 90 101
23 125 68
24 127 108
25 90 44
26 4 23
27 17 37
28 113 32
29 63 57
30 94 104
31 58 95
32 137 96
33 127 112
34 103 119
35 20 69
36 2 28
37 88 29
38 86 102
39 126 112
40 61 34
41 113 69
42 109 78
43 21 48
44 86 36
45 97 12
46 121 112
47 19 39
48 66 40
49 87 39
50 63 50
51 121 123
52 116 22
53 137 101
54 137 137
55 70 94
56 117 92
57 122 113
58 109 71
59 35 102
60 91 108
61 8 87
62 140 42
63 16 38
64 44 36
65 60 84
66 109 139
67 80 103
68 66 82
69 99 26
70 34 108
71 135 65
72 36 124
73 102 60
74 30 21
75 139 110
76 10 111
77 18 70
78 4 28
79 57 53
80 54 41
81 107 25
82 110 99
83 84 88
84 101 0
85 28 99
86 119 114
87 118 108
88 50 112
89 44 116
90 82 100
91 83 12
92 126 23
93 85 75
94 39 13
95 120 136
96 105 2
97 36 54
98 35 90
99 111 66
100 119 136
101 84 99
102 137 127
103 95 35
104 69 6
105 1 24
106 31 112
107 138 78
108 100 99
109 123 112
110 119 130
111 92 22
112 137 7
113 121 124
114 34 104
115 121 110
116 56 139
117 106 10
118 125 108
119 21 115
120 110 66
121 36 38
122 56 129
123 4 30
124 8 138
125 88 35
126 116 132
127 113 45
128 28 107
129 115 134
130 116 83
131 57 59
132 89 39
133 59 52
134 112 71
135 35 99
136 23 39
137 84 39
138 19 120
139 20 39
140 90 104
141 66 91
142 4 44
143 78 63
144 92 107
145 37 138
146 120 14
147 33 0
148 113 71
149 112 13
150 41 36
151 64 61
152 121 134
153 103 44
154 67 55
155 86 80
156 64 132
157 93 36
158 115 124
159 103 82
160 18 38
161 122 131
162 107 63
163 48 47
164 62 58
165 0 27
166 118 114
167 91 95
168 113 35
169 119 139
170 104 54
171 15 4
172 59 56
173 21 44
174 100 106
175 47 83
176 34 72
177 32 106
178 109 131
179 89 24
180 97 28
181 86 37
182 1 34
183 103 69
184 98 31
185 103 34
186 13 48
187 22 38
188 61 59
189 94 105
190 118 131
191 108 30
192 36 105
193 133 130
194 15 18
195 103 86
196 107 77
197 99 34
198 17 43
199 140 36
200 26 105
201 60 23
202 61 34
203 66 82
204 61 54
205 94 104
PICKUP_AND_DELIVERY_SECTION
1 0 0 2535 0 0 0
2 14 1642 1762 10 0 65
3 -20 1584 1704 10 188 0
4 10 407 527 10 0 137
5 22 9 129 10 0 109
6 -10 0 2463 10 36 0
7 10 161 281 0 0 204
8 -30 229 349 10 16 0
9 10 1435 1555 10 0 61
10 -16 0 2486 10 141 0
11 -40 0 2447 10 123 0
12 -10 1374 1494 10 177 0
13 20 0 2484 10 0 126
14 -1 1347 1467 10 175 0
15 20 270 390 10 0 131
16 30 136 256 10 0 8
17 10 0 2483 10 0 112
18 -18 0 2484 10 88 0
19 30 0 2474 10 0 103
20 2 0 2443 10 0 201
21 20 505 625 10 0 94
22 -10 621 741 10 174 0
23 20 768 888 10 0 195
24 -20 539 659 10 101 0
25 6 209 329 10 0 199
26 10 470 590 10 0 37
27 -9 413 533 10 64 0
28 -40 576 696 10 69 0
29 10 59 179 10 0 50
30 10 0 2484 0 0 205
31 -40 1940 2060 10 200 0
32 9 227 347 10 0 167
33 20 0 2455 10 0 193
34 -30 0 2466 10 115 0
35 13 0 2475 10 0 176
36 10 316 436 10 0 6
37 -10 0 2481 10 26 0
38 10 123 243 10 0 100
39 -30 439 559 10 129 0
40 7 1890 2010 0 0 202
41 -13 281 401 10 170 0
42 21 951 1071 10 0 67
43 -5 155 275 10 121 0
44 -20 314 434 10 164 0
45 10 825 945 10 0 146
46 -20 296 416 10 57 0
47 -20 553 673 10 182 0
48 20 61 181 10 0 187
49 20 81 201 10 0 73
50 -10 219 339 10 29 0
51 -28 1028 1148 10 102 0
52 32 0 2459 10 0 179
53 -10 677 797 10 166 0
54 -20 399 519 10 178 0
55 32 36 156 10 0 110
56 25 1132 1252 10 0 108
57 20 341 461 10 0 46
58 -37 137 257 10 93 0
59 10 689 809 10 0 138
60 10 287 407 10 0 66
61 -10 1605 1725 10 9 0
62 13 402 522 10 0 149
63 20 368 488 10 0 147
64 9 191 311 10 0 27
65 -14 0 2508 10 2 0
66 -10 0 2446 10 60 0
67 -21 1488 1608 10 42 0
68 27 2004 2124 0 0 203
69 40 281 401 10 0 28
70 -21 0 2473 10 76 0
71 -23 1355 1475 10 132 0
72 -5 935 1055 10 145 0
73 -20 540 660 10 49 0
74 12 1290 1410 10 0 142
75 -8 0 2446 10 156 0
76 21 1971 2091 10 0 70
77 -19 1564 1684 10 163 0
78 10 576 696 10 0 84
79 10 377 497 10 0 133
80 -30 1125 1245 10 185 0
81 -1 0 2467 10 96 0
82 21 0 2476 10 0 140
83 -18 1425 1545 10 90 0
84 -10 1992 2112 10 78 0
85 10 144 264 10 0 128
86 20 244 364 10 0 161
87 10 699 819 10 0 158
88 18 927 1047 10 0 18
89 27 0 2473 10 0 116
90 18 0 2493 10 0 83
91 -10 921 1041 10 120 0
92 -18 0 2452 10 191 0
93 37 44 164 10 0 58
94 -20 0 2461 10 21 0
95 10 458 578 10 0 190
96 1 895 1015 10 0 81
97 -20 1488 1608 10 172 0
98 20 0 2485 10 0 119
99 20 376 496 10 0 159
100 -10 414 534 10 38 0
101 20 69 189 10 0 24
102 28 782 902 10 0 51
103 -30 0 2482 10 19 0
104 -30 0 2461 10 160 0
105 10 417 537 10 0 194
106 20 425 545 10 0 122
107 -30 809 929 10 183 0
108 -25 1196 1316 10 56 0
109 -22 387 507 10 5 0
110 -32 612 732 10 55 0
111 -23 0 2473 10 171 0
112 -10 623 743 10 17 0
113 21 599 719 10 0 118
114 10 588 708 10 0 192
115 30 645 765 10 0 34
116 -27 1239 1359 10 89 0
117 -9 0 2456 10 197 0
118 -21 0 2459 10 113 0
119 -20 343 463 10 98 0
120 10 0 2485 10 0 91
121 5 0 2479 10 0 43
122 -20 1146 1266 10 106 0
123 40 0 2448 10 0 11
124 -20 1165 1285 10 135 0
125 -20 265 385 10 157 0
126 -20 707 827 10 13 0
127 4 1196 1316 10 0 155
128 -10 261 381 10 85 0
129 30 296 416 10 0 39
130 -10 718 838 10 189 0
131 -20 486 606 10 15 0
132 23 85 205 10 0 71
133 -10 328 448 10 79 0
134 20 189 309 10 0 144
135 20 741 861 10 0 124
136 -30 0 2469 10 165 0
137 -10 459 579 10 4 0
138 -10 1045 1165 10 59 0
139 10 597 717 10 0 186
140 -21 0 2486 10 82 0
141 16 26 146 10 0 10
142 -12 1662 1782 10 74 0
143 19 10 130 10 0 153
144 -20 333 453 10 134 0
145 5 839 959 10 0 72
146 -10 1034 1154 10 45 0
147 -20 1930 2050 10 63 0
148 -30 233 353 10 162 0
149 -13 0 2455 10 62 0
150 13 206 326 10 0 173
151 20 0 2515 10 0 181
152 -20 0 2444 10 169 0
153 -19 108 228 10 143 0
154 10 0 2510 10 0 198
155 -4 0 2507 10 127 0
156 8 230 350 10 0 75
157 20 148 268 10 0 125
158 -10 1644 1764 10 87 0
159 -20 1305 1425 10 99 0
160 30 459 579 10 0 104
161 -20 560 680 10 86 0
162 30 0 2488 10 0 148
163 19 0 2494 10 0 77
164 20 105 225 10 0 44
165 30 365 485 10 0 136
166 10 0 2460 10 0 53
167 -9 686 806 10 32 0
168 9 202 322 10 0 184
169 20 362 482 10 0 152
170 13 210 330 10 0 41
171 23 403 523 10 0 111
172 20 432 552 10 0 97
173 -13 211 331 10 150 0
174 10 0 2479 10 0 22
175 1 0 2499 10 0 14
176 -13 2194 2314 10 35 0
177 10 536 656 10 0 12
178 20 0 2453 10 0 54
179 -32 1204 1324 10 52 0
180 20 0 2476 10 0 196
181 -20 358 478 10 151 0
182 20 251 371 10 0 47
183 30 72 192 10 0 107
184 -9 0 2477 10 168 0
185 30 445 565 10 0 80
186 -10 1682 1802 10 139 0
187 -20 646 766 10 48 0
188 20 542 662 10 0 3
189 10 469 589 10 0 130
190 -10 658 778 10 95 0
191 18 383 503 10 0 92
192 -10 637 757 10 114 0
193 -20 889 1009 10 33 0
194 -10 1600 1720 10 105 0
195 -20 1031 1151 10 23 0
196 -20 0 2488 10 180 0
197 9 303 423 10 0 117
198 -10 267 387 10 154 0
199 -6 702 822 10 25 0
200 40 209 329 10 0 31
201 -2 0 2477 10 20 0
202 -7 1890 2010 10 40 0
203 -27 2004 2124 10 68 0
204 -10 161 281 10 7 0
205 -10 0 2484 10 30 0
DEPOT_SECTION
1
-1
EOF
