NAME: lrc2_2_1
TYPE: PDPTW
COMMENT: Li & Lim PDPTW benchmark converted from SINTEF format
DIMENSION: 203
VEHICLES: 50
CAPACITY: 1000
EDGE_WEIGHT_TYPE: EUC_2D
NODE_COORD_SECTION
1 70 70
2 10 86
3 16 62
4 84 36
5 79 72
6 16 39
7 61 54
8 96 26
9 16 92
10 85 106
11 6 25
12 37 125
13 87 108
14 18 104
15 61 48
16 97 29
17 112 67
18 50 106
19 99 28
20 15 9
21 19 37
22 90 101
23 125 68
24 127 108
25 90 44
26 4 23
27 17 37
28 113 32
29 63 57
30 94 104
31 58 95
32 137 96
33 127 112
34 103 119
35 20 69
36 2 28
37 88 29
38 86 102
39 126 112
40 61 34
41 113 69
42 109 78
43 21 48
44 86 36
45 97 12
46 121 112
47 19 39
48 66 40
49 87 39
50 63 50
51 121 123
52 116 22
53 137 101
54 137 137
55 70 94
56 117 92
57 122 113
58 109 71
59 35 102
60 91 108
61 8 87
62 140 42
63 16 38
64 44 36
65 60 84
66 109 139
67 80 103
68 66 82
69 99 26
70 34 108
71 135 65
72 36 124
73 102 60
74 30 21
75 139 110
76 10 111
77 18 70
78 4 28
79 57 53
80 54 41
81 107 25
82 110 99
83 84 88
84 101 0
85 28 99
86 119 114
87 118 108
88 50 112
89 44 116
90 82 100
91 83 12
92 126 23
93 85 75
94 39 13
95 120 136
96 105 2
97 36 54
98 35 90
99 111 66
100 119 136
101 84 99
102 137 127
103 95 35
104 69 6
105 1 24
106 31 112
107 138 78
108 100 99
109 123 112
110 119 130
111 92 22
112 137 7
113 121 124
114 34 104
115 121 110
116 56 139
117 106 10
118 125 108
119 21 115
120 110 66
121 36 38
122 56 129
123 4 30
124 8 138
125 88 35
126 116 132
127 113 45
128 28 107
129 115 134
130 116 83
131 57 59
132 89 39
133 59 52
134 112 71
135 35 99
136 23 39
137 84 39
138 19 120
139 20 39
140 90 104
141 66 91
142 4 44
143 78 63
144 92 107
145 37 138
146 120 14
147 33 0
148 113 71
149 112 13
150 41 36
151 64 61
152 121 134
153 103 44
154 67 55
155 86 80
156 64 132
157 93 36
158 115 124
159 103 82
160 18 38
161 122 131
162 107 63
163 48 47
164 62 58
165 0 27
166 118 114
167 91 95
168 113 35
169 119 139
170 104 54
171 15 4
172 59 56
173 21 44
174 100 106
175 47 83
176 34 72
177 32 106
178 109 131
179 89 24
180 97 28
181 86 37
182 1 34
183 103 69
184 98 31
185 103 34
186 13 48
187 22 38
188 61 59
189 94 105
190 118 131
191 108 30
192 36 105
193 133 130
194 15 18
195 103 86
196 107 77
197 99 34
198 17 43
199 140 36
200 26 105
201 60 23
202 87 108
203 69 6
PICKUP_AND_DELIVERY_SECTION
1 0 0 2535 0 0 0
2 -18 1642 1762 10 88 0
3 -20 1584 1704 10 6 0
4 -20 407 527 10 125 0
5 22 9 129 10 0 113
6 20 324 444 10 0 3
7 10 161 281 10 0 50
8 10 229 349 10 0 199
9 -18 1435 1555 10 14 0
10 20 180 300 10 0 39
11 10 521 641 10 0 136
12 -20 1374 1494 10 140 0
13 20 231 351 0 0 202
14 18 1347 1467 10 0 9
15 20 270 390 10 0 40
16 -6 136 256 10 25 0
17 10 330 450 10 0 73
18 -10 1281 1401 10 177 0
19 30 329 449 10 0 45
20 -10 1641 1761 10 29 0
21 -19 505 625 10 163 0
22 -10 621 741 10 30 0
23 -20 768 888 10 49 0
24 -10 539 659 10 166 0
25 6 209 329 10 0 16
26 10 470 590 10 0 171
27 30 413 533 10 0 139
28 -19 576 696 10 143 0
29 10 59 179 10 0 20
30 10 513 633 10 0 22
31 -20 1940 2060 10 98 0
32 9 227 347 10 0 53
33 20 483 603 10 0 102
34 -27 1336 1456 10 54 0
35 -15 1512 1632 10 97 0
36 -10 316 436 10 198 0
37 -4 2255 2375 10 127 0
38 10 123 243 10 0 109
39 -20 439 559 10 10 0
40 -20 1890 2010 10 15 0
41 -10 281 401 10 148 0
42 -30 951 1071 10 130 0
43 -13 155 275 10 150 0
44 -10 314 434 10 103 0
45 -30 825 945 10 19 0
46 20 296 416 10 0 87
47 10 553 673 10 0 77
48 20 61 181 10 0 134
49 20 81 201 10 0 23
50 -10 219 339 10 7 0
51 -20 1028 1148 10 118 0
52 32 551 671 10 0 112
53 -9 677 797 10 32 0
54 27 399 519 10 0 34
55 32 36 156 10 0 189
56 25 1132 1252 10 0 159
57 20 341 461 10 0 61
58 20 137 257 10 0 86
59 -20 689 809 10 192 0
60 10 287 407 10 0 90
61 -20 1605 1725 10 57 0
62 13 402 522 10 0 107
63 20 368 488 10 0 165
64 9 191 311 10 0 160
65 -18 1926 2046 10 116 0
66 8 452 572 10 0 161
67 -3 1488 1608 10 71 0
68 -10 2004 2124 10 70 0
69 40 281 401 10 0 185
70 10 485 605 10 0 68
71 3 1355 1475 10 0 67
72 -30 935 1055 10 144 0
73 -10 540 660 10 17 0
74 -20 1290 1410 10 133 0
75 19 766 886 10 0 193
76 21 1971 2091 10 0 176
77 -10 1564 1684 10 47 0
78 10 576 696 10 0 142
79 10 377 497 10 0 172
80 -20 1125 1245 10 151 0
81 -20 1095 1215 10 146 0
82 -10 1211 1331 10 120 0
83 -30 1425 1545 10 162 0
84 -13 1992 2112 10 117 0
85 10 144 264 10 0 200
86 -20 244 364 10 58 0
87 -20 699 819 10 46 0
88 18 927 1047 10 0 2
89 27 212 332 10 0 106
90 -10 417 537 10 60 0
91 -20 921 1041 10 184 0
92 13 1054 1174 10 0 179
93 37 44 164 10 0 110
94 20 1503 1623 10 0 194
95 10 458 578 10 0 158
96 -18 895 1015 10 111 0
97 15 1488 1608 10 0 35
98 20 1783 1903 10 0 31
99 -10 376 496 10 154 0
100 -20 414 534 10 178 0
101 20 69 189 10 0 167
102 -20 782 902 10 33 0
103 10 197 317 10 0 44
104 8 332 452 0 0 203
105 -20 417 537 10 182 0
106 -27 425 545 10 89 0
107 -13 809 929 10 62 0
108 17 1196 1316 10 0 155
109 -10 387 507 10 38 0
110 -37 612 732 10 93 0
111 18 760 880 10 0 96
112 -32 623 743 10 52 0
113 -22 599 719 10 5 0
114 10 588 708 10 0 122
115 -20 645 765 10 190 0
116 18 1239 1359 10 0 65
117 13 1195 1315 10 0 84
118 20 587 707 10 0 51
119 10 343 463 10 0 145
120 10 420 540 10 0 82
121 -20 1751 1871 10 187 0
122 -10 1146 1266 10 114 0
123 40 624 744 10 0 186
124 -16 1165 1285 10 138 0
125 20 265 385 10 0 4
126 -20 707 827 10 169 0
127 4 1196 1316 10 0 37
128 20 261 381 10 0 175
129 30 296 416 10 0 152
130 30 718 838 10 0 42
131 -16 486 606 10 201 0
132 23 85 205 10 0 168
133 20 328 448 10 0 74
134 -20 189 309 10 48 0
135 -8 741 861 10 156 0
136 -10 1407 1527 10 11 0
137 -9 459 579 10 197 0
138 16 1045 1165 10 0 124
139 -30 597 717 10 27 0
140 20 569 689 10 0 12
141 16 26 146 10 0 174
142 -10 1662 1782 10 78 0
143 19 10 130 10 0 28
144 30 333 453 10 0 72
145 -10 839 959 10 119 0
146 20 1034 1154 10 0 81
147 -20 1930 2050 10 188 0
148 10 233 353 10 0 41
149 -18 2100 2220 10 191 0
150 13 206 326 10 0 43
151 20 597 717 10 0 80
152 -30 507 627 10 129 0
153 -20 108 228 10 157 0
154 10 15 135 10 0 99
155 -17 1498 1618 10 108 0
156 8 230 350 10 0 135
157 20 148 268 10 0 153
158 -10 1644 1764 10 95 0
159 -25 1305 1425 10 56 0
160 -9 459 579 10 64 0
161 -8 560 680 10 66 0
162 30 477 597 10 0 83
163 19 67 187 10 0 21
164 20 105 225 10 0 173
165 -20 365 485 10 63 0
166 10 200 320 10 0 24
167 -20 686 806 10 101 0
168 -23 202 322 10 132 0
169 20 362 482 10 0 126
170 13 210 330 10 0 195
171 -10 403 523 10 26 0
172 -10 432 552 10 79 0
173 -20 211 331 10 164 0
174 -16 405 525 10 141 0
175 -20 1271 1391 10 128 0
176 -21 2194 2314 10 76 0
177 10 536 656 10 0 18
178 20 230 350 10 0 100
179 -13 1204 1324 10 92 0
180 20 180 300 10 0 181
181 -20 358 478 10 180 0
182 20 251 371 10 0 105
183 30 72 192 10 0 196
184 20 382 502 10 0 91
185 -40 445 565 10 69 0
186 -40 1682 1802 10 123 0
187 20 646 766 10 0 121
188 20 542 662 10 0 147
189 -32 469 589 10 55 0
190 20 658 778 10 0 115
191 18 383 503 10 0 149
192 20 637 757 10 0 59
193 -19 889 1009 10 75 0
194 -20 1600 1720 10 94 0
195 -13 1031 1151 10 170 0
196 -30 91 211 10 183 0
197 9 303 423 10 0 137
198 10 267 387 10 0 36
199 -10 702 822 10 8 0
200 -10 209 329 10 85 0
201 16 215 335 10 0 131
202 -20 231 351 10 13 0
203 -8 332 452 10 104 0
DEPOT_SECTION
1
-1
EOF
