NAME: lrc2_2_8
TYPE: PDPTW
COMMENT: Li & Lim PDPTW benchmark converted from SINTEF format
DIMENSION: 203
VEHICLES: 50
CAPACITY: 1000
EDGE_WEIGHT_TYPE: EUC_2D
NODE_COORD_SECTION
1 70 70
2 10 86
3 16 62
4 84 36
5 79 72
6 16 39
7 61 54
8 96 26
9 16 92
10 85 106
11 6 25
12 37 125
13 87 108
14 18 104
15 61 48
16 97 29
17 112 67
18 50 106
19 99 28
20 15 9
21 19 37
22 90 101
23 125 68
24 127 108
25 90 44
26 4 23
27 17 37
28 113 32
29 63 57
30 94 104
31 58 95
32 137 96
33 127 112
34 103 119
35 20 69
36 2 28
37 88 29
38 86 102
39 126 112
40 61 34
41 113 69
42 109 78
43 21 48
44 86 36
45 97 12
46 121 112
47 19 39
48 66 40
49 87 39
50 63 50
51 121 123
52 116 22
53 137 101
54 137 137
55 70 94
56 117 92
57 122 113
58 109 71
59 35 102
60 91 108
61 8 87
62 140 42
63 16 38
64 44 36
65 60 84
66 109 139
67 80 103
68 66 82
69 99 26
70 34 108
71 135 65
72 36 124
73 102 60
74 30 21
75 139 110
76 10 111
77 18 70
78 4 28
79 57 53
80 54 41
81 107 25
82 110 99
83 84 88
84 101 0
85 28 99
86 119 114
87 118 108
88 50 112
89 44 116
90 82 100
91 83 12
92 126 23
93 85 75
94 39 13
95 120 136
96 105 2
97 36 54
98 35 90
99 111 66
100 119 136
101 84 99
102 137 127
103 95 35
104 69 6
105 1 24
106 31 112
107 138 78
108 100 99
109 123 112
110 119 130
111 92 22
112 137 7
113 121 124
114 34 104
115 121 110
116 56 139
117 106 10
118 125 108
119 21 115
120 110 66
121 36 38
122 56 129
123 4 30
124 8 138
125 88 35
126 116 132
127 113 45
128 28 107
129 115 134
130 116 83
131 57 59
132 89 39
133 59 52
134 112 71
135 35 99
136 23 39
137 84 39
138 19 120
139 20 39
140 90 104
141 66 91
142 4 44
143 78 63
144 92 107
145 37 138
146 120 14
147 33 0
148 113 71
149 112 13
150 41 36
151 64 61
152 121 134
153 103 44
154 67 55
155 86 80
156 64 132
157 93 36
158 115 124
159 103 82
160 18 38
161 122 131
162 107 63
163 48 47
164 62 58
165 0 27
166 118 114
167 91 95
168 113 35
169 119 139
170 104 54
171 15 4
172 59 56
173 21 44
174 100 106
175 47 83
176 34 72
177 32 106
178 109 131
179 89 24
180 97 28
181 86 37
182 1 34
183 103 69
184 98 31
185 103 34
186 13 48
187 22 38
188 61 59
189 94 105
190 118 131
191 108 30
192 36 105
193 133 130
194 15 18
195 103 86
196 107 77
197 99 34
198 17 43
199 140 36
200 26 105
201 60 23
202 47 83
203 88 29
PICKUP_AND_DELIVERY_SECTION
1 0 0 2535 0 0 0
2 -20 1317 2088 10 182 0
3 -10 1305 1983 10 47 0
4 -30 178 757 10 185 0
5 22 9 387 10 0 169
6 -10 62 907 10 50 0
7 -10 18 471 10 29 0
8 10 51 658 10 0 107
9 -10 1270 1721 10 85 0
10 20 111 369 10 0 167
11 10 126 1036 10 0 176
12 10 1213 1654 10 0 138
13 20 41 828 10 0 114
14 -20 1048 1765 10 135 0
15 20 23 714 10 0 151
16 -16 49 698 10 201 0
17 -19 74 706 10 143 0
18 25 1135 1548 10 0 31
19 -13 204 574 10 170 0
20 -10 1546 1856 10 194 0
21 -13 444 686 10 150 0
22 -20 508 855 10 128 0
23 -10 571 1084 10 103 0
24 10 238 961 10 0 34
25 6 113 425 10 0 111
26 -40 227 832 10 123 0
27 30 210 736 10 0 94
28 36 352 921 10 0 73
29 10 14 955 10 0 7
30 -40 496 650 10 200 0
31 -25 1736 2263 10 18 0
32 9 193 382 10 0 102
33 -20 186 900 10 58 0
34 -10 1124 1668 10 24 0
35 -30 1339 1806 10 160 0
36 -20 242 510 10 164 0
37 33 1979 2481 0 0 203
38 -16 35 440 10 141 0
39 -10 323 675 10 148 0
40 -10 1705 2196 10 45 0
41 20 192 490 10 0 86
42 -10 816 1205 10 126 0
43 10 53 641 10 0 188
44 -40 175 574 10 69 0
45 10 660 1109 10 0 40
46 -20 66 653 10 109 0
47 10 377 848 10 0 3
48 20 30 281 10 0 197
49 20 35 606 10 0 104
50 10 141 417 10 0 6
51 -20 896 1281 10 190 0
52 -20 421 800 10 125 0
53 -19 485 989 10 75 0
54 -20 247 670 10 134 0
55 32 24 546 10 0 156
56 25 1061 1322 10 0 67
57 20 192 610 10 0 195
58 20 39 375 10 0 33
59 -20 454 1044 10 140 0
60 -27 60 634 10 89 0
61 17 1448 1882 10 0 98
62 13 127 797 10 0 117
63 -20 235 621 10 173 0
64 9 42 552 10 0 77
65 -10 1888 2084 10 70 0
66 8 206 818 10 0 129
67 -25 1342 1755 10 56 0
68 -18 1586 2513 10 88 0
69 40 52 706 10 0 44
70 10 220 870 10 0 65
71 -20 1201 1628 10 110 0
72 -10 737 1254 10 119 0
73 -36 231 970 10 28 0
74 -30 962 1737 10 165 0
75 19 577 1075 10 0 53
76 -19 1856 2206 10 163 0
77 -9 1445 1803 10 64 0
78 10 289 982 10 0 172
79 10 184 691 10 0 198
80 -10 1089 1280 10 131 0
81 -15 965 1344 10 179 0
82 -30 1056 1486 10 115 0
83 16 1105 1865 10 0 155
84 -23 1814 2289 10 132 0
85 10 53 356 10 0 9
86 -20 65 581 10 41 0
87 -30 492 1027 10 100 0
88 18 707 1267 10 0 68
89 27 52 859 10 0 60
90 18 142 813 10 0 189
91 -40 607 1354 10 112 0
92 -12 822 1406 10 153 0
93 37 15 200 10 0 152
94 -30 1369 1757 10 27 0
95 10 260 777 10 0 193
96 1 613 1296 10 0 149
97 -20 1263 1833 10 133 0
98 -17 1559 2128 10 61 0
99 -20 193 678 10 184 0
100 30 285 663 10 0 87
101 20 32 556 10 0 145
102 -9 572 1113 10 32 0
103 10 43 605 10 0 23
104 -20 204 579 10 49 0
105 10 82 909 10 0 171
106 20 266 705 10 0 174
107 -10 636 1103 10 8 0
108 -11 984 1528 10 158 0
109 20 204 691 10 0 46
110 20 513 832 10 0 71
111 -6 287 1353 10 25 0
112 40 453 914 10 0 91
113 -20 234 1085 10 118 0
114 -20 357 938 10 13 0
115 30 435 975 10 0 82
116 18 1111 1487 10 0 122
117 -13 1065 1446 10 62 0
118 20 411 883 10 0 113
119 10 159 648 10 0 72
120 10 338 621 10 0 146
121 -20 1643 1978 10 147 0
122 -18 1038 1374 10 116 0
123 40 446 921 10 0 26
124 -10 1101 1348 10 177 0
125 20 39 630 10 0 52
126 10 565 969 10 0 42
127 -20 1152 1360 10 161 0
128 20 204 438 10 0 22
129 -8 234 479 10 66 0
130 30 513 1042 10 0 159
131 10 359 734 10 0 80
132 23 36 435 10 0 84
133 20 106 671 10 0 97
134 20 42 536 10 0 54
135 20 468 1134 10 0 14
136 -20 1072 1861 10 187 0
137 20 290 749 10 0 199
138 -10 854 1355 10 12 0
139 -10 572 742 10 154 0
140 20 422 837 10 0 59
141 16 21 654 10 0 38
142 24 1522 1922 10 0 186
143 19 10 560 10 0 17
144 30 105 680 10 0 192
145 -20 708 1090 10 101 0
146 -10 903 1285 10 120 0
147 20 1545 2434 10 0 121
148 10 56 531 10 0 39
149 -1 1955 2365 10 96 0
150 13 130 402 10 0 21
151 -20 370 944 10 15 0
152 -37 338 796 10 93 0
153 12 42 603 10 0 92
154 10 15 429 10 0 139
155 -16 1183 1933 10 83 0
156 -32 151 428 10 55 0
157 20 41 655 10 0 181
158 11 1460 1948 10 0 108
159 -30 1117 1613 10 130 0
160 30 129 909 10 0 35
161 20 442 797 10 0 127
162 -20 37 1069 10 180 0
163 19 31 730 10 0 76
164 20 14 722 10 0 36
165 30 282 568 10 0 74
166 -30 65 563 10 183 0
167 -20 484 1008 10 10 0
168 -18 107 416 10 191 0
169 -22 158 687 10 5 0
170 13 91 450 10 0 19
171 -10 425 501 10 105 0
172 -10 408 576 10 78 0
173 20 55 690 10 0 63
174 -20 188 742 10 106 0
175 1 1207 1454 0 0 202
176 -10 2053 2455 10 11 0
177 10 447 745 10 0 124
178 -34 72 661 10 196 0
179 15 1129 1399 10 0 81
180 20 49 583 10 0 162
181 -20 324 512 10 157 0
182 20 204 418 10 0 2
183 30 33 527 10 0 166
184 20 118 766 10 0 99
185 30 205 805 10 0 4
186 -24 1502 1982 10 142 0
187 20 690 721 10 0 136
188 -10 383 822 10 43 0
189 -18 314 744 10 90 0
190 20 340 1095 10 0 51
191 18 208 678 10 0 168
192 -30 525 868 10 144 0
193 -10 748 1150 10 95 0
194 10 1480 1840 10 0 20
195 -20 1056 1125 10 57 0
196 34 37 558 10 0 178
197 -20 265 462 10 48 0
198 -10 84 571 10 79 0
199 -20 532 993 10 137 0
200 40 71 467 10 0 30
201 16 48 626 10 0 16
202 -1 1207 1454 10 175 0
203 -33 1979 2481 10 37 0
DEPOT_SECTION
1
-1
EOF
