NAME: lc104
TYPE: PDPTW
COMMENT: Li & Lim PDPTW benchmark converted from SINTEF format
DIMENSION: 107
VEHICLES: 25
CAPACITY: 200
EDGE_WEIGHT_TYPE: EUC_2D
NODE_COORD_SECTION
1 40 50
2 45 68
3 45 70
4 42 66
5 42 68
6 42 65
7 40 69
8 40 66
9 38 68
10 38 70
11 35 66
12 35 69
13 25 85
14 22 75
15 22 85
16 20 80
17 20 85
18 18 75
19 15 75
20 15 80
21 30 50
22 30 52
23 28 52
24 28 55
25 25 50
26 25 52
27 25 55
28 23 52
29 23 55
30 20 50
31 20 55
32 10 35
33 10 40
34 8 40
35 8 45
36 5 35
37 5 45
38 2 40
39 0 40
40 0 45
41 35 30
42 35 32
43 33 32
44 33 35
45 32 30
46 30 30
47 30 32
48 30 35
49 28 30
50 28 35
51 26 32
52 25 30
53 25 35
54 44 5
55 42 10
56 42 15
57 40 5
58 40 15
59 38 5
60 38 15
61 35 5
62 50 30
63 50 35
64 50 40
65 48 30
66 48 40
67 47 35
68 47 40
69 45 30
70 45 35
71 95 30
72 95 35
73 53 30
74 92 30
75 53 35
76 45 65
77 90 35
78 88 30
79 88 35
80 87 30
81 85 25
82 85 35
83 75 55
84 72 55
85 70 58
86 68 60
87 66 55
88 65 55
89 65 60
90 63 58
91 60 55
92 60 60
93 67 85
94 65 85
95 65 82
96 62 80
97 60 80
98 60 85
99 58 75
100 55 80
101 55 85
102 25 50
103 22 85
104 8 40
105 67 85
106 30 35
107 45 65
PICKUP_AND_DELIVERY_SECTION
1 0 0 1236 0 0 0
2 -30 0 1127 90 3 0
3 30 0 1125 90 0 2
4 10 0 1129 90 0 9
5 -20 727 782 90 8 0
6 10 0 1130 90 0 10
7 -10 0 1127 90 12 0
8 20 0 1130 90 0 5
9 -10 255 324 90 4 0
10 -10 534 605 90 6 0
11 -20 0 1129 90 13 0
12 10 448 505 90 0 7
13 20 0 1107 90 0 11
14 30 30 92 90 0 17
15 10 0 1106 0 0 103
16 -10 384 429 90 20 0
17 -30 0 1105 90 14 0
18 20 0 1112 90 0 19
19 -20 0 1110 90 18 0
20 10 0 1106 90 0 16
21 10 0 1136 90 0 26
22 -10 0 1135 90 31 0
23 -10 0 1133 90 27 0
24 -20 732 777 90 29 0
25 10 0 1131 0 0 102
26 -10 169 224 90 21 0
27 10 0 1130 90 0 23
28 10 0 1128 90 0 30
29 20 0 1128 90 0 24
30 -10 0 1126 90 28 0
31 10 0 1125 90 0 22
32 20 0 1112 90 0 39
33 30 0 1114 90 0 38
34 40 0 1112 0 0 104
35 -10 0 1113 90 37 0
36 10 0 1107 90 0 40
37 10 0 1110 90 0 35
38 -30 0 1106 90 33 0
39 -20 479 522 90 32 0
40 -10 0 1105 90 36 0
41 10 0 1125 90 0 47
42 -10 0 1127 90 44 0
43 20 0 1126 90 0 53
44 10 0 1129 90 0 42
45 10 359 412 90 0 49
46 10 0 1123 90 0 52
47 -10 0 1125 90 41 0
48 10 0 1127 0 0 106
49 -10 0 1122 90 45 0
50 -10 0 1126 90 51 0
51 10 0 1123 90 0 50
52 -10 0 1121 90 46 0
53 -20 0 1124 90 43 0
54 20 286 347 90 0 60
55 -10 0 1105 90 56 0
56 10 95 158 90 0 55
57 -40 0 1101 90 58 0
58 40 0 1111 90 0 57
59 30 471 534 90 0 61
60 -20 0 1110 90 54 0
61 -30 0 1100 90 59 0
62 10 0 1123 90 0 67
63 20 262 317 90 0 70
64 -10 0 1131 90 81 0
65 -10 0 1124 90 73 0
66 10 0 1133 90 0 75
67 -10 0 1129 90 62 0
68 10 12 77 90 0 69
69 -10 0 1125 90 68 0
70 -20 916 969 90 63 0
71 -20 0 1087 90 79 0
72 -30 0 1088 90 82 0
73 10 0 1122 90 0 65
74 -10 0 1090 90 77 0
75 -10 353 412 90 66 0
76 20 0 1130 0 0 107
77 10 203 260 90 0 74
78 10 574 643 90 0 80
79 20 0 1095 90 0 71
80 -10 668 731 90 78 0
81 10 0 1094 90 0 64
82 30 0 1098 90 0 72
83 20 0 1110 90 0 85
84 10 0 1113 90 0 89
85 -20 458 523 90 83 0
86 30 0 1116 90 0 90
87 10 0 1119 90 0 92
88 -10 85 144 90 91 0
89 -10 0 1119 90 84 0
90 -30 0 1121 90 86 0
91 10 0 1125 90 0 88
92 -10 0 1123 90 87 0
93 20 368 441 0 0 105
94 -30 0 1102 90 96 0
95 10 0 1105 90 0 100
96 30 0 1108 90 0 94
97 -20 0 1109 90 99 0
98 30 0 1105 90 0 101
99 20 0 1115 90 0 97
100 -10 743 820 90 95 0
101 -30 647 726 90 98 0
102 -10 0 1131 90 25 0
103 -10 0 1106 90 15 0
104 -40 0 1112 90 34 0
105 -20 368 441 90 93 0
106 -10 0 1127 90 48 0
107 -20 0 1130 90 76 0
DEPOT_SECTION
1
-1
EOF
