NAME: lc107
TYPE: PDPTW
COMMENT: Li & Lim PDPTW benchmark converted from SINTEF format
DIMENSION: 107
VEHICLES: 25
CAPACITY: 200
EDGE_WEIGHT_TYPE: EUC_2D
NODE_COORD_SECTION
1 40 50
2 45 68
3 45 70
4 42 66
5 42 68
6 42 65
7 40 69
8 40 66
9 38 68
10 38 70
11 35 66
12 35 69
13 25 85
14 22 75
15 22 85
16 20 80
17 20 85
18 18 75
19 15 75
20 15 80
21 30 50
22 30 52
23 28 52
24 28 55
25 25 50
26 25 52
27 25 55
28 23 52
29 23 55
30 20 50
31 20 55
32 10 35
33 10 40
34 8 40
35 8 45
36 5 35
37 5 45
38 2 40
39 0 40
40 0 45
41 35 30
42 35 32
43 33 32
44 33 35
45 32 30
46 30 30
47 30 32
48 30 35
49 28 30
50 28 35
51 26 32
52 25 30
53 25 35
54 44 5
55 42 10
56 42 15
57 40 5
58 40 15
59 38 5
60 38 15
61 35 5
62 50 30
63 50 35
64 50 40
65 48 30
66 48 40
67 47 35
68 47 40
69 45 30
70 45 35
71 95 30
72 95 35
73 53 30
74 92 30
75 53 35
76 45 65
77 90 35
78 88 30
79 88 35
80 87 30
81 85 25
82 85 35
83 75 55
84 72 55
85 70 58
86 68 60
87 66 55
88 65 55
89 65 60
90 63 58
91 60 55
92 60 60
93 67 85
94 65 85
95 65 82
96 62 80
97 60 80
98 60 85
99 58 75
100 55 80
101 55 85
102 0 45
103 28 55
104 50 30
105 85 35
106 30 35
107 55 85
PICKUP_AND_DELIVERY_SECTION
1 0 0 1236 0 0 0
2 10 850 1030 90 0 76
3 -20 758 938 90 9 0
4 10 16 196 90 0 11
5 -20 665 845 90 7 0
6 10 15 195 90 0 10
7 20 572 752 90 0 5
8 20 108 288 90 0 12
9 20 200 380 90 0 3
10 -10 480 660 90 6 0
11 -10 294 474 90 4 0
12 -20 387 567 90 8 0
13 -40 597 777 90 17 0
14 30 30 210 90 0 15
15 -30 504 684 90 14 0
16 -10 317 497 90 20 0
17 40 412 592 90 0 13
18 20 34 214 90 0 19
19 -20 127 307 90 18 0
20 10 222 402 90 0 16
21 10 10 190 90 0 31
22 -20 850 1030 90 29 0
23 -10 758 938 90 27 0
24 10 665 845 0 0 103
25 10 15 195 90 0 26
26 -10 107 287 90 25 0
27 10 572 752 90 0 23
28 10 199 379 90 0 30
29 20 480 660 90 0 22
30 -10 292 472 90 28 0
31 -10 387 567 90 21 0
32 -30 129 309 90 33 0
33 30 31 211 90 0 32
34 40 33 213 90 0 37
35 -30 694 874 90 39 0
36 10 224 404 90 0 38
37 -40 601 781 90 34 0
38 -10 319 499 90 36 0
39 30 411 591 90 0 35
40 20 506 686 0 0 102
41 -20 203 383 90 43 0
42 10 111 291 90 0 52
43 20 19 199 90 0 41
44 10 16 196 90 0 49
45 10 296 476 90 0 47
46 10 481 661 90 0 53
47 -10 389 569 90 45 0
48 10 947 1127 0 0 106
49 -10 573 753 90 44 0
50 -10 944 1124 90 51 0
51 10 758 938 90 0 50
52 -10 666 846 90 42 0
53 -10 851 1031 90 46 0
54 -10 227 407 90 56 0
55 40 132 312 90 0 57
56 10 37 217 90 0 54
57 -40 321 501 90 55 0
58 40 35 215 90 0 61
59 30 413 593 90 0 60
60 -30 606 786 90 59 0
61 -40 506 686 90 58 0
62 10 481 661 0 0 104
63 -10 200 380 90 66 0
64 50 105 285 90 0 67
65 -50 573 753 90 75 0
66 10 13 193 90 0 63
67 -50 761 941 90 64 0
68 10 12 192 90 0 70
69 -10 666 846 90 73 0
70 -10 853 1033 90 68 0
71 30 332 512 90 0 74
72 -20 237 417 90 79 0
73 10 388 568 90 0 69
74 -30 425 605 90 71 0
75 50 293 473 90 0 65
76 -10 943 1123 90 2 0
77 10 142 322 90 0 80
78 10 519 699 90 0 81
79 20 50 230 90 0 72
80 -10 610 790 90 77 0
81 -10 705 885 90 78 0
82 30 47 227 0 0 105
83 -20 305 485 90 88 0
84 -10 212 392 90 91 0
85 20 401 581 90 0 90
86 30 494 674 90 0 92
87 10 116 296 90 0 89
88 20 25 205 90 0 83
89 -10 587 767 90 87 0
90 -20 680 860 90 85 0
91 10 20 200 90 0 84
92 -30 773 953 90 86 0
93 -10 315 495 90 95 0
94 -20 407 587 90 99 0
95 10 221 401 90 0 93
96 30 128 308 90 0 100
97 10 36 216 90 0 98
98 -10 502 682 90 97 0
99 20 30 210 90 0 94
100 -30 692 872 90 96 0
101 20 597 777 0 0 107
102 -20 506 686 90 40 0
103 -10 665 845 90 24 0
104 -10 481 661 90 62 0
105 -30 47 227 90 82 0
106 -10 947 1127 90 48 0
107 -20 597 777 90 101 0
DEPOT_SECTION
1
-1
EOF
