NAME: lc102
TYPE: PDPTW
COMMENT: Li & Lim PDPTW benchmark converted from SINTEF format
DIMENSION: 107
VEHICLES: 25
CAPACITY: 200
EDGE_WEIGHT_TYPE: EUC_2D
NODE_COORD_SECTION
1 40 50
2 45 68
3 45 70
4 42 66
5 42 68
6 42 65
7 40 69
8 40 66
9 38 68
10 38 70
11 35 66
12 35 69
13 25 85
14 22 75
15 22 85
16 20 80
17 20 85
18 18 75
19 15 75
20 15 80
21 30 50
22 30 52
23 28 52
24 28 55
25 25 50
26 25 52
27 25 55
28 23 52
29 23 55
30 20 50
31 20 55
32 10 35
33 10 40
34 8 40
35 8 45
36 5 35
37 5 45
38 2 40
39 0 40
40 0 45
41 35 30
42 35 32
43 33 32
44 33 35
45 32 30
46 30 30
47 30 32
48 30 35
49 28 30
50 28 35
51 26 32
52 25 30
53 25 35
54 44 5
55 42 10
56 42 15
57 40 5
58 40 15
59 38 5
60 38 15
61 35 5
62 50 30
63 50 35
64 50 40
65 48 30
66 48 40
67 47 35
68 47 40
69 45 30
70 45 35
71 95 30
72 95 35
73 53 30
74 92 30
75 53 35
76 45 65
77 90 35
78 88 30
79 88 35
80 87 30
81 85 25
82 85 35
83 75 55
84 72 55
85 70 58
86 68 60
87 66 55
88 65 55
89 65 60
90 63 58
91 60 55
92 60 60
93 67 85
94 65 85
95 65 82
96 62 80
97 60 80
98 60 85
99 58 75
100 55 80
101 55 85
102 60 85
103 45 30
104 23 55
105 0 45
106 88 35
107 26 32
PICKUP_AND_DELIVERY_SECTION
1 0 0 1236 0 0 0
2 10 0 1127 90 0 76
3 -20 0 1125 90 9 0
4 10 0 1129 90 0 11
5 -20 727 782 90 7 0
6 10 0 1130 90 0 10
7 20 621 702 90 0 5
8 20 0 1130 90 0 12
9 20 255 324 90 0 3
10 -10 534 605 90 6 0
11 -10 357 410 90 4 0
12 -20 448 505 90 8 0
13 -30 0 1107 90 14 0
14 30 30 92 90 0 13
15 -40 567 620 90 17 0
16 -20 384 429 90 19 0
17 40 475 528 90 0 15
18 20 99 148 90 0 20
19 20 179 254 90 0 16
20 -20 278 345 90 18 0
21 10 10 73 90 0 23
22 -10 0 1135 90 24 0
23 -10 812 883 90 21 0
24 10 732 777 90 0 22
25 10 65 144 90 0 26
26 -10 169 224 90 25 0
27 -10 0 1130 90 30 0
28 10 261 316 90 0 31
29 20 546 593 0 0 104
30 10 358 405 90 0 27
31 -10 449 504 90 28 0
32 20 0 1112 90 0 36
33 30 31 100 90 0 34
34 -30 87 158 90 33 0
35 -20 0 1113 90 38 0
36 -20 283 344 90 32 0
37 -30 665 716 90 39 0
38 20 0 1106 90 0 35
39 30 479 522 90 0 37
40 20 567 624 0 0 105
41 -10 264 321 90 44 0
42 10 166 235 90 0 52
43 20 68 149 90 0 49
44 10 16 80 90 0 41
45 10 359 412 90 0 48
46 -30 541 600 90 47 0
47 30 448 509 90 0 46
48 -10 1054 1127 90 45 0
49 -20 0 1122 90 43 0
50 -10 1001 1066 90 53 0
51 10 0 1123 0 0 107
52 -10 725 786 90 42 0
53 10 0 1124 90 0 50
54 -10 286 347 90 56 0
55 40 186 257 90 0 57
56 10 95 158 90 0 54
57 -40 385 436 90 55 0
58 40 35 87 90 0 61
59 30 471 534 90 0 60
60 -30 0 1110 90 59 0
61 -40 562 629 90 58 0
62 -10 531 610 90 68 0
63 20 262 317 90 0 67
64 50 171 218 90 0 70
65 -50 632 693 90 75 0
66 10 76 129 90 0 73
67 -20 826 875 90 63 0
68 10 12 77 90 0 62
69 10 734 777 0 0 103
70 -50 916 969 90 64 0
71 -30 387 456 90 82 0
72 20 293 360 90 0 78
73 -10 0 1122 90 66 0
74 -10 478 551 90 77 0
75 50 353 412 90 0 65
76 -10 0 1130 90 2 0
77 10 203 260 90 0 74
78 -20 574 643 90 72 0
79 20 109 170 0 0 106
80 10 668 731 90 0 81
81 -10 769 820 90 80 0
82 30 47 124 90 0 71
83 20 0 1110 90 0 86
84 10 0 1113 90 0 85
85 -10 458 523 90 84 0
86 -20 0 1116 90 83 0
87 -10 173 238 90 91 0
88 20 85 144 90 0 90
89 30 645 708 90 0 92
90 -20 737 802 90 88 0
91 10 20 84 90 0 87
92 -30 0 1123 90 89 0
93 -10 368 441 90 97 0
94 40 475 518 90 0 100
95 -20 0 1105 90 99 0
96 30 0 1108 90 0 101
97 10 0 1109 90 0 93
98 30 561 622 0 0 102
99 20 0 1115 90 0 95
100 -40 743 820 90 94 0
101 -30 647 726 90 96 0
102 -30 561 622 90 98 0
103 -10 734 777 90 69 0
104 -20 546 593 90 29 0
105 -20 567 624 90 40 0
106 -20 109 170 90 79 0
107 -10 0 1123 90 51 0
DEPOT_SECTION
1
-1
EOF
