NAME: lc108
TYPE: PDPTW
COMMENT: Li & Lim PDPTW benchmark converted from SINTEF format
DIMENSION: 107
VEHICLES: 25
CAPACITY: 200
EDGE_WEIGHT_TYPE: EUC_2D
NODE_COORD_SECTION
1 40 50
2 45 68
3 45 70
4 42 66
5 42 68
6 42 65
7 40 69
8 40 66
9 38 68
10 38 70
11 35 66
12 35 69
13 25 85
14 22 75
15 22 85
16 20 80
17 20 85
18 18 75
19 15 75
20 15 80
21 30 50
22 30 52
23 28 52
24 28 55
25 25 50
26 25 52
27 25 55
28 23 52
29 23 55
30 20 50
31 20 55
32 10 35
33 10 40
34 8 40
35 8 45
36 5 35
37 5 45
38 2 40
39 0 40
40 0 45
41 35 30
42 35 32
43 33 32
44 33 35
45 32 30
46 30 30
47 30 32
48 30 35
49 28 30
50 28 35
51 26 32
52 25 30
53 25 35
54 44 5
55 42 10
56 42 15
57 40 5
58 40 15
59 38 5
60 38 15
61 35 5
62 50 30
63 50 35
64 50 40
65 48 30
66 48 40
67 47 35
68 47 40
69 45 30
70 45 35
71 95 30
72 95 35
73 53 30
74 92 30
75 53 35
76 45 65
77 90 35
78 88 30
79 88 35
80 87 30
81 85 25
82 85 35
83 75 55
84 72 55
85 70 58
86 68 60
87 66 55
88 65 55
89 65 60
90 63 58
91 60 55
92 60 60
93 67 85
94 65 85
95 65 82
96 62 80
97 60 80
98 60 85
99 58 75
100 55 80
101 55 85
102 60 85
103 45 30
104 87 30
105 0 45
106 28 35
107 23 52
PICKUP_AND_DELIVERY_SECTION
1 0 0 1236 0 0 0
2 -10 830 1049 90 6 0
3 30 756 939 90 0 76
4 10 16 336 90 0 11
5 -20 643 866 90 7 0
6 10 15 226 90 0 2
7 20 499 824 90 0 5
8 20 87 308 90 0 9
9 -20 150 429 90 8 0
10 -10 429 710 90 12 0
11 -10 279 488 90 4 0
12 10 363 590 90 0 10
13 -40 547 826 90 16 0
14 30 30 280 90 0 18
15 -20 489 698 90 19 0
16 40 318 495 90 0 13
17 -10 394 609 90 20 0
18 -30 33 226 90 14 0
19 20 68 365 90 0 15
20 10 176 447 90 0 17
21 10 10 265 90 0 23
22 -20 836 1043 90 29 0
23 -10 704 991 90 21 0
24 -10 664 845 90 27 0
25 10 15 333 90 0 30
26 40 88 305 90 0 31
27 10 502 821 90 0 24
28 10 179 398 0 0 107
29 20 476 663 90 0 22
30 -10 288 475 90 25 0
31 -40 368 585 90 26 0
32 20 144 293 90 0 36
33 30 31 309 90 0 35
34 40 33 313 90 0 38
35 -30 655 912 90 33 0
36 -20 191 436 90 32 0
37 -30 588 793 90 39 0
38 -40 305 512 90 34 0
39 30 414 587 90 0 37
40 20 481 710 0 0 105
41 10 180 405 90 0 48
42 10 63 338 90 0 46
43 20 19 345 90 0 45
44 10 16 273 90 0 53
45 -20 278 493 90 43 0
46 -10 453 688 90 42 0
47 30 355 602 90 0 49
48 -10 837 1127 90 41 0
49 -30 539 786 90 47 0
50 10 867 1126 0 0 106
51 -10 719 976 90 52 0
52 10 635 876 90 0 51
53 -10 825 1056 90 44 0
54 20 193 440 90 0 57
55 40 78 365 90 0 59
56 -40 35 287 90 58 0
57 -20 308 513 90 54 0
58 40 35 246 90 0 56
59 -40 376 629 90 55 0
60 -20 519 872 90 61 0
61 20 463 728 90 0 60
62 -10 412 729 90 68 0
63 20 181 398 90 0 67
64 50 100 289 90 0 70
65 -50 539 786 90 75 0
66 10 12 223 90 0 73
67 -20 753 948 90 63 0
68 10 12 275 90 0 62
69 10 669 842 0 0 103
70 -50 836 1049 90 64 0
71 -20 284 559 90 79 0
72 -30 194 459 90 82 0
73 -10 367 588 90 66 0
74 10 370 659 90 0 78
75 50 263 502 90 0 65
76 -30 847 1130 90 3 0
77 10 119 344 90 0 81
78 -10 469 748 90 74 0
79 20 50 295 90 0 71
80 10 573 826 0 0 104
81 -10 694 895 90 77 0
82 30 47 356 90 0 72
83 20 293 496 90 0 86
84 -20 154 449 90 88 0
85 20 360 621 90 0 90
86 -20 470 697 90 83 0
87 10 76 335 90 0 92
88 20 25 260 90 0 84
89 -10 551 802 90 91 0
90 -20 640 899 90 85 0
91 10 20 276 90 0 89
92 -10 756 969 90 87 0
93 -10 257 552 90 97 0
94 40 409 584 90 0 100
95 -20 209 412 90 99 0
96 30 130 305 90 0 101
97 10 36 283 90 0 93
98 30 470 713 0 0 102
99 20 30 248 90 0 95
100 -40 628 935 90 94 0
101 -30 530 843 90 96 0
102 -30 470 713 90 98 0
103 -10 669 842 90 69 0
104 -10 573 826 90 80 0
105 -20 481 710 90 40 0
106 -10 867 1126 90 50 0
107 -10 179 398 90 28 0
DEPOT_SECTION
1
-1
EOF
