NAME: lc105
TYPE: PDPTW
COMMENT: Li & Lim PDPTW benchmark converted from SINTEF format
DIMENSION: 107
VEHICLES: 25
CAPACITY: 200
EDGE_WEIGHT_TYPE: EUC_2D
NODE_COORD_SECTION
1 40 50
2 45 68
3 45 70
4 42 66
5 42 68
6 42 65
7 40 69
8 40 66
9 38 68
10 38 70
11 35 66
12 35 69
13 25 85
14 22 75
15 22 85
16 20 80
17 20 85
18 18 75
19 15 75
20 15 80
21 30 50
22 30 52
23 28 52
24 28 55
25 25 50
26 25 52
27 25 55
28 23 52
29 23 55
30 20 50
31 20 55
32 10 35
33 10 40
34 8 40
35 8 45
36 5 35
37 5 45
38 2 40
39 0 40
40 0 45
41 35 30
42 35 32
43 33 32
44 33 35
45 32 30
46 30 30
47 30 32
48 30 35
49 28 30
50 28 35
51 26 32
52 25 30
53 25 35
54 44 5
55 42 10
56 42 15
57 40 5
58 40 15
59 38 5
60 38 15
61 35 5
62 50 30
63 50 35
64 50 40
65 48 30
66 48 40
67 47 35
68 47 40
69 45 30
70 45 35
71 95 30
72 95 35
73 53 30
74 92 30
75 53 35
76 45 65
77 90 35
78 88 30
79 88 35
80 87 30
81 85 25
82 85 35
83 75 55
84 72 55
85 70 58
86 68 60
87 66 55
88 65 55
89 65 60
90 63 58
91 60 55
92 60 60
93 67 85
94 65 85
95 65 82
96 62 80
97 60 80
98 60 85
99 58 75
100 55 80
101 55 85
102 8 45
103 87 30
104 48 40
105 25 35
106 55 80
107 28 55
PICKUP_AND_DELIVERY_SECTION
1 0 0 1236 0 0 0
2 10 885 994 90 0 76
3 -20 802 893 90 7 0
4 -10 25 186 90 6 0
5 -20 699 810 90 9 0
6 10 15 120 90 0 4
7 20 580 743 90 0 3
8 20 142 253 90 0 10
9 20 220 359 90 0 5
10 -20 499 640 90 8 0
11 10 331 436 90 0 12
12 -10 420 533 90 11 0
13 -20 617 756 90 18 0
14 30 30 155 90 0 19
15 -40 541 646 90 17 0
16 -10 362 451 90 20 0
17 40 448 555 90 0 15
18 20 75 172 90 0 13
19 -30 142 291 90 14 0
20 10 244 379 90 0 16
21 10 10 137 90 0 25
22 -10 888 991 90 27 0
23 -20 776 919 90 29 0
24 10 709 800 0 0 107
25 -10 25 184 90 21 0
26 40 142 251 90 0 28
27 10 582 741 90 0 22
28 -40 234 343 90 26 0
29 20 523 616 90 0 23
30 10 335 428 90 0 31
31 -10 422 531 90 30 0
32 20 181 256 90 0 36
33 30 31 170 90 0 37
34 40 52 193 90 0 39
35 20 719 848 0 0 102
36 -20 252 375 90 32 0
37 -30 639 742 90 33 0
38 20 357 460 90 0 40
39 -40 457 544 90 34 0
40 -20 538 653 90 38 0
41 -10 236 349 90 42 0
42 10 132 269 90 0 41
43 20 27 190 90 0 49
44 10 16 144 90 0 45
45 -10 332 439 90 44 0
46 -30 512 629 90 47 0
47 30 417 540 90 0 46
48 -10 982 1127 90 50 0
49 -20 601 724 90 43 0
50 10 969 1098 90 0 48
51 -10 783 912 90 52 0
52 10 695 816 90 0 51
53 10 883 998 0 0 105
54 -40 255 378 90 55 0
55 40 150 293 90 0 54
56 10 63 190 90 0 59
57 -40 359 462 90 58 0
58 40 35 140 90 0 57
59 -10 439 566 90 56 0
60 -20 607 784 90 61 0
61 20 529 662 90 0 60
62 10 491 650 90 0 69
63 20 235 344 90 0 70
64 50 147 242 90 0 73
65 -10 601 724 90 68 0
66 10 50 155 0 0 104
67 -50 802 899 90 75 0
68 10 12 143 90 0 65
69 -10 712 799 90 62 0
70 -20 889 996 90 63 0
71 -30 353 490 90 82 0
72 20 260 393 90 0 74
73 -50 422 533 90 64 0
74 -20 442 587 90 72 0
75 50 323 442 90 0 67
76 -10 962 1103 90 2 0
77 -20 175 288 90 79 0
78 10 539 678 90 0 81
79 20 78 201 90 0 77
80 10 636 763 0 0 103
81 -10 744 845 90 78 0
82 30 47 201 90 0 71
83 20 344 445 90 0 89
84 10 228 375 90 0 85
85 -10 425 556 90 84 0
86 -10 527 640 90 91 0
87 10 141 270 90 0 92
88 20 56 173 90 0 90
89 -20 614 739 90 83 0
90 -20 705 834 90 88 0
91 10 20 148 90 0 86
92 -10 809 916 90 87 0
93 -10 331 478 90 97 0
94 40 453 540 90 0 98
95 10 260 361 90 0 101
96 -20 174 261 90 99 0
97 10 64 187 90 0 93
98 -40 531 652 90 94 0
99 20 30 139 90 0 96
100 10 705 858 0 0 106
101 -10 608 765 90 95 0
102 -20 719 848 90 35 0
103 -10 636 763 90 80 0
104 -10 50 155 90 66 0
105 -10 883 998 90 53 0
106 -10 705 858 90 100 0
107 -10 709 800 90 24 0
DEPOT_SECTION
1
-1
EOF
