NAME: lc201
TYPE: PDPTW
COMMENT: Li & Lim PDPTW benchmark converted from SINTEF format
DIMENSION: 103
VEHICLES: 25
CAPACITY: 700
EDGE_WEIGHT_TYPE: EUC_2D
NODE_COORD_SECTION
1 40 50
2 52 75
3 45 70
4 62 69
5 60 66
6 42 65
7 16 42
8 58 70
9 34 60
10 28 70
11 35 66
12 35 69
13 25 85
14 22 75
15 22 85
16 20 80
17 20 85
18 18 75
19 15 75
20 15 80
21 30 50
22 30 56
23 28 52
24 14 66
25 25 50
26 22 66
27 8 62
28 23 52
29 4 55
30 20 50
31 20 55
32 10 35
33 10 40
34 8 40
35 8 45
36 5 35
37 5 45
38 2 40
39 0 40
40 0 45
41 36 18
42 35 32
43 33 32
44 33 35
45 32 20
46 30 30
47 34 25
48 30 35
49 36 40
50 48 20
51 26 32
52 25 30
53 25 35
54 44 5
55 42 10
56 42 15
57 40 5
58 38 15
59 38 5
60 38 10
61 35 5
62 50 30
63 50 35
64 50 40
65 48 30
66 44 25
67 47 35
68 47 40
69 42 30
70 45 35
71 95 30
72 95 35
73 53 30
74 92 30
75 53 35
76 45 65
77 90 35
78 72 45
79 78 40
80 87 30
81 85 25
82 85 35
83 75 55
84 72 55
85 70 58
86 86 46
87 66 55
88 64 46
89 65 60
90 56 64
91 60 55
92 60 60
93 67 85
94 42 58
95 65 82
96 62 80
97 62 40
98 60 85
99 58 75
100 55 80
101 55 85
102 8 62
103 75 55
PICKUP_AND_DELIVERY_SECTION
1 0 0 3390 0 0 0
2 10 311 471 90 0 81
3 30 213 373 90 0 95
4 10 1167 1327 90 0 91
5 -30 1261 1421 90 98 0
6 10 25 185 90 0 78
7 20 497 657 90 0 33
8 -20 1073 1233 90 93 0
9 20 2887 3047 90 0 22
10 10 2601 2761 90 0 11
11 -10 2791 2951 90 10 0
12 -40 2698 2858 90 16 0
13 -40 2119 2279 90 17 0
14 -10 2405 2565 90 30 0
15 -10 2026 2186 90 31 0
16 40 2216 2376 90 0 12
17 40 1934 2094 90 0 13
18 -10 2311 2471 90 24 0
19 20 1742 1902 90 0 20
20 -20 1837 1997 90 19 0
21 10 10 170 90 0 28
22 -20 2983 3143 90 9 0
23 20 22 182 90 0 25
24 10 1643 1803 90 0 18
25 -20 116 276 90 23 0
26 -40 2504 2664 90 34 0
27 10 1545 1705 0 0 102
28 -10 209 369 90 21 0
29 -20 1447 1607 90 38 0
30 10 398 558 90 0 14
31 10 303 463 90 0 15
32 20 781 941 90 0 37
33 -20 593 753 90 7 0
34 40 685 845 90 0 26
35 -30 1346 1506 90 39 0
36 10 876 1036 90 0 40
37 -20 1253 1413 90 32 0
38 20 971 1131 90 0 29
39 30 1063 1223 90 0 35
40 -10 1158 1318 90 36 0
41 10 1819 1979 90 0 51
42 -30 2758 2918 90 47 0
43 -10 2666 2826 90 44 0
44 10 2573 2733 90 0 43
45 -10 1913 2073 90 56 0
46 -10 2105 2265 90 62 0
47 30 2009 2169 90 0 42
48 10 2480 2640 90 0 49
49 -10 2856 3016 90 48 0
50 -10 967 1127 90 70 0
51 -10 2292 2452 90 41 0
52 -50 2200 2360 90 75 0
53 -20 2385 2545 90 54 0
54 20 1256 1416 90 0 53
55 -10 1160 1320 90 73 0
56 10 1065 1225 90 0 45
57 30 1350 1510 90 0 61
58 -10 1725 1885 90 65 0
59 -10 1442 1602 90 66 0
60 -20 1630 1790 90 63 0
61 -30 1535 1695 90 57 0
62 10 401 561 90 0 46
63 20 120 280 90 0 60
64 50 25 185 90 0 67
65 10 493 653 90 0 58
66 10 871 1031 90 0 59
67 -50 588 748 90 64 0
68 10 12 172 90 0 69
69 -10 776 936 90 68 0
70 10 680 840 90 0 50
71 30 2321 2481 90 0 74
72 -30 2226 2386 90 89 0
73 10 308 468 90 0 55
74 -30 2414 2574 90 71 0
75 50 213 373 90 0 52
76 20 118 278 90 0 79
77 -10 2131 2291 90 92 0
78 -10 2900 3060 90 6 0
79 -20 2802 2962 90 76 0
80 -30 2608 2768 90 96 0
81 -10 2513 2673 90 2 0
82 30 2703 2863 90 0 88
83 20 1925 2085 0 0 103
84 -20 1832 1992 90 99 0
85 20 1641 1801 90 0 86
86 -20 2029 2189 90 85 0
87 -10 1736 1896 90 100 0
88 -30 3097 3257 90 82 0
89 30 1546 1706 90 0 72
90 10 1355 1515 90 0 97
91 -10 3119 3279 90 4 0
92 10 1451 1611 90 0 77
93 20 694 854 90 0 8
94 40 8 168 90 0 101
95 -30 788 948 90 3 0
96 30 881 1041 90 0 80
97 -10 3001 3161 90 90 0
98 30 597 757 90 0 5
99 20 978 1138 90 0 84
100 10 407 567 90 0 87
101 -40 502 662 90 94 0
102 -10 1545 1705 90 27 0
103 -20 1925 2085 90 83 0
DEPOT_SECTION
1
-1
EOF
