NAME: lc207
TYPE: PDPTW
COMMENT: Li & Lim PDPTW benchmark converted from SINTEF format
DIMENSION: 103
VEHICLES: 25
CAPACITY: 700
EDGE_WEIGHT_TYPE: EUC_2D
NODE_COORD_SECTION
1 40 50
2 52 75
3 45 70
4 62 69
5 60 66
6 42 65
7 16 42
8 58 70
9 34 60
10 28 70
11 35 66
12 35 69
13 25 85
14 22 75
15 22 85
16 20 80
17 20 85
18 18 75
19 15 75
20 15 80
21 30 50
22 30 56
23 28 52
24 14 66
25 25 50
26 22 66
27 8 62
28 23 52
29 4 55
30 20 50
31 20 55
32 10 35
33 10 40
34 8 40
35 8 45
36 5 35
37 5 45
38 2 40
39 0 40
40 0 45
41 36 18
42 35 32
43 33 32
44 33 35
45 32 20
46 30 30
47 34 25
48 30 35
49 36 40
50 48 20
51 26 32
52 25 30
53 25 35
54 44 5
55 42 10
56 42 15
57 40 5
58 38 15
59 38 5
60 38 10
61 35 5
62 50 30
63 50 35
64 50 40
65 48 30
66 44 25
67 47 35
68 47 40
69 42 30
70 45 35
71 95 30
72 95 35
73 53 30
74 92 30
75 53 35
76 45 65
77 90 35
78 72 45
79 78 40
80 87 30
81 85 25
82 85 35
83 75 55
84 72 55
85 70 58
86 86 46
87 66 55
88 64 46
89 65 60
90 56 64
91 60 55
92 60 60
93 67 85
94 42 58
95 65 82
96 62 80
97 62 40
98 60 85
99 58 75
100 55 80
101 55 85
102 15 80
103 85 35
PICKUP_AND_DELIVERY_SECTION
1 0 0 3390 0 0 0
2 10 302 479 90 0 101
3 30 157 428 90 0 8
4 10 1138 1355 90 0 90
5 10 1247 1434 90 0 78
6 10 15 208 90 0 100
7 20 209 944 90 0 16
8 -30 1059 1246 90 3 0
9 -10 2035 3288 90 11 0
10 -40 2090 3271 90 17 0
11 10 2311 3283 90 0 9
12 10 2428 3127 90 0 22
13 -10 1772 2625 90 36 0
14 -30 2135 2834 90 39 0
15 -20 1586 2625 90 19 0
16 -20 1858 2733 90 7 0
17 40 1512 2515 90 0 10
18 20 1895 2886 90 0 26
19 20 1299 2344 90 0 15
20 10 1461 2372 0 0 102
21 10 10 963 90 0 28
22 -10 2062 3288 90 12 0
23 20 12 752 90 0 40
24 -20 1316 2129 90 32 0
25 10 15 532 90 0 35
26 -20 2177 2990 90 18 0
27 -10 1036 2213 90 37 0
28 -10 17 602 90 21 0
29 -20 1010 2043 90 38 0
30 10 20 948 90 0 34
31 10 63 702 90 0 33
32 20 309 1412 90 0 24
33 -10 336 1009 90 31 0
34 -10 234 1295 90 30 0
35 -10 954 1897 90 25 0
36 10 377 1534 90 0 13
37 10 819 1846 90 0 27
38 20 494 1607 90 0 29
39 30 637 1648 90 0 14
40 -20 834 1641 90 23 0
41 -20 1468 2329 90 63 0
42 -10 2480 3195 90 53 0
43 -20 2421 3070 90 61 0
44 -10 2368 2937 90 51 0
45 -10 1621 2364 90 50 0
46 -30 1805 2564 90 47 0
47 30 1782 2395 90 0 46
48 -20 2242 2877 90 54 0
49 -10 2605 3266 90 62 0
50 10 812 1281 90 0 45
51 10 1842 2901 90 0 44
52 -10 1883 2676 90 60 0
53 10 2070 2859 90 0 42
54 20 1078 1593 90 0 48
55 40 998 1481 90 0 59
56 10 897 1392 90 0 58
57 -10 1083 1776 90 67 0
58 -10 1426 2183 90 56 0
59 -40 1133 1910 90 55 0
60 10 1392 2027 90 0 52
61 20 1180 2049 90 0 43
62 10 223 738 90 0 49
63 20 18 474 90 0 41
64 -10 14 360 90 68 0
65 -10 246 899 90 73 0
66 -50 704 1197 90 75 0
67 10 393 942 90 0 57
68 10 12 424 90 0 64
69 -10 641 1070 90 70 0
70 10 534 985 90 0 69
71 -10 2119 2682 90 77 0
72 20 2192 2419 90 0 88
73 10 131 644 90 0 65
74 -20 2169 2818 90 83 0
75 50 87 498 90 0 66
76 20 49 346 90 0 96
77 10 2106 2315 90 0 71
78 -10 2701 3258 90 5 0
79 -10 2599 3164 90 80 0
80 10 2505 2870 90 0 79
81 10 2369 2816 90 0 91
82 30 2563 3002 0 0 103
83 20 1894 2115 90 0 74
84 -30 1751 2072 90 89 0
85 20 1617 1824 90 0 86
86 -20 1969 2248 90 85 0
87 10 1710 1921 90 0 97
88 -20 2976 3275 90 72 0
89 30 1482 1769 90 0 84
90 -10 1275 1594 90 4 0
91 -10 2789 3279 90 81 0
92 -10 1440 1621 90 95 0
93 -40 646 901 90 94 0
94 40 8 258 90 0 93
95 10 708 1027 90 0 92
96 -20 852 1069 90 76 0
97 -10 2713 3275 90 87 0
98 30 537 816 90 0 99
99 -30 948 1167 90 98 0
100 -10 379 594 90 6 0
101 -10 477 686 90 2 0
102 -10 1461 2372 90 20 0
103 -30 2563 3002 90 82 0
DEPOT_SECTION
1
-1
EOF
