NAME: lc202
TYPE: PDPTW
COMMENT: Li & Lim PDPTW benchmark converted from SINTEF format
DIMENSION: 103
VEHICLES: 25
CAPACITY: 700
EDGE_WEIGHT_TYPE: EUC_2D
NODE_COORD_SECTION
1 40 50
2 52 75
3 45 70
4 62 69
5 60 66
6 42 65
7 16 42
8 58 70
9 34 60
10 28 70
11 35 66
12 35 69
13 25 85
14 22 75
15 22 85
16 20 80
17 20 85
18 18 75
19 15 75
20 15 80
21 30 50
22 30 56
23 28 52
24 14 66
25 25 50
26 22 66
27 8 62
28 23 52
29 4 55
30 20 50
31 20 55
32 10 35
33 10 40
34 8 40
35 8 45
36 5 35
37 5 45
38 2 40
39 0 40
40 0 45
41 36 18
42 35 32
43 33 32
44 33 35
45 32 20
46 30 30
47 34 25
48 30 35
49 36 40
50 48 20
51 26 32
52 25 30
53 25 35
54 44 5
55 42 10
56 42 15
57 40 5
58 38 15
59 38 5
60 38 10
61 35 5
62 50 30
63 50 35
64 50 40
65 48 30
66 44 25
67 47 35
68 47 40
69 42 30
70 45 35
71 95 30
72 95 35
73 53 30
74 92 30
75 53 35
76 45 65
77 90 35
78 72 45
79 78 40
80 87 30
81 85 25
82 85 35
83 75 55
84 72 55
85 70 58
86 86 46
87 66 55
88 64 46
89 65 60
90 56 64
91 60 55
92 60 60
93 67 85
94 42 58
95 65 82
96 62 80
97 62 40
98 60 85
99 58 75
100 55 80
101 55 85
102 55 85
103 10 35
PICKUP_AND_DELIVERY_SECTION
1 0 0 3390 0 0 0
2 10 0 3272 90 0 87
3 30 0 3279 90 0 72
4 -20 0 3270 90 76 0
5 10 1261 1421 90 0 74
6 10 0 3284 90 0 93
7 20 497 657 90 0 20
8 -30 0 3273 90 96 0
9 -20 2887 3047 90 13 0
10 -40 2601 2761 90 17 0
11 -30 2791 2951 90 14 0
12 -40 2698 2858 90 34 0
13 20 0 3261 90 0 9
14 30 2405 2565 90 0 11
15 10 2026 2186 90 0 26
16 -10 2216 2376 90 28 0
17 40 1934 2094 90 0 10
18 -30 2311 2471 90 39 0
19 -20 1742 1902 90 38 0
20 -20 1837 1997 90 7 0
21 10 10 170 90 0 23
22 -20 0 3288 90 35 0
23 -10 22 182 90 21 0
24 -30 1643 1803 90 33 0
25 10 116 276 90 0 31
26 -10 2504 2664 90 15 0
27 -10 0 3265 90 36 0
28 10 209 369 90 0 16
29 -20 1447 1607 90 40 0
30 10 398 558 90 0 37
31 -10 303 463 90 25 0
32 20 0 3266 0 0 103
33 30 593 753 90 0 24
34 40 685 845 90 0 12
35 20 0 3267 90 0 22
36 10 876 1036 90 0 27
37 -10 1253 1413 90 30 0
38 20 0 3260 90 0 19
39 30 1063 1223 90 0 18
40 20 1158 1318 90 0 29
41 -30 1819 1979 90 57 0
42 -10 2758 2918 90 48 0
43 -20 2666 2826 90 54 0
44 -10 2573 2733 90 45 0
45 10 1913 2073 90 0 44
46 10 2105 2265 90 0 53
47 -10 2009 2169 90 65 0
48 10 2480 2640 90 0 42
49 -10 0 3289 90 50 0
50 10 967 1127 90 0 49
51 -10 0 3277 90 52 0
52 10 2200 2360 90 0 51
53 -10 0 3278 90 46 0
54 20 1256 1416 90 0 43
55 -20 1160 1320 90 63 0
56 -10 1065 1225 90 69 0
57 30 1350 1510 90 0 41
58 -10 1725 1885 90 66 0
59 -10 1442 1602 90 73 0
60 -10 0 3259 90 68 0
61 -10 1535 1695 90 62 0
62 10 401 561 90 0 61
63 20 120 280 90 0 55
64 50 25 185 90 0 67
65 10 493 653 90 0 47
66 10 871 1031 90 0 58
67 -50 588 748 90 64 0
68 10 12 172 90 0 60
69 10 776 936 90 0 56
70 -50 680 840 90 75 0
71 -30 2321 2481 90 86 0
72 -30 2226 2386 90 3 0
73 10 0 3276 90 0 59
74 -10 2414 2574 90 5 0
75 50 213 373 90 0 70
76 20 0 3284 90 0 4
77 -20 2131 2291 90 99 0
78 10 2900 3060 90 0 97
79 -10 2802 2962 90 95 0
80 -30 2608 2768 90 89 0
81 -20 2513 2673 90 83 0
82 -10 2703 2863 90 92 0
83 20 0 3264 90 0 81
84 -30 0 3267 90 98 0
85 -10 1641 1801 90 90 0
86 30 0 3253 90 0 71
87 -10 1736 1896 90 2 0
88 20 3097 3257 90 0 91
89 30 1546 1706 90 0 80
90 10 1355 1515 90 0 85
91 -20 3119 3279 90 88 0
92 10 0 3277 90 0 82
93 -10 694 854 90 6 0
94 40 8 168 90 0 100
95 10 0 3259 90 0 79
96 30 0 3262 90 0 8
97 -10 0 3275 90 78 0
98 30 597 757 90 0 84
99 20 0 3269 90 0 77
100 -40 407 567 90 94 0
101 20 502 662 0 0 102
102 -20 502 662 90 101 0
103 -20 0 3266 90 32 0
DEPOT_SECTION
1
-1
EOF
