NAME: lc208
TYPE: PDPTW
COMMENT: Li & Lim PDPTW benchmark converted from SINTEF format
DIMENSION: 103
VEHICLES: 25
CAPACITY: 700
EDGE_WEIGHT_TYPE: EUC_2D
NODE_COORD_SECTION
1 40 50
2 52 75
3 45 70
4 62 69
5 60 66
6 42 65
7 16 42
8 58 70
9 34 60
10 28 70
11 35 66
12 35 69
13 25 85
14 22 75
15 22 85
16 20 80
17 20 85
18 18 75
19 15 75
20 15 80
21 30 50
22 30 56
23 28 52
24 14 66
25 25 50
26 22 66
27 8 62
28 23 52
29 4 55
30 20 50
31 20 55
32 10 35
33 10 40
34 8 40
35 8 45
36 5 35
37 5 45
38 2 40
39 0 40
40 0 45
41 36 18
42 35 32
43 33 32
44 33 35
45 32 20
46 30 30
47 34 25
48 30 35
49 36 40
50 48 20
51 26 32
52 25 30
53 25 35
54 44 5
55 42 10
56 42 15
57 40 5
58 38 15
59 38 5
60 38 10
61 35 5
62 50 30
63 50 35
64 50 40
65 48 30
66 44 25
67 47 35
68 47 40
69 42 30
70 45 35
71 95 30
72 95 35
73 53 30
74 92 30
75 53 35
76 45 65
77 90 35
78 72 45
79 78 40
80 87 30
81 85 25
82 85 35
83 75 55
84 72 55
85 70 58
86 86 46
87 66 55
88 64 46
89 65 60
90 56 64
91 60 55
92 60 60
93 67 85
94 42 58
95 65 82
96 62 80
97 62 40
98 60 85
99 58 75
100 55 80
101 55 85
102 15 80
103 85 35
PICKUP_AND_DELIVERY_SECTION
1 0 0 3390 0 0 0
2 10 71 711 90 0 101
3 30 20 660 90 0 8
4 10 927 1567 90 0 90
5 10 1021 1661 90 0 78
6 10 15 655 90 0 100
7 20 257 897 90 0 16
8 -30 833 1473 90 3 0
9 -10 2647 3287 90 11 0
10 -40 2361 3001 90 17 0
11 10 2551 3191 90 0 9
12 10 2458 3098 90 0 22
13 -10 1879 2519 90 36 0
14 -30 2165 2805 90 39 0
15 -20 1786 2426 90 18 0
16 -20 1976 2616 90 7 0
17 40 1694 2334 90 0 10
18 20 2071 2711 90 0 15
19 20 1502 2142 90 0 26
20 10 1597 2237 0 0 102
21 10 10 650 90 0 28
22 -10 2648 3288 90 12 0
23 20 12 652 90 0 40
24 -20 1403 2043 90 32 0
25 10 15 655 90 0 35
26 -20 2264 2904 90 19 0
27 -10 1305 1945 90 37 0
28 -10 17 657 90 21 0
29 -20 1207 1847 90 38 0
30 10 158 798 90 0 34
31 10 63 703 90 0 33
32 20 541 1181 90 0 24
33 -10 353 993 90 31 0
34 -10 445 1085 90 30 0
35 -10 1106 1746 90 25 0
36 10 636 1276 90 0 13
37 10 1013 1653 90 0 27
38 20 731 1371 90 0 29
39 30 823 1463 90 0 14
40 -20 918 1558 90 23 0
41 -20 1579 2219 90 63 0
42 -10 2518 3158 90 53 0
43 -20 2426 3066 90 61 0
44 -10 2333 2973 90 51 0
45 -10 1673 2313 90 50 0
46 -30 1865 2505 90 47 0
47 30 1769 2409 90 0 46
48 -20 2240 2880 90 54 0
49 -10 2616 3256 90 62 0
50 10 727 1367 90 0 45
51 10 2052 2692 90 0 44
52 -10 1960 2600 90 60 0
53 10 2145 2785 90 0 42
54 20 1016 1656 90 0 48
55 40 920 1560 90 0 59
56 10 825 1465 90 0 58
57 -10 1110 1750 90 67 0
58 -10 1485 2125 90 56 0
59 -40 1202 1842 90 55 0
60 10 1390 2030 90 0 52
61 20 1295 1935 90 0 43
62 10 161 801 90 0 49
63 20 18 658 90 0 41
64 -10 14 654 90 68 0
65 -10 253 893 90 73 0
66 -50 631 1271 90 75 0
67 10 348 988 90 0 57
68 10 12 652 90 0 64
69 -10 536 1176 90 70 0
70 10 440 1080 90 0 69
71 -10 2081 2721 90 77 0
72 20 1986 2626 90 0 88
73 10 68 708 90 0 65
74 -20 2174 2814 90 83 0
75 50 19 659 90 0 66
76 20 15 655 90 0 96
77 10 1891 2531 90 0 71
78 -10 2627 3267 90 5 0
79 -10 2562 3202 90 80 0
80 10 2368 3008 90 0 79
81 10 2273 2913 90 0 91
82 30 2463 3103 0 0 103
83 20 1685 2325 90 0 74
84 -30 1592 2232 90 89 0
85 20 1401 2041 90 0 86
86 -20 1789 2429 90 85 0
87 10 1496 2136 90 0 97
88 -20 2635 3275 90 72 0
89 30 1306 1946 90 0 84
90 -10 1115 1755 90 4 0
91 -10 2639 3279 90 81 0
92 -10 1211 1851 90 95 0
93 -40 454 1094 90 94 0
94 40 8 648 90 0 93
95 10 548 1188 90 0 92
96 -20 641 1281 90 76 0
97 -10 2635 3275 90 87 0
98 30 357 997 90 0 99
99 -30 738 1378 90 98 0
100 -10 167 807 90 6 0
101 -10 262 902 90 2 0
102 -10 1597 2237 90 20 0
103 -30 2463 3103 90 82 0
DEPOT_SECTION
1
-1
EOF
