NAME: lr101
TYPE: PDPTW
COMMENT: Li & Lim PDPTW benchmark converted from SINTEF format
DIMENSION: 107
VEHICLES: 25
CAPACITY: 200
EDGE_WEIGHT_TYPE: EUC_2D
NODE_COORD_SECTION
1 35 35
2 41 49
3 35 17
4 55 45
5 55 20
6 15 30
7 25 30
8 20 50
9 10 43
10 55 60
11 30 60
12 20 65
13 50 35
14 30 25
15 15 10
16 30 5
17 10 20
18 5 30
19 20 40
20 15 60
21 45 65
22 45 20
23 45 10
24 55 5
25 65 35
26 65 20
27 45 30
28 35 40
29 41 37
30 64 42
31 40 60
32 31 52
33 35 69
34 53 52
35 65 55
36 63 65
37 2 60
38 20 20
39 5 5
40 60 12
41 40 25
42 42 7
43 24 12
44 23 3
45 11 14
46 6 38
47 2 48
48 8 56
49 13 52
50 6 68
51 47 47
52 49 58
53 27 43
54 37 31
55 57 29
56 63 23
57 53 12
58 32 12
59 36 26
60 21 24
61 17 34
62 12 24
63 24 58
64 27 69
65 15 77
66 62 77
67 49 73
68 67 5
69 56 39
70 37 47
71 37 56
72 57 68
73 47 16
74 44 17
75 46 13
76 49 11
77 49 42
78 53 43
79 61 52
80 57 48
81 56 37
82 55 54
83 15 47
84 14 37
85 11 31
86 16 22
87 4 18
88 28 18
89 26 52
90 26 35
91 31 67
92 15 19
93 22 22
94 18 24
95 26 27
96 25 24
97 22 27
98 25 21
99 19 21
100 20 26
101 18 18
102 49 58
103 46 13
104 56 39
105 55 5
106 11 14
107 37 31
PICKUP_AND_DELIVERY_SECTION
1 0 0 230 0 0 0
2 -25 161 171 10 67 0
3 7 50 60 10 0 74
4 -6 116 126 10 70 0
5 -6 149 159 10 57 0
6 26 34 44 10 0 86
7 -9 99 109 10 53 0
8 -9 81 91 10 89 0
9 9 95 105 10 0 18
10 -21 97 107 10 31 0
11 -27 124 134 10 32 0
12 12 67 77 10 0 21
13 -16 63 73 10 29 0
14 -7 159 169 10 44 0
15 20 32 42 10 0 39
16 8 61 71 10 0 98
17 19 75 85 10 0 92
18 -9 157 167 10 9 0
19 12 87 97 10 0 90
20 -5 76 86 10 37 0
21 -12 126 136 10 12 0
22 11 62 72 10 0 42
23 -18 97 107 10 76 0
24 29 68 78 0 0 105
25 3 153 163 10 0 81
26 -2 172 182 10 56 0
27 -9 132 142 10 41 0
28 16 37 47 10 0 80
29 16 39 49 10 0 13
30 9 63 73 10 0 79
31 21 71 81 10 0 10
32 27 50 60 10 0 11
33 -3 141 151 10 91 0
34 11 37 47 10 0 35
35 -11 117 127 10 34 0
36 8 143 153 10 0 78
37 5 41 51 10 0 20
38 -11 134 144 10 84 0
39 -20 83 93 10 15 0
40 31 44 54 10 0 68
41 9 85 95 10 0 27
42 -11 97 107 10 22 0
43 5 31 41 10 0 88
44 7 132 142 10 0 14
45 18 69 79 0 0 106
46 16 32 42 10 0 85
47 -27 117 127 10 48 0
48 27 51 61 10 0 47
49 -9 165 175 10 65 0
50 -10 108 118 10 64 0
51 -15 124 134 10 72 0
52 10 88 98 0 0 102
53 9 52 62 10 0 7
54 14 95 105 0 0 107
55 -13 140 150 10 77 0
56 2 136 146 10 0 26
57 6 130 140 10 0 5
58 -2 101 111 10 93 0
59 -25 200 210 10 73 0
60 28 18 28 10 0 97
61 -16 162 172 10 83 0
62 13 76 86 10 0 94
63 19 58 68 10 0 71
64 10 34 44 10 0 50
65 9 73 83 10 0 49
66 20 51 61 10 0 82
67 25 127 137 10 0 2
68 -31 83 93 10 40 0
69 36 142 152 0 0 104
70 6 50 60 10 0 4
71 -19 182 192 10 63 0
72 15 77 87 10 0 51
73 25 35 45 10 0 59
74 -7 78 88 10 3 0
75 8 149 159 0 0 103
76 18 69 79 10 0 23
77 13 73 83 10 0 55
78 -8 179 189 10 36 0
79 -9 96 106 10 30 0
80 -16 92 102 10 28 0
81 -3 182 192 10 25 0
82 -20 94 104 10 66 0
83 16 55 65 10 0 61
84 11 44 54 10 0 38
85 -16 101 111 10 46 0
86 -26 91 101 10 6 0
87 -10 94 104 10 99 0
88 -5 93 103 10 43 0
89 9 74 84 10 0 8
90 -12 176 186 10 19 0
91 3 95 105 10 0 33
92 -19 160 170 10 17 0
93 2 18 28 10 0 58
94 -13 188 198 10 62 0
95 -9 100 110 10 100 0
96 20 39 49 10 0 101
97 -28 135 145 10 60 0
98 -8 133 143 10 16 0
99 10 58 68 10 0 87
100 9 83 93 10 0 95
101 -20 185 195 10 96 0
102 -10 88 98 10 52 0
103 -8 149 159 10 75 0
104 -36 142 152 10 69 0
105 -29 68 78 10 24 0
106 -18 69 79 10 45 0
107 -14 95 105 10 54 0
DEPOT_SECTION
1
-1
EOF
