NAME: lr106
TYPE: PDPTW
COMMENT: Li & Lim PDPTW benchmark converted from SINTEF format
DIMENSION: 105
VEHICLES: 25
CAPACITY: 200
EDGE_WEIGHT_TYPE: EUC_2D
NODE_COORD_SECTION
1 35 35
2 41 49
3 35 17
4 55 45
5 55 20
6 15 30
7 25 30
8 20 50
9 10 43
10 55 60
11 30 60
12 20 65
13 50 35
14 30 25
15 15 10
16 30 5
17 10 20
18 5 30
19 20 40
20 15 60
21 45 65
22 45 20
23 45 10
24 55 5
25 65 35
26 65 20
27 45 30
28 35 40
29 41 37
30 64 42
31 40 60
32 31 52
33 35 69
34 53 52
35 65 55
36 63 65
37 2 60
38 20 20
39 5 5
40 60 12
41 40 25
42 42 7
43 24 12
44 23 3
45 11 14
46 6 38
47 2 48
48 8 56
49 13 52
50 6 68
51 47 47
52 49 58
53 27 43
54 37 31
55 57 29
56 63 23
57 53 12
58 32 12
59 36 26
60 21 24
61 17 34
62 12 24
63 24 58
64 27 69
65 15 77
66 62 77
67 49 73
68 67 5
69 56 39
70 37 47
71 37 56
72 57 68
73 47 16
74 44 17
75 46 13
76 49 11
77 49 42
78 53 43
79 61 52
80 57 48
81 56 37
82 55 54
83 15 47
84 14 37
85 11 31
86 16 22
87 4 18
88 28 18
89 26 52
90 26 35
91 31 67
92 15 19
93 22 22
94 18 24
95 26 27
96 25 24
97 22 27
98 25 21
99 19 21
100 20 26
101 18 18
102 65 20
103 2 48
104 35 40
105 25 21
PICKUP_AND_DELIVERY_SECTION
1 0 0 230 0 0 0
2 -21 0 204 10 31 0
3 -8 0 202 10 75 0
4 13 0 197 10 0 78
5 -18 139 169 10 55 0
6 26 0 199 10 0 61
7 3 89 119 10 0 90
8 -30 0 198 10 50 0
9 9 85 115 10 0 18
10 16 87 117 10 0 36
11 -9 114 144 10 65 0
12 -10 57 87 10 64 0
13 -23 0 205 10 80 0
14 -5 149 179 10 43 0
15 -28 32 62 10 60 0
16 8 51 81 10 0 88
17 -41 65 95 10 86 0
18 -9 147 177 10 9 0
19 -16 77 107 10 46 0
20 17 66 96 10 0 83
21 -19 116 146 10 63 0
22 11 0 201 10 0 68
23 -17 87 117 10 27 0
24 -25 58 88 10 73 0
25 -26 143 173 10 82 0
26 6 156 186 0 0 102
27 17 0 208 10 0 23
28 16 27 57 0 0 104
29 16 29 59 10 0 74
30 9 53 83 10 0 79
31 21 61 91 10 0 2
32 -3 0 202 10 91 0
33 -9 131 161 10 89 0
34 -13 27 57 10 51 0
35 -20 0 183 10 66 0
36 -16 133 163 10 10 0
37 -36 41 71 10 49 0
38 8 0 198 10 0 44
39 16 73 103 10 0 94
40 31 34 64 10 0 56
41 9 75 105 10 0 54
42 5 87 117 10 0 76
43 5 25 55 10 0 14
44 -8 122 152 10 38 0
45 18 59 89 10 0 87
46 16 29 59 10 0 19
47 1 107 137 0 0 103
48 27 41 71 10 0 53
49 36 0 192 10 0 37
50 30 98 128 10 0 8
51 13 0 203 10 0 34
52 -15 78 108 10 72 0
53 -27 0 208 10 48 0
54 -9 85 115 10 41 0
55 18 130 160 10 0 5
56 -31 126 156 10 40 0
57 6 120 150 10 0 59
58 -27 91 121 10 95 0
59 -6 180 210 10 57 0
60 28 0 202 10 0 15
61 -26 152 182 10 6 0
62 13 66 96 10 0 100
63 19 48 78 10 0 21
64 10 34 64 10 0 12
65 9 63 93 10 0 11
66 20 49 79 10 0 35
67 25 117 147 10 0 71
68 -11 73 103 10 22 0
69 36 132 162 10 0 81
70 6 40 70 10 0 77
71 -25 168 198 10 67 0
72 15 67 97 10 0 52
73 25 0 197 10 0 24
74 -16 68 98 10 29 0
75 8 139 169 10 0 3
76 -5 0 192 10 42 0
77 -6 63 93 10 70 0
78 -13 169 199 10 4 0
79 -9 86 116 10 30 0
80 23 82 112 10 0 13
81 -36 168 198 10 69 0
82 26 84 114 10 0 25
83 -17 0 196 10 20 0
84 11 0 198 10 0 85
85 -11 91 121 10 84 0
86 41 0 196 10 0 17
87 -18 84 114 10 45 0
88 -8 83 113 10 16 0
89 9 64 94 10 0 33
90 -3 166 196 10 7 0
91 3 85 115 10 0 32
92 -11 0 194 10 97 0
93 2 18 48 10 0 96
94 -16 169 199 10 39 0
95 27 0 207 10 0 58
96 -2 0 205 10 93 0
97 11 0 204 10 0 92
98 12 123 153 0 0 105
99 -17 0 198 10 101 0
100 -13 73 103 10 62 0
101 17 165 195 10 0 99
102 -6 156 186 10 26 0
103 -1 107 137 10 47 0
104 -16 27 57 10 28 0
105 -12 123 153 10 98 0
DEPOT_SECTION
1
-1
EOF
