NAME: lr109
TYPE: PDPTW
COMMENT: Li & Lim PDPTW benchmark converted from SINTEF format
DIMENSION: 107
VEHICLES: 25
CAPACITY: 200
EDGE_WEIGHT_TYPE: EUC_2D
NODE_COORD_SECTION
1 35 35
2 41 49
3 35 17
4 55 45
5 55 20
6 15 30
7 25 30
8 20 50
9 10 43
10 55 60
11 30 60
12 20 65
13 50 35
14 30 25
15 15 10
16 30 5
17 10 20
18 5 30
19 20 40
20 15 60
21 45 65
22 45 20
23 45 10
24 55 5
25 65 35
26 65 20
27 45 30
28 35 40
29 41 37
30 64 42
31 40 60
32 31 52
33 35 69
34 53 52
35 65 55
36 63 65
37 2 60
38 20 20
39 5 5
40 60 12
41 40 25
42 42 7
43 24 12
44 23 3
45 11 14
46 6 38
47 2 48
48 8 56
49 13 52
50 6 68
51 47 47
52 49 58
53 27 43
54 37 31
55 57 29
56 63 23
57 53 12
58 32 12
59 36 26
60 21 24
61 17 34
62 12 24
63 24 58
64 27 69
65 15 77
66 62 77
67 49 73
68 67 5
69 56 39
70 37 47
71 37 56
72 57 68
73 47 16
74 44 17
75 46 13
76 49 11
77 49 42
78 53 43
79 61 52
80 57 48
81 56 37
82 55 54
83 15 47
84 14 37
85 11 31
86 16 22
87 4 18
88 28 18
89 26 52
90 26 35
91 31 67
92 15 19
93 22 22
94 18 24
95 26 27
96 25 24
97 22 27
98 25 21
99 19 21
100 20 26
101 18 18
102 30 60
103 65 55
104 53 12
105 20 26
106 32 12
107 6 68
PICKUP_AND_DELIVERY_SECTION
1 0 0 230 0 0 0
2 -20 133 198 10 66 0
3 7 22 87 10 0 56
4 13 98 143 10 0 69
5 -8 123 184 10 75 0
6 26 20 93 10 0 62
7 3 76 131 10 0 97
8 -27 61 110 10 32 0
9 -9 75 124 10 89 0
10 -19 74 129 10 13 0
11 16 107 150 0 0 102
12 12 42 101 10 0 91
13 19 38 97 10 0 10
14 -10 131 196 10 99 0
15 -18 32 114 10 45 0
16 -20 35 96 10 96 0
17 -11 52 107 10 84 0
18 2 124 189 10 0 90
19 12 69 114 10 0 61
20 -16 52 109 10 46 0
21 9 105 156 10 0 71
22 11 37 96 10 0 26
23 -31 76 127 10 40 0
24 29 43 102 10 0 76
25 -26 124 190 10 82 0
26 -11 121 186 10 22 0
27 -14 112 161 10 54 0
28 16 8 75 10 0 72
29 16 11 76 10 0 80
30 9 37 98 10 0 79
31 -6 49 102 10 70 0
32 27 24 85 10 0 8
33 -9 116 175 10 65 0
34 11 24 92 10 0 36
35 14 96 147 0 0 103
36 -11 116 178 10 34 0
37 5 41 112 10 0 49
38 8 113 164 10 0 94
39 -28 60 115 10 60 0
40 31 33 110 10 0 23
41 -25 65 114 10 73 0
42 -25 72 131 10 68 0
43 -2 25 91 10 93 0
44 -26 111 162 10 88 0
45 18 45 102 10 0 15
46 16 29 99 10 0 20
47 -9 92 151 10 53 0
48 -16 34 105 10 83 0
49 -5 128 192 10 37 0
50 30 93 132 0 0 107
51 -14 102 155 10 78 0
52 10 64 121 10 0 67
53 9 26 87 10 0 47
54 14 75 124 10 0 27
55 -9 118 171 10 74 0
56 -7 111 170 10 3 0
57 6 106 163 0 0 104
58 7 77 134 0 0 106
59 -12 147 210 10 98 0
60 28 17 100 10 0 39
61 -12 134 199 10 19 0
62 -26 55 106 10 6 0
63 19 30 95 10 0 64
64 -19 34 103 10 63 0
65 9 48 107 10 0 33
66 20 49 113 10 0 2
67 -10 104 159 10 52 0
68 25 59 116 10 0 42
69 -13 117 176 10 4 0
70 6 23 86 10 0 31
71 -9 123 198 10 21 0
72 -16 54 109 10 28 0
73 25 22 96 10 0 41
74 9 56 109 10 0 55
75 8 123 184 10 0 5
76 -29 45 102 10 24 0
77 13 52 103 10 0 81
78 14 136 200 10 0 51
79 -9 71 130 10 30 0
80 -16 72 121 10 29 0
81 -13 135 198 10 77 0
82 26 78 119 10 0 25
83 16 29 90 10 0 48
84 11 21 89 10 0 17
85 7 81 130 10 0 101
86 41 70 121 10 0 95
87 35 74 123 10 0 92
88 26 79 116 10 0 44
89 9 50 107 10 0 9
90 -2 139 211 10 18 0
91 -12 73 126 10 12 0
92 -35 132 194 10 87 0
93 2 18 88 10 0 43
94 -8 129 199 10 38 0
95 -41 81 128 10 86 0
96 20 14 78 10 0 16
97 -3 114 165 10 7 0
98 12 115 160 10 0 59
99 10 32 93 10 0 14
100 9 60 115 0 0 105
101 -7 123 195 10 85 0
102 -16 107 150 10 11 0
103 -14 96 147 10 35 0
104 -6 106 163 10 57 0
105 -9 60 115 10 100 0
106 -7 77 134 10 58 0
107 -30 93 132 10 50 0
DEPOT_SECTION
1
-1
EOF
