NAME: lr102
TYPE: PDPTW
COMMENT: Li & Lim PDPTW benchmark converted from SINTEF format
DIMENSION: 111
VEHICLES: 25
CAPACITY: 200
EDGE_WEIGHT_TYPE: EUC_2D
NODE_COORD_SECTION
1 35 35
2 41 49
3 35 17
4 55 45
5 55 20
6 15 30
7 25 30
8 20 50
9 10 43
10 55 60
11 30 60
12 20 65
13 50 35
14 30 25
15 15 10
16 30 5
17 10 20
18 5 30
19 20 40
20 15 60
21 45 65
22 45 20
23 45 10
24 55 5
25 65 35
26 65 20
27 45 30
28 35 40
29 41 37
30 64 42
31 40 60
32 31 52
33 35 69
34 53 52
35 65 55
36 63 65
37 2 60
38 20 20
39 5 5
40 60 12
41 40 25
42 42 7
43 24 12
44 23 3
45 11 14
46 6 38
47 2 48
48 8 56
49 13 52
50 6 68
51 47 47
52 49 58
53 27 43
54 37 31
55 57 29
56 63 23
57 53 12
58 32 12
59 36 26
60 21 24
61 17 34
62 12 24
63 24 58
64 27 69
65 15 77
66 62 77
67 49 73
68 67 5
69 56 39
70 37 47
71 37 56
72 57 68
73 47 16
74 44 17
75 46 13
76 49 11
77 49 42
78 53 43
79 61 52
80 57 48
81 56 37
82 55 54
83 15 47
84 14 37
85 11 31
86 16 22
87 4 18
88 28 18
89 26 52
90 26 35
91 31 67
92 15 19
93 22 22
94 18 24
95 26 27
96 25 24
97 22 27
98 25 21
99 19 21
100 20 26
101 18 18
102 35 40
103 21 24
104 45 10
105 2 60
106 13 52
107 55 45
108 17 34
109 49 73
110 30 60
111 67 5
PICKUP_AND_DELIVERY_SECTION
1 0 0 230 0 0 0
2 -13 0 204 10 51 0
3 -20 0 202 10 15 0
4 13 0 197 0 0 107
5 19 149 159 10 0 26
6 26 0 199 10 0 90
7 -9 99 109 10 100 0
8 5 0 198 10 0 20
9 -19 95 105 10 63 0
10 -21 97 107 10 31 0
11 16 124 134 0 0 110
12 -9 67 77 10 53 0
13 -9 0 205 10 74 0
14 -26 159 169 10 88 0
15 20 32 42 10 0 3
16 -5 61 71 10 43 0
17 -41 75 85 10 86 0
18 2 157 167 10 0 94
19 -27 87 97 10 48 0
20 -5 76 86 10 8 0
21 -15 126 136 10 72 0
22 -5 0 201 10 42 0
23 18 97 107 0 0 104
24 29 68 78 10 0 27
25 -25 153 163 10 73 0
26 -19 172 182 10 5 0
27 -29 0 208 10 24 0
28 16 37 47 0 0 102
29 16 39 49 10 0 30
30 -16 63 73 10 29 0
31 21 71 81 10 0 10
32 -3 0 202 10 91 0
33 23 141 151 10 0 71
34 11 37 47 10 0 52
35 -3 0 183 10 79 0
36 8 143 153 10 0 78
37 5 41 51 0 0 105
38 -1 0 198 10 92 0
39 -18 83 93 10 45 0
40 31 44 54 10 0 56
41 9 85 95 10 0 54
42 5 97 107 10 0 22
43 5 31 41 10 0 16
44 7 132 142 10 0 59
45 18 69 79 10 0 39
46 16 32 42 10 0 85
47 -9 117 127 10 89 0
48 27 51 61 10 0 19
49 36 0 192 0 0 106
50 30 108 118 10 0 83
51 13 0 203 10 0 2
52 -11 88 98 10 34 0
53 9 0 208 10 0 12
54 -9 95 105 10 41 0
55 18 140 150 10 0 81
56 -31 136 146 10 40 0
57 -18 130 140 10 76 0
58 7 101 111 10 0 98
59 -7 200 210 10 44 0
60 28 0 202 0 0 103
61 3 162 172 0 0 108
62 -11 76 86 10 84 0
63 19 58 68 10 0 9
64 10 34 44 10 0 65
65 -10 73 83 10 64 0
66 20 51 61 10 0 82
67 25 127 137 0 0 109
68 25 83 93 0 0 111
69 -23 142 152 10 80 0
70 6 50 60 10 0 77
71 -23 182 192 10 33 0
72 15 77 87 10 0 21
73 25 0 197 10 0 25
74 9 78 88 10 0 13
75 -20 149 159 10 96 0
76 18 0 192 10 0 57
77 -6 73 83 10 70 0
78 -8 179 189 10 36 0
79 3 96 106 10 0 35
80 23 92 102 10 0 69
81 -18 182 192 10 55 0
82 -20 94 104 10 66 0
83 -30 0 196 10 50 0
84 11 0 198 10 0 62
85 -16 101 111 10 46 0
86 41 0 196 10 0 17
87 35 94 104 10 0 101
88 26 93 103 10 0 14
89 9 74 84 10 0 47
90 -26 176 186 10 6 0
91 3 95 105 10 0 32
92 1 0 194 10 0 38
93 2 18 28 10 0 99
94 -2 188 198 10 18 0
95 27 0 207 10 0 97
96 20 0 205 10 0 75
97 -27 0 204 10 95 0
98 -7 133 143 10 58 0
99 -2 0 198 10 93 0
100 9 83 93 10 0 7
101 -35 185 195 10 87 0
102 -16 37 47 10 28 0
103 -28 0 202 10 60 0
104 -18 97 107 10 23 0
105 -5 41 51 10 37 0
106 -36 0 192 10 49 0
107 -13 0 197 10 4 0
108 -3 162 172 10 61 0
109 -25 127 137 10 67 0
110 -16 124 134 10 11 0
111 -25 83 93 10 68 0
DEPOT_SECTION
1
-1
EOF
