NAME: lr110
TYPE: PDPTW
COMMENT: Li & Lim PDPTW benchmark converted from SINTEF format
DIMENSION: 105
VEHICLES: 25
CAPACITY: 200
EDGE_WEIGHT_TYPE: EUC_2D
NODE_COORD_SECTION
1 35 35
2 41 49
3 35 17
4 55 45
5 55 20
6 15 30
7 25 30
8 20 50
9 10 43
10 55 60
11 30 60
12 20 65
13 50 35
14 30 25
15 15 10
16 30 5
17 10 20
18 5 30
19 20 40
20 15 60
21 45 65
22 45 20
23 45 10
24 55 5
25 65 35
26 65 20
27 45 30
28 35 40
29 41 37
30 64 42
31 40 60
32 31 52
33 35 69
34 53 52
35 65 55
36 63 65
37 2 60
38 20 20
39 5 5
40 60 12
41 40 25
42 42 7
43 24 12
44 23 3
45 11 14
46 6 38
47 2 48
48 8 56
49 13 52
50 6 68
51 47 47
52 49 58
53 27 43
54 37 31
55 57 29
56 63 23
57 53 12
58 32 12
59 36 26
60 21 24
61 17 34
62 12 24
63 24 58
64 27 69
65 15 77
66 62 77
67 49 73
68 67 5
69 56 39
70 37 47
71 37 56
72 57 68
73 47 16
74 44 17
75 46 13
76 49 11
77 49 42
78 53 43
79 61 52
80 57 48
81 56 37
82 55 54
83 15 47
84 14 37
85 11 31
86 16 22
87 4 18
88 28 18
89 26 52
90 26 35
91 31 67
92 15 19
93 22 22
94 18 24
95 26 27
96 25 24
97 22 27
98 25 21
99 19 21
100 20 26
101 18 18
102 30 60
103 35 69
104 53 52
105 53 43
PICKUP_AND_DELIVERY_SECTION
1 0 0 230 0 0 0
2 -21 130 201 10 31 0
3 7 20 89 10 0 42
4 -23 106 135 10 80 0
5 -31 71 195 10 40 0
6 26 20 107 10 0 62
7 3 54 153 10 0 95
8 5 66 105 10 0 19
9 -16 61 138 10 83 0
10 16 53 150 10 0 52
11 16 101 156 0 0 102
12 -19 33 152 10 63 0
13 19 38 97 10 0 30
14 -7 70 208 10 44 0
15 20 32 137 10 0 87
16 8 30 154 10 0 43
17 -11 54 105 10 84 0
18 2 51 189 10 0 61
19 -5 77 106 10 8 0
20 17 53 108 10 0 50
21 -27 109 152 10 32 0
22 11 37 96 10 0 73
23 18 59 144 10 0 27
24 29 36 155 10 0 56
25 -18 118 190 10 55 0
26 -25 47 186 10 68 0
27 -18 117 156 10 23 0
28 16 5 156 10 0 66
29 16 8 79 10 0 69
30 -19 37 98 10 13 0
31 21 28 123 10 0 2
32 27 24 85 10 0 21
33 23 116 175 0 0 103
34 11 24 179 0 0 104
35 -26 100 143 10 82 0
36 -15 50 178 10 72 0
37 -27 41 178 10 48 0
38 8 117 160 10 0 94
39 -18 42 145 10 45 0
40 31 33 186 10 0 5
41 -9 51 128 10 74 0
42 -7 44 159 10 3 0
43 -8 25 172 10 16 0
44 7 115 158 10 0 14
45 18 31 138 10 0 39
46 16 29 189 10 0 90
47 1 93 150 10 0 49
48 27 34 116 10 0 37
49 -1 125 192 10 47 0
50 -17 93 132 10 20 0
51 13 105 152 10 0 81
52 -16 66 119 10 10 0
53 9 25 88 10 0 89
54 -8 62 137 10 75 0
55 18 121 168 10 0 25
56 -29 70 189 10 24 0
57 -18 81 188 10 76 0
58 7 78 133 10 0 59
59 -7 79 210 10 58 0
60 28 17 123 10 0 88
61 -2 130 201 10 18 0
62 -26 59 102 10 6 0
63 19 25 164 10 0 12
64 10 34 112 10 0 91
65 9 46 165 10 0 71
66 -16 49 170 10 28 0
67 -6 77 179 10 70 0
68 25 43 150 10 0 26
69 -16 82 198 10 29 0
70 6 12 142 10 0 67
71 -9 21 198 10 65 0
72 15 57 106 10 0 36
73 -11 22 110 10 22 0
74 9 60 105 10 0 41
75 8 73 195 10 0 54
76 18 46 101 10 0 57
77 13 36 119 10 0 79
78 14 65 200 0 0 105
79 -13 43 158 10 77 0
80 23 58 135 10 0 4
81 -13 69 198 10 51 0
82 26 87 110 10 0 35
83 16 28 91 10 0 9
84 11 21 97 10 0 17
85 -20 68 143 10 96 0
86 -2 74 117 10 93 0
87 -20 79 118 10 15 0
88 -28 84 111 10 60 0
89 -9 24 133 10 53 0
90 -16 128 211 10 46 0
91 -10 76 123 10 64 0
92 -11 130 194 10 97 0
93 2 18 181 10 0 86
94 -8 41 199 10 38 0
95 -3 88 121 10 7 0
96 20 14 83 10 0 85
97 11 119 160 10 0 92
98 12 122 153 10 0 101
99 -9 32 93 10 100 0
100 9 38 137 10 0 99
101 -12 28 195 10 98 0
102 -16 101 156 10 11 0
103 -23 116 175 10 33 0
104 -11 24 179 10 34 0
105 -14 65 200 10 78 0
DEPOT_SECTION
1
-1
EOF
