NAME: lr111
TYPE: PDPTW
COMMENT: Li & Lim PDPTW benchmark converted from SINTEF format
DIMENSION: 109
VEHICLES: 25
CAPACITY: 200
EDGE_WEIGHT_TYPE: EUC_2D
NODE_COORD_SECTION
1 35 35
2 41 49
3 35 17
4 55 45
5 55 20
6 15 30
7 25 30
8 20 50
9 10 43
10 55 60
11 30 60
12 20 65
13 50 35
14 30 25
15 15 10
16 30 5
17 10 20
18 5 30
19 20 40
20 15 60
21 45 65
22 45 20
23 45 10
24 55 5
25 65 35
26 65 20
27 45 30
28 35 40
29 41 37
30 64 42
31 40 60
32 31 52
33 35 69
34 53 52
35 65 55
36 63 65
37 2 60
38 20 20
39 5 5
40 60 12
41 40 25
42 42 7
43 24 12
44 23 3
45 11 14
46 6 38
47 2 48
48 8 56
49 13 52
50 6 68
51 47 47
52 49 58
53 27 43
54 37 31
55 57 29
56 63 23
57 53 12
58 32 12
59 36 26
60 21 24
61 17 34
62 12 24
63 24 58
64 27 69
65 15 77
66 62 77
67 49 73
68 67 5
69 56 39
70 37 47
71 37 56
72 57 68
73 47 16
74 44 17
75 46 13
76 49 11
77 49 42
78 53 43
79 61 52
80 57 48
81 56 37
82 55 54
83 15 47
84 14 37
85 11 31
86 16 22
87 4 18
88 28 18
89 26 52
90 26 35
91 31 67
92 15 19
93 22 22
94 18 24
95 26 27
96 25 24
97 22 27
98 25 21
99 19 21
100 20 26
101 18 18
102 35 40
103 32 12
104 53 43
105 37 56
106 10 43
107 26 35
108 15 47
109 44 17
PICKUP_AND_DELIVERY_SECTION
1 0 0 230 0 0 0
2 10 15 204 10 0 82
3 7 18 202 10 0 23
4 -9 54 187 10 30 0
5 -13 138 169 10 77 0
6 -35 20 199 10 87 0
7 -8 76 131 10 38 0
8 5 21 170 10 0 37
9 9 87 112 0 0 106
10 16 88 115 10 0 51
11 -19 107 150 10 63 0
12 12 57 86 10 0 21
13 -9 15 192 10 41 0
14 -27 147 180 10 95 0
15 20 32 187 10 0 17
16 8 50 81 10 0 73
17 -20 29 139 10 15 0
18 2 124 189 10 0 61
19 12 47 136 10 0 46
20 17 32 146 10 0 48
21 -12 79 182 10 12 0
22 11 18 195 10 0 59
23 -7 76 127 10 3 0
24 29 58 87 10 0 56
25 -6 58 190 10 26 0
26 6 153 186 10 0 25
27 -18 58 208 10 55 0
28 16 8 75 0 0 102
29 16 6 136 10 0 80
30 9 29 150 10 0 4
31 21 49 102 10 0 52
32 -9 17 198 10 53 0
33 -10 67 186 10 64 0
34 11 24 92 10 0 72
35 -8 36 183 10 36 0
36 8 116 178 10 0 35
37 -5 41 112 10 8 0
38 8 42 198 10 0 7
39 -18 74 101 10 45 0
40 31 33 110 10 0 81
41 9 65 114 10 0 13
42 -7 72 131 10 44 0
43 -20 25 91 10 96 0
44 7 82 185 10 0 42
45 18 59 88 10 0 39
46 -12 29 99 10 19 0
47 1 63 180 10 0 49
48 -17 34 176 10 20 0
49 -1 27 192 10 47 0
50 -9 93 132 10 65 0
51 -16 41 203 10 10 0
52 -21 36 149 10 31 0
53 9 11 195 10 0 32
54 -6 87 112 10 70 0
55 18 90 197 10 0 27
56 -29 126 155 10 24 0
57 -8 106 163 10 75 0
58 7 48 163 0 0 103
59 -11 178 210 10 22 0
60 28 17 202 10 0 98
61 -2 70 201 10 18 0
62 13 29 132 10 0 97
63 19 46 79 10 0 11
64 10 34 172 10 0 33
65 9 48 107 10 0 50
66 20 49 113 10 0 67
67 -20 104 159 10 66 0
68 -18 73 102 10 76 0
69 -3 117 176 10 79 0
70 6 39 70 10 0 54
71 5 123 198 0 0 105
72 -11 39 148 10 34 0
73 -8 22 197 10 16 0
74 9 30 135 0 0 109
75 8 138 169 10 0 57
76 18 27 192 10 0 68
77 13 65 90 10 0 5
78 14 168 199 0 0 104
79 3 71 130 10 0 69
80 -16 84 109 10 29 0
81 -31 135 198 10 40 0
82 -10 57 140 10 2 0
83 16 23 196 0 0 108
84 11 21 198 10 0 92
85 7 93 118 10 0 86
86 -7 23 177 10 85 0
87 35 49 148 10 0 6
88 -9 88 107 10 100 0
89 9 50 107 10 0 91
90 15 68 211 0 0 107
91 -9 46 153 10 89 0
92 -11 25 194 10 84 0
93 2 18 53 10 0 99
94 -17 129 199 10 101 0
95 27 35 174 10 0 14
96 20 14 205 10 0 43
97 -13 51 204 10 62 0
98 -28 92 183 10 60 0
99 -2 21 198 10 93 0
100 9 74 101 10 0 88
101 17 159 195 10 0 94
102 -16 8 75 10 28 0
103 -7 48 163 10 58 0
104 -14 168 199 10 78 0
105 -5 123 198 10 71 0
106 -9 87 112 10 9 0
107 -15 68 211 10 90 0
108 -16 23 196 10 83 0
109 -9 30 135 10 74 0
DEPOT_SECTION
1
-1
EOF
