NAME: lr209
TYPE: PDPTW
COMMENT: Li & Lim PDPTW benchmark converted from SINTEF format
DIMENSION: 103
VEHICLES: 25
CAPACITY: 1000
EDGE_WEIGHT_TYPE: EUC_2D
NODE_COORD_SECTION
1 35 35
2 41 49
3 35 17
4 55 45
5 55 20
6 15 30
7 25 30
8 20 50
9 10 43
10 55 60
11 30 60
12 20 65
13 50 35
14 30 25
15 15 10
16 30 5
17 10 20
18 5 30
19 20 40
20 15 60
21 45 65
22 45 20
23 45 10
24 55 5
25 65 35
26 65 20
27 45 30
28 35 40
29 41 37
30 64 42
31 40 60
32 31 52
33 35 69
34 53 52
35 65 55
36 63 65
37 2 60
38 20 20
39 5 5
40 60 12
41 40 25
42 42 7
43 24 12
44 23 3
45 11 14
46 6 38
47 2 48
48 8 56
49 13 52
50 6 68
51 47 47
52 49 58
53 27 43
54 37 31
55 57 29
56 63 23
57 53 12
58 32 12
59 36 26
60 21 24
61 17 34
62 12 24
63 24 58
64 27 69
65 15 77
66 62 77
67 49 73
68 67 5
69 56 39
70 37 47
71 37 56
72 57 68
73 47 16
74 44 17
75 46 13
76 49 11
77 49 42
78 53 43
79 61 52
80 57 48
81 56 37
82 55 54
83 15 47
84 14 37
85 11 31
86 16 22
87 4 18
88 28 18
89 26 52
90 26 35
91 31 67
92 15 19
93 22 22
94 18 24
95 26 27
96 25 24
97 22 27
98 25 21
99 19 21
100 20 26
101 18 18
102 25 30
103 36 26
PICKUP_AND_DELIVERY_SECTION
1 0 0 1000 0 0 0
2 10 636 919 10 0 56
3 7 74 351 10 0 24
4 13 498 613 10 0 55
5 19 470 965 10 0 75
6 -9 20 370 10 53 0
7 3 266 663 0 0 102
8 5 292 449 10 0 11
9 -19 288 597 10 17 0
10 -15 254 643 10 72 0
11 -5 496 713 10 8 0
12 12 33 510 10 0 64
13 19 170 403 10 0 42
14 23 426 978 10 0 43
15 20 32 454 10 0 19
16 -9 30 529 10 74 0
17 19 222 423 10 0 9
18 2 409 959 10 0 37
19 -20 349 462 10 15 0
20 -27 215 432 10 32 0
21 -9 538 709 10 89 0
22 11 156 389 10 0 73
23 -31 280 623 10 40 0
24 -7 36 513 10 3 0
25 -3 633 918 10 91 0
26 -23 400 956 10 80 0
27 -16 548 707 10 29 0
28 16 5 612 10 0 48
29 16 44 325 10 0 27
30 9 129 374 10 0 41
31 21 115 498 10 0 34
32 27 91 336 10 0 20
33 23 602 835 10 0 49
34 -21 24 646 10 31 0
35 -6 487 656 10 70 0
36 8 439 948 10 0 69
37 -2 41 710 10 18 0
38 -27 563 736 10 95 0
39 16 147 560 10 0 50
40 31 33 797 10 0 23
41 -9 243 554 10 30 0
42 -19 225 682 10 13 0
43 -23 25 616 10 14 0
44 7 578 747 10 0 92
45 -16 72 501 10 83 0
46 -35 29 669 10 87 0
47 -2 458 685 10 93 0
48 -16 34 362 10 28 0
49 -23 694 962 10 33 0
50 -16 444 597 10 39 0
51 -19 499 690 10 63 0
52 10 296 505 10 0 82
53 9 111 362 10 0 6
54 14 301 602 10 0 98
55 -13 595 780 10 4 0
56 -10 442 917 10 2 0
57 -6 426 851 10 81 0
58 -18 366 585 10 76 0
59 18 458 980 0 0 103
60 28 17 441 10 0 96
61 -13 651 932 10 62 0
62 13 246 421 10 0 61
63 19 25 583 10 0 51
64 -12 34 348 10 12 0
65 9 46 523 10 0 78
66 -3 49 608 10 79 0
67 25 440 845 10 0 71
68 25 132 563 10 0 97
69 -8 464 925 10 36 0
70 6 12 535 10 0 35
71 -25 249 968 10 67 0
72 15 218 417 10 0 10
73 -11 22 377 10 22 0
74 9 263 444 10 0 16
75 -19 479 965 10 5 0
76 18 182 399 10 0 58
77 13 166 497 10 0 88
78 -9 430 970 10 65 0
79 3 212 671 10 0 66
80 23 273 580 10 0 26
81 6 452 968 10 0 57
82 -10 388 479 10 52 0
83 16 99 352 10 0 45
84 11 21 328 10 0 100
85 7 323 624 10 0 90
86 -10 333 504 10 99 0
87 35 350 503 10 0 46
88 -13 380 487 10 77 0
89 9 114 553 10 0 21
90 -7 649 981 10 85 0
91 3 345 534 10 0 25
92 -7 675 930 10 44 0
93 2 18 673 10 0 47
94 -17 339 969 10 101 0
95 27 403 536 10 0 38
96 -28 22 301 10 60 0
97 -25 565 732 10 68 0
98 -14 582 703 10 54 0
99 10 122 367 10 0 86
100 -11 185 580 10 84 0
101 17 297 965 10 0 94
102 -3 266 663 10 7 0
103 -18 458 980 10 59 0
DEPOT_SECTION
1
-1
EOF
