NAME: lr206
TYPE: PDPTW
COMMENT: Li & Lim PDPTW benchmark converted from SINTEF format
DIMENSION: 101
VEHICLES: 25
CAPACITY: 1000
EDGE_WEIGHT_TYPE: EUC_2D
NODE_COORD_SECTION
1 35 35
2 41 49
3 35 17
4 55 45
5 55 20
6 15 30
7 25 30
8 20 50
9 10 43
10 55 60
11 30 60
12 20 65
13 50 35
14 30 25
15 15 10
16 30 5
17 10 20
18 5 30
19 20 40
20 15 60
21 45 65
22 45 20
23 45 10
24 55 5
25 65 35
26 65 20
27 45 30
28 35 40
29 41 37
30 64 42
31 40 60
32 31 52
33 35 69
34 53 52
35 65 55
36 63 65
37 2 60
38 20 20
39 5 5
40 60 12
41 40 25
42 42 7
43 24 12
44 23 3
45 11 14
46 6 38
47 2 48
48 8 56
49 13 52
50 6 68
51 47 47
52 49 58
53 27 43
54 37 31
55 57 29
56 63 23
57 53 12
58 32 12
59 36 26
60 21 24
61 17 34
62 12 24
63 24 58
64 27 69
65 15 77
66 62 77
67 49 73
68 67 5
69 56 39
70 37 47
71 37 56
72 57 68
73 47 16
74 44 17
75 46 13
76 49 11
77 49 42
78 53 43
79 61 52
80 57 48
81 56 37
82 55 54
83 15 47
84 14 37
85 11 31
86 16 22
87 4 18
88 28 18
89 26 52
90 26 35
91 31 67
92 15 19
93 22 22
94 18 24
95 26 27
96 25 24
97 22 27
98 25 21
99 19 21
100 20 26
101 18 18
PICKUP_AND_DELIVERY_SECTION
1 0 0 1000 0 0 0
2 10 0 974 10 0 75
3 -18 0 972 10 23 0
4 13 0 967 10 0 82
5 -16 620 860 10 28 0
6 26 0 969 10 0 39
7 3 345 585 10 0 81
8 5 0 968 10 0 94
9 9 323 563 10 0 84
10 -15 329 569 10 72 0
11 16 485 725 10 0 71
12 12 146 386 10 0 90
13 19 0 975 10 0 52
14 -7 639 879 10 85 0
15 20 32 272 10 0 99
16 -5 118 358 10 37 0
17 19 203 443 10 0 59
18 -3 682 922 10 61 0
19 -2 286 526 10 93 0
20 17 204 444 10 0 86
21 -9 504 744 10 30 0
22 11 0 971 10 0 26
23 18 332 572 10 0 3
24 29 146 386 10 0 55
25 -7 656 896 10 44 0
26 -11 716 956 10 22 0
27 17 0 978 10 0 68
28 16 60 300 10 0 5
29 16 65 305 10 0 80
30 9 132 372 10 0 21
31 -3 187 427 10 91 0
32 27 0 972 10 0 53
33 -10 599 839 10 64 0
34 11 24 264 10 0 79
35 14 0 953 10 0 67
36 -19 630 870 10 63 0
37 5 41 281 10 0 16
38 -9 0 968 10 89 0
39 -26 234 474 10 6 0
40 31 33 273 10 0 96
41 9 279 519 10 0 69
42 5 334 574 10 0 58
43 5 25 265 10 0 101
44 7 543 783 10 0 25
45 18 167 407 10 0 47
46 -16 29 269 10 83 0
47 -18 452 692 10 45 0
48 27 48 288 10 0 62
49 36 0 962 10 0 92
50 -28 401 641 10 60 0
51 13 0 973 10 0 100
52 -19 281 521 10 13 0
53 -27 0 978 10 32 0
54 -9 332 572 10 74 0
55 -29 568 808 10 24 0
56 -26 560 800 10 88 0
57 -12 519 759 10 98 0
58 -5 356 596 10 42 0
59 -19 740 980 10 17 0
60 28 0 972 10 0 50
61 3 672 912 10 0 18
62 -27 214 454 10 48 0
63 19 113 353 10 0 36
64 10 34 274 10 0 33
65 -20 154 394 10 66 0
66 20 49 289 10 0 65
67 -14 523 763 10 35 0
68 -17 228 468 10 27 0
69 -9 575 815 10 41 0
70 6 108 348 10 0 77
71 -16 728 968 10 11 0
72 15 198 438 10 0 10
73 25 0 967 10 0 97
74 9 234 474 10 0 54
75 -10 622 862 10 2 0
76 18 0 962 10 0 78
77 -6 212 452 10 70 0
78 -18 730 970 10 76 0
79 -11 322 562 10 34 0
80 -16 307 547 10 29 0
81 -3 728 968 10 7 0
82 -13 314 554 10 4 0
83 16 0 966 10 0 46
84 -9 0 968 10 9 0
85 7 354 594 10 0 14
86 -17 0 966 10 20 0
87 35 307 547 10 0 95
88 26 314 554 10 0 56
89 9 214 454 10 0 38
90 -12 718 958 10 12 0
91 3 320 560 10 0 31
92 -36 0 964 10 49 0
93 2 18 258 10 0 19
94 -5 729 969 10 8 0
95 -35 0 977 10 87 0
96 -31 0 975 10 40 0
97 -25 0 974 10 73 0
98 12 523 763 10 0 57
99 -20 0 968 10 15 0
100 -13 263 503 10 51 0
101 -5 725 965 10 43 0
DEPOT_SECTION
1
-1
EOF
