NAME: lr202
TYPE: PDPTW
COMMENT: Li & Lim PDPTW benchmark converted from SINTEF format
DIMENSION: 101
VEHICLES: 25
CAPACITY: 1000
EDGE_WEIGHT_TYPE: EUC_2D
NODE_COORD_SECTION
1 35 35
2 41 49
3 35 17
4 55 45
5 55 20
6 15 30
7 25 30
8 20 50
9 10 43
10 55 60
11 30 60
12 20 65
13 50 35
14 30 25
15 15 10
16 30 5
17 10 20
18 5 30
19 20 40
20 15 60
21 45 65
22 45 20
23 45 10
24 55 5
25 65 35
26 65 20
27 45 30
28 35 40
29 41 37
30 64 42
31 40 60
32 31 52
33 35 69
34 53 52
35 65 55
36 63 65
37 2 60
38 20 20
39 5 5
40 60 12
41 40 25
42 42 7
43 24 12
44 23 3
45 11 14
46 6 38
47 2 48
48 8 56
49 13 52
50 6 68
51 47 47
52 49 58
53 27 43
54 37 31
55 57 29
56 63 23
57 53 12
58 32 12
59 36 26
60 21 24
61 17 34
62 12 24
63 24 58
64 27 69
65 15 77
66 62 77
67 49 73
68 67 5
69 56 39
70 37 47
71 37 56
72 57 68
73 47 16
74 44 17
75 46 13
76 49 11
77 49 42
78 53 43
79 61 52
80 57 48
81 56 37
82 55 54
83 15 47
84 14 37
85 11 31
86 16 22
87 4 18
88 28 18
89 26 52
90 26 35
91 31 67
92 15 19
93 22 22
94 18 24
95 26 27
96 25 24
97 22 27
98 25 21
99 19 21
100 20 26
101 18 18
PICKUP_AND_DELIVERY_SECTION
1 0 0 1000 0 0 0
2 -25 0 974 10 67 0
3 7 0 972 10 0 44
4 13 0 967 10 0 101
5 -12 678 801 10 98 0
6 -19 0 969 10 17 0
7 -35 415 514 10 87 0
8 -9 0 968 10 65 0
9 9 404 481 10 0 56
10 16 400 497 10 0 91
11 -15 577 632 10 72 0
12 12 206 325 10 0 52
13 19 0 975 10 0 27
14 23 690 827 10 0 61
15 20 32 243 10 0 45
16 -41 175 300 10 86 0
17 19 272 373 10 0 6
18 -11 733 870 10 22 0
19 -16 377 434 10 39 0
20 17 269 378 10 0 82
21 -5 581 666 10 37 0
22 11 0 971 10 0 18
23 -6 409 494 10 70 0
24 -11 206 325 10 97 0
25 -2 704 847 10 93 0
26 -6 817 956 10 57 0
27 -19 0 978 10 13 0
28 -9 104 255 10 30 0
29 16 114 255 10 0 38
30 9 190 313 10 0 28
31 21 259 354 10 0 50
32 27 0 972 10 0 53
33 -16 660 777 10 46 0
34 11 45 200 10 0 68
35 14 0 953 10 0 54
36 -1 686 813 10 47 0
37 5 41 208 10 0 21
38 -16 0 968 10 29 0
39 16 302 405 10 0 19
40 31 33 224 10 0 100
41 9 360 437 10 0 75
42 -7 396 511 10 58 0
43 5 25 172 10 0 55
44 -7 620 705 10 3 0
45 -20 233 340 10 15 0
46 16 29 189 10 0 33
47 1 515 628 10 0 36
48 27 85 250 10 0 64
49 36 0 962 10 0 69
50 -21 501 540 10 31 0
51 13 0 973 10 0 66
52 -12 348 453 10 12 0
53 -27 0 978 10 32 0
54 -14 414 489 10 35 0
55 -5 641 734 10 43 0
56 -9 620 739 10 9 0
57 6 585 692 10 0 26
58 7 421 530 10 0 42
59 -18 849 980 10 76 0
60 28 0 972 10 0 92
61 -23 721 862 10 14 0
62 13 290 377 10 0 81
63 -11 163 302 10 84 0
64 -27 34 191 10 48 0
65 9 214 333 10 0 8
66 -13 49 188 10 51 0
67 25 592 693 10 0 2
68 -11 294 401 10 34 0
69 -36 637 752 10 49 0
70 6 162 293 10 0 23
71 -9 788 968 10 89 0
72 15 268 367 10 0 11
73 25 0 967 10 0 94
74 -13 308 399 10 77 0
75 -9 681 802 10 41 0
76 18 0 962 10 0 59
77 13 290 373 10 0 74
78 -16 817 952 10 83 0
79 3 384 499 10 0 80
80 -3 388 465 10 79 0
81 -13 839 968 10 62 0
82 -17 411 456 10 20 0
83 16 0 966 10 0 78
84 11 0 968 10 0 63
85 -10 436 511 10 99 0
86 41 0 966 10 0 16
87 35 388 465 10 0 7
88 26 420 447 10 0 90
89 9 279 388 10 0 71
90 -26 755 920 10 88 0
91 -16 392 487 10 10 0
92 -28 0 964 10 60 0
93 2 18 181 10 0 25
94 -25 811 969 10 73 0
95 27 0 977 10 0 96
96 -27 0 975 10 95 0
97 11 0 974 10 0 24
98 12 612 673 10 0 5
99 10 0 968 10 0 85
100 -31 333 432 10 40 0
101 -13 798 965 10 4 0
DEPOT_SECTION
1
-1
EOF
