NAME: lr201
TYPE: PDPTW
COMMENT: Li & Lim PDPTW benchmark converted from SINTEF format
DIMENSION: 103
VEHICLES: 25
CAPACITY: 1000
EDGE_WEIGHT_TYPE: EUC_2D
NODE_COORD_SECTION
1 35 35
2 41 49
3 35 17
4 55 45
5 55 20
6 15 30
7 25 30
8 20 50
9 10 43
10 55 60
11 30 60
12 20 65
13 50 35
14 30 25
15 15 10
16 30 5
17 10 20
18 5 30
19 20 40
20 15 60
21 45 65
22 45 20
23 45 10
24 55 5
25 65 35
26 65 20
27 45 30
28 35 40
29 41 37
30 64 42
31 40 60
32 31 52
33 35 69
34 53 52
35 65 55
36 63 65
37 2 60
38 20 20
39 5 5
40 60 12
41 40 25
42 42 7
43 24 12
44 23 3
45 11 14
46 6 38
47 2 48
48 8 56
49 13 52
50 6 68
51 47 47
52 49 58
53 27 43
54 37 31
55 57 29
56 63 23
57 53 12
58 32 12
59 36 26
60 21 24
61 17 34
62 12 24
63 24 58
64 27 69
65 15 77
66 62 77
67 49 73
68 67 5
69 56 39
70 37 47
71 37 56
72 57 68
73 47 16
74 44 17
75 46 13
76 49 11
77 49 42
78 53 43
79 61 52
80 57 48
81 56 37
82 55 54
83 15 47
84 14 37
85 11 31
86 16 22
87 4 18
88 28 18
89 26 52
90 26 35
91 31 67
92 15 19
93 22 22
94 18 24
95 26 27
96 25 24
97 22 27
98 25 21
99 19 21
100 20 26
101 18 18
102 65 20
103 11 31
PICKUP_AND_DELIVERY_SECTION
1 0 0 1000 0 0 0
2 -9 707 848 10 21 0
3 7 143 282 10 0 73
4 -21 527 584 10 31 0
5 -8 678 801 10 75 0
6 26 34 209 10 0 8
7 -28 415 514 10 60 0
8 -26 331 410 10 6 0
9 9 404 481 10 0 19
10 -6 400 497 10 70 0
11 16 577 632 10 0 71
12 -16 206 325 10 83 0
13 19 228 345 10 0 72
14 -7 690 827 10 44 0
15 20 32 243 10 0 100
16 8 175 300 10 0 98
17 19 272 373 10 0 59
18 -30 733 870 10 50 0
19 -9 377 434 10 9 0
20 17 269 378 10 0 63
21 9 581 666 10 0 2
22 11 214 331 10 0 57
23 18 409 494 10 0 56
24 29 206 325 10 0 42
25 -36 704 847 10 69 0
26 6 817 956 0 0 102
27 -26 588 667 10 88 0
28 -9 104 255 10 53 0
29 16 114 255 10 0 80
30 9 190 313 10 0 82
31 21 259 354 10 0 4
32 27 152 275 10 0 79
33 -13 660 777 10 51 0
34 11 45 200 10 0 64
35 -13 529 614 10 77 0
36 -25 686 813 10 67 0
37 -27 41 208 10 48 0
38 8 606 693 10 0 101
39 16 302 405 10 0 97
40 31 33 224 10 0 68
41 9 360 437 10 0 54
42 -29 396 511 10 24 0
43 -2 25 172 10 93 0
44 7 620 705 10 0 14
45 18 233 340 10 0 87
46 16 29 189 10 0 65
47 -9 515 628 10 89 0
48 27 85 250 10 0 37
49 36 773 906 10 0 61
50 30 501 540 10 0 18
51 13 547 642 10 0 33
52 -20 348 453 10 66 0
53 9 174 299 10 0 28
54 -9 414 489 10 41 0
55 -9 641 734 10 74 0
56 -18 620 739 10 23 0
57 -11 585 692 10 22 0
58 -18 421 530 10 76 0
59 -19 849 980 10 17 0
60 28 17 229 10 0 7
61 -36 721 862 10 49 0
62 -10 290 377 10 99 0
63 -17 163 302 10 20 0
64 -11 34 191 10 34 0
65 -16 214 333 10 46 0
66 20 49 188 10 0 52
67 25 592 693 10 0 36
68 -31 294 401 10 40 0
69 36 637 752 10 0 25
70 6 162 293 10 0 10
71 -16 788 968 10 11 0
72 -19 268 367 10 13 0
73 -7 31 208 10 3 0
74 9 308 399 10 0 55
75 8 681 802 10 0 5
76 18 236 345 10 0 58
77 13 290 373 10 0 35
78 -6 817 952 10 81 0
79 -27 384 499 10 32 0
80 -16 388 465 10 29 0
81 6 839 968 10 0 78
82 -9 411 456 10 30 0
83 16 162 289 10 0 12
84 11 96 249 10 0 91
85 7 436 511 0 0 103
86 -20 376 461 10 96 0
87 -18 388 465 10 45 0
88 26 420 447 10 0 27
89 9 279 388 10 0 47
90 -22 755 920 10 94 0
91 -11 392 487 10 84 0
92 -27 739 866 10 95 0
93 2 18 181 10 0 43
94 22 811 969 10 0 90
95 27 436 503 10 0 92
96 20 92 231 10 0 86
97 -16 607 690 10 39 0
98 -8 612 673 10 16 0
99 10 183 306 10 0 62
100 -20 333 432 10 15 0
101 -8 798 965 10 38 0
102 -6 817 956 10 26 0
103 -7 436 511 10 85 0
DEPOT_SECTION
1
-1
EOF
