NAME: lr204
TYPE: PDPTW
COMMENT: Li & Lim PDPTW benchmark converted from SINTEF format
DIMENSION: 101
VEHICLES: 25
CAPACITY: 1000
EDGE_WEIGHT_TYPE: EUC_2D
NODE_COORD_SECTION
1 35 35
2 41 49
3 35 17
4 55 45
5 55 20
6 15 30
7 25 30
8 20 50
9 10 43
10 55 60
11 30 60
12 20 65
13 50 35
14 30 25
15 15 10
16 30 5
17 10 20
18 5 30
19 20 40
20 15 60
21 45 65
22 45 20
23 45 10
24 55 5
25 65 35
26 65 20
27 45 30
28 35 40
29 41 37
30 64 42
31 40 60
32 31 52
33 35 69
34 53 52
35 65 55
36 63 65
37 2 60
38 20 20
39 5 5
40 60 12
41 40 25
42 42 7
43 24 12
44 23 3
45 11 14
46 6 38
47 2 48
48 8 56
49 13 52
50 6 68
51 47 47
52 49 58
53 27 43
54 37 31
55 57 29
56 63 23
57 53 12
58 32 12
59 36 26
60 21 24
61 17 34
62 12 24
63 24 58
64 27 69
65 15 77
66 62 77
67 49 73
68 67 5
69 56 39
70 37 47
71 37 56
72 57 68
73 47 16
74 44 17
75 46 13
76 49 11
77 49 42
78 53 43
79 61 52
80 57 48
81 56 37
82 55 54
83 15 47
84 14 37
85 11 31
86 16 22
87 4 18
88 28 18
89 26 52
90 26 35
91 31 67
92 15 19
93 22 22
94 18 24
95 26 27
96 25 24
97 22 27
98 25 21
99 19 21
100 20 26
101 18 18
PICKUP_AND_DELIVERY_SECTION
1 0 0 1000 0 0 0
2 -18 0 974 10 45 0
3 -20 0 972 10 66 0
4 -9 0 967 10 9 0
5 -14 678 801 10 35 0
6 -20 0 969 10 96 0
7 -28 0 978 10 60 0
8 5 0 968 10 0 32
9 9 404 481 10 0 4
10 16 400 497 10 0 22
11 -8 0 964 10 16 0
12 12 206 325 10 0 68
13 19 0 975 10 0 36
14 -9 690 827 10 30 0
15 -2 0 957 10 93 0
16 8 175 300 10 0 11
17 19 0 960 10 0 62
18 2 0 959 10 0 47
19 12 0 974 10 0 38
20 17 0 957 10 0 89
21 -14 0 958 10 54 0
22 -16 0 971 10 10 0
23 18 0 963 10 0 50
24 -5 206 325 10 43 0
25 -16 0 960 10 28 0
26 -7 817 956 10 58 0
27 -36 0 978 10 69 0
28 16 0 985 10 0 25
29 16 0 983 10 0 98
30 9 0 960 10 0 14
31 -16 0 964 10 46 0
32 -5 0 972 10 8 0
33 23 0 956 10 0 59
34 -10 0 965 10 64 0
35 14 0 953 10 0 5
36 -19 0 948 10 13 0
37 5 0 948 10 0 65
38 -12 0 968 10 19 0
39 16 302 405 10 0 61
40 -6 0 956 10 70 0
41 -18 0 978 10 55 0
42 5 0 961 10 0 44
43 5 0 964 10 0 24
44 -5 0 955 10 42 0
45 18 233 340 10 0 2
46 16 0 960 10 0 31
47 -2 0 954 10 18 0
48 -7 0 955 10 85 0
49 36 0 962 10 0 94
50 -18 0 946 10 23 0
51 -11 0 973 10 84 0
52 10 0 963 10 0 56
53 9 0 978 10 0 82
54 14 414 489 10 0 21
55 18 0 967 10 0 41
56 -10 620 739 10 52 0
57 -27 0 960 10 95 0
58 7 0 966 10 0 26
59 -23 849 980 10 33 0
60 28 0 972 10 0 7
61 -16 0 971 10 39 0
62 -19 0 964 10 17 0
63 19 163 302 10 0 80
64 10 0 955 10 0 34
65 -5 0 943 10 37 0
66 20 0 940 10 0 3
67 25 0 949 10 0 72
68 -12 294 401 10 12 0
69 36 0 968 10 0 27
70 6 162 293 10 0 40
71 5 0 968 10 0 81
72 -25 0 950 10 67 0
73 -16 0 967 10 83 0
74 9 0 969 10 0 97
75 -3 681 802 10 79 0
76 18 0 962 10 0 91
77 13 290 373 10 0 101
78 -26 817 952 10 88 0
79 3 0 958 10 0 75
80 -19 388 465 10 63 0
81 -5 0 968 10 71 0
82 -9 0 962 10 53 0
83 16 0 966 10 0 73
84 11 0 968 10 0 51
85 7 436 511 10 0 48
86 -10 0 966 10 99 0
87 35 0 954 10 0 100
88 26 420 447 10 0 78
89 -17 0 970 10 20 0
90 -1 0 981 10 92 0
91 -18 0 957 10 76 0
92 1 0 964 10 0 90
93 2 18 181 10 0 15
94 -36 0 969 10 49 0
95 27 0 977 10 0 57
96 20 0 975 10 0 6
97 -9 0 974 10 74 0
98 -16 0 972 10 29 0
99 10 0 968 10 0 86
100 -35 333 432 10 87 0
101 -13 798 965 10 77 0
DEPOT_SECTION
1
-1
EOF
