NAME: lr205
TYPE: PDPTW
COMMENT: Li & Lim PDPTW benchmark converted from SINTEF format
DIMENSION: 103
VEHICLES: 25
CAPACITY: 1000
EDGE_WEIGHT_TYPE: EUC_2D
NODE_COORD_SECTION
1 35 35
2 41 49
3 35 17
4 55 45
5 55 20
6 15 30
7 25 30
8 20 50
9 10 43
10 55 60
11 30 60
12 20 65
13 50 35
14 30 25
15 15 10
16 30 5
17 10 20
18 5 30
19 20 40
20 15 60
21 45 65
22 45 20
23 45 10
24 55 5
25 65 35
26 65 20
27 45 30
28 35 40
29 41 37
30 64 42
31 40 60
32 31 52
33 35 69
34 53 52
35 65 55
36 63 65
37 2 60
38 20 20
39 5 5
40 60 12
41 40 25
42 42 7
43 24 12
44 23 3
45 11 14
46 6 38
47 2 48
48 8 56
49 13 52
50 6 68
51 47 47
52 49 58
53 27 43
54 37 31
55 57 29
56 63 23
57 53 12
58 32 12
59 36 26
60 21 24
61 17 34
62 12 24
63 24 58
64 27 69
65 15 77
66 62 77
67 49 73
68 67 5
69 56 39
70 37 47
71 37 56
72 57 68
73 47 16
74 44 17
75 46 13
76 49 11
77 49 42
78 53 43
79 61 52
80 57 48
81 56 37
82 55 54
83 15 47
84 14 37
85 11 31
86 16 22
87 4 18
88 28 18
89 26 52
90 26 35
91 31 67
92 15 19
93 22 22
94 18 24
95 26 27
96 25 24
97 22 27
98 25 21
99 19 21
100 20 26
101 18 18
102 55 54
103 56 39
PICKUP_AND_DELIVERY_SECTION
1 0 0 1000 0 0 0
2 -5 658 898 10 37 0
3 -18 93 333 10 76 0
4 13 436 676 10 0 51
5 -16 620 860 10 83 0
6 26 20 260 10 0 54
7 3 345 585 10 0 23
8 5 251 491 10 0 100
9 -29 323 563 10 24 0
10 -9 329 569 10 21 0
11 16 485 725 10 0 18
12 12 146 386 10 0 25
13 19 167 407 10 0 67
14 -22 639 879 10 94 0
15 20 32 272 10 0 17
16 -28 118 358 10 60 0
17 -20 203 443 10 15 0
18 -16 682 922 10 11 0
19 12 286 526 10 0 75
20 -10 204 444 10 64 0
21 9 504 744 10 0 10
22 11 153 393 10 0 62
23 -3 332 572 10 7 0
24 29 146 386 10 0 9
25 -12 656 896 10 12 0
26 6 716 956 10 0 56
27 -23 508 748 10 80 0
28 16 60 300 10 0 66
29 16 65 305 10 0 77
30 9 132 372 10 0 52
31 -11 187 427 10 34 0
32 27 94 334 10 0 74
33 23 599 839 10 0 38
34 11 24 264 10 0 31
35 -8 452 692 10 36 0
36 8 630 870 10 0 35
37 5 41 281 10 0 2
38 -23 530 770 10 33 0
39 -41 234 474 10 86 0
40 31 33 273 10 0 68
41 -11 279 519 10 84 0
42 5 334 574 10 0 44
43 -2 25 265 10 93 0
44 -5 543 783 10 42 0
45 18 167 407 10 0 85
46 16 29 269 10 0 58
47 -20 452 692 10 96 0
48 27 48 288 10 0 63
49 36 720 960 10 0 90
50 -26 401 641 10 88 0
51 -13 475 715 10 4 0
52 -9 281 521 10 30 0
53 -6 117 357 10 70 0
54 -26 332 572 10 6 0
55 18 568 808 10 0 81
56 -6 560 800 10 26 0
57 -9 519 759 10 65 0
58 -16 356 596 10 46 0
59 -1 740 980 10 92 0
60 28 17 257 10 0 16
61 3 672 912 10 0 98
62 -11 214 454 10 22 0
63 -27 113 353 10 48 0
64 10 34 274 10 0 20
65 9 154 394 10 0 57
66 -16 49 289 10 28 0
67 -19 523 763 10 13 0
68 -31 228 468 10 40 0
69 36 575 815 0 0 103
70 6 108 348 10 0 53
71 -14 728 968 10 78 0
72 15 198 438 10 0 79
73 25 22 262 10 0 87
74 -27 234 474 10 32 0
75 -12 622 862 10 19 0
76 18 171 411 10 0 3
77 -16 212 452 10 29 0
78 14 730 970 10 0 71
79 -15 322 562 10 72 0
80 23 307 547 10 0 27
81 -18 728 968 10 55 0
82 26 314 554 0 0 102
83 16 106 346 10 0 5
84 11 53 293 10 0 41
85 -18 354 594 10 45 0
86 41 299 539 10 0 39
87 -25 307 547 10 73 0
88 26 314 554 10 0 50
89 9 214 454 10 0 95
90 -36 718 958 10 49 0
91 -10 320 560 10 99 0
92 1 683 923 10 0 59
93 2 18 258 10 0 43
94 22 729 969 10 0 14
95 -9 350 590 10 89 0
96 20 42 282 10 0 47
97 11 529 769 10 0 101
98 -3 523 763 10 61 0
99 10 125 365 10 0 91
100 -5 263 503 10 8 0
101 -11 725 965 10 97 0
102 -26 314 554 10 82 0
103 -36 575 815 10 69 0
DEPOT_SECTION
1
-1
EOF
