NAME: lr211
TYPE: PDPTW
COMMENT: Li & Lim PDPTW benchmark converted from SINTEF format
DIMENSION: 101
VEHICLES: 25
CAPACITY: 1000
EDGE_WEIGHT_TYPE: EUC_2D
NODE_COORD_SECTION
1 35 35
2 41 49
3 35 17
4 55 45
5 55 20
6 15 30
7 25 30
8 20 50
9 10 43
10 55 60
11 30 60
12 20 65
13 50 35
14 30 25
15 15 10
16 30 5
17 10 20
18 5 30
19 20 40
20 15 60
21 45 65
22 45 20
23 45 10
24 55 5
25 65 35
26 65 20
27 45 30
28 35 40
29 41 37
30 64 42
31 40 60
32 31 52
33 35 69
34 53 52
35 65 55
36 63 65
37 2 60
38 20 20
39 5 5
40 60 12
41 40 25
42 42 7
43 24 12
44 23 3
45 11 14
46 6 38
47 2 48
48 8 56
49 13 52
50 6 68
51 47 47
52 49 58
53 27 43
54 37 31
55 57 29
56 63 23
57 53 12
58 32 12
59 36 26
60 21 24
61 17 34
62 12 24
63 24 58
64 27 69
65 15 77
66 62 77
67 49 73
68 67 5
69 56 39
70 37 47
71 37 56
72 57 68
73 47 16
74 44 17
75 46 13
76 49 11
77 49 42
78 53 43
79 61 52
80 57 48
81 56 37
82 55 54
83 15 47
84 14 37
85 11 31
86 16 22
87 4 18
88 28 18
89 26 52
90 26 35
91 31 67
92 15 19
93 22 22
94 18 24
95 26 27
96 25 24
97 22 27
98 25 21
99 19 21
100 20 26
101 18 18
PICKUP_AND_DELIVERY_SECTION
1 0 0 1000 0 0 0
2 -14 451 974 10 35 0
3 7 18 534 10 0 40
4 -12 378 733 10 19 0
5 19 477 965 10 0 69
6 -9 20 610 10 9 0
7 -5 245 684 10 37 0
8 5 172 569 10 0 67
9 9 245 640 10 0 6
10 16 231 666 10 0 66
11 16 430 779 10 0 61
12 -6 33 511 10 70 0
13 19 50 523 10 0 82
14 23 462 978 10 0 27
15 -9 32 694 10 53 0
16 8 30 519 10 0 21
17 19 102 543 10 0 45
18 2 444 959 10 0 101
19 12 229 582 10 0 4
20 17 95 552 10 0 84
21 -8 418 829 10 16 0
22 11 36 509 10 0 76
23 -16 246 657 10 39 0
24 29 36 514 10 0 91
25 -6 435 960 10 26 0
26 6 438 956 10 0 25
27 -23 428 827 10 14 0
28 16 5 548 10 0 33
29 16 6 526 10 0 62
30 -13 29 513 10 77 0
31 -10 91 522 10 52 0
32 27 17 501 10 0 63
33 -16 482 955 10 28 0
34 -25 24 575 10 68 0
35 14 367 776 10 0 2
36 -7 453 948 10 44 0
37 5 41 615 10 0 7
38 8 443 856 10 0 59
39 16 130 577 10 0 23
40 -7 33 655 10 3 0
41 -10 201 596 10 99 0
42 -9 219 688 10 100 0
43 5 25 560 10 0 74
44 7 458 867 10 0 36
45 -19 59 514 10 17 0
46 16 29 589 10 0 85
47 -27 338 805 10 48 0
48 27 34 602 10 0 47
49 36 454 962 10 0 98
50 -9 362 679 10 65 0
51 13 379 810 10 0 71
52 10 176 625 10 0 31
53 9 11 502 10 0 15
54 -35 256 647 10 87 0
55 -2 475 900 10 56 0
56 2 441 918 10 0 55
57 -8 412 865 10 75 0
58 -9 246 705 10 89 0
59 -8 479 980 10 38 0
60 -27 17 681 10 95 0
61 -16 449 971 10 11 0
62 -16 126 541 10 29 0
63 -27 25 544 10 32 0
64 10 34 588 10 0 97
65 9 46 524 10 0 50
66 -16 49 568 10 10 0
67 -5 421 864 10 8 0
68 25 120 575 10 0 34
69 -19 459 930 10 5 0
70 6 12 513 10 0 12
71 -13 368 968 10 51 0
72 -25 98 537 10 73 0
73 25 22 617 10 0 72
74 -5 143 564 10 43 0
75 8 482 965 10 0 57
76 -11 62 519 10 22 0
77 13 129 534 10 0 30
78 -6 460 970 10 81 0
79 3 207 676 10 0 94
80 -20 230 623 10 96 0
81 6 470 968 10 0 78
82 -19 268 599 10 13 0
83 16 23 515 10 0 93
84 -17 21 568 10 20 0
85 -16 278 669 10 46 0
86 41 213 624 10 0 88
87 35 230 623 10 0 54
88 -41 287 580 10 86 0
89 9 104 563 10 0 58
90 -1 409 981 10 92 0
91 -29 225 654 10 24 0
92 1 469 964 10 0 90
93 -16 18 585 10 83 0
94 -3 414 969 10 79 0
95 27 283 656 10 0 60
96 20 14 533 10 0 80
97 -10 445 852 10 64 0
98 -36 462 823 10 49 0
99 10 21 506 10 0 41
100 9 164 601 10 0 42
101 -2 391 965 10 18 0
DEPOT_SECTION
1
-1
EOF
