NAME: lr210
TYPE: PDPTW
COMMENT: Li & Lim PDPTW benchmark converted from SINTEF format
DIMENSION: 103
VEHICLES: 25
CAPACITY: 1000
EDGE_WEIGHT_TYPE: EUC_2D
NODE_COORD_SECTION
1 35 35
2 41 49
3 35 17
4 55 45
5 55 20
6 15 30
7 25 30
8 20 50
9 10 43
10 55 60
11 30 60
12 20 65
13 50 35
14 30 25
15 15 10
16 30 5
17 10 20
18 5 30
19 20 40
20 15 60
21 45 65
22 45 20
23 45 10
24 55 5
25 65 35
26 65 20
27 45 30
28 35 40
29 41 37
30 64 42
31 40 60
32 31 52
33 35 69
34 53 52
35 65 55
36 63 65
37 2 60
38 20 20
39 5 5
40 60 12
41 40 25
42 42 7
43 24 12
44 23 3
45 11 14
46 6 38
47 2 48
48 8 56
49 13 52
50 6 68
51 47 47
52 49 58
53 27 43
54 37 31
55 57 29
56 63 23
57 53 12
58 32 12
59 36 26
60 21 24
61 17 34
62 12 24
63 24 58
64 27 69
65 15 77
66 62 77
67 49 73
68 67 5
69 56 39
70 37 47
71 37 56
72 57 68
73 47 16
74 44 17
75 46 13
76 49 11
77 49 42
78 53 43
79 61 52
80 57 48
81 56 37
82 55 54
83 15 47
84 14 37
85 11 31
86 16 22
87 4 18
88 28 18
89 26 52
90 26 35
91 31 67
92 15 19
93 22 22
94 18 24
95 26 27
96 25 24
97 22 27
98 25 21
99 19 21
100 20 26
101 18 18
102 53 12
103 15 77
PICKUP_AND_DELIVERY_SECTION
1 0 0 1000 0 0 0
2 10 190 974 10 0 71
3 -41 18 792 10 86 0
4 -5 289 822 10 43 0
5 19 679 800 10 0 56
6 -22 20 906 10 94 0
7 -27 355 574 10 48 0
8 5 72 669 10 0 97
9 -1 393 492 10 47 0
10 -8 394 503 10 16 0
11 16 517 692 10 0 64
12 -21 206 325 10 31 0
13 -20 15 725 10 96 0
14 -2 694 823 10 93 0
15 -1 32 694 10 92 0
16 8 176 299 10 0 10
17 -16 102 543 10 39 0
18 2 673 930 10 0 90
19 12 229 582 10 0 22
20 -9 95 552 10 53 0
21 -10 418 829 10 52 0
22 -12 18 727 10 19 0
23 -9 349 554 10 100 0
24 29 206 325 10 0 79
25 -18 435 960 10 55 0
26 -8 826 956 10 75 0
27 -6 328 927 10 81 0
28 16 44 315 10 0 49
29 16 6 526 10 0 66
30 -23 29 513 10 80 0
31 21 199 414 10 0 12
32 27 17 744 10 0 62
33 -26 482 955 10 82 0
34 11 24 299 10 0 59
35 -25 265 878 10 67 0
36 -18 626 873 10 76 0
37 5 41 328 10 0 83
38 -3 339 960 10 91 0
39 16 298 409 10 0 17
40 31 33 344 10 0 101
41 -18 300 497 10 45 0
42 5 336 571 10 0 78
43 5 25 292 10 0 4
44 -6 458 867 10 70 0
45 18 230 343 10 0 41
46 16 29 309 10 0 87
47 1 338 805 10 0 9
48 27 34 602 10 0 7
49 -16 200 962 10 28 0
50 -9 441 600 10 89 0
51 -11 272 917 10 84 0
52 10 176 625 10 0 21
53 9 11 748 10 0 20
54 14 403 500 10 0 73
55 18 475 900 10 0 25
56 -19 620 739 10 5 0
57 6 525 752 0 0 102
58 -15 246 705 10 72 0
59 -11 854 980 10 34 0
60 28 17 972 10 0 95
61 -12 449 971 10 98 0
62 -27 126 541 10 32 0
63 19 168 297 10 0 85
64 -16 34 588 10 11 0
65 9 154 393 0 0 103
66 -16 49 308 10 29 0
67 25 532 753 10 0 35
68 -10 291 404 10 99 0
69 -13 577 812 10 77 0
70 6 165 290 10 0 44
71 -10 668 968 10 2 0
72 15 98 537 10 0 58
73 -14 22 915 10 54 0
74 -26 143 564 10 88 0
75 8 681 802 10 0 26
76 18 27 711 10 0 36
77 13 281 382 10 0 69
78 -5 821 948 10 42 0
79 -29 324 559 10 24 0
80 23 377 476 10 0 30
81 6 719 968 10 0 27
82 26 268 599 10 0 33
83 -5 23 761 10 37 0
84 11 21 842 10 0 51
85 -19 425 522 10 63 0
86 41 110 727 10 0 3
87 -16 230 623 10 46 0
88 26 397 470 10 0 74
89 9 219 448 10 0 50
90 -2 409 981 10 18 0
91 3 225 654 10 0 38
92 1 222 964 10 0 15
93 2 18 159 10 0 14
94 22 691 969 10 0 6
95 -28 190 749 10 60 0
96 20 14 793 10 0 13
97 -5 344 953 10 8 0
98 12 462 823 10 0 61
99 10 21 748 10 0 68
100 9 328 437 10 0 23
101 -31 821 965 10 40 0
102 -6 525 752 10 57 0
103 -9 154 393 10 65 0
DEPOT_SECTION
1
-1
EOF
