NAME: lrc103
TYPE: PDPTW
COMMENT: Li & Lim PDPTW benchmark converted from SINTEF format
DIMENSION: 107
VEHICLES: 25
CAPACITY: 200
EDGE_WEIGHT_TYPE: EUC_2D
NODE_COORD_SECTION
1 40 50
2 25 85
3 22 75
4 22 85
5 20 80
6 20 85
7 18 75
8 15 75
9 15 80
10 10 35
11 10 40
12 8 40
13 8 45
14 5 35
15 5 45
16 2 40
17 0 40
18 0 45
19 44 5
20 42 10
21 42 15
22 40 5
23 40 15
24 38 5
25 38 15
26 35 5
27 95 30
28 95 35
29 92 30
30 90 35
31 88 30
32 88 35
33 87 30
34 85 25
35 85 35
36 67 85
37 65 85
38 65 82
39 62 80
40 60 80
41 60 85
42 58 75
43 55 80
44 55 85
45 55 82
46 20 82
47 18 80
48 2 45
49 42 5
50 42 12
51 72 35
52 55 20
53 25 30
54 20 50
55 55 60
56 30 60
57 50 35
58 30 25
59 15 10
60 10 20
61 15 60
62 45 65
63 65 35
64 65 20
65 45 30
66 35 40
67 41 37
68 64 42
69 40 60
70 31 52
71 35 69
72 65 55
73 63 65
74 2 60
75 20 20
76 5 5
77 60 12
78 23 3
79 8 56
80 6 68
81 47 47
82 49 58
83 27 43
84 37 31
85 57 29
86 63 23
87 21 24
88 12 24
89 24 58
90 67 5
91 37 47
92 49 42
93 53 43
94 61 52
95 57 48
96 56 37
97 55 54
98 4 18
99 26 52
100 26 35
101 31 67
102 30 25
103 92 30
104 55 60
105 2 45
106 40 60
107 57 29
PICKUP_AND_DELIVERY_SECTION
1 0 0 240 0 0 0
2 20 0 191 10 0 4
3 30 0 199 10 0 6
4 -20 0 190 10 2 0
5 -27 141 171 10 79 0
6 -30 0 189 10 3 0
7 20 95 125 10 0 56
8 20 0 194 10 0 47
9 -10 91 121 10 46 0
10 20 91 121 10 0 88
11 30 119 149 10 0 14
12 -10 59 89 10 15 0
13 20 0 197 10 0 18
14 -30 142 172 10 11 0
15 10 0 194 10 0 12
16 -9 58 88 10 83 0
17 -5 0 188 10 54 0
18 -20 149 179 10 13 0
19 20 0 184 10 0 24
20 -40 0 189 10 23 0
21 10 0 194 10 0 49
22 10 0 185 10 0 50
23 40 92 122 10 0 20
24 -20 65 95 10 19 0
25 -20 0 194 10 26 0
26 20 154 184 10 0 25
27 -10 0 171 10 33 0
28 20 62 92 10 0 31
29 10 0 174 0 0 103
30 10 0 177 10 0 35
31 -20 74 104 10 28 0
32 -10 0 179 10 34 0
33 10 0 178 10 0 27
34 10 51 81 10 0 32
35 -10 0 182 10 30 0
36 -10 139 169 10 40 0
37 40 43 73 10 0 38
38 -40 0 189 10 37 0
39 -10 75 105 10 45 0
40 10 37 67 10 0 36
41 30 85 115 10 0 94
42 20 92 122 10 0 73
43 -9 33 63 10 62 0
44 20 0 191 10 0 81
45 10 64 94 10 0 39
46 10 37 67 10 0 9
47 -20 0 192 10 8 0
48 10 0 191 0 0 105
49 -10 0 184 10 21 0
50 -10 104 134 10 22 0
51 30 0 194 10 0 68
52 19 0 196 10 0 64
53 -8 0 205 10 75 0
54 5 91 121 10 0 17
55 16 0 211 0 0 104
56 -20 140 170 10 7 0
57 19 130 160 10 0 67
58 23 0 203 0 0 102
59 -35 152 182 10 98 0
60 19 0 187 10 0 87
61 -9 0 203 10 99 0
62 9 0 214 10 0 43
63 -14 52 82 10 93 0
64 -19 0 190 10 52 0
65 -16 53 83 10 66 0
66 16 11 41 10 0 65
67 -19 133 163 10 57 0
68 -30 70 100 10 51 0
69 21 144 174 0 0 106
70 27 41 71 10 0 89
71 -3 180 210 10 101 0
72 14 0 204 10 0 95
73 -20 0 202 10 42 0
74 5 0 190 10 0 80
75 8 141 171 10 0 53
76 16 0 172 10 0 78
77 31 75 105 10 0 86
78 -16 150 180 10 76 0
79 27 90 120 10 0 5
80 -5 89 119 10 74 0
81 -20 192 222 10 44 0
82 10 0 217 10 0 97
83 9 0 215 10 0 16
84 14 0 210 10 0 90
85 18 96 126 0 0 107
86 -31 0 194 10 77 0
87 -19 0 197 10 60 0
88 -20 90 120 10 10 0
89 -27 67 97 10 70 0
90 -14 0 177 10 84 0
91 6 0 225 10 0 100
92 -6 0 217 10 96 0
93 14 14 44 10 0 63
94 -30 178 208 10 41 0
95 -14 0 212 10 72 0
96 6 0 209 10 0 92
97 -10 0 214 10 82 0
98 35 0 181 10 0 59
99 9 0 215 10 0 61
100 -6 77 107 10 91 0
101 3 180 210 10 0 71
102 -23 0 203 10 58 0
103 -10 0 174 10 29 0
104 -16 0 211 10 55 0
105 -10 0 191 10 48 0
106 -21 144 174 10 69 0
107 -18 96 126 10 85 0
DEPOT_SECTION
1
-1
EOF
