NAME: lrc105
TYPE: PDPTW
COMMENT: Li & Lim PDPTW benchmark converted from SINTEF format
DIMENSION: 109
VEHICLES: 25
CAPACITY: 200
EDGE_WEIGHT_TYPE: EUC_2D
NODE_COORD_SECTION
1 40 50
2 25 85
3 22 75
4 22 85
5 20 80
6 20 85
7 18 75
8 15 75
9 15 80
10 10 35
11 10 40
12 8 40
13 8 45
14 5 35
15 5 45
16 2 40
17 0 40
18 0 45
19 44 5
20 42 10
21 42 15
22 40 5
23 40 15
24 38 5
25 38 15
26 35 5
27 95 30
28 95 35
29 92 30
30 90 35
31 88 30
32 88 35
33 87 30
34 85 25
35 85 35
36 67 85
37 65 85
38 65 82
39 62 80
40 60 80
41 60 85
42 58 75
43 55 80
44 55 85
45 55 82
46 20 82
47 18 80
48 2 45
49 42 5
50 42 12
51 72 35
52 55 20
53 25 30
54 20 50
55 55 60
56 30 60
57 50 35
58 30 25
59 15 10
60 10 20
61 15 60
62 45 65
63 65 35
64 65 20
65 45 30
66 35 40
67 41 37
68 64 42
69 40 60
70 31 52
71 35 69
72 65 55
73 63 65
74 2 60
75 20 20
76 5 5
77 60 12
78 23 3
79 8 56
80 6 68
81 47 47
82 49 58
83 27 43
84 37 31
85 57 29
86 63 23
87 21 24
88 12 24
89 24 58
90 67 5
91 37 47
92 49 42
93 53 43
94 61 52
95 57 48
96 56 37
97 55 54
98 4 18
99 26 52
100 26 35
101 31 67
102 30 60
103 67 5
104 0 40
105 67 85
106 38 15
107 49 42
108 20 80
109 8 56
PICKUP_AND_DELIVERY_SECTION
1 0 0 240 0 0 0
2 20 71 191 10 0 101
3 30 30 150 10 0 6
4 -20 64 184 10 7 0
5 40 151 161 0 0 108
6 -30 40 160 10 3 0
7 20 96 123 10 0 4
8 20 35 155 10 0 69
9 10 101 111 10 0 47
10 -40 101 111 10 12 0
11 30 123 144 10 0 18
12 40 69 79 10 0 10
13 -9 32 152 10 83 0
14 -10 152 162 10 15 0
15 10 35 117 10 0 14
16 20 68 78 10 0 98
17 20 59 114 0 0 104
18 -30 147 180 10 11 0
19 20 79 124 10 0 26
20 40 58 115 10 0 21
21 -40 111 162 10 20 0
22 -10 45 165 10 49 0
23 -16 94 119 10 66 0
24 -14 75 85 10 84 0
25 10 128 194 0 0 106
26 -20 171 181 10 19 0
27 30 58 171 10 0 31
28 20 60 93 10 0 51
29 -10 55 120 10 30 0
30 10 52 112 10 0 29
31 -30 75 102 10 27 0
32 20 50 170 10 0 35
33 10 116 175 10 0 81
34 10 51 85 10 0 77
35 -20 62 182 10 32 0
36 20 138 169 0 0 105
37 40 43 78 10 0 38
38 -40 69 189 10 37 0
39 30 85 95 10 0 44
40 10 36 74 10 0 41
41 -10 87 112 10 40 0
42 20 92 121 10 0 97
43 10 33 66 10 0 62
44 -30 117 168 10 39 0
45 10 74 84 10 0 71
46 10 37 72 10 0 80
47 -10 98 157 10 9 0
48 -9 38 109 10 99 0
49 10 64 184 10 0 22
50 10 109 128 10 0 78
51 -20 71 191 10 28 0
52 -6 69 126 10 64 0
53 -17 25 145 10 65 0
54 -6 101 111 10 91 0
55 16 127 180 10 0 94
56 16 150 160 0 0 102
57 -16 130 159 10 67 0
58 -6 82 139 10 96 0
59 -19 172 182 10 60 0
60 19 42 162 10 0 59
61 -5 137 202 10 74 0
62 -10 55 106 10 43 0
63 3 62 72 10 0 85
64 6 39 108 10 0 52
65 17 53 82 10 0 53
66 16 11 43 10 0 23
67 16 134 161 10 0 57
68 9 80 90 10 0 86
69 -20 144 173 10 8 0
70 27 51 61 10 0 89
71 -10 172 210 10 45 0
72 14 52 107 10 0 82
73 8 27 147 10 0 95
74 5 65 118 10 0 61
75 -15 151 161 10 100 0
76 -13 57 172 10 88 0
77 -10 85 95 10 34 0
78 -10 163 173 10 50 0
79 27 90 119 0 0 109
80 -10 99 109 10 46 0
81 -10 190 222 10 33 0
82 -14 80 121 10 72 0
83 9 14 134 10 0 13
84 14 19 139 10 0 24
85 -3 106 116 10 63 0
86 -9 42 162 10 68 0
87 -14 77 126 10 93 0
88 13 100 110 10 0 76
89 -27 67 96 10 70 0
90 25 105 177 0 0 103
91 6 74 127 10 0 54
92 13 97 217 0 0 107
93 14 15 25 10 0 87
94 -16 173 208 10 55 0
95 -8 50 170 10 73 0
96 6 20 140 10 0 58
97 -20 87 207 10 42 0
98 -20 112 157 10 16 0
99 9 14 134 10 0 48
100 15 87 97 10 0 75
101 -20 200 210 10 2 0
102 -16 150 160 10 56 0
103 -25 105 177 10 90 0
104 -20 59 114 10 17 0
105 -20 138 169 10 36 0
106 -10 128 194 10 25 0
107 -13 97 217 10 92 0
108 -40 151 161 10 5 0
109 -27 90 119 10 79 0
DEPOT_SECTION
1
-1
EOF
