NAME: lrc108
TYPE: PDPTW
COMMENT: Li & Lim PDPTW benchmark converted from SINTEF format
DIMENSION: 105
VEHICLES: 25
CAPACITY: 200
EDGE_WEIGHT_TYPE: EUC_2D
NODE_COORD_SECTION
1 40 50
2 25 85
3 22 75
4 22 85
5 20 80
6 20 85
7 18 75
8 15 75
9 15 80
10 10 35
11 10 40
12 8 40
13 8 45
14 5 35
15 5 45
16 2 40
17 0 40
18 0 45
19 44 5
20 42 10
21 42 15
22 40 5
23 40 15
24 38 5
25 38 15
26 35 5
27 95 30
28 95 35
29 92 30
30 90 35
31 88 30
32 88 35
33 87 30
34 85 25
35 85 35
36 67 85
37 65 85
38 65 82
39 62 80
40 60 80
41 60 85
42 58 75
43 55 80
44 55 85
45 55 82
46 20 82
47 18 80
48 2 45
49 42 5
50 42 12
51 72 35
52 55 20
53 25 30
54 20 50
55 55 60
56 30 60
57 50 35
58 30 25
59 15 10
60 10 20
61 15 60
62 45 65
63 65 35
64 65 20
65 45 30
66 35 40
67 41 37
68 64 42
69 40 60
70 31 52
71 35 69
72 65 55
73 63 65
74 2 60
75 20 20
76 5 5
77 60 12
78 23 3
79 8 56
80 6 68
81 47 47
82 49 58
83 27 43
84 37 31
85 57 29
86 63 23
87 21 24
88 12 24
89 24 58
90 67 5
91 37 47
92 49 42
93 53 43
94 61 52
95 57 48
96 56 37
97 55 54
98 4 18
99 26 52
100 26 35
101 31 67
102 42 15
103 56 37
104 25 85
105 15 75
PICKUP_AND_DELIVERY_SECTION
1 0 0 240 0 0 0
2 20 49 191 0 0 104
3 -20 30 168 10 7 0
4 10 95 152 10 0 5
5 -10 69 193 10 4 0
6 20 40 189 10 0 46
7 20 60 159 10 0 3
8 20 54 133 0 0 105
9 -30 67 144 10 80 0
10 -10 57 154 10 15 0
11 -20 106 161 10 16 0
12 -20 33 152 10 17 0
13 20 32 148 10 0 18
14 -10 53 191 10 48 0
15 10 35 194 10 0 10
16 20 39 163 10 0 11
17 20 41 141 10 0 12
18 -20 51 189 10 13 0
19 -19 73 130 10 52 0
20 -31 40 148 10 77 0
21 10 94 179 0 0 102
22 -10 45 161 10 25 0
23 40 64 149 10 0 24
24 -40 45 164 10 23 0
25 10 51 194 10 0 22
26 20 45 183 10 0 78
27 30 90 169 10 0 94
28 20 57 172 10 0 32
29 -10 55 174 10 34 0
30 10 52 174 10 0 35
31 -10 52 147 10 33 0
32 -20 50 172 10 28 0
33 10 61 178 10 0 31
34 10 51 178 10 0 29
35 -10 83 168 10 30 0
36 -30 57 185 10 41 0
37 -10 43 186 10 43 0
38 -20 95 182 10 44 0
39 30 38 141 10 0 40
40 -30 36 193 10 39 0
41 30 61 138 10 0 36
42 20 49 164 10 0 45
43 10 33 180 10 0 37
44 20 100 185 10 0 38
45 -20 35 142 10 42 0
46 -20 37 192 10 6 0
47 -5 71 184 10 74 0
48 10 38 191 10 0 14
49 10 50 184 10 0 67
50 -14 99 138 10 84 0
51 30 83 178 10 0 57
52 19 45 150 10 0 19
53 3 25 150 10 0 60
54 5 68 143 10 0 61
55 16 107 200 10 0 97
56 -6 95 214 10 91 0
57 -30 91 198 10 51 0
58 -16 56 165 10 66 0
59 20 51 182 10 0 75
60 -3 42 187 10 53 0
61 -5 62 203 10 54 0
62 9 37 124 10 0 95
63 -9 29 168 10 68 0
64 6 39 190 10 0 92
65 17 20 139 10 0 90
66 16 11 150 10 0 58
67 -10 97 198 10 49 0
68 9 31 138 10 0 63
69 -27 101 216 10 70 0
70 27 9 139 10 0 69
71 23 30 210 10 0 101
72 14 30 129 10 0 73
73 -14 27 202 10 72 0
74 5 46 137 10 0 47
75 -20 71 193 10 59 0
76 -35 57 165 10 98 0
77 31 48 131 10 0 20
78 -20 49 180 10 26 0
79 -9 47 162 10 99 0
80 30 65 142 10 0 9
81 -18 93 222 10 85 0
82 -19 78 123 10 89 0
83 9 14 140 10 0 87
84 14 19 172 10 0 50
85 18 73 148 10 0 81
86 -14 59 144 10 93 0
87 -9 63 140 10 83 0
88 -15 91 118 10 100 0
89 19 27 136 10 0 82
90 -17 52 177 10 65 0
91 6 53 148 10 0 56
92 -6 89 217 10 64 0
93 14 14 177 10 0 86
94 -30 50 208 10 27 0
95 -9 76 143 10 62 0
96 6 20 159 0 0 103
97 -16 105 188 10 55 0
98 35 104 165 10 0 76
99 9 14 136 10 0 79
100 15 42 141 10 0 88
101 -23 43 210 10 71 0
102 -10 94 179 10 21 0
103 -6 20 159 10 96 0
104 -20 49 191 10 2 0
105 -20 54 133 10 8 0
DEPOT_SECTION
1
-1
EOF
