NAME: lrc106
TYPE: PDPTW
COMMENT: Li & Lim PDPTW benchmark converted from SINTEF format
DIMENSION: 107
VEHICLES: 25
CAPACITY: 200
EDGE_WEIGHT_TYPE: EUC_2D
NODE_COORD_SECTION
1 40 50
2 25 85
3 22 75
4 22 85
5 20 80
6 20 85
7 18 75
8 15 75
9 15 80
10 10 35
11 10 40
12 8 40
13 8 45
14 5 35
15 5 45
16 2 40
17 0 40
18 0 45
19 44 5
20 42 10
21 42 15
22 40 5
23 40 15
24 38 5
25 38 15
26 35 5
27 95 30
28 95 35
29 92 30
30 90 35
31 88 30
32 88 35
33 87 30
34 85 25
35 85 35
36 67 85
37 65 85
38 65 82
39 62 80
40 60 80
41 60 85
42 58 75
43 55 80
44 55 85
45 55 82
46 20 82
47 18 80
48 2 45
49 42 5
50 42 12
51 72 35
52 55 20
53 25 30
54 20 50
55 55 60
56 30 60
57 50 35
58 30 25
59 15 10
60 10 20
61 15 60
62 45 65
63 65 35
64 65 20
65 45 30
66 35 40
67 41 37
68 64 42
69 40 60
70 31 52
71 35 69
72 65 55
73 63 65
74 2 60
75 20 20
76 5 5
77 60 12
78 23 3
79 8 56
80 6 68
81 47 47
82 49 58
83 27 43
84 37 31
85 57 29
86 63 23
87 21 24
88 12 24
89 24 58
90 67 5
91 37 47
92 49 42
93 53 43
94 61 52
95 57 48
96 56 37
97 55 54
98 4 18
99 26 52
100 26 35
101 31 67
102 95 30
103 55 20
104 8 45
105 25 85
106 47 47
107 30 60
PICKUP_AND_DELIVERY_SECTION
1 0 0 240 0 0 0
2 20 130 190 0 0 105
3 30 35 95 10 0 6
4 -10 94 154 10 47 0
5 -10 126 186 10 46 0
6 -30 40 100 10 3 0
7 20 80 140 10 0 101
8 -10 64 124 10 9 0
9 10 76 136 10 0 8
10 20 76 136 10 0 18
11 -5 104 164 10 54 0
12 40 44 104 10 0 59
13 20 49 109 0 0 104
14 -27 127 187 10 70 0
15 10 35 95 10 0 75
16 20 43 103 10 0 17
17 -20 57 117 10 16 0
18 -20 129 189 10 10 0
19 20 72 132 10 0 49
20 -17 57 117 10 65 0
21 -28 107 167 10 87 0
22 -14 52 112 10 84 0
23 -23 77 137 10 58 0
24 -16 50 110 10 66 0
25 10 133 193 10 0 92
26 20 124 184 10 0 78
27 30 100 160 0 0 102
28 20 57 117 10 0 29
29 -20 55 115 10 28 0
30 -20 52 112 10 32 0
31 10 59 119 10 0 94
32 20 50 110 10 0 30
33 -9 116 176 10 68 0
34 10 51 111 10 0 90
35 30 96 156 10 0 51
36 -10 124 184 10 38 0
37 40 43 103 10 0 44
38 10 109 169 10 0 36
39 -10 60 120 10 45 0
40 -10 36 96 10 43 0
41 30 70 130 10 0 42
42 -30 77 137 10 41 0
43 10 33 93 10 0 40
44 -40 113 173 10 37 0
45 10 49 109 10 0 39
46 10 37 97 10 0 5
47 10 98 158 10 0 4
48 10 38 98 10 0 79
49 -20 124 184 10 19 0
50 -15 89 149 10 100 0
51 -30 101 161 10 35 0
52 19 68 128 0 0 103
53 -9 37 97 10 83 0
54 5 76 136 10 0 11
55 16 124 184 10 0 69
56 16 125 185 0 0 107
57 -31 115 175 10 77 0
58 23 81 141 10 0 23
59 -40 122 182 10 12 0
60 19 42 102 10 0 98
61 17 140 200 10 0 71
62 9 51 111 10 0 82
63 -6 37 97 10 96 0
64 6 39 99 10 0 67
65 17 38 98 10 0 20
66 16 11 71 10 0 24
67 -6 118 178 10 64 0
68 9 55 115 10 0 33
69 -16 129 189 10 55 0
70 27 26 86 10 0 14
71 -17 150 210 10 61 0
72 -8 50 110 10 73 0
73 8 27 87 10 0 72
74 5 62 122 10 0 80
75 -10 126 186 10 15 0
76 -13 59 119 10 88 0
77 31 60 120 10 0 57
78 -20 120 180 10 26 0
79 -10 75 135 10 48 0
80 -5 74 134 10 74 0
81 13 162 222 0 0 106
82 -9 71 131 10 62 0
83 9 27 87 10 0 53
84 14 20 80 10 0 22
85 -2 81 141 10 86 0
86 2 72 132 10 0 85
87 28 72 132 10 0 21
88 13 75 135 10 0 76
89 -9 52 112 10 99 0
90 -10 117 177 10 34 0
91 6 71 131 10 0 95
92 -10 152 212 10 25 0
93 14 14 74 10 0 97
94 -10 148 208 10 31 0
95 -6 80 140 10 91 0
96 6 20 80 10 0 63
97 -14 117 177 10 93 0
98 -19 105 165 10 60 0
99 9 31 91 10 0 89
100 15 62 122 10 0 50
101 -20 150 210 10 7 0
102 -30 100 160 10 27 0
103 -19 68 128 10 52 0
104 -20 49 109 10 13 0
105 -20 130 190 10 2 0
106 -13 162 222 10 81 0
107 -16 125 185 10 56 0
DEPOT_SECTION
1
-1
EOF
