NAME: lrc101
TYPE: PDPTW
COMMENT: Li & Lim PDPTW benchmark converted from SINTEF format
DIMENSION: 107
VEHICLES: 25
CAPACITY: 200
EDGE_WEIGHT_TYPE: EUC_2D
NODE_COORD_SECTION
1 40 50
2 25 85
3 22 75
4 22 85
5 20 80
6 20 85
7 18 75
8 15 75
9 15 80
10 10 35
11 10 40
12 8 40
13 8 45
14 5 35
15 5 45
16 2 40
17 0 40
18 0 45
19 44 5
20 42 10
21 42 15
22 40 5
23 40 15
24 38 5
25 38 15
26 35 5
27 95 30
28 95 35
29 92 30
30 90 35
31 88 30
32 88 35
33 87 30
34 85 25
35 85 35
36 67 85
37 65 85
38 65 82
39 62 80
40 60 80
41 60 85
42 58 75
43 55 80
44 55 85
45 55 82
46 20 82
47 18 80
48 2 45
49 42 5
50 42 12
51 72 35
52 55 20
53 25 30
54 20 50
55 55 60
56 30 60
57 50 35
58 30 25
59 15 10
60 10 20
61 15 60
62 45 65
63 65 35
64 65 20
65 45 30
66 35 40
67 41 37
68 64 42
69 40 60
70 31 52
71 35 69
72 65 55
73 63 65
74 2 60
75 20 20
76 5 5
77 60 12
78 23 3
79 8 56
80 6 68
81 47 47
82 49 58
83 27 43
84 37 31
85 57 29
86 63 23
87 21 24
88 12 24
89 24 58
90 67 5
91 37 47
92 49 42
93 53 43
94 61 52
95 57 48
96 56 37
97 55 54
98 4 18
99 26 52
100 26 35
101 31 67
102 35 5
103 63 23
104 45 30
105 60 12
106 25 85
107 2 60
PICKUP_AND_DELIVERY_SECTION
1 0 0 240 0 0 0
2 20 145 175 0 0 106
3 -10 50 80 10 46 0
4 -10 109 139 10 9 0
5 -20 141 171 10 6 0
6 20 41 71 10 0 5
7 -20 95 125 10 8 0
8 20 79 109 10 0 7
9 10 91 121 10 0 4
10 20 91 121 10 0 14
11 30 119 149 10 0 18
12 40 59 89 10 0 16
13 20 64 94 10 0 47
14 -20 142 172 10 10 0
15 10 35 65 10 0 48
16 -40 58 88 10 12 0
17 -9 72 102 10 83 0
18 -30 149 179 10 11 0
19 -40 87 117 10 20 0
20 40 72 102 10 0 19
21 -10 122 152 10 50 0
22 -30 67 97 10 24 0
23 40 92 122 10 0 25
24 30 65 95 10 0 22
25 -40 148 178 10 23 0
26 20 154 184 0 0 102
27 -10 115 145 10 29 0
28 20 62 92 10 0 92
29 10 62 92 10 0 27
30 10 67 97 10 0 94
31 10 74 104 10 0 33
32 20 61 91 10 0 90
33 -10 131 161 10 31 0
34 10 51 81 10 0 35
35 -10 111 141 10 34 0
36 -30 139 169 10 41 0
37 -8 43 73 10 73 0
38 -20 124 154 10 42 0
39 30 75 105 10 0 44
40 10 37 67 10 0 55
41 30 85 115 10 0 36
42 20 92 122 10 0 38
43 10 33 63 10 0 45
44 -30 128 158 10 39 0
45 -10 64 94 10 43 0
46 10 37 67 10 0 3
47 -20 113 143 10 13 0
48 -10 45 75 10 15 0
49 -14 151 181 10 84 0
50 10 104 134 10 0 21
51 30 116 146 10 0 81
52 -6 83 113 10 64 0
53 3 52 82 10 0 58
54 5 91 121 10 0 101
55 -10 139 169 10 40 0
56 -30 140 170 10 80 0
57 -6 130 160 10 91 0
58 -3 96 126 10 53 0
59 -16 152 182 10 76 0
60 19 42 72 10 0 98
61 17 155 185 10 0 71
62 9 66 96 10 0 69
63 3 52 82 10 0 95
64 6 39 69 10 0 52
65 17 53 83 0 0 104
66 16 11 41 10 0 75
67 -18 133 163 10 85 0
68 9 70 100 10 0 72
69 -9 144 174 10 62 0
70 27 41 71 10 0 79
71 -17 180 210 10 61 0
72 -9 65 95 10 68 0
73 8 30 60 10 0 37
74 5 77 107 0 0 107
75 -16 141 171 10 66 0
76 16 74 104 10 0 59
77 31 75 105 0 0 105
78 -13 150 180 10 88 0
79 -27 90 120 10 70 0
80 30 89 119 10 0 56
81 -30 192 222 10 51 0
82 10 86 116 10 0 97
83 9 42 72 10 0 17
84 14 35 65 10 0 49
85 18 96 126 10 0 67
86 2 87 117 0 0 103
87 -15 87 117 10 100 0
88 13 90 120 10 0 78
89 -9 67 97 10 99 0
90 -20 144 174 10 32 0
91 6 86 116 10 0 57
92 -20 167 197 10 28 0
93 14 14 44 10 0 96
94 -10 178 208 10 30 0
95 -3 95 125 10 63 0
96 -14 34 64 10 93 0
97 -10 132 162 10 82 0
98 -19 120 150 10 60 0
99 9 46 76 10 0 89
100 15 77 107 10 0 87
101 -5 180 210 10 54 0
102 -20 154 184 10 26 0
103 -2 87 117 10 86 0
104 -17 53 83 10 65 0
105 -31 75 105 10 77 0
106 -20 145 175 10 2 0
107 -5 77 107 10 74 0
DEPOT_SECTION
1
-1
EOF
