NAME: lrc102
TYPE: PDPTW
COMMENT: Li & Lim PDPTW benchmark converted from SINTEF format
DIMENSION: 107
VEHICLES: 25
CAPACITY: 200
EDGE_WEIGHT_TYPE: EUC_2D
NODE_COORD_SECTION
1 40 50
2 25 85
3 22 75
4 22 85
5 20 80
6 20 85
7 18 75
8 15 75
9 15 80
10 10 35
11 10 40
12 8 40
13 8 45
14 5 35
15 5 45
16 2 40
17 0 40
18 0 45
19 44 5
20 42 10
21 42 15
22 40 5
23 40 15
24 38 5
25 38 15
26 35 5
27 95 30
28 95 35
29 92 30
30 90 35
31 88 30
32 88 35
33 87 30
34 85 25
35 85 35
36 67 85
37 65 85
38 65 82
39 62 80
40 60 80
41 60 85
42 58 75
43 55 80
44 55 85
45 55 82
46 20 82
47 18 80
48 2 45
49 42 5
50 42 12
51 72 35
52 55 20
53 25 30
54 20 50
55 55 60
56 30 60
57 50 35
58 30 25
59 15 10
60 10 20
61 15 60
62 45 65
63 65 35
64 65 20
65 45 30
66 35 40
67 41 37
68 64 42
69 40 60
70 31 52
71 35 69
72 65 55
73 63 65
74 2 60
75 20 20
76 5 5
77 60 12
78 23 3
79 8 56
80 6 68
81 47 47
82 49 58
83 27 43
84 37 31
85 57 29
86 63 23
87 21 24
88 12 24
89 24 58
90 67 5
91 37 47
92 49 42
93 53 43
94 61 52
95 57 48
96 56 37
97 55 54
98 4 18
99 26 52
100 26 35
101 31 67
102 15 80
103 5 5
104 87 30
105 63 65
106 23 3
107 55 54
PICKUP_AND_DELIVERY_SECTION
1 0 0 240 0 0 0
2 -10 0 191 10 46 0
3 30 0 199 10 0 4
4 -30 0 190 10 3 0
5 -10 141 171 10 47 0
6 20 0 189 10 0 61
7 20 95 125 10 0 99
8 -30 0 194 10 80 0
9 10 91 121 0 0 102
10 -20 91 121 10 17 0
11 -27 119 149 10 79 0
12 40 59 89 10 0 74
13 -10 0 197 10 14 0
14 10 142 172 10 0 13
15 10 35 65 10 0 16
16 -10 58 88 10 15 0
17 20 72 102 10 0 10
18 -19 149 179 10 89 0
19 -14 87 117 10 84 0
20 40 72 102 10 0 24
21 -40 122 152 10 23 0
22 10 0 185 10 0 26
23 40 92 122 10 0 21
24 -40 65 95 10 20 0
25 -10 148 178 10 50 0
26 -10 154 184 10 22 0
27 30 0 171 10 0 51
28 -10 62 92 10 34 0
29 10 62 92 10 0 32
30 10 67 97 10 0 90
31 -3 74 104 10 63 0
32 -10 0 179 10 29 0
33 10 131 161 0 0 104
34 10 51 81 10 0 28
35 30 0 182 10 0 94
36 -30 139 169 10 41 0
37 40 43 73 10 0 45
38 -30 0 189 10 39 0
39 30 75 105 10 0 38
40 10 37 67 10 0 85
41 30 85 115 10 0 36
42 20 92 122 10 0 44
43 10 33 63 10 0 69
44 -20 128 158 10 42 0
45 -40 64 94 10 37 0
46 10 37 67 10 0 2
47 10 113 143 10 0 5
48 10 45 75 10 0 98
49 -16 0 184 10 66 0
50 10 104 134 10 0 25
51 -30 0 194 10 27 0
52 -31 83 113 10 77 0
53 -19 0 205 10 60 0
54 -27 91 121 10 70 0
55 -10 139 169 10 82 0
56 -9 140 170 10 83 0
57 19 130 160 10 0 67
58 -13 96 126 10 92 0
59 -13 152 182 10 88 0
60 19 0 187 10 0 53
61 -20 155 185 10 6 0
62 9 66 96 10 0 91
63 3 52 82 10 0 31
64 -2 39 69 10 86 0
65 17 53 83 10 0 87
66 16 11 41 10 0 49
67 -19 133 163 10 57 0
68 -14 70 100 10 72 0
69 -10 144 174 10 43 0
70 27 41 71 10 0 54
71 -3 180 210 10 101 0
72 14 65 95 10 0 68
73 8 0 202 0 0 105
74 -40 77 107 10 12 0
75 -15 141 171 10 100 0
76 16 0 172 0 0 103
77 31 75 105 10 0 52
78 7 150 180 0 0 106
79 27 90 120 10 0 11
80 30 89 119 10 0 8
81 -23 192 222 10 95 0
82 10 86 116 10 0 55
83 9 0 215 10 0 56
84 14 0 210 10 0 19
85 -10 96 126 10 40 0
86 2 0 194 10 0 64
87 -17 87 117 10 65 0
88 13 90 120 10 0 59
89 19 67 97 10 0 18
90 -10 144 174 10 30 0
91 -9 86 116 10 62 0
92 13 0 217 10 0 58
93 14 14 44 10 0 96
94 -30 178 208 10 35 0
95 23 0 212 10 0 81
96 -14 0 209 10 93 0
97 26 0 214 0 0 107
98 -10 120 150 10 48 0
99 -20 0 215 10 7 0
100 15 77 107 10 0 75
101 3 180 210 10 0 71
102 -10 91 121 10 9 0
103 -16 0 172 10 76 0
104 -10 131 161 10 33 0
105 -8 0 202 10 73 0
106 -7 150 180 10 78 0
107 -26 0 214 10 97 0
DEPOT_SECTION
1
-1
EOF
