NAME: lrc204
TYPE: PDPTW
COMMENT: Li & Lim PDPTW benchmark converted from SINTEF format
DIMENSION: 103
VEHICLES: 25
CAPACITY: 1000
EDGE_WEIGHT_TYPE: EUC_2D
NODE_COORD_SECTION
1 40 50
2 25 85
3 22 75
4 22 85
5 20 80
6 20 85
7 18 75
8 15 75
9 15 80
10 10 35
11 10 40
12 8 40
13 8 45
14 5 35
15 5 45
16 2 40
17 0 40
18 0 45
19 44 5
20 42 10
21 42 15
22 40 5
23 40 15
24 38 5
25 38 15
26 35 5
27 95 30
28 95 35
29 92 30
30 90 35
31 88 30
32 88 35
33 87 30
34 85 25
35 85 35
36 67 85
37 65 85
38 65 82
39 62 80
40 60 80
41 60 85
42 58 75
43 55 80
44 55 85
45 55 82
46 20 82
47 18 80
48 2 45
49 42 5
50 42 12
51 72 35
52 55 20
53 25 30
54 20 50
55 55 60
56 30 60
57 50 35
58 30 25
59 15 10
60 10 20
61 15 60
62 45 65
63 65 35
64 65 20
65 45 30
66 35 40
67 41 37
68 64 42
69 40 60
70 31 52
71 35 69
72 65 55
73 63 65
74 2 60
75 20 20
76 5 5
77 60 12
78 23 3
79 8 56
80 6 68
81 47 47
82 49 58
83 27 43
84 37 31
85 57 29
86 63 23
87 21 24
88 12 24
89 24 58
90 67 5
91 37 47
92 49 42
93 53 43
94 61 52
95 57 48
96 56 37
97 55 54
98 4 18
99 26 52
100 26 35
101 31 67
102 25 85
103 37 31
PICKUP_AND_DELIVERY_SECTION
1 0 0 960 0 0 0
2 20 0 911 0 0 102
3 -20 0 919 10 8 0
4 10 0 910 10 0 6
5 -27 644 764 10 79 0
6 -10 0 909 10 4 0
7 -17 0 916 10 61 0
8 20 0 914 10 0 3
9 -20 367 487 10 44 0
10 -3 371 491 10 53 0
11 -20 0 918 10 18 0
12 -9 195 315 10 99 0
13 20 0 917 10 0 16
14 -9 653 773 10 83 0
15 -27 0 914 10 70 0
16 -20 174 294 10 13 0
17 20 0 908 10 0 60
18 20 0 909 10 0 11
19 20 0 904 10 0 72
20 40 0 909 10 0 49
21 -19 0 914 10 57 0
22 -14 0 905 10 93 0
23 40 0 915 10 0 86
24 30 201 321 10 0 31
25 -5 0 914 10 54 0
26 -13 784 904 10 88 0
27 30 0 891 10 0 97
28 -18 0 892 10 85 0
29 10 0 894 10 0 32
30 10 0 897 10 0 95
31 -30 0 898 10 24 0
32 -10 0 899 10 29 0
33 -6 0 898 10 96 0
34 10 0 898 10 0 94
35 -25 0 902 10 90 0
36 20 0 905 10 0 46
37 -20 0 906 10 42 0
38 10 0 909 10 0 45
39 30 278 398 10 0 43
40 -8 0 913 10 73 0
41 -16 0 909 10 55 0
42 20 0 919 10 0 37
43 -30 0 916 10 39 0
44 20 0 911 10 0 9
45 -10 217 337 10 38 0
46 -20 0 912 10 36 0
47 10 0 912 10 0 101
48 10 0 911 10 0 59
49 -40 0 904 10 20 0
50 -13 0 911 10 81 0
51 -9 0 914 10 68 0
52 -3 0 916 10 63 0
53 3 0 925 10 0 10
54 5 375 495 10 0 25
55 16 0 931 10 0 41
56 -19 599 719 10 89 0
57 19 0 931 10 0 21
58 23 0 923 10 0 91
59 -10 782 902 10 48 0
60 -20 0 907 10 17 0
61 17 0 923 10 0 7
62 -5 0 934 10 74 0
63 3 167 287 10 0 52
64 -17 0 910 10 65 0
65 17 0 929 10 0 64
66 -35 0 938 10 98 0
67 -8 0 936 10 75 0
68 9 268 388 10 0 51
69 -23 0 940 10 71 0
70 27 157 277 10 0 15
71 23 0 930 10 0 69
72 -20 0 924 10 19 0
73 8 0 922 10 0 40
74 5 0 910 10 0 62
75 8 645 765 10 0 67
76 -15 0 892 10 100 0
77 -13 268 388 10 92 0
78 -28 764 884 10 87 0
79 27 0 917 10 0 5
80 -10 352 472 10 82 0
81 13 0 942 10 0 50
82 10 0 937 10 0 80
83 9 0 935 10 0 14
84 14 0 930 0 0 103
85 18 395 515 10 0 28
86 -40 0 914 10 23 0
87 28 0 917 10 0 78
88 13 359 479 10 0 26
89 19 0 932 10 0 56
90 25 0 897 10 0 35
91 -23 0 945 10 58 0
92 13 0 937 10 0 77
93 14 14 134 10 0 22
94 -10 0 928 10 34 0
95 -10 0 932 10 30 0
96 6 0 929 10 0 33
97 -30 0 934 10 27 0
98 35 0 901 10 0 66
99 9 0 935 10 0 12
100 15 308 428 10 0 76
101 -10 810 930 10 47 0
102 -20 0 911 10 2 0
103 -14 0 930 10 84 0
DEPOT_SECTION
1
-1
EOF
