NAME: lrc202
TYPE: PDPTW
COMMENT: Li & Lim PDPTW benchmark converted from SINTEF format
DIMENSION: 103
VEHICLES: 25
CAPACITY: 1000
EDGE_WEIGHT_TYPE: EUC_2D
NODE_COORD_SECTION
1 40 50
2 25 85
3 22 75
4 22 85
5 20 80
6 20 85
7 18 75
8 15 75
9 15 80
10 10 35
11 10 40
12 8 40
13 8 45
14 5 35
15 5 45
16 2 40
17 0 40
18 0 45
19 44 5
20 42 10
21 42 15
22 40 5
23 40 15
24 38 5
25 38 15
26 35 5
27 95 30
28 95 35
29 92 30
30 90 35
31 88 30
32 88 35
33 87 30
34 85 25
35 85 35
36 67 85
37 65 85
38 65 82
39 62 80
40 60 80
41 60 85
42 58 75
43 55 80
44 55 85
45 55 82
46 20 82
47 18 80
48 2 45
49 42 5
50 42 12
51 72 35
52 55 20
53 25 30
54 20 50
55 55 60
56 30 60
57 50 35
58 30 25
59 15 10
60 10 20
61 15 60
62 45 65
63 65 35
64 65 20
65 45 30
66 35 40
67 41 37
68 64 42
69 40 60
70 31 52
71 35 69
72 65 55
73 63 65
74 2 60
75 20 20
76 5 5
77 60 12
78 23 3
79 8 56
80 6 68
81 47 47
82 49 58
83 27 43
84 37 31
85 57 29
86 63 23
87 21 24
88 12 24
89 24 58
90 67 5
91 37 47
92 49 42
93 53 43
94 61 52
95 57 48
96 56 37
97 55 54
98 4 18
99 26 52
100 26 35
101 31 67
102 40 60
103 15 10
PICKUP_AND_DELIVERY_SECTION
1 0 0 960 0 0 0
2 -20 0 911 10 6 0
3 -10 0 919 10 9 0
4 10 0 910 10 0 45
5 40 644 764 10 0 71
6 20 0 909 10 0 2
7 20 388 508 10 0 44
8 -10 0 914 10 14 0
9 10 367 487 10 0 3
10 -28 371 491 10 87 0
11 30 519 639 10 0 98
12 -10 195 315 10 48 0
13 20 0 917 10 0 49
14 10 653 773 10 0 8
15 10 35 155 10 0 61
16 20 174 294 10 0 101
17 -5 255 375 10 74 0
18 -13 703 823 10 88 0
19 20 335 455 10 0 52
20 40 254 374 10 0 60
21 -8 537 657 10 73 0
22 -10 0 905 10 33 0
23 -16 375 495 10 66 0
24 -27 201 321 10 70 0
25 -20 681 801 10 42 0
26 -9 784 904 10 68 0
27 -10 0 891 10 29 0
28 20 146 266 10 0 92
29 10 149 269 10 0 27
30 -10 194 314 10 34 0
31 10 246 366 10 0 84
32 20 0 899 10 0 35
33 10 621 741 10 0 22
34 10 80 200 10 0 30
35 -20 0 902 10 32 0
36 -10 657 777 10 47 0
37 40 43 163 10 0 100
38 -10 0 909 10 43 0
39 -6 278 398 10 96 0
40 10 64 184 10 0 62
41 30 329 449 10 0 50
42 20 376 496 10 0 25
43 10 33 153 10 0 38
44 -20 574 694 10 7 0
45 -10 217 337 10 4 0
46 -9 37 157 10 99 0
47 10 489 609 10 0 36
48 10 105 225 10 0 12
49 -20 0 904 10 13 0
50 -30 440 560 10 41 0
51 -10 0 914 10 82 0
52 -20 326 446 10 19 0
53 -31 0 925 10 77 0
54 5 375 495 10 0 95
55 -16 601 721 10 56 0
56 16 599 719 10 0 55
57 -6 557 677 10 91 0
58 -17 397 517 10 65 0
59 20 782 902 0 0 103
60 -40 0 907 10 20 0
61 -10 694 814 10 15 0
62 -10 258 378 10 40 0
63 3 167 287 10 0 78
64 -14 39 159 10 93 0
65 17 191 311 10 0 58
66 16 11 131 10 0 23
67 -18 566 686 10 85 0
68 9 268 388 10 0 26
69 21 612 732 0 0 102
70 27 157 277 10 0 24
71 -40 810 930 10 5 0
72 -2 241 361 10 86 0
73 8 0 922 10 0 21
74 5 286 406 10 0 17
75 -9 645 765 10 83 0
76 -25 0 892 10 90 0
77 31 268 388 10 0 53
78 -3 764 884 10 63 0
79 27 365 485 10 0 97
80 -19 352 472 10 89 0
81 -3 822 942 10 94 0
82 10 355 475 10 0 51
83 9 0 935 10 0 75
84 -10 0 930 10 31 0
85 18 395 515 10 0 67
86 2 0 914 10 0 72
87 28 349 469 10 0 10
88 13 359 479 10 0 18
89 19 260 380 10 0 80
90 25 713 833 10 0 76
91 6 359 479 10 0 57
92 -20 0 937 10 28 0
93 14 14 134 10 0 64
94 3 808 928 10 0 81
95 -5 0 932 10 54 0
96 6 0 929 10 0 39
97 -27 0 934 10 79 0
98 -30 547 667 10 11 0
99 9 0 935 10 0 46
100 -40 308 428 10 37 0
101 -20 810 930 10 16 0
102 -21 612 732 10 69 0
103 -20 782 902 10 59 0
DEPOT_SECTION
1
-1
EOF
