NAME: lrc207
TYPE: PDPTW
COMMENT: Li & Lim PDPTW benchmark converted from SINTEF format
DIMENSION: 103
VEHICLES: 25
CAPACITY: 1000
EDGE_WEIGHT_TYPE: EUC_2D
NODE_COORD_SECTION
1 40 50
2 25 85
3 22 75
4 22 85
5 20 80
6 20 85
7 18 75
8 15 75
9 15 80
10 10 35
11 10 40
12 8 40
13 8 45
14 5 35
15 5 45
16 2 40
17 0 40
18 0 45
19 44 5
20 42 10
21 42 15
22 40 5
23 40 15
24 38 5
25 38 15
26 35 5
27 95 30
28 95 35
29 92 30
30 90 35
31 88 30
32 88 35
33 87 30
34 85 25
35 85 35
36 67 85
37 65 85
38 65 82
39 62 80
40 60 80
41 60 85
42 58 75
43 55 80
44 55 85
45 55 82
46 20 82
47 18 80
48 2 45
49 42 5
50 42 12
51 72 35
52 55 20
53 25 30
54 20 50
55 55 60
56 30 60
57 50 35
58 30 25
59 15 10
60 10 20
61 15 60
62 45 65
63 65 35
64 65 20
65 45 30
66 35 40
67 41 37
68 64 42
69 40 60
70 31 52
71 35 69
72 65 55
73 63 65
74 2 60
75 20 20
76 5 5
77 60 12
78 23 3
79 8 56
80 6 68
81 47 47
82 49 58
83 27 43
84 37 31
85 57 29
86 63 23
87 21 24
88 12 24
89 24 58
90 67 5
91 37 47
92 49 42
93 53 43
94 61 52
95 57 48
96 56 37
97 55 54
98 4 18
99 26 52
100 26 35
101 31 67
102 65 82
103 35 5
PICKUP_AND_DELIVERY_SECTION
1 0 0 960 0 0 0
2 -10 591 874 10 31 0
3 30 73 350 10 0 6
4 -30 473 588 10 41 0
5 -6 418 913 10 64 0
6 -30 40 390 10 3 0
7 20 249 646 10 0 8
8 -20 281 438 10 7 0
9 -9 272 581 10 62 0
10 20 236 625 10 0 75
11 -10 470 687 10 14 0
12 -10 33 510 10 46 0
13 20 166 399 10 0 58
14 10 359 911 10 0 11
15 10 35 457 10 0 69
16 -10 39 538 10 48 0
17 20 214 415 10 0 88
18 -27 359 909 10 70 0
19 20 338 451 10 0 95
20 40 205 422 10 0 52
21 10 511 682 10 0 61
22 10 158 391 10 0 85
23 40 263 606 10 0 98
24 -3 45 522 10 53 0
25 -30 598 883 10 27 0
26 20 348 904 0 0 103
27 30 509 668 10 0 25
28 -2 57 664 10 86 0
29 10 68 349 10 0 91
30 10 131 376 10 0 36
31 10 114 497 10 0 2
32 20 102 347 10 0 82
33 -3 564 797 10 94 0
34 10 51 673 10 0 55
35 -9 462 631 10 83 0
36 -10 396 905 10 30 0
37 -10 43 712 10 47 0
38 10 530 703 0 0 102
39 30 131 544 10 0 80
40 10 36 800 10 0 44
41 30 233 544 10 0 4
42 20 207 664 10 0 79
43 -16 33 624 10 66 0
44 -10 549 718 10 40 0
45 -9 62 491 10 68 0
46 10 37 677 10 0 12
47 10 435 662 10 0 37
48 10 38 366 10 0 16
49 10 636 904 10 0 67
50 10 423 576 10 0 59
51 -3 471 662 10 63 0
52 -40 281 490 10 20 0
53 3 109 360 10 0 24
54 -8 284 585 10 73 0
55 -10 568 753 10 34 0
56 -28 421 896 10 87 0
57 -16 404 829 10 76 0
58 -20 347 566 10 13 0
59 -10 380 902 10 50 0
60 -15 42 466 10 100 0
61 -10 613 894 10 21 0
62 9 230 405 10 0 9
63 3 29 587 10 0 51
64 6 39 353 10 0 5
65 17 20 497 10 0 96
66 16 11 570 10 0 43
67 -10 423 828 10 49 0
68 9 112 543 10 0 45
69 -10 441 902 10 15 0
70 27 9 532 10 0 18
71 -3 211 930 10 101 0
72 -14 201 400 10 84 0
73 8 27 382 10 0 54
74 -19 255 436 10 89 0
75 -20 427 913 10 10 0
76 16 183 400 10 0 57
77 31 162 493 10 0 93
78 -9 360 900 10 99 0
79 -20 195 654 10 42 0
80 -30 258 565 10 39 0
81 -13 426 942 10 92 0
82 -20 369 460 10 32 0
83 9 85 338 10 0 35
84 14 19 326 10 0 72
85 -10 304 605 10 22 0
86 2 318 489 10 0 28
87 28 332 485 10 0 56
88 -20 365 472 10 17 0
89 19 100 539 10 0 74
90 -26 565 897 10 97 0
91 -10 324 513 10 29 0
92 13 651 906 10 0 81
93 -31 14 669 10 77 0
94 3 298 928 10 0 33
95 -20 385 518 10 19 0
96 -17 20 299 10 65 0
97 26 538 705 10 0 90
98 -40 546 667 10 23 0
99 9 109 354 10 0 78
100 15 170 565 10 0 60
101 3 262 930 10 0 71
102 -10 530 703 10 38 0
103 -20 348 904 10 26 0
DEPOT_SECTION
1
-1
EOF
