NAME: lrc205
TYPE: PDPTW
COMMENT: Li & Lim PDPTW benchmark converted from SINTEF format
DIMENSION: 103
VEHICLES: 25
CAPACITY: 1000
EDGE_WEIGHT_TYPE: EUC_2D
NODE_COORD_SECTION
1 40 50
2 25 85
3 22 75
4 22 85
5 20 80
6 20 85
7 18 75
8 15 75
9 15 80
10 10 35
11 10 40
12 8 40
13 8 45
14 5 35
15 5 45
16 2 40
17 0 40
18 0 45
19 44 5
20 42 10
21 42 15
22 40 5
23 40 15
24 38 5
25 38 15
26 35 5
27 95 30
28 95 35
29 92 30
30 90 35
31 88 30
32 88 35
33 87 30
34 85 25
35 85 35
36 67 85
37 65 85
38 65 82
39 62 80
40 60 80
41 60 85
42 58 75
43 55 80
44 55 85
45 55 82
46 20 82
47 18 80
48 2 45
49 42 5
50 42 12
51 72 35
52 55 20
53 25 30
54 20 50
55 55 60
56 30 60
57 50 35
58 30 25
59 15 10
60 10 20
61 15 60
62 45 65
63 65 35
64 65 20
65 45 30
66 35 40
67 41 37
68 64 42
69 40 60
70 31 52
71 35 69
72 65 55
73 63 65
74 2 60
75 20 20
76 5 5
77 60 12
78 23 3
79 8 56
80 6 68
81 47 47
82 49 58
83 27 43
84 37 31
85 57 29
86 63 23
87 21 24
88 12 24
89 24 58
90 67 5
91 37 47
92 49 42
93 53 43
94 61 52
95 57 48
96 56 37
97 55 54
98 4 18
99 26 52
100 26 35
101 31 67
102 31 67
103 4 18
PICKUP_AND_DELIVERY_SECTION
1 0 0 960 0 0 0
2 -10 431 911 10 9 0
3 30 30 510 10 0 40
4 -5 291 771 10 74 0
5 -27 674 734 10 79 0
6 20 40 520 10 0 43
7 20 393 502 10 0 71
8 -30 120 600 10 80 0
9 10 397 457 10 0 2
10 20 401 461 10 0 81
11 -16 535 622 10 76 0
12 40 225 285 10 0 17
13 -27 43 523 10 70 0
14 -10 683 743 10 50 0
15 -9 35 366 10 99 0
16 20 204 264 10 0 48
17 -40 204 425 10 12 0
18 -20 698 827 10 28 0
19 -10 306 483 10 22 0
20 40 199 428 10 0 53
21 10 494 699 10 0 61
22 10 45 525 10 0 19
23 -10 383 486 10 31 0
24 -17 231 291 10 65 0
25 -9 609 872 10 68 0
26 -30 821 881 10 51 0
27 30 349 829 10 0 49
28 20 138 273 10 0 18
29 10 78 339 10 0 75
30 10 132 375 10 0 77
31 10 252 359 10 0 23
32 20 50 530 10 0 52
33 10 562 799 10 0 78
34 10 71 208 10 0 85
35 -8 307 787 10 73 0
36 -19 655 778 10 60 0
37 40 43 186 10 0 83
38 10 377 857 10 0 97
39 -10 308 368 10 45 0
40 -30 46 201 10 3 0
41 -23 339 438 10 95 0
42 20 377 494 10 0 57
43 -20 33 166 10 6 0
44 20 531 736 10 0 92
45 10 247 307 10 0 39
46 10 37 177 10 0 72
47 -19 432 665 10 89 0
48 -20 38 322 10 16 0
49 -30 424 904 10 27 0
50 10 460 539 10 0 14
51 30 327 807 10 0 26
52 -20 273 498 10 32 0
53 -40 25 505 10 20 0
54 5 405 465 10 0 59
55 -15 554 767 10 100 0
56 16 629 689 10 0 94
57 -20 560 673 10 42 0
58 -16 342 571 10 66 0
59 -5 842 902 10 54 0
60 19 42 522 10 0 36
61 -10 623 884 10 21 0
62 9 214 421 10 0 91
63 3 197 257 10 0 90
64 6 39 316 10 0 86
65 17 191 310 10 0 24
66 16 11 140 10 0 58
67 -10 570 681 10 82 0
68 9 298 358 10 0 25
69 -13 613 730 10 88 0
70 27 187 247 10 0 13
71 -20 780 930 10 7 0
72 -10 191 410 10 46 0
73 8 27 507 10 0 35
74 5 240 451 10 0 4
75 -10 675 735 10 29 0
76 16 57 537 10 0 11
77 -10 298 358 10 30 0
78 -10 794 854 10 33 0
79 27 366 483 10 0 5
80 30 382 442 10 0 8
81 -20 817 942 10 10 0
82 10 332 497 10 0 67
83 -40 14 494 10 37 0
84 14 19 499 10 0 87
85 -10 425 485 10 34 0
86 -6 164 644 10 64 0
87 -14 310 507 10 84 0
88 13 389 449 10 0 69
89 19 262 377 10 0 47
90 -3 611 897 10 63 0
91 -9 311 526 10 62 0
92 -20 457 937 10 44 0
93 14 14 74 10 0 96
94 -16 789 928 10 56 0
95 23 212 692 10 0 41
96 -14 20 500 10 93 0
97 -10 382 862 10 38 0
98 35 516 697 0 0 103
99 9 14 494 10 0 15
100 15 338 398 10 0 55
101 3 870 930 0 0 102
102 -3 870 930 10 101 0
103 -35 516 697 10 98 0
DEPOT_SECTION
1
-1
EOF
