NAME: lrc203
TYPE: PDPTW
COMMENT: Li & Lim PDPTW benchmark converted from SINTEF format
DIMENSION: 103
VEHICLES: 25
CAPACITY: 1000
EDGE_WEIGHT_TYPE: EUC_2D
NODE_COORD_SECTION
1 40 50
2 25 85
3 22 75
4 22 85
5 20 80
6 20 85
7 18 75
8 15 75
9 15 80
10 10 35
11 10 40
12 8 40
13 8 45
14 5 35
15 5 45
16 2 40
17 0 40
18 0 45
19 44 5
20 42 10
21 42 15
22 40 5
23 40 15
24 38 5
25 38 15
26 35 5
27 95 30
28 95 35
29 92 30
30 90 35
31 88 30
32 88 35
33 87 30
34 85 25
35 85 35
36 67 85
37 65 85
38 65 82
39 62 80
40 60 80
41 60 85
42 58 75
43 55 80
44 55 85
45 55 82
46 20 82
47 18 80
48 2 45
49 42 5
50 42 12
51 72 35
52 55 20
53 25 30
54 20 50
55 55 60
56 30 60
57 50 35
58 30 25
59 15 10
60 10 20
61 15 60
62 45 65
63 65 35
64 65 20
65 45 30
66 35 40
67 41 37
68 64 42
69 40 60
70 31 52
71 35 69
72 65 55
73 63 65
74 2 60
75 20 20
76 5 5
77 60 12
78 23 3
79 8 56
80 6 68
81 47 47
82 49 58
83 27 43
84 37 31
85 57 29
86 63 23
87 21 24
88 12 24
89 24 58
90 67 5
91 37 47
92 49 42
93 53 43
94 61 52
95 57 48
96 56 37
97 55 54
98 4 18
99 26 52
100 26 35
101 31 67
102 20 80
103 53 43
PICKUP_AND_DELIVERY_SECTION
1 0 0 960 0 0 0
2 20 0 911 10 0 36
3 -10 0 919 10 46 0
4 10 0 910 10 0 44
5 40 644 764 0 0 102
6 -10 0 909 10 45 0
7 -20 388 508 10 42 0
8 20 0 914 10 0 12
9 -30 367 487 10 39 0
10 -10 371 491 10 49 0
11 -23 519 639 10 58 0
12 -20 195 315 10 8 0
13 -20 0 917 10 19 0
14 -5 653 773 10 74 0
15 10 0 914 10 0 78
16 20 174 294 10 0 89
17 -3 0 908 10 53 0
18 -10 703 823 10 48 0
19 20 0 904 10 0 13
20 40 0 909 10 0 57
21 -10 0 914 10 31 0
22 -17 0 905 10 65 0
23 -10 375 495 10 30 0
24 30 201 321 10 0 88
25 10 0 914 10 0 84
26 -20 784 904 10 59 0
27 -30 0 891 10 51 0
28 20 146 266 10 0 83
29 -10 0 894 10 34 0
30 10 0 897 10 0 23
31 10 246 366 10 0 21
32 20 0 899 10 0 77
33 -16 0 898 10 66 0
34 10 80 200 10 0 29
35 -6 0 902 10 91 0
36 -20 657 777 10 2 0
37 -10 43 163 10 82 0
38 -10 0 909 10 47 0
39 30 278 398 10 0 9
40 10 64 184 10 0 41
41 -10 329 449 10 40 0
42 20 376 496 10 0 7
43 10 33 153 10 0 62
44 -10 0 911 10 4 0
45 10 217 337 10 0 6
46 10 37 157 10 0 3
47 10 0 912 10 0 38
48 10 0 911 10 0 18
49 10 0 904 10 0 10
50 10 440 560 10 0 101
51 30 0 914 10 0 27
52 -2 0 916 10 86 0
53 3 0 925 10 0 17
54 -27 375 495 10 70 0
55 16 0 931 10 0 61
56 16 599 719 10 0 71
57 -40 557 677 10 20 0
58 23 0 923 10 0 11
59 20 782 902 10 0 26
60 19 0 907 10 0 98
61 -16 0 923 10 55 0
62 -10 0 934 10 43 0
63 3 167 287 10 0 90
64 6 0 910 10 0 99
65 17 191 311 10 0 22
66 16 11 131 10 0 33
67 -18 566 686 10 85 0
68 9 268 388 10 0 69
69 -9 612 732 10 68 0
70 27 157 277 10 0 54
71 -16 810 930 10 56 0
72 14 0 924 10 0 97
73 8 0 922 10 0 95
74 5 0 910 10 0 14
75 -15 645 765 10 100 0
76 -30 0 892 10 80 0
77 -20 268 388 10 32 0
78 -10 764 884 10 15 0
79 -28 365 485 10 87 0
80 30 352 472 10 0 76
81 -3 822 942 10 94 0
82 10 0 937 10 0 37
83 -20 0 935 10 28 0
84 -10 0 930 10 25 0
85 18 395 515 10 0 67
86 2 0 914 10 0 52
87 28 0 917 10 0 79
88 -30 359 479 10 24 0
89 -20 260 380 10 16 0
90 -3 0 897 10 63 0
91 6 0 945 10 0 35
92 13 0 937 10 0 96
93 14 14 134 0 0 103
94 3 808 928 10 0 81
95 -8 0 932 10 73 0
96 -13 0 929 10 92 0
97 -14 0 934 10 72 0
98 -19 0 901 10 60 0
99 -6 0 935 10 64 0
100 15 308 428 10 0 75
101 -10 810 930 10 50 0
102 -40 644 764 10 5 0
103 -14 14 134 10 93 0
DEPOT_SECTION
1
-1
EOF
